# Hz S RI R 50
! RAW DATA - UNCALIBRATED
1.500000e+06 -2.041054e-02 1.398087e-03 9.923096e-01 -2.313232e-02 9.904175e-01 -3.564453e-02 -2.754402e-02 2.326965e-03
1.717812e+06 -2.094460e-02 8.411407e-04 9.909668e-01 -2.502441e-02 9.886475e-01 -3.472900e-02 -2.804756e-02 1.296997e-03
1.935625e+06 -2.150726e-02 4.615784e-04 9.920044e-01 -2.368164e-02 9.916382e-01 -3.540039e-02 -2.881622e-02 6.427765e-04
2.153438e+06 -2.208328e-02 2.899170e-04 9.924927e-01 -2.185059e-02 9.927368e-01 -3.155518e-02 -2.951431e-02 9.918213e-05
2.371250e+06 -2.262306e-02 2.365112e-04 9.926758e-01 -2.056885e-02 9.923706e-01 -3.082275e-02 -3.019714e-02 -1.640320e-04
2.589062e+06 -2.313042e-02 2.689362e-04 9.918213e-01 -1.934814e-02 9.936523e-01 -2.813721e-02 -3.077698e-02 -3.185272e-04
2.806875e+06 -2.362442e-02 3.509521e-04 9.929810e-01 -1.605225e-02 9.937744e-01 -2.758789e-02 -3.143501e-02 -4.119873e-04
3.024688e+06 -2.410507e-02 4.959106e-04 9.932861e-01 -1.513672e-02 9.951172e-01 -2.624512e-02 -3.203392e-02 -4.253387e-04
3.242500e+06 -2.453232e-02 6.713867e-04 9.934082e-01 -1.135254e-02 9.960327e-01 -2.233887e-02 -3.262711e-02 -4.310608e-04
3.460312e+06 -2.500725e-02 1.035690e-03 9.929810e-01 -1.141357e-02 9.968262e-01 -1.776123e-02 -3.347588e-02 -2.517700e-04
3.678125e+06 -2.540588e-02 1.407623e-03 9.940796e-01 -1.385498e-02 9.959717e-01 -1.977539e-02 -3.404999e-02 -7.247925e-05
3.895938e+06 -2.572441e-02 1.846313e-03 9.943848e-01 -1.501465e-02 9.957275e-01 -2.069092e-02 -3.436661e-02 1.544952e-04
4.113750e+06 -2.600861e-02 2.281189e-03 9.931030e-01 -1.599121e-02 9.947510e-01 -2.404785e-02 -3.472519e-02 2.822876e-04
4.331562e+06 -2.629662e-02 2.771378e-03 9.946289e-01 -1.879883e-02 9.934692e-01 -2.508545e-02 -3.548813e-02 6.351471e-04
4.549375e+06 -2.653313e-02 3.332138e-03 9.945068e-01 -1.959229e-02 9.943848e-01 -2.557373e-02 -3.590965e-02 1.092911e-03
4.767188e+06 -2.672195e-02 3.856659e-03 9.947510e-01 -1.959229e-02 9.934692e-01 -2.569580e-02 -3.637314e-02 1.373291e-03
4.985000e+06 -2.684593e-02 4.407883e-03 9.934692e-01 -2.093506e-02 9.931641e-01 -2.716064e-02 -3.668404e-02 1.874924e-03
5.202812e+06 -2.696419e-02 5.043030e-03 9.939575e-01 -2.221680e-02 9.925537e-01 -2.905273e-02 -3.726006e-02 2.338409e-03
5.420625e+06 -2.703476e-02 5.634308e-03 9.943237e-01 -2.246094e-02 9.910278e-01 -2.935791e-02 -3.765297e-02 2.687454e-03
5.638438e+06 -2.706528e-02 6.256104e-03 9.947510e-01 -2.264404e-02 9.912720e-01 -2.978516e-02 -3.814125e-02 3.360748e-03
5.856250e+06 -2.703667e-02 6.795883e-03 9.946289e-01 -2.410889e-02 9.904785e-01 -2.984619e-02 -3.857231e-02 3.967285e-03
6.074062e+06 -2.693367e-02 7.408142e-03 9.946289e-01 -2.502441e-02 9.895020e-01 -3.173828e-02 -3.883553e-02 4.602432e-03
6.291875e+06 -2.685547e-02 8.016586e-03 9.954224e-01 -2.642822e-02 9.902954e-01 -3.210449e-02 -3.926659e-02 5.241394e-03
6.509688e+06 -2.667618e-02 8.615494e-03 9.956665e-01 -2.667236e-02 9.895020e-01 -3.277588e-02 -3.966141e-02 5.889893e-03
6.727500e+06 -2.647591e-02 9.113312e-03 9.953003e-01 -2.722168e-02 9.882812e-01 -3.289795e-02 -3.994751e-02 6.649017e-03
6.945312e+06 -2.620316e-02 9.626389e-03 9.958496e-01 -2.789307e-02 9.885254e-01 -3.381348e-02 -4.011726e-02 7.213593e-03
7.163125e+06 -2.595901e-02 1.011086e-02 9.962158e-01 -2.832031e-02 9.880371e-01 -3.442383e-02 -4.031372e-02 8.035660e-03
7.380938e+06 -2.566528e-02 1.059151e-02 9.968872e-01 -2.923584e-02 9.879761e-01 -3.460693e-02 -4.053497e-02 8.901596e-03
7.598750e+06 -2.534485e-02 1.097488e-02 9.976196e-01 -3.009033e-02 9.876099e-01 -3.466797e-02 -4.073715e-02 9.750366e-03
7.816562e+06 -2.507591e-02 1.133728e-02 9.973145e-01 -3.100586e-02 9.866943e-01 -3.582764e-02 -4.066086e-02 1.066017e-02
8.034375e+06 -2.472687e-02 1.165009e-02 9.988403e-01 -3.179932e-02 9.865723e-01 -3.460693e-02 -4.081154e-02 1.136780e-02
8.252188e+06 -2.445030e-02 1.198196e-02 9.989624e-01 -3.289795e-02 9.872437e-01 -3.607178e-02 -4.083633e-02 1.225090e-02
8.470000e+06 -2.418137e-02 1.226616e-02 9.987183e-01 -3.277588e-02 9.862671e-01 -3.601074e-02 -4.075050e-02 1.308632e-02
8.687812e+06 -2.386284e-02 1.251793e-02 9.985962e-01 -3.466797e-02 9.871826e-01 -3.710938e-02 -4.050255e-02 1.387024e-02
8.905625e+06 -2.354050e-02 1.273537e-02 1.000305e+00 -3.637695e-02 9.866943e-01 -3.643799e-02 -4.046249e-02 1.477432e-02
9.123438e+06 -2.330399e-02 1.293945e-02 1.000610e+00 -3.723145e-02 9.863281e-01 -3.729248e-02 -4.021835e-02 1.550293e-02
9.341250e+06 -2.300644e-02 1.316261e-02 1.000122e+00 -3.857422e-02 9.864502e-01 -3.784180e-02 -4.000854e-02 1.634407e-02
9.559062e+06 -2.275276e-02 1.329231e-02 1.000488e+00 -3.881836e-02 9.858398e-01 -3.814697e-02 -3.977585e-02 1.722336e-02
9.776875e+06 -2.254105e-02 1.346779e-02 1.001160e+00 -4.003906e-02 9.867554e-01 -3.869629e-02 -3.946495e-02 1.783943e-02
9.994688e+06 -2.231789e-02 1.363182e-02 1.000977e+00 -4.144287e-02 9.870605e-01 -3.930664e-02 -3.920364e-02 1.858330e-02
1.021250e+07 -2.211571e-02 1.377487e-02 1.000732e+00 -4.272461e-02 9.864502e-01 -3.912354e-02 -3.867531e-02 1.947975e-02
1.043031e+07 -2.194214e-02 1.386452e-02 1.001160e+00 -4.357910e-02 9.869385e-01 -4.046631e-02 -3.837395e-02 2.006912e-02
1.064812e+07 -2.177620e-02 1.402855e-02 1.001343e+00 -4.443359e-02 9.867554e-01 -4.064941e-02 -3.789139e-02 2.070236e-02
1.086594e+07 -2.161598e-02 1.408386e-02 1.000183e+00 -4.534912e-02 9.868774e-01 -4.071045e-02 -3.746986e-02 2.128029e-02
1.108375e+07 -2.148819e-02 1.427841e-02 1.001282e+00 -4.589844e-02 9.866943e-01 -4.083252e-02 -3.699112e-02 2.181435e-02
1.130156e+07 -2.133560e-02 1.444626e-02 1.001221e+00 -4.779053e-02 9.868774e-01 -4.168701e-02 -3.637886e-02 2.239037e-02
1.151938e+07 -2.122879e-02 1.454163e-02 9.998779e-01 -4.748535e-02 9.871216e-01 -4.174805e-02 -3.601646e-02 2.284813e-02
1.173719e+07 -2.109337e-02 1.468658e-02 1.000244e+00 -4.931641e-02 9.871826e-01 -4.309082e-02 -3.555107e-02 2.343941e-02
1.195500e+07 -2.103424e-02 1.483536e-02 1.000977e+00 -4.992676e-02 9.871216e-01 -4.327393e-02 -3.491020e-02 2.384567e-02
1.217281e+07 -2.097321e-02 1.494408e-02 9.999390e-01 -5.187988e-02 9.871826e-01 -4.437256e-02 -3.447151e-02 2.435112e-02
1.239062e+07 -2.088356e-02 1.511765e-02 9.987793e-01 -5.230713e-02 9.877930e-01 -4.498291e-02 -3.389168e-02 2.460098e-02
1.260844e+07 -2.084541e-02 1.531601e-02 9.993896e-01 -5.261230e-02 9.879761e-01 -4.510498e-02 -3.337288e-02 2.503014e-02
1.282625e+07 -2.080345e-02 1.547432e-02 9.987793e-01 -5.334473e-02 9.873047e-01 -4.650879e-02 -3.287125e-02 2.515602e-02
1.304406e+07 -2.074814e-02 1.568222e-02 9.984131e-01 -5.419922e-02 9.882202e-01 -4.821777e-02 -3.225899e-02 2.540016e-02
1.326188e+07 -2.074051e-02 1.587868e-02 9.978027e-01 -5.548096e-02 9.877930e-01 -4.754639e-02 -3.188515e-02 2.583313e-02
1.347969e+07 -2.066231e-02 1.612282e-02 9.982910e-01 -5.438232e-02 9.882812e-01 -4.913330e-02 -3.138733e-02 2.593422e-02
1.369750e+07 -2.061081e-02 1.639557e-02 9.971313e-01 -5.566406e-02 9.871826e-01 -4.925537e-02 -3.101349e-02 2.609444e-02
1.391531e+07 -2.061081e-02 1.663017e-02 9.969482e-01 -5.657959e-02 9.882812e-01 -5.010986e-02 -3.051949e-02 2.634811e-02
1.413312e+07 -2.059555e-02 1.691055e-02 9.960327e-01 -5.645752e-02 9.879761e-01 -5.157471e-02 -3.012466e-02 2.652168e-02
1.435094e+07 -2.054214e-02 1.715279e-02 9.960938e-01 -5.700684e-02 9.888306e-01 -5.285645e-02 -2.959061e-02 2.669525e-02
1.456875e+07 -2.047348e-02 1.751518e-02 9.949951e-01 -5.792236e-02 9.888916e-01 -5.212402e-02 -2.912140e-02 2.680588e-02
1.478656e+07 -2.047920e-02 1.783943e-02 9.946289e-01 -5.780029e-02 9.893188e-01 -5.310059e-02 -2.887917e-02 2.691650e-02
1.500438e+07 -2.039337e-02 1.813889e-02 9.947510e-01 -5.804443e-02 9.891968e-01 -5.438232e-02 -2.839851e-02 2.707100e-02
1.522219e+07 -2.030754e-02 1.850510e-02 9.940186e-01 -5.780029e-02 9.888306e-01 -5.499268e-02 -2.807236e-02 2.716446e-02
1.544000e+07 -2.024460e-02 1.884079e-02 9.945068e-01 -5.895996e-02 9.892578e-01 -5.657959e-02 -2.781677e-02 2.731133e-02
1.565781e+07 -2.008629e-02 1.926231e-02 9.941406e-01 -5.847168e-02 9.895020e-01 -5.657959e-02 -2.749825e-02 2.730942e-02
1.587562e+07 -1.998138e-02 1.964760e-02 9.928589e-01 -5.859375e-02 9.892578e-01 -5.718994e-02 -2.717400e-02 2.732658e-02
1.609344e+07 -1.993752e-02 2.015305e-02 9.935913e-01 -5.944824e-02 9.923096e-01 -5.529785e-02 -2.693939e-02 2.734375e-02
1.631125e+07 -1.972008e-02 2.050400e-02 9.927368e-01 -6.011963e-02 9.919434e-01 -5.688477e-02 -2.668190e-02 2.751732e-02
1.652906e+07 -1.951790e-02 2.098465e-02 9.925537e-01 -6.121826e-02 9.919434e-01 -5.792236e-02 -2.643204e-02 2.742195e-02
1.674688e+07 -1.926994e-02 2.144432e-02 9.922485e-01 -6.201172e-02 9.925537e-01 -5.859375e-02 -2.619171e-02 2.765465e-02
1.696469e+07 -1.909637e-02 2.185631e-02 9.914551e-01 -6.311035e-02 9.915161e-01 -5.963135e-02 -2.600288e-02 2.771187e-02
1.718250e+07 -1.883507e-02 2.228737e-02 9.913330e-01 -6.304932e-02 9.924316e-01 -6.097412e-02 -2.575684e-02 2.764130e-02
1.740031e+07 -1.856804e-02 2.270126e-02 9.912109e-01 -6.439209e-02 9.914551e-01 -6.298828e-02 -2.550125e-02 2.778816e-02
1.761812e+07 -1.823807e-02 2.311897e-02 9.906616e-01 -6.469727e-02 9.916382e-01 -6.335449e-02 -2.554321e-02 2.800560e-02
1.783594e+07 -1.789474e-02 2.357483e-02 9.899902e-01 -6.445312e-02 9.922485e-01 -6.433105e-02 -2.522278e-02 2.789497e-02
1.805375e+07 -1.753998e-02 2.387238e-02 9.901733e-01 -6.573486e-02 9.919434e-01 -6.542969e-02 -2.515411e-02 2.815819e-02
1.827156e+07 -1.713562e-02 2.433205e-02 9.896851e-01 -6.610107e-02 9.916992e-01 -6.616211e-02 -2.502632e-02 2.815247e-02
1.848938e+07 -1.684570e-02 2.477455e-02 9.899902e-01 -6.610107e-02 9.915771e-01 -6.774902e-02 -2.500534e-02 2.830124e-02
1.870719e+07 -1.633835e-02 2.504730e-02 9.896240e-01 -6.732178e-02 9.915771e-01 -6.927490e-02 -2.480507e-02 2.840996e-02
1.892500e+07 -1.586914e-02 2.543449e-02 9.888916e-01 -6.774902e-02 9.916382e-01 -6.884766e-02 -2.468872e-02 2.861023e-02
1.914281e+07 -1.541710e-02 2.572060e-02 9.892578e-01 -6.829834e-02 9.904175e-01 -7.061768e-02 -2.473831e-02 2.889633e-02
1.936062e+07 -1.500320e-02 2.610588e-02 9.890137e-01 -6.805420e-02 9.911499e-01 -7.098389e-02 -2.451515e-02 2.885628e-02
1.957844e+07 -1.448059e-02 2.639008e-02 9.888916e-01 -6.933594e-02 9.907227e-01 -7.336426e-02 -2.441978e-02 2.907944e-02
1.979625e+07 -1.399040e-02 2.664375e-02 9.893188e-01 -7.006836e-02 9.899902e-01 -7.403564e-02 -2.436066e-02 2.930260e-02
2.001406e+07 -1.345444e-02 2.686119e-02 9.883423e-01 -6.976318e-02 9.893799e-01 -7.385254e-02 -2.435493e-02 2.956963e-02
2.023188e+07 -1.300812e-02 2.706718e-02 9.886475e-01 -7.116699e-02 9.893188e-01 -7.611084e-02 -2.412987e-02 2.985954e-02
2.044969e+07 -1.242065e-02 2.724648e-02 9.893799e-01 -7.043457e-02 9.883423e-01 -7.659912e-02 -2.420044e-02 3.001976e-02
2.066750e+07 -1.200104e-02 2.741241e-02 9.890137e-01 -7.165527e-02 9.888916e-01 -7.781982e-02 -2.395630e-02 3.038216e-02
2.088531e+07 -1.141167e-02 2.760506e-02 9.891357e-01 -7.202148e-02 9.888306e-01 -7.904053e-02 -2.395439e-02 3.053284e-02
2.110312e+07 -1.094818e-02 2.781677e-02 9.895020e-01 -7.305908e-02 9.880981e-01 -7.922363e-02 -2.388954e-02 3.089714e-02
2.132094e+07 -1.044846e-02 2.788162e-02 9.895630e-01 -7.397461e-02 9.868774e-01 -8.117676e-02 -2.389336e-02 3.127480e-02
2.153875e+07 -9.941101e-03 2.795219e-02 9.902344e-01 -7.434082e-02 9.875488e-01 -8.154297e-02 -2.374077e-02 3.148460e-02
2.175656e+07 -9.460449e-03 2.804947e-02 9.899902e-01 -7.537842e-02 9.870605e-01 -8.361816e-02 -2.359581e-02 3.183937e-02
2.197438e+07 -8.987427e-03 2.808189e-02 9.893799e-01 -7.617188e-02 9.868164e-01 -8.404541e-02 -2.340317e-02 3.217697e-02
2.219219e+07 -8.541107e-03 2.814674e-02 9.901123e-01 -7.629395e-02 9.862061e-01 -8.374023e-02 -2.325058e-02 3.255653e-02
2.241000e+07 -8.073807e-03 2.817726e-02 9.899292e-01 -7.751465e-02 9.851685e-01 -8.453369e-02 -2.312088e-02 3.294754e-02
2.262781e+07 -7.577896e-03 2.826118e-02 9.904175e-01 -7.769775e-02 9.860840e-01 -8.624268e-02 -2.304077e-02 3.331566e-02
2.284562e+07 -7.129669e-03 2.825928e-02 9.912109e-01 -7.904053e-02 9.852295e-01 -8.691406e-02 -2.288818e-02 3.364754e-02
2.306344e+07 -6.721497e-03 2.822876e-02 9.906616e-01 -7.928467e-02 9.841919e-01 -8.721924e-02 -2.266884e-02 3.425026e-02
2.328125e+07 -6.296158e-03 2.822113e-02 9.915161e-01 -8.062744e-02 9.840698e-01 -8.807373e-02 -2.247238e-02 3.464699e-02
2.349906e+07 -5.851746e-03 2.829552e-02 9.914551e-01 -8.203125e-02 9.840088e-01 -8.886719e-02 -2.232933e-02 3.490829e-02
2.371688e+07 -5.384445e-03 2.822876e-02 9.907837e-01 -8.209229e-02 9.841919e-01 -8.929443e-02 -2.206612e-02 3.524590e-02
2.393469e+07 -5.052567e-03 2.824020e-02 9.912720e-01 -8.337402e-02 9.832153e-01 -9.075928e-02 -2.167511e-02 3.584862e-02
2.415250e+07 -4.503250e-03 2.820206e-02 9.912109e-01 -8.349609e-02 9.833984e-01 -9.051514e-02 -2.140808e-02 3.624535e-02
2.437031e+07 -4.152298e-03 2.813339e-02 9.913330e-01 -8.514404e-02 9.837036e-01 -9.173584e-02 -2.120590e-02 3.655624e-02
2.458812e+07 -3.719330e-03 2.812386e-02 9.921875e-01 -8.563232e-02 9.824829e-01 -9.265137e-02 -2.083778e-02 3.706741e-02
2.480594e+07 -3.353119e-03 2.812958e-02 9.927368e-01 -8.648682e-02 9.821167e-01 -9.277344e-02 -2.045631e-02 3.742409e-02
2.502375e+07 -2.885818e-03 2.806473e-02 9.926147e-01 -8.825684e-02 9.818115e-01 -9.429932e-02 -2.017975e-02 3.791237e-02
2.524156e+07 -2.525330e-03 2.799988e-02 9.927368e-01 -8.831787e-02 9.818726e-01 -9.490967e-02 -1.969337e-02 3.826141e-02
2.545938e+07 -2.159119e-03 2.789116e-02 9.920654e-01 -8.941650e-02 9.820557e-01 -9.509277e-02 -1.935387e-02 3.862381e-02
2.567719e+07 -1.800537e-03 2.788353e-02 9.926758e-01 -9.100342e-02 9.818115e-01 -9.545898e-02 -1.910019e-02 3.914452e-02
2.589500e+07 -1.420975e-03 2.775002e-02 9.928589e-01 -9.161377e-02 9.819946e-01 -9.539795e-02 -1.850510e-02 3.933907e-02
2.611281e+07 -1.098633e-03 2.775764e-02 9.936523e-01 -9.265137e-02 9.816284e-01 -9.674072e-02 -1.804543e-02 3.993797e-02
2.633062e+07 -7.400513e-04 2.757072e-02 9.936523e-01 -9.411621e-02 9.804077e-01 -9.680176e-02 -1.766777e-02 4.015541e-02
2.654844e+07 -4.253387e-04 2.753448e-02 9.928589e-01 -9.405518e-02 9.810791e-01 -9.796143e-02 -1.723480e-02 4.041290e-02
2.676625e+07 -4.005432e-05 2.743340e-02 9.932251e-01 -9.582520e-02 9.804077e-01 -9.863281e-02 -1.672363e-02 4.075813e-02
2.698406e+07 3.299713e-04 2.734184e-02 9.934082e-01 -9.674072e-02 9.807739e-01 -9.899902e-02 -1.629448e-02 4.120064e-02
2.720188e+07 6.179810e-04 2.725601e-02 9.941406e-01 -9.729004e-02 9.801636e-01 -1.002808e-01 -1.587296e-02 4.143143e-02
2.741969e+07 9.593964e-04 2.716637e-02 9.935913e-01 -9.887695e-02 9.810181e-01 -1.006470e-01 -1.534081e-02 4.170799e-02
2.763750e+07 1.281738e-03 2.700806e-02 9.931641e-01 -1.004639e-01 9.807739e-01 -1.011353e-01 -1.484871e-02 4.195786e-02
2.785531e+07 1.636505e-03 2.697372e-02 9.934082e-01 -1.007690e-01 9.806519e-01 -1.024170e-01 -1.413918e-02 4.215813e-02
2.807312e+07 1.918793e-03 2.681732e-02 9.935913e-01 -1.017456e-01 9.810791e-01 -1.021729e-01 -1.364326e-02 4.245186e-02
2.829094e+07 2.246857e-03 2.673721e-02 9.937134e-01 -1.030273e-01 9.812012e-01 -1.026001e-01 -1.311302e-02 4.272652e-02
2.850875e+07 2.521515e-03 2.663231e-02 9.943237e-01 -1.032104e-01 9.815674e-01 -1.042480e-01 -1.269722e-02 4.286766e-02
2.872656e+07 2.771378e-03 2.652168e-02 9.943237e-01 -1.052856e-01 9.810181e-01 -1.046143e-01 -1.217651e-02 4.308891e-02
2.894438e+07 3.076553e-03 2.641869e-02 9.942627e-01 -1.064453e-01 9.810791e-01 -1.051025e-01 -1.167679e-02 4.335594e-02
2.916219e+07 3.391266e-03 2.635956e-02 9.935303e-01 -1.063232e-01 9.816895e-01 -1.063843e-01 -1.106834e-02 4.350281e-02
2.938000e+07 3.643036e-03 2.620125e-02 9.941406e-01 -1.083374e-01 9.815063e-01 -1.063843e-01 -1.044846e-02 4.369736e-02
2.959781e+07 3.915787e-03 2.614021e-02 9.941406e-01 -1.090698e-01 9.812622e-01 -1.079102e-01 -1.000023e-02 4.368591e-02
2.981562e+07 4.211426e-03 2.598953e-02 9.947510e-01 -1.101074e-01 9.813843e-01 -1.083374e-01 -9.466171e-03 4.385948e-02
3.003344e+07 4.520416e-03 2.587318e-02 9.946289e-01 -1.116943e-01 9.819336e-01 -1.087036e-01 -8.863449e-03 4.401398e-02
3.025125e+07 4.749298e-03 2.578545e-02 9.946289e-01 -1.125488e-01 9.819946e-01 -1.099854e-01 -8.285522e-03 4.422951e-02
3.046906e+07 4.993439e-03 2.568054e-02 9.944458e-01 -1.139526e-01 9.815674e-01 -1.103516e-01 -7.776260e-03 4.428864e-02
3.068688e+07 5.279541e-03 2.555275e-02 9.946289e-01 -1.152344e-01 9.824829e-01 -1.107178e-01 -7.268906e-03 4.438782e-02
3.090469e+07 5.477905e-03 2.545738e-02 9.945679e-01 -1.152344e-01 9.822388e-01 -1.112671e-01 -6.689072e-03 4.432297e-02
3.112250e+07 5.779266e-03 2.533150e-02 9.954224e-01 -1.159058e-01 9.835205e-01 -1.102905e-01 -6.221771e-03 4.440689e-02
3.134031e+07 6.000519e-03 2.520752e-02 9.956055e-01 -1.176147e-01 9.826660e-01 -1.121826e-01 -5.659103e-03 4.455376e-02
3.155812e+07 6.231308e-03 2.507019e-02 9.943848e-01 -1.178589e-01 9.838867e-01 -1.124878e-01 -5.161285e-03 4.451942e-02
3.177594e+07 6.486893e-03 2.498245e-02 9.954224e-01 -1.191406e-01 9.830933e-01 -1.140137e-01 -4.646301e-03 4.456139e-02
3.199375e+07 6.723404e-03 2.493858e-02 9.956055e-01 -1.190796e-01 9.837036e-01 -1.132812e-01 -4.196167e-03 4.453087e-02
3.221156e+07 6.919861e-03 2.479744e-02 9.947510e-01 -1.201782e-01 9.835205e-01 -1.143188e-01 -3.561020e-03 4.460144e-02
3.242938e+07 7.167816e-03 2.464104e-02 9.953613e-01 -1.212158e-01 9.843750e-01 -1.148682e-01 -3.194809e-03 4.443550e-02
3.264719e+07 7.373810e-03 2.448082e-02 9.950562e-01 -1.222534e-01 9.835205e-01 -1.158447e-01 -2.660751e-03 4.456902e-02
3.286500e+07 7.555008e-03 2.437592e-02 9.948120e-01 -1.223755e-01 9.837036e-01 -1.160278e-01 -2.128601e-03 4.442978e-02
3.308281e+07 7.841110e-03 2.427673e-02 9.959717e-01 -1.231689e-01 9.846191e-01 -1.168213e-01 -1.590729e-03 4.456520e-02
3.330062e+07 8.039474e-03 2.417374e-02 9.945679e-01 -1.234741e-01 9.837646e-01 -1.168213e-01 -1.272202e-03 4.433823e-02
3.351844e+07 8.228302e-03 2.406693e-02 9.943848e-01 -1.253662e-01 9.840088e-01 -1.179199e-01 -4.940033e-04 4.424095e-02
3.373625e+07 8.459091e-03 2.394104e-02 9.945068e-01 -1.254272e-01 9.835205e-01 -1.181641e-01 -1.468658e-04 4.434395e-02
3.395406e+07 8.718491e-03 2.382088e-02 9.951782e-01 -1.265869e-01 9.847412e-01 -1.185913e-01 1.907349e-04 4.431152e-02
3.417188e+07 8.905411e-03 2.364349e-02 9.949951e-01 -1.273193e-01 9.846802e-01 -1.192627e-01 7.476807e-04 4.416847e-02
3.438969e+07 9.063721e-03 2.363777e-02 9.952393e-01 -1.278687e-01 9.838257e-01 -1.206055e-01 1.319885e-03 4.397202e-02
3.460750e+07 9.317398e-03 2.346992e-02 9.955444e-01 -1.282349e-01 9.831543e-01 -1.215210e-01 1.596451e-03 4.402733e-02
3.482531e+07 9.513855e-03 2.333641e-02 9.943848e-01 -1.298218e-01 9.846802e-01 -1.213379e-01 2.092361e-03 4.388618e-02
3.504312e+07 9.662628e-03 2.325249e-02 9.945068e-01 -1.306763e-01 9.851685e-01 -1.217651e-01 2.386093e-03 4.370689e-02
3.526094e+07 9.822845e-03 2.311707e-02 9.946899e-01 -1.313477e-01 9.847412e-01 -1.221924e-01 2.899170e-03 4.361343e-02
3.547875e+07 1.006889e-02 2.294540e-02 9.941406e-01 -1.316528e-01 9.846802e-01 -1.240234e-01 3.320694e-03 4.358673e-02
3.569656e+07 1.025963e-02 2.285576e-02 9.953003e-01 -1.331787e-01 9.846802e-01 -1.232910e-01 3.690720e-03 4.339027e-02
3.591438e+07 1.040077e-02 2.275085e-02 9.943237e-01 -1.339111e-01 9.846802e-01 -1.243896e-01 4.262924e-03 4.326248e-02
3.613219e+07 1.061058e-02 2.259445e-02 9.941406e-01 -1.340942e-01 9.852295e-01 -1.249390e-01 4.392624e-03 4.325485e-02
3.635000e+07 1.077652e-02 2.252007e-02 9.938965e-01 -1.346436e-01 9.855347e-01 -1.249390e-01 4.898071e-03 4.289055e-02
3.656781e+07 1.099777e-02 2.236366e-02 9.942627e-01 -1.364136e-01 9.853516e-01 -1.265259e-01 5.418777e-03 4.278564e-02
3.678562e+07 1.112938e-02 2.227020e-02 9.938965e-01 -1.370239e-01 9.862671e-01 -1.262207e-01 5.729675e-03 4.260254e-02
3.700344e+07 1.129150e-02 2.218437e-02 9.937134e-01 -1.375122e-01 9.856567e-01 -1.275024e-01 6.286621e-03 4.260063e-02
3.722125e+07 1.152802e-02 2.199745e-02 9.935303e-01 -1.381836e-01 9.859009e-01 -1.277466e-01 6.420135e-03 4.243851e-02
3.743906e+07 1.167107e-02 2.195168e-02 9.934082e-01 -1.397095e-01 9.854736e-01 -1.290283e-01 7.024765e-03 4.226112e-02
3.765688e+07 1.189804e-02 2.179909e-02 9.936523e-01 -1.394043e-01 9.859009e-01 -1.298218e-01 7.213593e-03 4.209518e-02
3.787469e+07 1.195717e-02 2.176094e-02 9.934082e-01 -1.411743e-01 9.859619e-01 -1.301880e-01 7.610321e-03 4.206657e-02
3.809250e+07 1.219368e-02 2.153206e-02 9.938354e-01 -1.409302e-01 9.858398e-01 -1.315308e-01 8.008957e-03 4.179001e-02
3.831031e+07 1.230621e-02 2.147293e-02 9.932861e-01 -1.420898e-01 9.857178e-01 -1.313477e-01 8.295059e-03 4.161835e-02
3.852812e+07 1.249123e-02 2.135849e-02 9.927368e-01 -1.430054e-01 9.857788e-01 -1.325073e-01 8.594513e-03 4.138756e-02
3.874594e+07 1.271057e-02 2.125549e-02 9.929199e-01 -1.435547e-01 9.855957e-01 -1.342163e-01 9.033203e-03 4.124641e-02
3.896375e+07 1.284981e-02 2.108192e-02 9.927368e-01 -1.443481e-01 9.858398e-01 -1.344604e-01 9.304047e-03 4.120445e-02
3.918156e+07 1.297379e-02 2.102661e-02 9.930420e-01 -1.454468e-01 9.857178e-01 -1.348267e-01 9.649277e-03 4.095459e-02
3.939938e+07 1.313400e-02 2.088547e-02 9.920654e-01 -1.465454e-01 9.856567e-01 -1.361694e-01 1.001549e-02 4.074860e-02
3.961719e+07 1.332664e-02 2.076340e-02 9.916382e-01 -1.463013e-01 9.860229e-01 -1.369629e-01 1.025200e-02 4.066467e-02
3.983500e+07 1.348305e-02 2.070427e-02 9.927979e-01 -1.488037e-01 9.858398e-01 -1.376953e-01 1.061249e-02 4.045677e-02
4.005281e+07 1.358032e-02 2.060127e-02 9.915771e-01 -1.488647e-01 9.856567e-01 -1.377563e-01 1.088524e-02 4.012871e-02
4.027062e+07 1.376724e-02 2.042961e-02 9.916382e-01 -1.494751e-01 9.860840e-01 -1.386108e-01 1.115417e-02 3.997803e-02
4.048844e+07 1.387787e-02 2.031136e-02 9.918823e-01 -1.506348e-01 9.862061e-01 -1.395874e-01 1.152802e-02 3.980255e-02
4.070625e+07 1.406860e-02 2.017021e-02 9.914551e-01 -1.508789e-01 9.859619e-01 -1.410522e-01 1.167488e-02 3.971481e-02
4.092406e+07 1.421547e-02 2.016449e-02 9.917603e-01 -1.516724e-01 9.856567e-01 -1.413574e-01 1.190376e-02 3.947830e-02
4.114188e+07 1.430702e-02 2.000999e-02 9.915771e-01 -1.527710e-01 9.859619e-01 -1.424561e-01 1.225281e-02 3.946114e-02
4.135969e+07 1.445293e-02 1.991653e-02 9.914551e-01 -1.531982e-01 9.858398e-01 -1.425781e-01 1.248169e-02 3.910065e-02
4.157750e+07 1.462746e-02 1.981258e-02 9.906616e-01 -1.538696e-01 9.859009e-01 -1.427612e-01 1.277161e-02 3.900337e-02
4.179531e+07 1.483822e-02 1.969337e-02 9.907227e-01 -1.552734e-01 9.859619e-01 -1.443481e-01 1.301765e-02 3.865814e-02
4.201312e+07 1.492882e-02 1.958942e-02 9.899292e-01 -1.560059e-01 9.859009e-01 -1.452026e-01 1.333427e-02 3.858757e-02
4.223094e+07 1.505280e-02 1.945782e-02 9.911499e-01 -1.563721e-01 9.855347e-01 -1.454468e-01 1.357460e-02 3.825951e-02
4.244875e+07 1.525116e-02 1.934052e-02 9.904175e-01 -1.575317e-01 9.861450e-01 -1.463623e-01 1.373672e-02 3.814125e-02
4.266656e+07 1.531696e-02 1.924992e-02 9.907837e-01 -1.585083e-01 9.859619e-01 -1.473389e-01 1.404762e-02 3.805923e-02
4.288438e+07 1.552391e-02 1.914501e-02 9.905396e-01 -1.585083e-01 9.856567e-01 -1.485596e-01 1.432610e-02 3.785324e-02
4.310219e+07 1.562786e-02 1.902580e-02 9.902344e-01 -1.596680e-01 9.854126e-01 -1.494751e-01 1.447868e-02 3.767776e-02
4.332000e+07 1.573944e-02 1.891422e-02 9.895630e-01 -1.605835e-01 9.853516e-01 -1.506958e-01 1.473045e-02 3.751183e-02
4.353781e+07 1.591015e-02 1.883602e-02 9.899902e-01 -1.619263e-01 9.852295e-01 -1.513062e-01 1.506805e-02 3.724670e-02
4.375562e+07 1.605606e-02 1.867294e-02 9.893799e-01 -1.619263e-01 9.856567e-01 -1.514282e-01 1.525688e-02 3.697205e-02
4.397344e+07 1.615524e-02 1.864624e-02 9.891357e-01 -1.627197e-01 9.854126e-01 -1.520386e-01 1.541138e-02 3.685570e-02
4.419125e+07 1.628876e-02 1.851940e-02 9.893188e-01 -1.639404e-01 9.857178e-01 -1.524048e-01 1.577759e-02 3.669548e-02
4.440906e+07 1.647854e-02 1.845360e-02 9.890747e-01 -1.648560e-01 9.853516e-01 -1.542358e-01 1.587677e-02 3.658867e-02
4.462688e+07 1.659775e-02 1.833820e-02 9.887695e-01 -1.651611e-01 9.850464e-01 -1.555176e-01 1.606178e-02 3.640366e-02
4.484469e+07 1.669979e-02 1.822567e-02 9.879150e-01 -1.660767e-01 9.849243e-01 -1.548462e-01 1.620674e-02 3.616142e-02
4.506250e+07 1.687431e-02 1.813126e-02 9.885864e-01 -1.663208e-01 9.848022e-01 -1.569824e-01 1.659203e-02 3.599358e-02
4.528031e+07 1.703167e-02 1.802444e-02 9.881592e-01 -1.676025e-01 9.853516e-01 -1.571045e-01 1.673126e-02 3.591156e-02
4.549812e+07 1.711559e-02 1.794720e-02 9.874268e-01 -1.680298e-01 9.846802e-01 -1.582642e-01 1.679230e-02 3.556442e-02
4.571594e+07 1.725101e-02 1.786423e-02 9.878540e-01 -1.696777e-01 9.849854e-01 -1.587524e-01 1.712799e-02 3.555679e-02
4.593375e+07 1.738834e-02 1.774788e-02 9.873657e-01 -1.699829e-01 9.848022e-01 -1.595459e-01 1.723289e-02 3.535843e-02
4.615156e+07 1.751041e-02 1.763535e-02 9.872437e-01 -1.708984e-01 9.849243e-01 -1.609497e-01 1.760483e-02 3.512383e-02
4.636938e+07 1.762676e-02 1.758194e-02 9.866943e-01 -1.721802e-01 9.841309e-01 -1.616821e-01 1.761818e-02 3.492737e-02
4.658719e+07 1.776600e-02 1.750660e-02 9.866333e-01 -1.724243e-01 9.837036e-01 -1.624756e-01 1.794434e-02 3.477669e-02
4.680500e+07 1.793098e-02 1.738453e-02 9.871216e-01 -1.737671e-01 9.838867e-01 -1.627808e-01 1.804161e-02 3.458023e-02
4.702281e+07 1.802063e-02 1.722813e-02 9.855957e-01 -1.736450e-01 9.845581e-01 -1.640015e-01 1.823997e-02 3.445816e-02
4.724062e+07 1.819324e-02 1.718903e-02 9.859009e-01 -1.742554e-01 9.835205e-01 -1.649170e-01 1.837349e-02 3.418732e-02
4.745844e+07 1.825809e-02 1.713276e-02 9.860229e-01 -1.757202e-01 9.838257e-01 -1.658325e-01 1.869774e-02 3.420639e-02
4.767625e+07 1.842976e-02 1.701546e-02 9.859009e-01 -1.767578e-01 9.829712e-01 -1.660156e-01 1.886177e-02 3.400230e-02
4.789406e+07 1.857758e-02 1.691914e-02 9.856567e-01 -1.764526e-01 9.835205e-01 -1.672363e-01 1.897621e-02 3.391075e-02
4.811188e+07 1.871014e-02 1.681709e-02 9.859009e-01 -1.770630e-01 9.831543e-01 -1.676025e-01 1.925850e-02 3.367043e-02
4.832969e+07 1.887226e-02 1.668644e-02 9.844360e-01 -1.787720e-01 9.834595e-01 -1.688843e-01 1.931000e-02 3.348923e-02
4.854750e+07 1.898193e-02 1.663780e-02 9.840088e-01 -1.788940e-01 9.829102e-01 -1.693115e-01 1.936913e-02 3.318977e-02
4.876531e+07 1.912594e-02 1.656723e-02 9.841919e-01 -1.801758e-01 9.832153e-01 -1.693115e-01 1.962471e-02 3.305244e-02
4.898312e+07 1.922035e-02 1.646805e-02 9.848022e-01 -1.808472e-01 9.822998e-01 -1.713257e-01 1.995468e-02 3.297615e-02
4.920094e+07 1.941013e-02 1.630402e-02 9.838867e-01 -1.813354e-01 9.822388e-01 -1.719971e-01 1.987839e-02 3.273773e-02
4.941875e+07 1.949310e-02 1.624584e-02 9.837036e-01 -1.821899e-01 9.830933e-01 -1.726685e-01 2.014351e-02 3.258705e-02
4.963656e+07 1.968193e-02 1.607800e-02 9.831543e-01 -1.834106e-01 9.813843e-01 -1.736450e-01 2.034950e-02 3.245354e-02
4.985438e+07 1.971912e-02 1.605701e-02 9.837036e-01 -1.831055e-01 9.819336e-01 -1.742554e-01 2.050781e-02 3.226089e-02
5.007219e+07 1.989746e-02 1.598167e-02 9.831543e-01 -1.841431e-01 9.822998e-01 -1.752319e-01 2.073669e-02 3.212547e-02
5.029000e+07 2.003956e-02 1.585007e-02 9.825439e-01 -1.852417e-01 9.818726e-01 -1.760254e-01 2.077675e-02 3.198624e-02
5.050781e+07 2.017975e-02 1.579094e-02 9.826050e-01 -1.855469e-01 9.810791e-01 -1.757202e-01 2.105522e-02 3.174782e-02
5.072562e+07 2.027512e-02 1.568794e-02 9.809570e-01 -1.851807e-01 9.810791e-01 -1.770630e-01 2.109718e-02 3.155899e-02
5.094344e+07 2.041435e-02 1.556015e-02 9.827881e-01 -1.871338e-01 9.808350e-01 -1.782837e-01 2.137756e-02 3.155518e-02
5.116125e+07 2.058411e-02 1.548958e-02 9.802856e-01 -1.875610e-01 9.809570e-01 -1.787720e-01 2.144241e-02 3.129959e-02
5.137906e+07 2.066612e-02 1.538467e-02 9.821777e-01 -1.881714e-01 9.801636e-01 -1.794434e-01 2.158165e-02 3.114128e-02
5.159688e+07 2.086258e-02 1.524734e-02 9.811401e-01 -1.895752e-01 9.799194e-01 -1.809082e-01 2.179337e-02 3.095245e-02
5.181469e+07 2.094650e-02 1.521301e-02 9.801025e-01 -1.898193e-01 9.801636e-01 -1.813965e-01 2.201843e-02 3.082085e-02
5.203250e+07 2.108192e-02 1.503563e-02 9.803467e-01 -1.900635e-01 9.803467e-01 -1.821899e-01 2.197838e-02 3.061104e-02
5.225031e+07 2.120781e-02 1.495552e-02 9.795532e-01 -1.908569e-01 9.798584e-01 -1.821289e-01 2.231216e-02 3.048134e-02
5.246812e+07 2.135468e-02 1.486206e-02 9.797363e-01 -1.919556e-01 9.790039e-01 -1.833496e-01 2.233124e-02 3.024673e-02
5.268594e+07 2.151680e-02 1.474762e-02 9.794922e-01 -1.934204e-01 9.784546e-01 -1.846924e-01 2.247238e-02 3.013992e-02
5.290375e+07 2.166176e-02 1.464081e-02 9.786987e-01 -1.928711e-01 9.792480e-01 -1.855469e-01 2.255440e-02 2.996063e-02
5.312156e+07 2.175331e-02 1.453781e-02 9.790039e-01 -1.936646e-01 9.783325e-01 -1.856689e-01 2.271461e-02 2.986526e-02
5.333938e+07 2.187920e-02 1.444817e-02 9.787598e-01 -1.946411e-01 9.779053e-01 -1.870728e-01 2.284431e-02 2.952385e-02
5.355719e+07 2.201843e-02 1.439857e-02 9.787598e-01 -1.954956e-01 9.779663e-01 -1.867065e-01 2.300644e-02 2.933693e-02
5.377500e+07 2.216530e-02 1.428032e-02 9.783936e-01 -1.953125e-01 9.775391e-01 -1.890259e-01 2.324486e-02 2.933311e-02
5.399281e+07 2.220345e-02 1.417732e-02 9.776001e-01 -1.967163e-01 9.765625e-01 -1.881104e-01 2.321053e-02 2.913284e-02
5.421062e+07 2.238846e-02 1.404762e-02 9.772339e-01 -1.976318e-01 9.767456e-01 -1.895752e-01 2.337265e-02 2.893066e-02
5.442844e+07 2.247620e-02 1.394272e-02 9.772949e-01 -1.984863e-01 9.762573e-01 -1.914673e-01 2.351189e-02 2.883911e-02
5.464625e+07 2.263069e-02 1.385689e-02 9.778442e-01 -1.989136e-01 9.766846e-01 -1.908569e-01 2.368736e-02 2.873230e-02
5.486406e+07 2.276421e-02 1.372719e-02 9.765625e-01 -1.994629e-01 9.765625e-01 -1.917114e-01 2.367973e-02 2.854156e-02
5.508188e+07 2.288437e-02 1.359749e-02 9.758301e-01 -2.005615e-01 9.761353e-01 -1.928711e-01 2.404785e-02 2.838516e-02
5.529969e+07 2.297211e-02 1.350594e-02 9.755859e-01 -2.015991e-01 9.748535e-01 -1.926270e-01 2.403069e-02 2.818680e-02
5.551750e+07 2.311707e-02 1.343918e-02 9.757080e-01 -2.026978e-01 9.750977e-01 -1.940308e-01 2.422333e-02 2.815819e-02
5.573531e+07 2.323532e-02 1.328087e-02 9.757080e-01 -2.023926e-01 9.751587e-01 -1.946411e-01 2.443695e-02 2.800179e-02
5.595312e+07 2.338219e-02 1.321793e-02 9.746094e-01 -2.033081e-01 9.745483e-01 -1.958618e-01 2.429390e-02 2.788162e-02
5.617094e+07 2.354622e-02 1.310349e-02 9.741821e-01 -2.041016e-01 9.745483e-01 -1.958008e-01 2.458382e-02 2.754593e-02
5.638875e+07 2.367592e-02 1.302147e-02 9.741821e-01 -2.044067e-01 9.742432e-01 -1.970825e-01 2.479172e-02 2.756500e-02
5.660656e+07 2.373695e-02 1.292610e-02 9.742432e-01 -2.047119e-01 9.740601e-01 -1.973267e-01 2.484894e-02 2.732277e-02
5.682438e+07 2.393341e-02 1.279068e-02 9.735107e-01 -2.055664e-01 9.738770e-01 -1.992798e-01 2.498245e-02 2.721786e-02
5.704219e+07 2.406693e-02 1.265526e-02 9.740601e-01 -2.057495e-01 9.728394e-01 -1.994629e-01 2.507019e-02 2.712250e-02
5.726000e+07 2.414513e-02 1.257324e-02 9.733887e-01 -2.070923e-01 9.730225e-01 -1.998901e-01 2.509499e-02 2.687836e-02
5.747781e+07 2.432823e-02 1.244164e-02 9.733887e-01 -2.078857e-01 9.728394e-01 -2.008057e-01 2.533913e-02 2.679634e-02
5.769562e+07 2.438927e-02 1.231384e-02 9.725952e-01 -2.078857e-01 9.724121e-01 -2.012939e-01 2.540970e-02 2.664375e-02
5.791344e+07 2.450562e-02 1.227379e-02 9.727173e-01 -2.090454e-01 9.718018e-01 -2.014771e-01 2.546120e-02 2.646255e-02
5.813125e+07 2.469635e-02 1.214027e-02 9.722900e-01 -2.096558e-01 9.716187e-01 -2.035522e-01 2.584648e-02 2.641869e-02
5.834906e+07 2.478981e-02 1.194572e-02 9.713135e-01 -2.106934e-01 9.715576e-01 -2.042236e-01 2.587318e-02 2.618599e-02
5.856688e+07 2.488708e-02 1.188850e-02 9.714966e-01 -2.111816e-01 9.711304e-01 -2.042847e-01 2.599525e-02 2.617073e-02
5.878469e+07 2.501678e-02 1.182938e-02 9.708862e-01 -2.113647e-01 9.708252e-01 -2.050781e-01 2.596474e-02 2.597427e-02
5.900250e+07 2.515221e-02 1.168060e-02 9.710083e-01 -2.118530e-01 9.697876e-01 -2.056885e-01 2.618408e-02 2.578545e-02
5.922031e+07 2.528000e-02 1.156235e-02 9.714966e-01 -2.133789e-01 9.705811e-01 -2.066040e-01 2.616119e-02 2.569389e-02
5.943812e+07 2.541924e-02 1.141167e-02 9.705200e-01 -2.136230e-01 9.696655e-01 -2.072144e-01 2.652550e-02 2.542686e-02
5.965594e+07 2.554131e-02 1.129341e-02 9.705200e-01 -2.149658e-01 9.700928e-01 -2.080078e-01 2.662849e-02 2.534485e-02
5.987375e+07 2.562332e-02 1.116371e-02 9.697876e-01 -2.148438e-01 9.687500e-01 -2.088623e-01 2.646637e-02 2.531052e-02
6.009156e+07 2.580261e-02 1.108932e-02 9.695435e-01 -2.150879e-01 9.693604e-01 -2.088623e-01 2.699471e-02 2.506828e-02
6.030938e+07 2.590561e-02 1.095390e-02 9.697876e-01 -2.161255e-01 9.686890e-01 -2.100220e-01 2.695847e-02 2.492523e-02
6.052719e+07 2.604866e-02 1.077080e-02 9.699707e-01 -2.177734e-01 9.685669e-01 -2.112427e-01 2.713776e-02 2.474594e-02
6.074500e+07 2.612495e-02 1.074982e-02 9.692993e-01 -2.169800e-01 9.684448e-01 -2.108154e-01 2.705956e-02 2.459908e-02
6.096281e+07 2.626801e-02 1.060677e-02 9.681396e-01 -2.186890e-01 9.672852e-01 -2.111816e-01 2.720261e-02 2.455902e-02
6.118062e+07 2.643776e-02 1.050377e-02 9.695435e-01 -2.181396e-01 9.681396e-01 -2.117310e-01 2.738571e-02 2.441788e-02
6.139844e+07 2.646828e-02 1.031113e-02 9.684448e-01 -2.196655e-01 9.668579e-01 -2.136230e-01 2.763176e-02 2.427864e-02
6.161625e+07 2.668571e-02 1.027679e-02 9.695435e-01 -2.201538e-01 9.675293e-01 -2.130737e-01 2.770233e-02 2.421379e-02
6.183406e+07 2.683640e-02 1.008224e-02 9.677124e-01 -2.210693e-01 9.664307e-01 -2.155762e-01 2.787399e-02 2.386665e-02
6.205188e+07 2.690125e-02 9.923935e-03 9.677124e-01 -2.214355e-01 9.656982e-01 -2.156372e-01 2.794075e-02 2.371597e-02
6.226969e+07 2.702904e-02 9.799957e-03 9.675293e-01 -2.230225e-01 9.655762e-01 -2.171021e-01 2.813911e-02 2.371216e-02
6.248750e+07 2.714348e-02 9.698868e-03 9.671021e-01 -2.235718e-01 9.655151e-01 -2.174683e-01 2.829742e-02 2.345276e-02
6.270531e+07 2.727127e-02 9.527206e-03 9.669800e-01 -2.238159e-01 9.650269e-01 -2.183838e-01 2.831841e-02 2.347565e-02
6.292312e+07 2.741814e-02 9.443283e-03 9.658813e-01 -2.251587e-01 9.650269e-01 -2.192993e-01 2.854347e-02 2.320480e-02
6.314094e+07 2.752876e-02 9.315491e-03 9.658813e-01 -2.260132e-01 9.645996e-01 -2.194214e-01 2.873611e-02 2.310562e-02
6.335875e+07 2.763176e-02 9.172440e-03 9.653320e-01 -2.270508e-01 9.645386e-01 -2.207031e-01 2.876854e-02 2.280617e-02
6.357656e+07 2.770233e-02 9.029388e-03 9.655151e-01 -2.279053e-01 9.641113e-01 -2.208252e-01 2.906418e-02 2.264977e-02
6.379438e+07 2.784348e-02 8.899689e-03 9.653320e-01 -2.284546e-01 9.638062e-01 -2.216797e-01 2.914619e-02 2.258301e-02
6.401219e+07 2.795982e-02 8.722305e-03 9.641113e-01 -2.287598e-01 9.631958e-01 -2.229614e-01 2.915192e-02 2.234650e-02
6.423000e+07 2.809525e-02 8.657455e-03 9.641724e-01 -2.296753e-01 9.634399e-01 -2.228394e-01 2.936554e-02 2.229881e-02
6.444781e+07 2.820587e-02 8.546829e-03 9.645996e-01 -2.299805e-01 9.630737e-01 -2.235718e-01 2.953148e-02 2.206421e-02
6.466562e+07 2.830505e-02 8.302689e-03 9.645996e-01 -2.301636e-01 9.630737e-01 -2.250977e-01 2.955055e-02 2.186203e-02
6.488344e+07 2.843666e-02 8.148193e-03 9.638062e-01 -2.321777e-01 9.625854e-01 -2.254639e-01 2.970123e-02 2.178764e-02
6.510125e+07 2.859497e-02 8.064270e-03 9.639282e-01 -2.320557e-01 9.621582e-01 -2.258911e-01 2.986717e-02 2.158356e-02
6.531906e+07 2.859688e-02 7.921219e-03 9.633179e-01 -2.335205e-01 9.612427e-01 -2.271118e-01 3.009415e-02 2.150726e-02
6.553688e+07 2.873802e-02 7.755280e-03 9.636230e-01 -2.335205e-01 9.614258e-01 -2.285156e-01 3.009796e-02 2.145958e-02
6.575469e+07 2.881622e-02 7.627487e-03 9.632568e-01 -2.345581e-01 9.613647e-01 -2.280273e-01 3.026581e-02 2.104378e-02
6.597250e+07 2.892113e-02 7.524490e-03 9.625244e-01 -2.352295e-01 9.610596e-01 -2.293701e-01 3.048706e-02 2.092552e-02
6.619031e+07 2.910042e-02 7.324219e-03 9.633789e-01 -2.354126e-01 9.610596e-01 -2.305908e-01 3.063011e-02 2.070236e-02
6.640812e+07 2.918625e-02 7.154465e-03 9.622192e-01 -2.361450e-01 9.602661e-01 -2.309570e-01 3.064919e-02 2.065659e-02
6.662594e+07 2.927017e-02 6.984711e-03 9.619751e-01 -2.384644e-01 9.598999e-01 -2.319946e-01 3.076935e-02 2.045822e-02
6.684375e+07 2.938080e-02 6.877899e-03 9.614868e-01 -2.384644e-01 9.600220e-01 -2.326050e-01 3.107071e-02 2.025032e-02
6.706156e+07 2.948380e-02 6.782532e-03 9.614258e-01 -2.389526e-01 9.599609e-01 -2.326050e-01 3.104591e-02 2.004814e-02
6.727938e+07 2.958679e-02 6.587982e-03 9.613647e-01 -2.392578e-01 9.587402e-01 -2.341309e-01 3.125191e-02 1.991653e-02
6.749719e+07 2.966309e-02 6.462097e-03 9.611816e-01 -2.397461e-01 9.587402e-01 -2.335205e-01 3.145790e-02 1.966667e-02
6.771500e+07 2.980232e-02 6.292343e-03 9.608154e-01 -2.416382e-01 9.581909e-01 -2.349243e-01 3.162193e-02 1.962471e-02
6.793281e+07 2.988052e-02 6.151199e-03 9.606934e-01 -2.419434e-01 9.586792e-01 -2.348633e-01 3.164101e-02 1.939011e-02
6.815062e+07 3.002548e-02 6.038666e-03 9.599609e-01 -2.430420e-01 9.591064e-01 -2.361450e-01 3.171921e-02 1.925850e-02
6.836844e+07 3.002167e-02 5.813599e-03 9.605103e-01 -2.434082e-01 9.576416e-01 -2.370605e-01 3.187752e-02 1.912880e-02
6.858625e+07 3.017807e-02 5.710602e-03 9.604492e-01 -2.440186e-01 9.578857e-01 -2.374878e-01 3.214455e-02 1.898956e-02
6.880406e+07 3.026009e-02 5.527496e-03 9.598389e-01 -2.451172e-01 9.567261e-01 -2.387085e-01 3.227806e-02 1.852036e-02
6.902188e+07 3.037453e-02 5.413055e-03 9.598389e-01 -2.455444e-01 9.575806e-01 -2.388916e-01 3.228378e-02 1.842308e-02
6.923969e+07 3.044701e-02 5.233765e-03 9.597168e-01 -2.460938e-01 9.564209e-01 -2.400513e-01 3.245926e-02 1.823425e-02
6.945750e+07 3.056908e-02 5.071640e-03 9.594116e-01 -2.467651e-01 9.559326e-01 -2.406006e-01 3.263092e-02 1.802444e-02
6.967531e+07 3.061104e-02 4.896164e-03 9.592285e-01 -2.482300e-01 9.556885e-01 -2.412720e-01 3.277969e-02 1.793671e-02
6.989312e+07 3.071785e-02 4.743576e-03 9.594116e-01 -2.487793e-01 9.555664e-01 -2.420044e-01 3.283882e-02 1.778030e-02
7.011094e+07 3.075409e-02 4.571915e-03 9.586182e-01 -2.492065e-01 9.547729e-01 -2.423096e-01 3.305817e-02 1.747131e-02
7.032875e+07 3.088760e-02 4.453659e-03 9.582520e-01 -2.497559e-01 9.548950e-01 -2.431030e-01 3.311920e-02 1.724815e-02
7.054656e+07 3.096199e-02 4.266739e-03 9.576416e-01 -2.506104e-01 9.549561e-01 -2.437744e-01 3.321648e-02 1.706886e-02
7.076438e+07 3.107071e-02 4.087448e-03 9.576416e-01 -2.507935e-01 9.549561e-01 -2.448120e-01 3.343773e-02 1.684952e-02
7.098219e+07 3.113365e-02 3.948212e-03 9.579468e-01 -2.522583e-01 9.551392e-01 -2.454224e-01 3.338623e-02 1.673698e-02
7.120000e+07 3.125191e-02 3.759384e-03 9.570923e-01 -2.534180e-01 9.550781e-01 -2.460327e-01 3.364563e-02 1.637459e-02
7.141781e+07 3.126526e-02 3.604889e-03 9.573364e-01 -2.539673e-01 9.536133e-01 -2.468872e-01 3.389740e-02 1.634979e-02
7.163562e+07 3.133965e-02 3.454208e-03 9.567261e-01 -2.545166e-01 9.531250e-01 -2.472534e-01 3.371048e-02 1.614380e-02
7.185344e+07 3.145027e-02 3.282547e-03 9.564209e-01 -2.545166e-01 9.533691e-01 -2.480469e-01 3.401375e-02 1.583290e-02
7.207125e+07 3.151321e-02 3.131866e-03 9.564819e-01 -2.560425e-01 9.533691e-01 -2.480469e-01 3.419685e-02 1.549911e-02
7.228906e+07 3.157616e-02 2.914429e-03 9.556885e-01 -2.567749e-01 9.520874e-01 -2.499390e-01 3.422165e-02 1.544762e-02
7.250688e+07 3.163910e-02 2.740860e-03 9.559326e-01 -2.570801e-01 9.518433e-01 -2.505493e-01 3.434563e-02 1.525116e-02
7.272469e+07 3.173637e-02 2.616882e-03 9.558716e-01 -2.579346e-01 9.519043e-01 -2.509766e-01 3.462601e-02 1.487350e-02
7.294250e+07 3.176308e-02 2.464294e-03 9.555054e-01 -2.592773e-01 9.516602e-01 -2.513428e-01 3.463554e-02 1.483917e-02
7.316031e+07 3.188515e-02 2.275467e-03 9.547729e-01 -2.598267e-01 9.514771e-01 -2.520142e-01 3.472710e-02 1.452065e-02
7.337812e+07 3.190613e-02 2.157211e-03 9.550171e-01 -2.597046e-01 9.506836e-01 -2.524414e-01 3.481293e-02 1.436996e-02
7.359594e+07 3.203583e-02 1.964569e-03 9.547729e-01 -2.606201e-01 9.512939e-01 -2.532349e-01 3.498077e-02 1.400566e-02
7.381375e+07 3.206635e-02 1.791000e-03 9.544067e-01 -2.613525e-01 9.506836e-01 -2.546997e-01 3.509521e-02 1.377869e-02
7.403156e+07 3.210258e-02 1.598358e-03 9.543457e-01 -2.619629e-01 9.503784e-01 -2.548218e-01 3.524208e-02 1.361847e-02
7.424938e+07 3.216553e-02 1.438141e-03 9.538574e-01 -2.625122e-01 9.508667e-01 -2.561646e-01 3.525925e-02 1.333046e-02
7.446719e+07 3.229713e-02 1.276016e-03 9.536133e-01 -2.636719e-01 9.506226e-01 -2.566528e-01 3.530502e-02 1.302910e-02
7.468500e+07 3.230858e-02 1.073837e-03 9.531250e-01 -2.651367e-01 9.506836e-01 -2.572021e-01 3.544426e-02 1.287270e-02
7.490281e+07 3.238487e-02 9.422302e-04 9.543457e-01 -2.651367e-01 9.501953e-01 -2.578735e-01 3.563499e-02 1.260948e-02
7.512062e+07 3.238869e-02 8.029938e-04 9.523926e-01 -2.662354e-01 9.497070e-01 -2.579956e-01 3.573799e-02 1.247597e-02
7.533844e+07 3.243446e-02 5.779266e-04 9.529419e-01 -2.668457e-01 9.490356e-01 -2.597656e-01 3.578568e-02 1.215172e-02
7.555625e+07 3.251839e-02 4.787445e-04 9.524536e-01 -2.678223e-01 9.489136e-01 -2.598877e-01 3.590393e-02 1.196861e-02
7.577406e+07 3.261948e-02 2.899170e-04 9.522095e-01 -2.675781e-01 9.490356e-01 -2.600098e-01 3.606796e-02 1.172256e-02
7.599188e+07 3.261566e-02 1.392365e-04 9.523926e-01 -2.687988e-01 9.484863e-01 -2.612305e-01 3.602219e-02 1.150131e-02
7.620969e+07 3.263664e-02 -2.288818e-05 9.518433e-01 -2.698975e-01 9.476318e-01 -2.611694e-01 3.612709e-02 1.110077e-02
7.642750e+07 3.269196e-02 -2.632141e-04 9.516602e-01 -2.705688e-01 9.473877e-01 -2.621460e-01 3.632355e-02 1.084709e-02
7.664531e+07 3.276253e-02 -4.177094e-04 9.517212e-01 -2.711182e-01 9.472656e-01 -2.628174e-01 3.631020e-02 1.064873e-02
7.686312e+07 3.279114e-02 -5.855560e-04 9.518433e-01 -2.717285e-01 9.469604e-01 -2.636719e-01 3.658485e-02 1.031494e-02
7.708094e+07 3.282356e-02 -7.495880e-04 9.512939e-01 -2.722168e-01 9.470215e-01 -2.645874e-01 3.651810e-02 1.014137e-02
7.729875e+07 3.286362e-02 -9.040833e-04 9.503174e-01 -2.730103e-01 9.465942e-01 -2.640991e-01 3.671646e-02 9.876251e-03
7.751656e+07 3.294373e-02 -1.089096e-03 9.508057e-01 -2.736206e-01 9.468994e-01 -2.651367e-01 3.681564e-02 9.708405e-03
7.773438e+07 3.295135e-02 -1.226425e-03 9.499512e-01 -2.749634e-01 9.463501e-01 -2.665405e-01 3.680420e-02 9.420395e-03
7.795219e+07 3.299522e-02 -1.388550e-03 9.514771e-01 -2.750854e-01 9.461060e-01 -2.666016e-01 3.680992e-02 9.115219e-03
7.817000e+07 3.300667e-02 -1.623154e-03 9.507446e-01 -2.761230e-01 9.465332e-01 -2.678223e-01 3.690720e-02 8.764267e-03
7.838781e+07 3.302956e-02 -1.724243e-03 9.498901e-01 -2.763672e-01 9.453735e-01 -2.675171e-01 3.699684e-02 8.546829e-03
7.860562e+07 3.307152e-02 -1.995087e-03 9.502563e-01 -2.773438e-01 9.458008e-01 -2.689209e-01 3.697968e-02 8.068085e-03
7.882344e+07 3.313828e-02 -2.042770e-03 9.497070e-01 -2.775269e-01 9.453735e-01 -2.691040e-01 3.693390e-02 7.919312e-03
7.904125e+07 3.316498e-02 -2.267838e-03 9.496460e-01 -2.792358e-01 9.451904e-01 -2.698975e-01 3.716278e-02 7.707596e-03
7.925906e+07 3.308868e-02 -2.426147e-03 9.493408e-01 -2.799072e-01 9.445801e-01 -2.708130e-01 3.721809e-02 7.457733e-03
7.947688e+07 3.315163e-02 -2.540588e-03 9.487915e-01 -2.805786e-01 9.440918e-01 -2.720947e-01 3.723907e-02 7.165909e-03
7.969469e+07 3.319359e-02 -2.809525e-03 9.487915e-01 -2.817383e-01 9.437256e-01 -2.728271e-01 3.732491e-02 6.896973e-03
7.991250e+07 3.319359e-02 -2.916336e-03 9.485474e-01 -2.820435e-01 9.437256e-01 -2.729492e-01 3.739738e-02 6.639481e-03
8.013031e+07 3.321648e-02 -3.114700e-03 9.481812e-01 -2.828369e-01 9.427490e-01 -2.740479e-01 3.741074e-02 6.250381e-03
8.034812e+07 3.328133e-02 -3.324509e-03 9.477539e-01 -2.836914e-01 9.429321e-01 -2.741699e-01 3.750229e-02 5.989075e-03
8.056594e+07 3.329277e-02 -3.438950e-03 9.483643e-01 -2.847900e-01 9.431152e-01 -2.741699e-01 3.765678e-02 5.769730e-03
8.078375e+07 3.325844e-02 -3.612518e-03 9.475708e-01 -2.851562e-01 9.433594e-01 -2.752075e-01 3.759384e-02 5.445480e-03
8.100156e+07 3.330231e-02 -3.784180e-03 9.471436e-01 -2.856445e-01 9.421387e-01 -2.764282e-01 3.763008e-02 5.308151e-03
8.121938e+07 3.323746e-02 -3.976822e-03 9.473267e-01 -2.866211e-01 9.420776e-01 -2.766113e-01 3.772163e-02 4.913330e-03
8.143719e+07 3.327560e-02 -4.049301e-03 9.476318e-01 -2.874146e-01 9.424438e-01 -2.766724e-01 3.771591e-02 4.615784e-03
8.165500e+07 3.329849e-02 -4.306793e-03 9.468384e-01 -2.878418e-01 9.415894e-01 -2.781372e-01 3.758812e-02 4.323959e-03
8.187281e+07 3.330231e-02 -4.423141e-03 9.464722e-01 -2.883301e-01 9.422607e-01 -2.786865e-01 3.769684e-02 3.997803e-03
8.209062e+07 3.335762e-02 -4.585266e-03 9.465332e-01 -2.893066e-01 9.419556e-01 -2.792969e-01 3.785324e-02 3.810883e-03
8.230844e+07 3.337860e-02 -4.737854e-03 9.465942e-01 -2.902832e-01 9.420166e-01 -2.799072e-01 3.778458e-02 3.427505e-03
8.252625e+07 3.335381e-02 -4.901886e-03 9.461060e-01 -2.909546e-01 9.419556e-01 -2.805786e-01 3.783035e-02 3.211975e-03
8.274406e+07 3.328323e-02 -5.163193e-03 9.463501e-01 -2.911987e-01 9.400024e-01 -2.824097e-01 3.778267e-02 2.836227e-03
8.296188e+07 3.329849e-02 -5.229950e-03 9.453735e-01 -2.922363e-01 9.400024e-01 -2.821655e-01 3.793335e-02 2.613068e-03
8.317969e+07 3.335190e-02 -5.397797e-03 9.453125e-01 -2.929688e-01 9.404297e-01 -2.824707e-01 3.784180e-02 2.384186e-03
8.339750e+07 3.330231e-02 -5.630493e-03 9.451294e-01 -2.934570e-01 9.402466e-01 -2.839355e-01 3.796387e-02 2.056122e-03
8.361531e+07 3.327560e-02 -5.737305e-03 9.450073e-01 -2.940063e-01 9.400635e-01 -2.840576e-01 3.787422e-02 1.754761e-03
8.383312e+07 3.332710e-02 -5.895615e-03 9.443970e-01 -2.957764e-01 9.395752e-01 -2.849731e-01 3.778839e-02 1.415253e-03
8.405094e+07 3.332710e-02 -6.038666e-03 9.449463e-01 -2.965088e-01 9.390869e-01 -2.855835e-01 3.784561e-02 1.146317e-03
8.426875e+07 3.329659e-02 -6.235123e-03 9.445801e-01 -2.973022e-01 9.393311e-01 -2.858276e-01 3.786659e-02 8.640289e-04
8.448656e+07 3.325844e-02 -6.385803e-03 9.444580e-01 -2.978516e-01 9.387817e-01 -2.866821e-01 3.792763e-02 5.378723e-04
8.470438e+07 3.324509e-02 -6.521225e-03 9.437866e-01 -2.982788e-01 9.389038e-01 -2.873535e-01 3.766441e-02 7.820129e-05
8.492219e+07 3.326797e-02 -6.706238e-03 9.439697e-01 -2.988892e-01 9.387817e-01 -2.883301e-01 3.789711e-02 -7.820129e-05
8.514000e+07 3.325081e-02 -6.837845e-03 9.437866e-01 -2.998657e-01 9.389648e-01 -2.885132e-01 3.786469e-02 -2.517700e-04
8.535781e+07 3.321838e-02 -6.982803e-03 9.434204e-01 -3.010254e-01 9.381714e-01 -2.891846e-01 3.787041e-02 -6.694794e-04
8.557562e+07 3.318405e-02 -7.135391e-03 9.430542e-01 -3.001099e-01 9.385986e-01 -2.902832e-01 3.781319e-02 -7.476807e-04
8.579344e+07 3.315926e-02 -7.312775e-03 9.431152e-01 -3.021240e-01 9.376831e-01 -2.902222e-01 3.774643e-02 -1.207352e-03
8.601125e+07 3.318977e-02 -7.453918e-03 9.418945e-01 -3.026123e-01 9.384766e-01 -2.916870e-01 3.773880e-02 -1.510620e-03
8.622906e+07 3.316116e-02 -7.564545e-03 9.420166e-01 -3.034668e-01 9.378052e-01 -2.914429e-01 3.765297e-02 -1.804352e-03
8.644688e+07 3.313065e-02 -7.797241e-03 9.417114e-01 -3.034668e-01 9.373169e-01 -2.935791e-01 3.767014e-02 -2.159119e-03
8.666469e+07 3.307152e-02 -7.963181e-03 9.422607e-01 -3.049316e-01 9.365234e-01 -2.942505e-01 3.760719e-02 -2.534866e-03
8.688250e+07 3.306770e-02 -8.045197e-03 9.421387e-01 -3.056030e-01 9.368286e-01 -2.941284e-01 3.759766e-02 -2.742767e-03
8.710031e+07 3.302765e-02 -8.163452e-03 9.420776e-01 -3.066406e-01 9.362183e-01 -2.947998e-01 3.743172e-02 -3.168106e-03
8.731812e+07 3.305435e-02 -8.354187e-03 9.414673e-01 -3.069458e-01 9.363403e-01 -2.959595e-01 3.753090e-02 -3.534317e-03
8.753594e+07 3.302002e-02 -8.491516e-03 9.406128e-01 -3.070679e-01 9.365845e-01 -2.963257e-01 3.746033e-02 -3.700256e-03
8.775375e+07 3.298569e-02 -8.600235e-03 9.406128e-01 -3.088989e-01 9.362183e-01 -2.963257e-01 3.722763e-02 -4.096985e-03
8.797156e+07 3.289032e-02 -8.808136e-03 9.417725e-01 -3.095703e-01 9.348145e-01 -2.978516e-01 3.723907e-02 -4.261017e-03
8.818938e+07 3.290176e-02 -8.916855e-03 9.403687e-01 -3.102417e-01 9.349365e-01 -2.981567e-01 3.719711e-02 -4.625320e-03
8.840719e+07 3.289795e-02 -9.119034e-03 9.406738e-01 -3.116455e-01 9.353027e-01 -2.988892e-01 3.725052e-02 -4.938126e-03
8.862500e+07 3.287506e-02 -9.283066e-03 9.409790e-01 -3.117065e-01 9.354248e-01 -3.000488e-01 3.713799e-02 -5.100250e-03
8.884281e+07 3.282356e-02 -9.338379e-03 9.399414e-01 -3.126221e-01 9.349365e-01 -2.999878e-01 3.701973e-02 -5.357742e-03
8.906062e+07 3.271294e-02 -9.511948e-03 9.393311e-01 -3.135376e-01 9.343262e-01 -3.001709e-01 3.687096e-02 -5.609512e-03
8.927844e+07 3.272629e-02 -9.696960e-03 9.393311e-01 -3.139648e-01 9.336548e-01 -3.021240e-01 3.689766e-02 -5.960464e-03
8.949625e+07 3.263664e-02 -9.792328e-03 9.393311e-01 -3.146362e-01 9.336548e-01 -3.023682e-01 3.680229e-02 -6.347656e-03
8.971406e+07 3.268051e-02 -9.906769e-03 9.393921e-01 -3.158569e-01 9.338989e-01 -3.026123e-01 3.681946e-02 -6.567001e-03
8.993188e+07 3.260040e-02 -1.004791e-02 9.385986e-01 -3.157959e-01 9.341431e-01 -3.033447e-01 3.662872e-02 -6.948471e-03
9.014969e+07 3.259850e-02 -1.020050e-02 9.389038e-01 -3.165283e-01 9.337158e-01 -3.040161e-01 3.661346e-02 -7.230759e-03
9.036750e+07 3.249741e-02 -1.032257e-02 9.377441e-01 -3.181152e-01 9.332886e-01 -3.051147e-01 3.636360e-02 -7.442474e-03
9.058531e+07 3.247833e-02 -1.047134e-02 9.378052e-01 -3.184204e-01 9.328613e-01 -3.058472e-01 3.629112e-02 -7.827759e-03
9.080312e+07 3.245354e-02 -1.058197e-02 9.385376e-01 -3.201294e-01 9.331055e-01 -3.067627e-01 3.607750e-02 -8.174896e-03
9.102094e+07 3.238106e-02 -1.065063e-02 9.373779e-01 -3.198853e-01 9.321899e-01 -3.071289e-01 3.600502e-02 -8.382797e-03
9.123875e+07 3.232002e-02 -1.085663e-02 9.366455e-01 -3.210449e-01 9.323730e-01 -3.082886e-01 3.605461e-02 -8.636475e-03
9.145656e+07 3.228951e-02 -1.093483e-02 9.372559e-01 -3.208618e-01 9.321899e-01 -3.084106e-01 3.591156e-02 -8.825302e-03
9.167438e+07 3.229332e-02 -1.102257e-02 9.373779e-01 -3.217773e-01 9.328613e-01 -3.088379e-01 3.578377e-02 -9.202957e-03
9.189219e+07 3.219414e-02 -1.118660e-02 9.366455e-01 -3.229370e-01 9.317627e-01 -3.099976e-01 3.553200e-02 -9.414673e-03
9.211000e+07 3.212166e-02 -1.136208e-02 9.360352e-01 -3.237305e-01 9.315796e-01 -3.100586e-01 3.553772e-02 -9.910583e-03
9.232781e+07 3.203964e-02 -1.143646e-02 9.365234e-01 -3.247070e-01 9.309692e-01 -3.106689e-01 3.533936e-02 -9.935379e-03
9.254562e+07 3.201294e-02 -1.160240e-02 9.357910e-01 -3.256226e-01 9.312744e-01 -3.120117e-01 3.520775e-02 -1.018143e-02
9.276344e+07 3.201866e-02 -1.172066e-02 9.346924e-01 -3.258057e-01 9.307861e-01 -3.126831e-01 3.513908e-02 -1.060104e-02
9.298125e+07 3.196144e-02 -1.180458e-02 9.345093e-01 -3.261108e-01 9.307251e-01 -3.131714e-01 3.492737e-02 -1.068687e-02
9.319906e+07 3.193665e-02 -1.191711e-02 9.349365e-01 -3.275146e-01 9.312744e-01 -3.135986e-01 3.482056e-02 -1.120377e-02
9.341688e+07 3.187180e-02 -1.206398e-02 9.349365e-01 -3.282471e-01 9.308472e-01 -3.148804e-01 3.475189e-02 -1.134300e-02
9.363469e+07 3.184128e-02 -1.225090e-02 9.352417e-01 -3.292236e-01 9.306030e-01 -3.153076e-01 3.467560e-02 -1.148987e-02
9.385250e+07 3.180313e-02 -1.223564e-02 9.338379e-01 -3.294067e-01 9.300537e-01 -3.161011e-01 3.442192e-02 -1.183319e-02
9.407031e+07 3.169060e-02 -1.237869e-02 9.343262e-01 -3.303833e-01 9.292603e-01 -3.161621e-01 3.423309e-02 -1.220322e-02
9.428812e+07 3.166962e-02 -1.251411e-02 9.337158e-01 -3.305664e-01 9.302979e-01 -3.171387e-01 3.428268e-02 -1.233864e-02
9.450594e+07 3.162003e-02 -1.264381e-02 9.344482e-01 -3.324585e-01 9.292603e-01 -3.181152e-01 3.388023e-02 -1.252556e-02
9.472375e+07 3.154945e-02 -1.278114e-02 9.331055e-01 -3.328857e-01 9.295044e-01 -3.193970e-01 3.377914e-02 -1.281357e-02
9.494156e+07 3.147888e-02 -1.291656e-02 9.326782e-01 -3.330688e-01 9.291382e-01 -3.200073e-01 3.352547e-02 -1.322556e-02
9.515938e+07 3.146744e-02 -1.294327e-02 9.323120e-01 -3.344116e-01 9.293213e-01 -3.204346e-01 3.341675e-02 -1.351929e-02
9.537719e+07 3.138161e-02 -1.308441e-02 9.320068e-01 -3.353271e-01 9.285278e-01 -3.195801e-01 3.339005e-02 -1.353455e-02
9.559500e+07 3.137589e-02 -1.315880e-02 9.312744e-01 -3.351440e-01 9.284058e-01 -3.208618e-01 3.314018e-02 -1.379013e-02
9.581281e+07 3.122520e-02 -1.333427e-02 9.326782e-01 -3.363037e-01 9.276733e-01 -3.220825e-01 3.285599e-02 -1.415825e-02
9.603062e+07 3.123283e-02 -1.342773e-02 9.319458e-01 -3.366699e-01 9.281616e-01 -3.225708e-01 3.294563e-02 -1.428604e-02
9.624844e+07 3.118324e-02 -1.352692e-02 9.323120e-01 -3.380737e-01 9.283447e-01 -3.240356e-01 3.277969e-02 -1.463890e-02
9.646625e+07 3.109932e-02 -1.358986e-02 9.308472e-01 -3.383789e-01 9.279175e-01 -3.236694e-01 3.252220e-02 -1.470947e-02
9.668406e+07 3.101349e-02 -1.376534e-02 9.310913e-01 -3.395386e-01 9.260864e-01 -3.246460e-01 3.225708e-02 -1.511574e-02
9.690188e+07 3.098488e-02 -1.385307e-02 9.309692e-01 -3.399048e-01 9.273071e-01 -3.253174e-01 3.224945e-02 -1.525688e-02
9.711969e+07 3.096008e-02 -1.396561e-02 9.298096e-01 -3.411255e-01 9.265137e-01 -3.265381e-01 3.206825e-02 -1.553154e-02
9.733750e+07 3.084946e-02 -1.414871e-02 9.304199e-01 -3.411255e-01 9.266968e-01 -3.270264e-01 3.186989e-02 -1.573944e-02
9.755531e+07 3.082275e-02 -1.417923e-02 9.298706e-01 -3.420410e-01 9.255981e-01 -3.277588e-01 3.172302e-02 -1.592064e-02
9.777312e+07 3.077126e-02 -1.429749e-02 9.296875e-01 -3.431396e-01 9.263916e-01 -3.279419e-01 3.153038e-02 -1.608276e-02
9.799094e+07 3.071213e-02 -1.442528e-02 9.301147e-01 -3.436279e-01 9.254761e-01 -3.292847e-01 3.133774e-02 -1.633644e-02
9.820875e+07 3.063774e-02 -1.453018e-02 9.286499e-01 -3.442383e-01 9.260254e-01 -3.287964e-01 3.109169e-02 -1.659393e-02
9.842656e+07 3.060532e-02 -1.465034e-02 9.298706e-01 -3.450317e-01 9.257812e-01 -3.303833e-01 3.102684e-02 -1.674652e-02
9.864438e+07 3.050041e-02 -1.474380e-02 9.290161e-01 -3.461304e-01 9.252319e-01 -3.314209e-01 3.070450e-02 -1.709175e-02
9.886219e+07 3.041649e-02 -1.486588e-02 9.284058e-01 -3.462524e-01 9.247437e-01 -3.322144e-01 3.052521e-02 -1.721573e-02
9.908000e+07 3.038788e-02 -1.495552e-02 9.285889e-01 -3.474731e-01 9.249268e-01 -3.327637e-01 3.054619e-02 -1.734924e-02
9.929781e+07 3.028107e-02 -1.506615e-02 9.285278e-01 -3.484497e-01 9.238892e-01 -3.331299e-01 3.023720e-02 -1.774597e-02
9.951562e+07 3.024673e-02 -1.511765e-02 9.281006e-01 -3.488770e-01 9.245605e-01 -3.334351e-01 3.000069e-02 -1.774597e-02
9.973344e+07 3.016090e-02 -1.526451e-02 9.281006e-01 -3.489380e-01 9.242554e-01 -3.347168e-01 2.989006e-02 -1.804161e-02
9.995125e+07 3.007698e-02 -1.535988e-02 9.274902e-01 -3.502808e-01 9.230957e-01 -3.349609e-01 2.975273e-02 -1.825905e-02
1.001691e+08 3.001785e-02 -1.546097e-02 9.271240e-01 -3.512573e-01 9.233398e-01 -3.364868e-01 2.953148e-02 -1.849365e-02
1.003869e+08 2.998352e-02 -1.549149e-02 9.266968e-01 -3.518066e-01 9.234619e-01 -3.372803e-01 2.937889e-02 -1.866722e-02
1.006047e+08 2.988625e-02 -1.562119e-02 9.264526e-01 -3.531494e-01 9.224243e-01 -3.367920e-01 2.912521e-02 -1.889420e-02
1.008225e+08 2.979088e-02 -1.577568e-02 9.263306e-01 -3.543091e-01 9.218750e-01 -3.386841e-01 2.902222e-02 -1.907539e-02
1.010403e+08 2.980423e-02 -1.589584e-02 9.255981e-01 -3.541260e-01 9.224854e-01 -3.394165e-01 2.880859e-02 -1.932144e-02
1.012581e+08 2.968597e-02 -1.595306e-02 9.255981e-01 -3.550415e-01 9.218140e-01 -3.397217e-01 2.857399e-02 -1.947403e-02
1.014759e+08 2.961540e-02 -1.601219e-02 9.251099e-01 -3.556519e-01 9.223633e-01 -3.401489e-01 2.837181e-02 -1.968193e-02
1.016938e+08 2.955627e-02 -1.616096e-02 9.250488e-01 -3.559570e-01 9.212036e-01 -3.417358e-01 2.815247e-02 -1.989174e-02
1.019116e+08 2.944756e-02 -1.618958e-02 9.243774e-01 -3.562012e-01 9.204102e-01 -3.410645e-01 2.800941e-02 -2.005959e-02
1.021294e+08 2.937317e-02 -1.629066e-02 9.249268e-01 -3.576050e-01 9.212646e-01 -3.419800e-01 2.782249e-02 -2.023315e-02
1.023472e+08 2.924347e-02 -1.641464e-02 9.243164e-01 -3.587036e-01 9.202881e-01 -3.421021e-01 2.760315e-02 -2.050400e-02
1.025650e+08 2.922440e-02 -1.651955e-02 9.237061e-01 -3.593140e-01 9.204712e-01 -3.436890e-01 2.738571e-02 -2.061653e-02
1.027828e+08 2.912140e-02 -1.661110e-02 9.232788e-01 -3.604126e-01 9.204102e-01 -3.438110e-01 2.718735e-02 -2.082825e-02
1.030006e+08 2.904510e-02 -1.666260e-02 9.228516e-01 -3.604736e-01 9.195557e-01 -3.446045e-01 2.701569e-02 -2.099037e-02
1.032184e+08 2.892303e-02 -1.678658e-02 9.227295e-01 -3.619995e-01 9.193115e-01 -3.453369e-01 2.673340e-02 -2.120972e-02
1.034362e+08 2.889252e-02 -1.687622e-02 9.222412e-01 -3.613892e-01 9.193726e-01 -3.453979e-01 2.657700e-02 -2.131844e-02
1.036541e+08 2.881432e-02 -1.691628e-02 9.227905e-01 -3.624878e-01 9.191895e-01 -3.466797e-01 2.637291e-02 -2.153587e-02
1.038719e+08 2.873802e-02 -1.696968e-02 9.212646e-01 -3.630371e-01 9.184570e-01 -3.474731e-01 2.614594e-02 -2.167511e-02
1.040897e+08 2.863693e-02 -1.707077e-02 9.216309e-01 -3.637085e-01 9.182739e-01 -3.479614e-01 2.595901e-02 -2.190208e-02
1.043075e+08 2.857018e-02 -1.709175e-02 9.215088e-01 -3.649292e-01 9.182739e-01 -3.484497e-01 2.572060e-02 -2.208710e-02
1.045253e+08 2.843857e-02 -1.728630e-02 9.205933e-01 -3.659058e-01 9.173584e-01 -3.496704e-01 2.549362e-02 -2.228546e-02
1.047431e+08 2.833939e-02 -1.734352e-02 9.208374e-01 -3.649292e-01 9.180298e-01 -3.499146e-01 2.532959e-02 -2.238083e-02
1.049609e+08 2.828407e-02 -1.739883e-02 9.208374e-01 -3.676758e-01 9.172974e-01 -3.504028e-01 2.508163e-02 -2.257919e-02
1.051788e+08 2.820778e-02 -1.745415e-02 9.201660e-01 -3.675537e-01 9.176636e-01 -3.504028e-01 2.489281e-02 -2.276802e-02
1.053966e+08 2.813911e-02 -1.755333e-02 9.203491e-01 -3.684082e-01 9.165039e-01 -3.513184e-01 2.470779e-02 -2.293968e-02
1.056144e+08 2.807045e-02 -1.761627e-02 9.193115e-01 -3.692627e-01 9.166260e-01 -3.527222e-01 2.445030e-02 -2.304077e-02
1.058322e+08 2.792358e-02 -1.773262e-02 9.186401e-01 -3.699951e-01 9.160767e-01 -3.527222e-01 2.421379e-02 -2.326775e-02
1.060500e+08 2.784348e-02 -1.778603e-02 9.188232e-01 -3.702393e-01 9.162598e-01 -3.536377e-01 2.398872e-02 -2.338028e-02
1.062678e+08 2.770042e-02 -1.786423e-02 9.179688e-01 -3.710938e-01 9.154053e-01 -3.540649e-01 2.373314e-02 -2.353477e-02
1.064856e+08 2.765656e-02 -1.791954e-02 9.180298e-01 -3.723145e-01 9.162598e-01 -3.551025e-01 2.354813e-02 -2.370644e-02
1.067034e+08 2.756691e-02 -1.802826e-02 9.178467e-01 -3.727417e-01 9.154053e-01 -3.560791e-01 2.328682e-02 -2.384186e-02
1.069212e+08 2.747345e-02 -1.810074e-02 9.173584e-01 -3.731079e-01 9.157715e-01 -3.562012e-01 2.308655e-02 -2.401543e-02
1.071391e+08 2.741432e-02 -1.823044e-02 9.169312e-01 -3.749390e-01 9.149780e-01 -3.574829e-01 2.283478e-02 -2.418137e-02
1.073569e+08 2.735519e-02 -1.819611e-02 9.176025e-01 -3.750610e-01 9.152222e-01 -3.580322e-01 2.264404e-02 -2.431488e-02
1.075747e+08 2.724838e-02 -1.828003e-02 9.175415e-01 -3.754272e-01 9.143066e-01 -3.588257e-01 2.239799e-02 -2.443504e-02
1.077925e+08 2.715302e-02 -1.835442e-02 9.172974e-01 -3.759766e-01 9.143066e-01 -3.594360e-01 2.213860e-02 -2.460670e-02
1.080103e+08 2.706909e-02 -1.835442e-02 9.168091e-01 -3.768921e-01 9.141846e-01 -3.596191e-01 2.192497e-02 -2.477455e-02
1.082281e+08 2.693176e-02 -1.848984e-02 9.160767e-01 -3.773804e-01 9.133911e-01 -3.603516e-01 2.170944e-02 -2.489281e-02
1.084459e+08 2.684784e-02 -1.854515e-02 9.159546e-01 -3.780518e-01 9.130859e-01 -3.615112e-01 2.148628e-02 -2.500534e-02
1.086638e+08 2.675247e-02 -1.857376e-02 9.158325e-01 -3.791504e-01 9.133911e-01 -3.610840e-01 2.119255e-02 -2.514076e-02
1.088816e+08 2.669907e-02 -1.865196e-02 9.166260e-01 -3.792725e-01 9.135742e-01 -3.624268e-01 2.100182e-02 -2.531052e-02
1.090994e+08 2.658272e-02 -1.867676e-02 9.152832e-01 -3.806152e-01 9.123535e-01 -3.635254e-01 2.071190e-02 -2.543068e-02
1.093172e+08 2.645493e-02 -1.874542e-02 9.151611e-01 -3.804932e-01 9.119873e-01 -3.640137e-01 2.048683e-02 -2.551460e-02
1.095350e+08 2.637482e-02 -1.878738e-02 9.143066e-01 -3.814087e-01 9.114990e-01 -3.645630e-01 2.030563e-02 -2.561760e-02
1.097528e+08 2.630043e-02 -1.890373e-02 9.137573e-01 -3.836670e-01 9.122925e-01 -3.650513e-01 2.001190e-02 -2.576256e-02
1.099706e+08 2.622604e-02 -1.896858e-02 9.140015e-01 -3.832397e-01 9.127197e-01 -3.651123e-01 1.979828e-02 -2.590752e-02
1.101884e+08 2.606583e-02 -1.903915e-02 9.135132e-01 -3.836670e-01 9.107056e-01 -3.674927e-01 1.951790e-02 -2.601051e-02
1.104062e+08 2.600098e-02 -1.901054e-02 9.133301e-01 -3.847046e-01 9.108276e-01 -3.669434e-01 1.928139e-02 -2.616119e-02
1.106241e+08 2.589798e-02 -1.915932e-02 9.120483e-01 -3.858032e-01 9.109497e-01 -3.676758e-01 1.901817e-02 -2.630043e-02
1.108419e+08 2.581596e-02 -1.915550e-02 9.138794e-01 -3.862305e-01 9.108276e-01 -3.682861e-01 1.879883e-02 -2.643585e-02
1.110597e+08 2.571106e-02 -1.918983e-02 9.132690e-01 -3.867188e-01 9.094238e-01 -3.692627e-01 1.851082e-02 -2.650833e-02
1.112775e+08 2.562904e-02 -1.927376e-02 9.125366e-01 -3.870850e-01 9.097290e-01 -3.698120e-01 1.829529e-02 -2.662659e-02
1.114953e+08 2.551842e-02 -1.929283e-02 9.121094e-01 -3.884888e-01 9.094849e-01 -3.705444e-01 1.803970e-02 -2.671814e-02
1.117131e+08 2.546883e-02 -1.935768e-02 9.119263e-01 -3.882446e-01 9.097290e-01 -3.704834e-01 1.779556e-02 -2.677345e-02
1.119309e+08 2.533531e-02 -1.934624e-02 9.118652e-01 -3.897095e-01 9.091797e-01 -3.704224e-01 1.756287e-02 -2.700043e-02
1.121488e+08 2.522278e-02 -1.951027e-02 9.107666e-01 -3.901978e-01 9.088745e-01 -3.719482e-01 1.726151e-02 -2.702141e-02
1.123666e+08 2.514458e-02 -1.950264e-02 9.101562e-01 -3.915405e-01 9.090576e-01 -3.731079e-01 1.703072e-02 -2.710724e-02
1.125844e+08 2.501488e-02 -1.951218e-02 9.104004e-01 -3.916016e-01 9.082031e-01 -3.734741e-01 1.678276e-02 -2.722168e-02
1.128022e+08 2.496338e-02 -1.951790e-02 9.098511e-01 -3.923950e-01 9.081421e-01 -3.733521e-01 1.656342e-02 -2.735901e-02
1.130200e+08 2.482796e-02 -1.961899e-02 9.093018e-01 -3.930664e-01 9.077759e-01 -3.742065e-01 1.627731e-02 -2.744865e-02
1.132378e+08 2.476883e-02 -1.967430e-02 9.100342e-01 -3.936157e-01 9.069824e-01 -3.750610e-01 1.605225e-02 -2.748108e-02
1.134556e+08 2.463531e-02 -1.974106e-02 9.093628e-01 -3.944092e-01 9.074707e-01 -3.767700e-01 1.577568e-02 -2.759361e-02
1.136734e+08 2.449608e-02 -1.979256e-02 9.095459e-01 -3.950195e-01 9.068604e-01 -3.766479e-01 1.554298e-02 -2.768135e-02
1.138912e+08 2.444077e-02 -1.985359e-02 9.083252e-01 -3.961182e-01 9.077148e-01 -3.768311e-01 1.527405e-02 -2.775764e-02
1.141091e+08 2.432823e-02 -1.986313e-02 9.086914e-01 -3.954468e-01 9.064331e-01 -3.783569e-01 1.506805e-02 -2.783012e-02
1.143269e+08 2.420616e-02 -1.988792e-02 9.076538e-01 -3.973389e-01 9.061279e-01 -3.791504e-01 1.477814e-02 -2.788544e-02
1.145447e+08 2.414131e-02 -1.992226e-02 9.084473e-01 -3.981934e-01 9.051514e-01 -3.789673e-01 1.454735e-02 -2.803421e-02
1.147625e+08 2.402878e-02 -1.995468e-02 9.081421e-01 -3.984985e-01 9.060669e-01 -3.805542e-01 1.422882e-02 -2.807617e-02
1.149803e+08 2.389908e-02 -1.997566e-02 9.069824e-01 -3.994141e-01 9.054565e-01 -3.806763e-01 1.397133e-02 -2.816391e-02
1.151981e+08 2.381706e-02 -1.997948e-02 9.067383e-01 -3.998413e-01 9.052734e-01 -3.816528e-01 1.374054e-02 -2.820778e-02
1.154159e+08 2.371216e-02 -2.009964e-02 9.069214e-01 -4.010010e-01 9.050293e-01 -3.825073e-01 1.349068e-02 -2.830315e-02
1.156338e+08 2.363205e-02 -2.012825e-02 9.065552e-01 -4.014282e-01 9.053345e-01 -3.823853e-01 1.318741e-02 -2.833748e-02
1.158516e+08 2.354813e-02 -2.009392e-02 9.058838e-01 -4.019165e-01 9.045410e-01 -3.834229e-01 1.298332e-02 -2.841568e-02
1.160694e+08 2.345657e-02 -2.016640e-02 9.064941e-01 -4.025879e-01 9.047852e-01 -3.840332e-01 1.270485e-02 -2.849197e-02
1.162872e+08 2.333450e-02 -2.018356e-02 9.058838e-01 -4.034424e-01 9.041748e-01 -3.849487e-01 1.249886e-02 -2.852058e-02
1.165050e+08 2.322197e-02 -2.025986e-02 9.058838e-01 -4.041748e-01 9.042969e-01 -3.852539e-01 1.218987e-02 -2.858734e-02
1.167228e+08 2.314949e-02 -2.023888e-02 9.053345e-01 -4.049683e-01 9.036865e-01 -3.861084e-01 1.191330e-02 -2.862930e-02
1.169406e+08 2.303886e-02 -2.020264e-02 9.036865e-01 -4.063721e-01 9.035034e-01 -3.867188e-01 1.165771e-02 -2.872086e-02
1.171584e+08 2.295303e-02 -2.026749e-02 9.054565e-01 -4.061890e-01 9.042969e-01 -3.864136e-01 1.145363e-02 -2.877235e-02
1.173762e+08 2.284050e-02 -2.032471e-02 9.051514e-01 -4.073486e-01 9.033203e-01 -3.878784e-01 1.112556e-02 -2.880859e-02
1.175941e+08 2.266502e-02 -2.033806e-02 9.038086e-01 -4.085693e-01 9.022827e-01 -3.886719e-01 1.089859e-02 -2.886200e-02
1.178119e+08 2.258682e-02 -2.042389e-02 9.038696e-01 -4.083252e-01 9.024048e-01 -3.894653e-01 1.068497e-02 -2.891350e-02
1.180297e+08 2.254295e-02 -2.039909e-02 9.037476e-01 -4.103394e-01 9.025879e-01 -3.895264e-01 1.035118e-02 -2.895927e-02
1.182475e+08 2.241707e-02 -2.042007e-02 9.030151e-01 -4.097290e-01 9.021606e-01 -3.905029e-01 1.012230e-02 -2.894020e-02
1.184653e+08 2.225876e-02 -2.047157e-02 9.031372e-01 -4.114380e-01 9.011841e-01 -3.919067e-01 9.855270e-03 -2.899551e-02
1.186831e+08 2.221489e-02 -2.041817e-02 9.028931e-01 -4.121094e-01 9.017944e-01 -3.914185e-01 9.553909e-03 -2.905464e-02
1.189009e+08 2.207375e-02 -2.045822e-02 9.028931e-01 -4.123535e-01 9.011841e-01 -3.930054e-01 9.401321e-03 -2.912331e-02
1.191188e+08 2.200890e-02 -2.058411e-02 9.020996e-01 -4.130249e-01 9.019775e-01 -3.942261e-01 9.080887e-03 -2.908325e-02
1.193366e+08 2.183914e-02 -2.052879e-02 9.020386e-01 -4.144897e-01 9.008789e-01 -3.938599e-01 8.871078e-03 -2.915192e-02
1.195544e+08 2.178192e-02 -2.050400e-02 9.011230e-01 -4.133301e-01 9.008179e-01 -3.944092e-01 8.592606e-03 -2.911949e-02
1.197722e+08 2.163124e-02 -2.050972e-02 9.011230e-01 -4.141235e-01 8.999634e-01 -3.949585e-01 8.295059e-03 -2.917099e-02
1.199900e+08 2.156830e-02 -2.054977e-02 9.006348e-01 -4.160767e-01 9.004517e-01 -3.955078e-01 8.071899e-03 -2.917099e-02
1.202078e+08 2.143669e-02 -2.060699e-02 9.011841e-01 -4.169312e-01 9.000854e-01 -3.959351e-01 7.806778e-03 -2.927589e-02
1.204256e+08 2.140427e-02 -2.058983e-02 9.016113e-01 -4.167480e-01 8.999634e-01 -3.969727e-01 7.553101e-03 -2.923203e-02
1.206434e+08 2.125359e-02 -2.065468e-02 9.002686e-01 -4.177246e-01 8.994141e-01 -3.983765e-01 7.246017e-03 -2.923203e-02
1.208612e+08 2.115822e-02 -2.062798e-02 9.002075e-01 -4.180908e-01 9.007568e-01 -3.981934e-01 7.017136e-03 -2.924347e-02
1.210791e+08 2.110481e-02 -2.071762e-02 9.003906e-01 -4.188232e-01 8.992310e-01 -3.997803e-01 6.763458e-03 -2.928352e-02
1.212969e+08 2.097511e-02 -2.067947e-02 8.989868e-01 -4.196777e-01 8.987427e-01 -3.993530e-01 6.479263e-03 -2.924156e-02
1.215147e+08 2.086639e-02 -2.070427e-02 8.992920e-01 -4.199829e-01 8.985596e-01 -4.005127e-01 6.223679e-03 -2.927399e-02
1.217325e+08 2.077484e-02 -2.075958e-02 8.988037e-01 -4.208374e-01 8.991089e-01 -4.011230e-01 5.992889e-03 -2.923775e-02
1.219503e+08 2.059746e-02 -2.070999e-02 8.988037e-01 -4.215698e-01 8.977051e-01 -4.015503e-01 5.691528e-03 -2.929306e-02
1.221681e+08 2.048111e-02 -2.069283e-02 8.975220e-01 -4.223022e-01 8.981323e-01 -4.017334e-01 5.468369e-03 -2.923775e-02
1.223859e+08 2.040291e-02 -2.075958e-02 8.979492e-01 -4.231567e-01 8.982544e-01 -4.029541e-01 5.212784e-03 -2.932739e-02
1.226038e+08 2.032471e-02 -2.071381e-02 8.975830e-01 -4.239502e-01 8.979492e-01 -4.035645e-01 4.972458e-03 -2.925682e-02
1.228216e+08 2.016640e-02 -2.075195e-02 8.970947e-01 -4.239502e-01 8.971558e-01 -4.040527e-01 4.707336e-03 -2.924728e-02
1.230394e+08 2.014351e-02 -2.075958e-02 8.965454e-01 -4.244995e-01 8.970337e-01 -4.047241e-01 4.434586e-03 -2.923393e-02
1.232572e+08 2.004814e-02 -2.072906e-02 8.961792e-01 -4.256592e-01 8.967896e-01 -4.044800e-01 4.196167e-03 -2.925301e-02
1.234750e+08 1.990128e-02 -2.072144e-02 8.961182e-01 -4.254150e-01 8.964233e-01 -4.053955e-01 3.894806e-03 -2.924728e-02
1.236928e+08 1.976204e-02 -2.079773e-02 8.966064e-01 -4.264526e-01 8.956299e-01 -4.069824e-01 3.690720e-03 -2.918625e-02
1.239106e+08 1.965714e-02 -2.077675e-02 8.959351e-01 -4.268188e-01 8.963013e-01 -4.071045e-01 3.471375e-03 -2.921867e-02
1.241284e+08 1.959991e-02 -2.078629e-02 8.955688e-01 -4.279175e-01 8.969116e-01 -4.078369e-01 3.171921e-03 -2.918243e-02
1.243462e+08 1.943016e-02 -2.072144e-02 8.945312e-01 -4.282227e-01 8.957520e-01 -4.084473e-01 2.908707e-03 -2.912331e-02
1.245641e+08 1.931763e-02 -2.075577e-02 8.949585e-01 -4.290161e-01 8.953857e-01 -4.088135e-01 2.683640e-03 -2.911377e-02
1.247819e+08 1.923561e-02 -2.074623e-02 8.948364e-01 -4.300537e-01 8.948975e-01 -4.094238e-01 2.391815e-03 -2.910995e-02
1.249997e+08 1.914024e-02 -2.073860e-02 8.941040e-01 -4.305420e-01 8.948364e-01 -4.105835e-01 2.193451e-03 -2.906036e-02
1.252175e+08 1.902008e-02 -2.078629e-02 8.933105e-01 -4.316406e-01 8.944702e-01 -4.104614e-01 1.897812e-03 -2.900124e-02
1.254353e+08 1.894379e-02 -2.069473e-02 8.934937e-01 -4.321899e-01 8.942261e-01 -4.111938e-01 1.655579e-03 -2.903557e-02
1.256531e+08 1.883316e-02 -2.067184e-02 8.928223e-01 -4.331055e-01 8.942261e-01 -4.115601e-01 1.398087e-03 -2.894211e-02
1.258709e+08 1.873016e-02 -2.070427e-02 8.929443e-01 -4.334106e-01 8.937988e-01 -4.122925e-01 1.173019e-03 -2.893639e-02
1.260888e+08 1.857567e-02 -2.066231e-02 8.936157e-01 -4.333496e-01 8.936157e-01 -4.128418e-01 9.193420e-04 -2.893829e-02
1.263066e+08 1.856041e-02 -2.073860e-02 8.920898e-01 -4.338989e-01 8.941650e-01 -4.139404e-01 6.866455e-04 -2.883911e-02
1.265244e+08 1.842117e-02 -2.065659e-02 8.920898e-01 -4.353027e-01 8.927002e-01 -4.141235e-01 4.425049e-04 -2.884674e-02
1.267422e+08 1.822662e-02 -2.065468e-02 8.920898e-01 -4.360962e-01 8.932495e-01 -4.146118e-01 1.811981e-04 -2.882195e-02
1.269600e+08 1.813698e-02 -2.068329e-02 8.918457e-01 -4.364624e-01 8.930664e-01 -4.156494e-01 -6.103516e-05 -2.877045e-02
1.271778e+08 1.802826e-02 -2.066231e-02 8.918457e-01 -4.367676e-01 8.934326e-01 -4.160767e-01 -2.994537e-04 -2.874756e-02
1.273956e+08 1.790428e-02 -2.066803e-02 8.911743e-01 -4.375610e-01 8.926392e-01 -4.167480e-01 -5.302429e-04 -2.861786e-02
1.276134e+08 1.784325e-02 -2.064133e-02 8.907471e-01 -4.382324e-01 8.925171e-01 -4.174805e-01 -7.457733e-04 -2.857208e-02
1.278312e+08 1.771545e-02 -2.058220e-02 8.903198e-01 -4.389038e-01 8.923340e-01 -4.169922e-01 -1.012802e-03 -2.859688e-02
1.280491e+08 1.763916e-02 -2.057266e-02 8.894043e-01 -4.399414e-01 8.917236e-01 -4.181519e-01 -1.283646e-03 -2.850342e-02
1.282669e+08 1.751518e-02 -2.056503e-02 8.900757e-01 -4.404907e-01 8.914185e-01 -4.185791e-01 -1.472473e-03 -2.847862e-02
1.284847e+08 1.742744e-02 -2.062035e-02 8.900757e-01 -4.403076e-01 8.918457e-01 -4.200439e-01 -1.743317e-03 -2.841568e-02
1.287025e+08 1.730728e-02 -2.055931e-02 8.894653e-01 -4.415894e-01 8.912964e-01 -4.204102e-01 -1.979828e-03 -2.829361e-02
1.289203e+08 1.713943e-02 -2.057457e-02 8.896484e-01 -4.421387e-01 8.901978e-01 -4.217529e-01 -2.229691e-03 -2.827263e-02
1.291381e+08 1.707077e-02 -2.049446e-02 8.894043e-01 -4.425049e-01 8.911133e-01 -4.215698e-01 -2.492905e-03 -2.826500e-02
1.293559e+08 1.693535e-02 -2.048111e-02 8.884277e-01 -4.438477e-01 8.905640e-01 -4.223633e-01 -2.714157e-03 -2.818680e-02
1.295738e+08 1.686668e-02 -2.046204e-02 8.887939e-01 -4.440918e-01 8.901367e-01 -4.224243e-01 -2.948761e-03 -2.811623e-02
1.297916e+08 1.669502e-02 -2.047539e-02 8.875732e-01 -4.451294e-01 8.895264e-01 -4.236450e-01 -3.208160e-03 -2.799606e-02
1.300094e+08 1.663399e-02 -2.045441e-02 8.872681e-01 -4.461060e-01 8.890991e-01 -4.238281e-01 -3.429413e-03 -2.793503e-02
1.302272e+08 1.654625e-02 -2.038574e-02 8.862305e-01 -4.456177e-01 8.892822e-01 -4.247437e-01 -3.648758e-03 -2.781487e-02
1.304450e+08 1.639175e-02 -2.039337e-02 8.860474e-01 -4.467163e-01 8.886719e-01 -4.246826e-01 -3.894806e-03 -2.780151e-02
1.306628e+08 1.622391e-02 -2.034950e-02 8.865356e-01 -4.473267e-01 8.885498e-01 -4.263306e-01 -4.123688e-03 -2.772522e-02
1.308806e+08 1.617622e-02 -2.029228e-02 8.865356e-01 -4.481201e-01 8.887329e-01 -4.262085e-01 -4.346848e-03 -2.766228e-02
1.310984e+08 1.609612e-02 -2.030945e-02 8.865356e-01 -4.484863e-01 8.888550e-01 -4.268188e-01 -4.596710e-03 -2.758026e-02
1.313162e+08 1.594734e-02 -2.024841e-02 8.852539e-01 -4.489136e-01 8.875732e-01 -4.274902e-01 -4.833221e-03 -2.750778e-02
1.315341e+08 1.582909e-02 -2.027321e-02 8.848877e-01 -4.496460e-01 8.877563e-01 -4.287109e-01 -5.054474e-03 -2.742767e-02
1.317519e+08 1.569366e-02 -2.027893e-02 8.853149e-01 -4.506226e-01 8.877563e-01 -4.288330e-01 -5.323410e-03 -2.733231e-02
1.319697e+08 1.561165e-02 -2.017784e-02 8.851318e-01 -4.515381e-01 8.871460e-01 -4.292603e-01 -5.533218e-03 -2.725220e-02
1.321875e+08 1.548767e-02 -2.017212e-02 8.848267e-01 -4.520874e-01 8.870239e-01 -4.307251e-01 -5.731583e-03 -2.717972e-02
1.324053e+08 1.542091e-02 -2.014542e-02 8.834839e-01 -4.523315e-01 8.869629e-01 -4.307861e-01 -5.998611e-03 -2.710152e-02
1.326231e+08 1.529598e-02 -2.011776e-02 8.841553e-01 -4.534302e-01 8.865356e-01 -4.314575e-01 -6.200790e-03 -2.701950e-02
1.328409e+08 1.518536e-02 -2.012062e-02 8.837280e-01 -4.543457e-01 8.863525e-01 -4.318237e-01 -6.454468e-03 -2.695084e-02
1.330588e+08 1.508045e-02 -2.005577e-02 8.829346e-01 -4.552612e-01 8.862305e-01 -4.324951e-01 -6.679535e-03 -2.681351e-02
1.332766e+08 1.496601e-02 -2.004051e-02 8.826294e-01 -4.557495e-01 8.854370e-01 -4.330444e-01 -6.916046e-03 -2.670288e-02
1.334944e+08 1.483440e-02 -1.992416e-02 8.817139e-01 -4.568481e-01 8.851318e-01 -4.339600e-01 -7.118225e-03 -2.661705e-02
1.337122e+08 1.473522e-02 -1.996613e-02 8.826904e-01 -4.568481e-01 8.853149e-01 -4.346924e-01 -7.354736e-03 -2.653503e-02
1.339300e+08 1.461697e-02 -1.990700e-02 8.821411e-01 -4.572754e-01 8.850098e-01 -4.357300e-01 -7.570267e-03 -2.639771e-02
1.341478e+08 1.452923e-02 -1.987553e-02 8.817139e-01 -4.578247e-01 8.853149e-01 -4.368896e-01 -7.774353e-03 -2.633667e-02
1.343656e+08 1.441193e-02 -1.984501e-02 8.804932e-01 -4.592896e-01 8.846436e-01 -4.367065e-01 -8.028030e-03 -2.614975e-02
1.345834e+08 1.423931e-02 -1.979351e-02 8.803711e-01 -4.594727e-01 8.834839e-01 -4.376221e-01 -8.243561e-03 -2.610397e-02
1.348012e+08 1.418781e-02 -1.981354e-02 8.807983e-01 -4.602661e-01 8.834839e-01 -4.379272e-01 -8.453369e-03 -2.602577e-02
1.350191e+08 1.404762e-02 -1.976585e-02 8.795166e-01 -4.608765e-01 8.834839e-01 -4.383545e-01 -8.634567e-03 -2.589417e-02
1.352369e+08 1.391602e-02 -1.968288e-02 8.795776e-01 -4.608154e-01 8.829346e-01 -4.396973e-01 -8.853912e-03 -2.575684e-02
1.354547e+08 1.386070e-02 -1.966190e-02 8.800659e-01 -4.621582e-01 8.828735e-01 -4.400024e-01 -9.105682e-03 -2.569389e-02
1.356725e+08 1.372147e-02 -1.961517e-02 8.786011e-01 -4.629517e-01 8.831787e-01 -4.402466e-01 -9.279251e-03 -2.554893e-02
1.358903e+08 1.359749e-02 -1.960278e-02 8.787231e-01 -4.639893e-01 8.829956e-01 -4.416504e-01 -9.515762e-03 -2.543068e-02
1.361081e+08 1.351166e-02 -1.950169e-02 8.782959e-01 -4.641724e-01 8.825073e-01 -4.411621e-01 -9.737015e-03 -2.534676e-02
1.363259e+08 1.336098e-02 -1.952648e-02 8.783569e-01 -4.639282e-01 8.822021e-01 -4.421997e-01 -9.923935e-03 -2.520943e-02
1.365438e+08 1.329613e-02 -1.944637e-02 8.779907e-01 -4.654541e-01 8.822632e-01 -4.432373e-01 -1.015854e-02 -2.508926e-02
1.367616e+08 1.314640e-02 -1.938725e-02 8.780518e-01 -4.661255e-01 8.815308e-01 -4.438477e-01 -1.036263e-02 -2.498817e-02
1.369794e+08 1.303387e-02 -1.936722e-02 8.771973e-01 -4.672241e-01 8.811646e-01 -4.439697e-01 -1.058388e-02 -2.486992e-02
1.371972e+08 1.292324e-02 -1.934814e-02 8.767090e-01 -4.675903e-01 8.816528e-01 -4.456177e-01 -1.078796e-02 -2.470970e-02
1.374150e+08 1.276588e-02 -1.929188e-02 8.759766e-01 -4.678955e-01 8.812866e-01 -4.464722e-01 -1.095009e-02 -2.459908e-02
1.376328e+08 1.262856e-02 -1.926327e-02 8.760376e-01 -4.692993e-01 8.807983e-01 -4.472656e-01 -1.120758e-02 -2.446175e-02
1.378506e+08 1.256371e-02 -1.914215e-02 8.757935e-01 -4.697876e-01 8.805542e-01 -4.473267e-01 -1.140213e-02 -2.437592e-02
1.380684e+08 1.245880e-02 -1.916122e-02 8.749390e-01 -4.701538e-01 8.799438e-01 -4.478760e-01 -1.158333e-02 -2.420616e-02
1.382862e+08 1.234341e-02 -1.909065e-02 8.753052e-01 -4.714966e-01 8.800659e-01 -4.478760e-01 -1.185036e-02 -2.409363e-02
1.385041e+08 1.224613e-02 -1.904678e-02 8.754883e-01 -4.713135e-01 8.801880e-01 -4.492798e-01 -1.197433e-02 -2.399635e-02
1.387219e+08 1.210880e-02 -1.896095e-02 8.746948e-01 -4.727783e-01 8.796997e-01 -4.501953e-01 -1.224899e-02 -2.384186e-02
1.389397e+08 1.204395e-02 -1.897049e-02 8.734131e-01 -4.732056e-01 8.788452e-01 -4.512329e-01 -1.239204e-02 -2.367783e-02
1.391575e+08 1.189613e-02 -1.889801e-02 8.743896e-01 -4.732056e-01 8.790894e-01 -4.512329e-01 -1.261902e-02 -2.354240e-02
1.393753e+08 1.175880e-02 -1.883793e-02 8.734131e-01 -4.744873e-01 8.793335e-01 -4.521484e-01 -1.280975e-02 -2.343178e-02
1.395931e+08 1.168442e-02 -1.875019e-02 8.735962e-01 -4.746704e-01 8.775024e-01 -4.521484e-01 -1.302147e-02 -2.332115e-02
1.398109e+08 1.152134e-02 -1.869869e-02 8.726196e-01 -4.758911e-01 8.771362e-01 -4.528198e-01 -1.320457e-02 -2.317238e-02
1.400288e+08 1.141644e-02 -1.861572e-02 8.720093e-01 -4.763184e-01 8.776245e-01 -4.532471e-01 -1.339149e-02 -2.299500e-02
1.402466e+08 1.126957e-02 -1.859951e-02 8.717651e-01 -4.774170e-01 8.776245e-01 -4.545288e-01 -1.360703e-02 -2.289391e-02
1.404644e+08 1.117706e-02 -1.852322e-02 8.724976e-01 -4.779663e-01 8.770752e-01 -4.548950e-01 -1.378441e-02 -2.272224e-02
1.406822e+08 1.104641e-02 -1.848507e-02 8.715210e-01 -4.780884e-01 8.765869e-01 -4.566040e-01 -1.394844e-02 -2.264977e-02
1.409000e+08 1.094437e-02 -1.840305e-02 8.710938e-01 -4.796143e-01 8.768921e-01 -4.561768e-01 -1.417732e-02 -2.247429e-02
1.411178e+08 1.085472e-02 -1.837444e-02 8.703003e-01 -4.795532e-01 8.759155e-01 -4.569092e-01 -1.432705e-02 -2.229786e-02
1.413356e+08 1.076698e-02 -1.830196e-02 8.712769e-01 -4.804077e-01 8.756714e-01 -4.570312e-01 -1.456165e-02 -2.218628e-02
1.415534e+08 1.057529e-02 -1.821804e-02 8.699951e-01 -4.817505e-01 8.760376e-01 -4.588623e-01 -1.471710e-02 -2.201176e-02
1.417712e+08 1.049328e-02 -1.818848e-02 8.690186e-01 -4.824829e-01 8.753662e-01 -4.595947e-01 -1.494503e-02 -2.180195e-02
1.419891e+08 1.036167e-02 -1.811790e-02 8.695068e-01 -4.824219e-01 8.746948e-01 -4.594727e-01 -1.507568e-02 -2.161789e-02
1.422069e+08 1.025009e-02 -1.807308e-02 8.688354e-01 -4.831543e-01 8.748779e-01 -4.613037e-01 -1.527786e-02 -2.152348e-02
1.424247e+08 1.012993e-02 -1.804733e-02 8.684082e-01 -4.835205e-01 8.750610e-01 -4.617310e-01 -1.546192e-02 -2.139187e-02
1.426425e+08 9.990692e-03 -1.789856e-02 8.684082e-01 -4.851685e-01 8.734741e-01 -4.614258e-01 -1.567459e-02 -2.122974e-02
1.428603e+08 9.884834e-03 -1.785660e-02 8.675537e-01 -4.853516e-01 8.740234e-01 -4.627075e-01 -1.582146e-02 -2.105427e-02
1.430781e+08 9.797096e-03 -1.783180e-02 8.674927e-01 -4.855957e-01 8.739014e-01 -4.628296e-01 -1.599598e-02 -2.091789e-02
1.432959e+08 9.692192e-03 -1.772022e-02 8.666992e-01 -4.865723e-01 8.729858e-01 -4.636230e-01 -1.619625e-02 -2.072430e-02
1.435138e+08 9.550095e-03 -1.762390e-02 8.662109e-01 -4.870605e-01 8.732910e-01 -4.641113e-01 -1.644135e-02 -2.058315e-02
1.437316e+08 9.443283e-03 -1.759529e-02 8.654175e-01 -4.876099e-01 8.724976e-01 -4.661865e-01 -1.652050e-02 -2.038383e-02
1.439494e+08 9.323120e-03 -1.745701e-02 8.656006e-01 -4.883423e-01 8.721313e-01 -4.658813e-01 -1.672935e-02 -2.025318e-02
1.441672e+08 9.160995e-03 -1.745892e-02 8.655396e-01 -4.898682e-01 8.719482e-01 -4.671631e-01 -1.689434e-02 -2.007961e-02
1.443850e+08 9.089470e-03 -1.742554e-02 8.649902e-01 -4.903564e-01 8.724365e-01 -4.677734e-01 -1.706886e-02 -1.987553e-02
1.446028e+08 8.913040e-03 -1.728630e-02 8.651733e-01 -4.912109e-01 8.709717e-01 -4.675293e-01 -1.725292e-02 -1.978779e-02
1.448206e+08 8.875847e-03 -1.722050e-02 8.645020e-01 -4.915771e-01 8.708496e-01 -4.682007e-01 -1.740456e-02 -1.957417e-02
1.450384e+08 8.687973e-03 -1.711845e-02 8.639526e-01 -4.916992e-01 8.702393e-01 -4.691162e-01 -1.757145e-02 -1.939869e-02
1.452562e+08 8.620262e-03 -1.708031e-02 8.634644e-01 -4.924316e-01 8.701172e-01 -4.696045e-01 -1.775455e-02 -1.921940e-02
1.454741e+08 8.459091e-03 -1.699066e-02 8.627930e-01 -4.932251e-01 8.706055e-01 -4.711914e-01 -1.788044e-02 -1.907444e-02
1.456919e+08 8.390427e-03 -1.688766e-02 8.618164e-01 -4.944458e-01 8.699951e-01 -4.715576e-01 -1.809883e-02 -1.887894e-02
1.459097e+08 8.235931e-03 -1.684093e-02 8.627930e-01 -4.940186e-01 8.699951e-01 -4.721680e-01 -1.822281e-02 -1.868343e-02
1.461275e+08 8.176804e-03 -1.672173e-02 8.619995e-01 -4.955444e-01 8.693848e-01 -4.724731e-01 -1.841640e-02 -1.852989e-02
1.463453e+08 8.030891e-03 -1.663780e-02 8.618774e-01 -4.958496e-01 8.694458e-01 -4.736938e-01 -1.855278e-02 -1.831818e-02
1.465631e+08 7.925034e-03 -1.652145e-02 8.615112e-01 -4.963989e-01 8.681641e-01 -4.735718e-01 -1.870155e-02 -1.812935e-02
1.467809e+08 7.762909e-03 -1.648998e-02 8.604126e-01 -4.976196e-01 8.682251e-01 -4.747925e-01 -1.892376e-02 -1.796150e-02
1.469988e+08 7.702827e-03 -1.642132e-02 8.610229e-01 -4.985352e-01 8.677979e-01 -4.755249e-01 -1.904297e-02 -1.780510e-02
1.472166e+08 7.493019e-03 -1.631260e-02 8.604736e-01 -4.988403e-01 8.674316e-01 -4.761353e-01 -1.920414e-02 -1.761913e-02
1.474344e+08 7.403374e-03 -1.619148e-02 8.594971e-01 -4.995117e-01 8.671265e-01 -4.768066e-01 -1.932049e-02 -1.740456e-02
1.476522e+08 7.320404e-03 -1.613331e-02 8.590698e-01 -4.999390e-01 8.668823e-01 -4.780273e-01 -1.950169e-02 -1.723194e-02
1.478700e+08 7.215500e-03 -1.605511e-02 8.582764e-01 -5.003662e-01 8.660278e-01 -4.776611e-01 -1.967335e-02 -1.704216e-02
1.480878e+08 7.058144e-03 -1.600361e-02 8.581543e-01 -5.012817e-01 8.663330e-01 -4.790649e-01 -1.980972e-02 -1.685810e-02
1.483056e+08 6.983757e-03 -1.584911e-02 8.580933e-01 -5.027466e-01 8.654175e-01 -4.792480e-01 -1.997566e-02 -1.668739e-02
1.485234e+08 6.864548e-03 -1.573753e-02 8.575439e-01 -5.029297e-01 8.655396e-01 -4.797363e-01 -2.015400e-02 -1.646328e-02
1.487412e+08 6.774902e-03 -1.566124e-02 8.572998e-01 -5.033569e-01 8.656616e-01 -4.804077e-01 -2.026749e-02 -1.631260e-02
1.489591e+08 6.624222e-03 -1.556587e-02 8.567505e-01 -5.039673e-01 8.645020e-01 -4.813843e-01 -2.042294e-02 -1.607132e-02
1.491769e+08 6.542206e-03 -1.552486e-02 8.566895e-01 -5.048218e-01 8.643799e-01 -4.821167e-01 -2.058792e-02 -1.588440e-02
1.493947e+08 6.377220e-03 -1.535988e-02 8.554688e-01 -5.048218e-01 8.632812e-01 -4.825439e-01 -2.064800e-02 -1.567364e-02
1.496125e+08 6.246567e-03 -1.526356e-02 8.554077e-01 -5.065308e-01 8.628540e-01 -4.831543e-01 -2.083588e-02 -1.544666e-02
1.498303e+08 6.153107e-03 -1.521873e-02 8.546143e-01 -5.065308e-01 8.631592e-01 -4.841309e-01 -2.097893e-02 -1.526165e-02
1.500481e+08 6.061554e-03 -1.513767e-02 8.547363e-01 -5.076904e-01 8.632202e-01 -4.841309e-01 -2.113914e-02 -1.504707e-02
1.502659e+08 5.950928e-03 -1.501369e-02 8.547974e-01 -5.086060e-01 8.621216e-01 -4.852905e-01 -2.126408e-02 -1.489449e-02
1.504838e+08 5.764008e-03 -1.491165e-02 8.532715e-01 -5.087280e-01 8.615723e-01 -4.859619e-01 -2.142715e-02 -1.469803e-02
1.507016e+08 5.705833e-03 -1.478863e-02 8.529663e-01 -5.095825e-01 8.615112e-01 -4.871826e-01 -2.155590e-02 -1.444721e-02
1.509194e+08 5.600929e-03 -1.471710e-02 8.530273e-01 -5.098877e-01 8.612061e-01 -4.868164e-01 -2.166462e-02 -1.422310e-02
1.511372e+08 5.391121e-03 -1.460361e-02 8.521118e-01 -5.100098e-01 8.601074e-01 -4.881592e-01 -2.175140e-02 -1.404858e-02
1.513550e+08 5.293846e-03 -1.449013e-02 8.522339e-01 -5.109863e-01 8.604126e-01 -4.888306e-01 -2.192688e-02 -1.381969e-02
1.515728e+08 5.241394e-03 -1.441574e-02 8.515625e-01 -5.116577e-01 8.605957e-01 -4.893188e-01 -2.201843e-02 -1.360512e-02
1.517906e+08 5.079269e-03 -1.428509e-02 8.515015e-01 -5.130615e-01 8.599243e-01 -4.900513e-01 -2.218437e-02 -1.341152e-02
1.520084e+08 4.979134e-03 -1.419544e-02 8.504639e-01 -5.131836e-01 8.585815e-01 -4.909668e-01 -2.231121e-02 -1.324368e-02
1.522262e+08 4.874229e-03 -1.405621e-02 8.502197e-01 -5.138550e-01 8.587036e-01 -4.915771e-01 -2.241898e-02 -1.302338e-02
1.524441e+08 4.765511e-03 -1.394939e-02 8.493652e-01 -5.147705e-01 8.588867e-01 -4.924927e-01 -2.255630e-02 -1.274872e-02
1.526619e+08 4.683495e-03 -1.384258e-02 8.478394e-01 -5.151978e-01 8.578491e-01 -4.927979e-01 -2.263069e-02 -1.252747e-02
1.528797e+08 4.570007e-03 -1.376343e-02 8.486328e-01 -5.156250e-01 8.575439e-01 -4.940186e-01 -2.274513e-02 -1.235008e-02
1.530975e+08 4.410744e-03 -1.365185e-02 8.480225e-01 -5.159302e-01 8.579712e-01 -4.943848e-01 -2.287102e-02 -1.218033e-02
1.533153e+08 4.316330e-03 -1.349354e-02 8.473511e-01 -5.172119e-01 8.576660e-01 -4.948120e-01 -2.304077e-02 -1.195717e-02
1.535331e+08 4.157066e-03 -1.342869e-02 8.475342e-01 -5.175781e-01 8.571777e-01 -4.952393e-01 -2.312469e-02 -1.169205e-02
1.537509e+08 4.074097e-03 -1.329041e-02 8.468628e-01 -5.181885e-01 8.558350e-01 -4.962769e-01 -2.321815e-02 -1.153183e-02
1.539688e+08 3.953934e-03 -1.314926e-02 8.465576e-01 -5.191040e-01 8.566895e-01 -4.963379e-01 -2.341080e-02 -1.129913e-02
1.541866e+08 3.886223e-03 -1.306438e-02 8.463745e-01 -5.195923e-01 8.552856e-01 -4.972534e-01 -2.349854e-02 -1.107979e-02
1.544044e+08 3.738403e-03 -1.294518e-02 8.462524e-01 -5.209351e-01 8.547363e-01 -4.978638e-01 -2.360344e-02 -1.082802e-02
1.546222e+08 3.651619e-03 -1.283932e-02 8.458252e-01 -5.208740e-01 8.550415e-01 -4.989014e-01 -2.371788e-02 -1.065636e-02
1.548400e+08 3.511429e-03 -1.269531e-02 8.449097e-01 -5.219116e-01 8.540039e-01 -4.995728e-01 -2.378273e-02 -1.036263e-02
1.550578e+08 3.411293e-03 -1.254463e-02 8.450928e-01 -5.223999e-01 8.543701e-01 -5.005493e-01 -2.391434e-02 -1.016617e-02
1.552756e+08 3.345490e-03 -1.244164e-02 8.434448e-01 -5.228882e-01 8.536377e-01 -5.009766e-01 -2.402687e-02 -9.931564e-03
1.554934e+08 3.178596e-03 -1.237106e-02 8.432007e-01 -5.235596e-01 8.530273e-01 -5.019531e-01 -2.412033e-02 -9.689331e-03
1.557112e+08 3.030777e-03 -1.218510e-02 8.424072e-01 -5.236206e-01 8.529053e-01 -5.018921e-01 -2.417755e-02 -9.473801e-03
1.559291e+08 2.967834e-03 -1.210117e-02 8.417969e-01 -5.245361e-01 8.526001e-01 -5.024414e-01 -2.429390e-02 -9.197235e-03
1.561469e+08 2.863884e-03 -1.195812e-02 8.427734e-01 -5.253906e-01 8.518066e-01 -5.029907e-01 -2.441216e-02 -9.040833e-03
1.563647e+08 2.717972e-03 -1.182938e-02 8.417358e-01 -5.259399e-01 8.515015e-01 -5.039673e-01 -2.451324e-02 -8.832932e-03
1.565825e+08 2.668381e-03 -1.169682e-02 8.414307e-01 -5.262451e-01 8.511963e-01 -5.048218e-01 -2.456856e-02 -8.552551e-03
1.568003e+08 2.557755e-03 -1.158333e-02 8.411255e-01 -5.270386e-01 8.508301e-01 -5.049438e-01 -2.470970e-02 -8.327484e-03
1.570181e+08 2.452850e-03 -1.142311e-02 8.406982e-01 -5.278320e-01 8.500366e-01 -5.052490e-01 -2.478027e-02 -8.104324e-03
1.572359e+08 2.300262e-03 -1.132011e-02 8.394775e-01 -5.288086e-01 8.493042e-01 -5.071411e-01 -2.485085e-02 -7.841110e-03
1.574538e+08 2.225876e-03 -1.113605e-02 8.399048e-01 -5.289307e-01 8.492432e-01 -5.070190e-01 -2.494431e-02 -7.648468e-03
1.576716e+08 2.118111e-03 -1.103783e-02 8.391724e-01 -5.294800e-01 8.493652e-01 -5.078125e-01 -2.503204e-02 -7.345200e-03
1.578894e+08 2.013206e-03 -1.090908e-02 8.377075e-01 -5.299072e-01 8.482666e-01 -5.082397e-01 -2.510834e-02 -7.156372e-03
1.581072e+08 1.909256e-03 -1.072216e-02 8.371582e-01 -5.312500e-01 8.479614e-01 -5.082397e-01 -2.520370e-02 -6.879807e-03
1.583250e+08 1.793861e-03 -1.063824e-02 8.363647e-01 -5.316772e-01 8.479004e-01 -5.093994e-01 -2.522469e-02 -6.660461e-03
1.585428e+08 1.708984e-03 -1.049900e-02 8.364868e-01 -5.317993e-01 8.471680e-01 -5.106812e-01 -2.531815e-02 -6.395340e-03
1.587606e+08 1.553535e-03 -1.035500e-02 8.362427e-01 -5.327759e-01 8.466187e-01 -5.106201e-01 -2.542686e-02 -6.217957e-03
1.589784e+08 1.421928e-03 -1.020145e-02 8.368530e-01 -5.336304e-01 8.461304e-01 -5.117798e-01 -2.553368e-02 -5.958557e-03
1.591962e+08 1.362801e-03 -1.008892e-02 8.364258e-01 -5.336914e-01 8.457031e-01 -5.120850e-01 -2.554321e-02 -5.737305e-03
1.594141e+08 1.198769e-03 -9.947300e-03 8.349609e-01 -5.348511e-01 8.453979e-01 -5.122070e-01 -2.566719e-02 -5.430222e-03
1.596319e+08 1.178265e-03 -9.800434e-03 8.356323e-01 -5.355835e-01 8.450928e-01 -5.133667e-01 -2.574730e-02 -5.208969e-03
1.598497e+08 1.026154e-03 -9.578228e-03 8.352051e-01 -5.367432e-01 8.449707e-01 -5.139771e-01 -2.583694e-02 -4.985809e-03
1.600675e+08 9.217262e-04 -9.499550e-03 8.335571e-01 -5.371704e-01 8.442383e-01 -5.152588e-01 -2.590942e-02 -4.713058e-03
1.602853e+08 8.707047e-04 -9.346962e-03 8.337402e-01 -5.375977e-01 8.438721e-01 -5.151367e-01 -2.596855e-02 -4.499435e-03
1.605031e+08 7.729530e-04 -9.197235e-03 8.324585e-01 -5.376587e-01 8.432007e-01 -5.156860e-01 -2.595711e-02 -4.234314e-03
1.607209e+08 6.647110e-04 -9.076118e-03 8.323975e-01 -5.390625e-01 8.432617e-01 -5.165405e-01 -2.607727e-02 -4.001617e-03
1.609388e+08 5.769730e-04 -8.918762e-03 8.320923e-01 -5.391846e-01 8.421631e-01 -5.170898e-01 -2.615356e-02 -3.776550e-03
1.611566e+08 4.668236e-04 -8.758545e-03 8.316650e-01 -5.396118e-01 8.419800e-01 -5.177612e-01 -2.618790e-02 -3.496170e-03
1.613744e+08 3.895760e-04 -8.615971e-03 8.317871e-01 -5.404663e-01 8.411865e-01 -5.183716e-01 -2.626419e-02 -3.274918e-03
1.615922e+08 2.136230e-04 -8.490086e-03 8.298950e-01 -5.409546e-01 8.406982e-01 -5.191650e-01 -2.624321e-02 -3.013611e-03
1.618100e+08 1.235008e-04 -8.321762e-03 8.296509e-01 -5.411987e-01 8.406372e-01 -5.200195e-01 -2.635574e-02 -2.737045e-03
1.620278e+08 7.820129e-05 -8.164883e-03 8.297729e-01 -5.421753e-01 8.406372e-01 -5.197144e-01 -2.641106e-02 -2.489090e-03
1.622456e+08 -1.907349e-05 -8.028984e-03 8.292236e-01 -5.435181e-01 8.398438e-01 -5.204468e-01 -2.640724e-02 -2.225876e-03
1.624634e+08 -8.583069e-05 -7.828712e-03 8.291626e-01 -5.427246e-01 8.398438e-01 -5.209351e-01 -2.647018e-02 -2.035141e-03
1.626812e+08 -2.031326e-04 -7.662296e-03 8.289795e-01 -5.444946e-01 8.391724e-01 -5.219727e-01 -2.654648e-02 -1.739502e-03
1.628991e+08 -3.242493e-04 -7.493019e-03 8.273315e-01 -5.448608e-01 8.378906e-01 -5.225830e-01 -2.655792e-02 -1.474380e-03
1.631169e+08 -4.520416e-04 -7.357597e-03 8.269653e-01 -5.452881e-01 8.382568e-01 -5.223999e-01 -2.666473e-02 -1.241684e-03
1.633347e+08 -5.650520e-04 -7.165909e-03 8.270264e-01 -5.458374e-01 8.374634e-01 -5.233765e-01 -2.664566e-02 -9.708405e-04
1.635525e+08 -6.089211e-04 -7.105350e-03 8.266602e-01 -5.460205e-01 8.375854e-01 -5.244751e-01 -2.668762e-02 -7.419586e-04
1.637703e+08 -7.257462e-04 -6.914616e-03 8.256226e-01 -5.462646e-01 8.373413e-01 -5.255127e-01 -2.674294e-02 -5.092621e-04
1.639881e+08 -7.987022e-04 -6.750107e-03 8.253784e-01 -5.474854e-01 8.363647e-01 -5.262451e-01 -2.676010e-02 -2.365112e-04
1.642059e+08 -8.420944e-04 -6.532669e-03 8.254395e-01 -5.482788e-01 8.363647e-01 -5.267334e-01 -2.683640e-02 6.675720e-05
1.644238e+08 -9.350777e-04 -6.376743e-03 8.253784e-01 -5.483398e-01 8.356323e-01 -5.265503e-01 -2.687454e-02 2.288818e-04
1.646416e+08 -1.063824e-03 -6.242275e-03 8.237915e-01 -5.493774e-01 8.345947e-01 -5.269165e-01 -2.685547e-02 5.092621e-04
1.648594e+08 -1.137733e-03 -6.061554e-03 8.242188e-01 -5.502319e-01 8.344727e-01 -5.277100e-01 -2.692223e-02 8.029938e-04
1.650772e+08 -1.272678e-03 -5.871773e-03 8.237915e-01 -5.498657e-01 8.339233e-01 -5.288696e-01 -2.691841e-02 1.068115e-03
1.652950e+08 -1.260757e-03 -5.731106e-03 8.238525e-01 -5.517578e-01 8.341064e-01 -5.293579e-01 -2.696419e-02 1.306534e-03
1.655128e+08 -1.441956e-03 -5.582333e-03 8.218994e-01 -5.511475e-01 8.334961e-01 -5.305176e-01 -2.690887e-02 1.567841e-03
1.657306e+08 -1.487255e-03 -5.352020e-03 8.211670e-01 -5.518799e-01 8.331909e-01 -5.307007e-01 -2.698708e-02 1.827240e-03
1.659484e+08 -1.638889e-03 -5.227566e-03 8.214722e-01 -5.524292e-01 8.320312e-01 -5.308228e-01 -2.702141e-02 2.067566e-03
1.661662e+08 -1.625061e-03 -5.040646e-03 8.203125e-01 -5.534668e-01 8.319702e-01 -5.311890e-01 -2.702713e-02 2.349854e-03
1.663841e+08 -1.755714e-03 -4.886150e-03 8.211670e-01 -5.536499e-01 8.311157e-01 -5.321045e-01 -2.706146e-02 2.614975e-03
1.666019e+08 -1.870155e-03 -4.697084e-03 8.203735e-01 -5.547485e-01 8.311157e-01 -5.328979e-01 -2.706337e-02 2.885818e-03
1.668197e+08 -1.909733e-03 -4.510641e-03 8.192749e-01 -5.547485e-01 8.302002e-01 -5.336304e-01 -2.704811e-02 3.131866e-03
1.670375e+08 -2.013445e-03 -4.376888e-03 8.193359e-01 -5.558472e-01 8.296509e-01 -5.344849e-01 -2.711487e-02 3.400803e-03
1.672553e+08 -2.071857e-03 -4.169226e-03 8.191528e-01 -5.564575e-01 8.292236e-01 -5.346680e-01 -2.711868e-02 3.681183e-03
1.674731e+08 -2.147198e-03 -3.972530e-03 8.187866e-01 -5.577393e-01 8.296509e-01 -5.358276e-01 -2.707100e-02 3.887177e-03
1.676909e+08 -2.236605e-03 -3.798962e-03 8.184204e-01 -5.578613e-01 8.279419e-01 -5.355225e-01 -2.713585e-02 4.169464e-03
1.679088e+08 -2.296925e-03 -3.622293e-03 8.175049e-01 -5.579224e-01 8.278198e-01 -5.361938e-01 -2.709770e-02 4.425049e-03
1.681266e+08 -2.407074e-03 -3.430128e-03 8.171387e-01 -5.588989e-01 8.272095e-01 -5.368652e-01 -2.711868e-02 4.678726e-03
1.683444e+08 -2.497673e-03 -3.288984e-03 8.171997e-01 -5.588379e-01 8.269653e-01 -5.378418e-01 -2.710724e-02 4.970551e-03
1.685622e+08 -2.527475e-03 -3.079653e-03 8.163452e-01 -5.594482e-01 8.269043e-01 -5.379028e-01 -2.711868e-02 5.231857e-03
1.687800e+08 -2.657890e-03 -2.912998e-03 8.157959e-01 -5.598145e-01 8.265381e-01 -5.393066e-01 -2.709961e-02 5.472183e-03
1.689978e+08 -2.676010e-03 -2.740383e-03 8.153687e-01 -5.609741e-01 8.259888e-01 -5.396118e-01 -2.709770e-02 5.796432e-03
1.692156e+08 -2.797842e-03 -2.525568e-03 8.147583e-01 -5.617676e-01 8.250732e-01 -5.403442e-01 -2.705956e-02 6.040573e-03
1.694334e+08 -2.781868e-03 -2.327681e-03 8.148193e-01 -5.625000e-01 8.239746e-01 -5.408325e-01 -2.708817e-02 6.326675e-03
1.696512e+08 -2.868176e-03 -2.135754e-03 8.135986e-01 -5.627441e-01 8.245850e-01 -5.410767e-01 -2.707100e-02 6.534576e-03
1.698691e+08 -2.954483e-03 -1.961946e-03 8.135376e-01 -5.634155e-01 8.240356e-01 -5.421753e-01 -2.706909e-02 6.803513e-03
1.700869e+08 -3.055334e-03 -1.810074e-03 8.129883e-01 -5.639648e-01 8.233643e-01 -5.422363e-01 -2.701378e-02 7.070541e-03
1.703047e+08 -3.111601e-03 -1.626492e-03 8.131104e-01 -5.640869e-01 8.232422e-01 -5.429077e-01 -2.696991e-02 7.352829e-03
1.705225e+08 -3.221989e-03 -1.423597e-03 8.119507e-01 -5.653076e-01 8.222656e-01 -5.441895e-01 -2.698898e-02 7.629395e-03
1.707403e+08 -3.211260e-03 -1.193285e-03 8.114624e-01 -5.651245e-01 8.220825e-01 -5.444946e-01 -2.697372e-02 7.919312e-03
1.709581e+08 -3.311872e-03 -1.035690e-03 8.116455e-01 -5.661621e-01 8.208008e-01 -5.443726e-01 -2.694130e-02 8.146286e-03
1.711759e+08 -3.342152e-03 -8.435249e-04 8.102417e-01 -5.665894e-01 8.211060e-01 -5.438232e-01 -2.689171e-02 8.411407e-03
1.713938e+08 -3.408909e-03 -6.372929e-04 8.098755e-01 -5.673828e-01 8.211060e-01 -5.457764e-01 -2.688599e-02 8.695602e-03
1.716116e+08 -3.495216e-03 -4.632473e-04 8.104248e-01 -5.679321e-01 8.208618e-01 -5.462646e-01 -2.680969e-02 8.972168e-03
1.718294e+08 -3.536224e-03 -3.082752e-04 8.097534e-01 -5.689087e-01 8.195801e-01 -5.468750e-01 -2.684593e-02 9.223938e-03
1.720472e+08 -3.610611e-03 -7.557869e-05 8.088379e-01 -5.694580e-01 8.187866e-01 -5.476074e-01 -2.678680e-02 9.496689e-03
1.722650e+08 -3.659010e-03 1.404285e-04 8.085327e-01 -5.698242e-01 8.187256e-01 -5.482178e-01 -2.675629e-02 9.742737e-03
1.724828e+08 -3.716230e-03 3.519058e-04 8.085938e-01 -5.703735e-01 8.187866e-01 -5.490723e-01 -2.674866e-02 1.003456e-02
1.727006e+08 -3.752708e-03 5.271435e-04 8.074341e-01 -5.712891e-01 8.177490e-01 -5.490112e-01 -2.665520e-02 1.035690e-02
1.729184e+08 -3.841162e-03 7.266998e-04 8.070679e-01 -5.721436e-01 8.177490e-01 -5.501709e-01 -2.663803e-02 1.060295e-02
1.731362e+08 -3.854990e-03 9.152889e-04 8.056641e-01 -5.725708e-01 8.174438e-01 -5.504150e-01 -2.655792e-02 1.085281e-02
1.733541e+08 -3.934622e-03 1.099348e-03 8.056030e-01 -5.720825e-01 8.164062e-01 -5.515137e-01 -2.654266e-02 1.110649e-02
1.735719e+08 -3.949642e-03 1.332760e-03 8.057861e-01 -5.733643e-01 8.162842e-01 -5.521851e-01 -2.655792e-02 1.139259e-02
1.737897e+08 -4.040003e-03 1.509905e-03 8.048706e-01 -5.742188e-01 8.167114e-01 -5.521851e-01 -2.648354e-02 1.166153e-02
1.740075e+08 -4.122972e-03 1.718044e-03 8.046875e-01 -5.743408e-01 8.156128e-01 -5.524292e-01 -2.640724e-02 1.191902e-02
1.742253e+08 -4.155874e-03 1.920462e-03 8.035278e-01 -5.752563e-01 8.151855e-01 -5.531616e-01 -2.630234e-02 1.218987e-02
1.744431e+08 -4.210234e-03 2.105474e-03 8.035889e-01 -5.758057e-01 8.143921e-01 -5.537109e-01 -2.630234e-02 1.245308e-02
1.746609e+08 -4.237890e-03 2.321720e-03 8.030396e-01 -5.762939e-01 8.145752e-01 -5.538940e-01 -2.624893e-02 1.268578e-02
1.748788e+08 -4.268885e-03 2.519608e-03 8.031006e-01 -5.767212e-01 8.139648e-01 -5.548706e-01 -2.622604e-02 1.296234e-02
1.750966e+08 -4.335403e-03 2.741098e-03 8.016357e-01 -5.780029e-01 8.129883e-01 -5.560303e-01 -2.612495e-02 1.325226e-02
1.753144e+08 -4.422426e-03 2.917528e-03 8.020020e-01 -5.781860e-01 8.128662e-01 -5.560913e-01 -2.605247e-02 1.351547e-02
1.755322e+08 -4.461050e-03 3.136635e-03 8.014526e-01 -5.781250e-01 8.120728e-01 -5.571899e-01 -2.598000e-02 1.375198e-02
1.757500e+08 -4.478693e-03 3.306150e-03 7.999268e-01 -5.788574e-01 8.121948e-01 -5.570679e-01 -2.591896e-02 1.407051e-02
1.759678e+08 -4.447460e-03 3.535748e-03 8.002319e-01 -5.792847e-01 8.110352e-01 -5.578003e-01 -2.585793e-02 1.433372e-02
1.761856e+08 -4.557848e-03 3.780842e-03 8.004761e-01 -5.800171e-01 8.101196e-01 -5.582275e-01 -2.577591e-02 1.462364e-02
1.764034e+08 -4.585981e-03 3.948689e-03 7.994995e-01 -5.806274e-01 8.104248e-01 -5.596924e-01 -2.567482e-02 1.482201e-02
1.766212e+08 -4.603148e-03 4.207850e-03 7.992554e-01 -5.810547e-01 8.093262e-01 -5.595703e-01 -2.563858e-02 1.507568e-02
1.768391e+08 -4.678488e-03 4.380226e-03 7.990723e-01 -5.819702e-01 8.102417e-01 -5.603638e-01 -2.553368e-02 1.537895e-02
1.770569e+08 -4.677773e-03 4.588604e-03 7.984619e-01 -5.827026e-01 8.087769e-01 -5.610962e-01 -2.551460e-02 1.568413e-02
1.772747e+08 -4.696369e-03 4.764080e-03 7.980957e-01 -5.831909e-01 8.085327e-01 -5.618896e-01 -2.541351e-02 1.591492e-02
1.774925e+08 -4.782915e-03 5.015135e-03 7.969360e-01 -5.832520e-01 8.089600e-01 -5.620728e-01 -2.528381e-02 1.617241e-02
1.777103e+08 -4.747391e-03 5.221844e-03 7.966919e-01 -5.849609e-01 8.078613e-01 -5.623169e-01 -2.520943e-02 1.648331e-02
1.779281e+08 -4.796982e-03 5.457878e-03 7.962646e-01 -5.850220e-01 8.063965e-01 -5.623779e-01 -2.513695e-02 1.672745e-02
1.781459e+08 -4.851341e-03 5.664349e-03 7.951660e-01 -5.852051e-01 8.063965e-01 -5.634155e-01 -2.503967e-02 1.700783e-02
1.783638e+08 -4.835606e-03 5.823135e-03 7.955322e-01 -5.852051e-01 8.058472e-01 -5.645752e-01 -2.499390e-02 1.727486e-02
1.785816e+08 -4.904270e-03 6.067753e-03 7.942505e-01 -5.867920e-01 8.059692e-01 -5.653687e-01 -2.490997e-02 1.759720e-02
1.787994e+08 -4.887581e-03 6.288528e-03 7.941284e-01 -5.867310e-01 8.052979e-01 -5.654297e-01 -2.473068e-02 1.777649e-02
1.790172e+08 -4.965305e-03 6.475449e-03 7.933960e-01 -5.874023e-01 8.047485e-01 -5.661011e-01 -2.474022e-02 1.809883e-02
1.792350e+08 -4.987717e-03 6.688118e-03 7.930908e-01 -5.886230e-01 8.050537e-01 -5.664673e-01 -2.458763e-02 1.833534e-02
1.794528e+08 -4.951477e-03 6.934166e-03 7.924194e-01 -5.891724e-01 8.038330e-01 -5.670776e-01 -2.448273e-02 1.862907e-02
1.796706e+08 -5.022526e-03 7.151604e-03 7.915039e-01 -5.903320e-01 8.034058e-01 -5.675049e-01 -2.435112e-02 1.893997e-02
1.798884e+08 -4.982948e-03 7.358551e-03 7.916260e-01 -5.893555e-01 8.024902e-01 -5.682983e-01 -2.427864e-02 1.911736e-02
1.801062e+08 -5.053520e-03 7.539272e-03 7.906494e-01 -5.912476e-01 8.029175e-01 -5.685425e-01 -2.414131e-02 1.941681e-02
1.803241e+08 -5.071163e-03 7.781982e-03 7.912598e-01 -5.910034e-01 8.021851e-01 -5.699463e-01 -2.409935e-02 1.965332e-02
1.805419e+08 -5.059719e-03 8.017540e-03 7.904053e-01 -5.925903e-01 8.012085e-01 -5.702515e-01 -2.392769e-02 1.991081e-02
1.807597e+08 -5.037785e-03 8.202076e-03 7.899780e-01 -5.930786e-01 8.012695e-01 -5.707397e-01 -2.378464e-02 2.019882e-02
1.809775e+08 -5.014420e-03 8.448124e-03 7.890625e-01 -5.925293e-01 8.010864e-01 -5.714722e-01 -2.370644e-02 2.040100e-02
1.811953e+08 -5.080223e-03 8.597851e-03 7.893677e-01 -5.946045e-01 8.003540e-01 -5.722656e-01 -2.356911e-02 2.070427e-02
1.814131e+08 -5.096912e-03 8.856773e-03 7.879028e-01 -5.946655e-01 7.994385e-01 -5.725708e-01 -2.348709e-02 2.094269e-02
1.816309e+08 -5.103111e-03 9.082794e-03 7.879639e-01 -5.950928e-01 7.998047e-01 -5.724487e-01 -2.333260e-02 2.127075e-02
1.818488e+08 -5.142212e-03 9.275913e-03 7.872314e-01 -5.961914e-01 7.991333e-01 -5.734863e-01 -2.323914e-02 2.148438e-02
1.820666e+08 -5.114079e-03 9.537220e-03 7.868652e-01 -5.968018e-01 7.987061e-01 -5.746460e-01 -2.303505e-02 2.174568e-02
1.822844e+08 -5.164146e-03 9.753704e-03 7.861328e-01 -5.968018e-01 7.979736e-01 -5.754395e-01 -2.299118e-02 2.202606e-02
1.825022e+08 -5.105019e-03 9.970188e-03 7.854614e-01 -5.971069e-01 7.976685e-01 -5.750122e-01 -2.285194e-02 2.224541e-02
1.827200e+08 -5.071640e-03 1.015759e-02 7.851562e-01 -5.984497e-01 7.974243e-01 -5.751343e-01 -2.267838e-02 2.253151e-02
1.829378e+08 -5.118370e-03 1.043701e-02 7.850342e-01 -5.987549e-01 7.965088e-01 -5.762329e-01 -2.260590e-02 2.273178e-02
1.831556e+08 -5.111694e-03 1.063919e-02 7.838745e-01 -5.995483e-01 7.965698e-01 -5.777588e-01 -2.244377e-02 2.302170e-02
1.833734e+08 -5.043983e-03 1.085854e-02 7.837524e-01 -6.010742e-01 7.955322e-01 -5.784912e-01 -2.227592e-02 2.332306e-02
1.835912e+08 -5.059242e-03 1.105213e-02 7.839355e-01 -6.013184e-01 7.952271e-01 -5.778198e-01 -2.218628e-02 2.358437e-02
1.838091e+08 -5.082130e-03 1.125145e-02 7.825317e-01 -6.010742e-01 7.951660e-01 -5.789185e-01 -2.200699e-02 2.375221e-02
1.840269e+08 -5.076408e-03 1.151657e-02 7.820435e-01 -6.022949e-01 7.942505e-01 -5.797119e-01 -2.187538e-02 2.407455e-02
1.842447e+08 -5.064964e-03 1.170635e-02 7.824097e-01 -6.021729e-01 7.938232e-01 -5.806885e-01 -2.168274e-02 2.431870e-02
1.844625e+08 -5.039215e-03 1.193523e-02 7.815552e-01 -6.027222e-01 7.933350e-01 -5.811768e-01 -2.156448e-02 2.454185e-02
1.846803e+08 -5.040169e-03 1.215744e-02 7.815552e-01 -6.028442e-01 7.931519e-01 -5.809326e-01 -2.142906e-02 2.476692e-02
1.848981e+08 -5.015373e-03 1.241970e-02 7.812500e-01 -6.036987e-01 7.926025e-01 -5.817261e-01 -2.131653e-02 2.503204e-02
1.851159e+08 -4.976273e-03 1.259995e-02 7.790527e-01 -6.049194e-01 7.918091e-01 -5.828247e-01 -2.108192e-02 2.532005e-02
1.853338e+08 -5.003929e-03 1.284313e-02 7.797852e-01 -6.049194e-01 7.913208e-01 -5.829468e-01 -2.095604e-02 2.554893e-02
1.855516e+08 -4.988670e-03 1.309013e-02 7.791138e-01 -6.054688e-01 7.907104e-01 -5.836182e-01 -2.082634e-02 2.577782e-02
1.857694e+08 -4.926682e-03 1.329327e-02 7.781372e-01 -6.063843e-01 7.903442e-01 -5.840454e-01 -2.063370e-02 2.600098e-02
1.859872e+08 -4.937172e-03 1.347828e-02 7.785645e-01 -6.077881e-01 7.902832e-01 -5.844727e-01 -2.049065e-02 2.631569e-02
1.862050e+08 -4.889488e-03 1.374531e-02 7.774658e-01 -6.080322e-01 7.890625e-01 -5.853271e-01 -2.030373e-02 2.649498e-02
1.864228e+08 -4.834175e-03 1.396656e-02 7.768555e-01 -6.080322e-01 7.890015e-01 -5.864258e-01 -2.011871e-02 2.673340e-02
1.866406e+08 -4.805565e-03 1.415634e-02 7.764282e-01 -6.091309e-01 7.884521e-01 -5.861816e-01 -1.994133e-02 2.700615e-02
1.868584e+08 -4.804611e-03 1.441002e-02 7.755127e-01 -6.101074e-01 7.877197e-01 -5.875854e-01 -1.983452e-02 2.728081e-02
1.870762e+08 -4.812241e-03 1.466751e-02 7.756348e-01 -6.099243e-01 7.881470e-01 -5.879517e-01 -1.965332e-02 2.748680e-02
1.872941e+08 -4.762650e-03 1.483536e-02 7.750854e-01 -6.116943e-01 7.878418e-01 -5.880127e-01 -1.948738e-02 2.774811e-02
1.875119e+08 -4.703522e-03 1.506329e-02 7.734985e-01 -6.118774e-01 7.872314e-01 -5.892334e-01 -1.929283e-02 2.799416e-02
1.877297e+08 -4.707336e-03 1.526451e-02 7.741699e-01 -6.119385e-01 7.867432e-01 -5.892944e-01 -1.918602e-02 2.819061e-02
1.879475e+08 -4.652023e-03 1.550674e-02 7.736206e-01 -6.132812e-01 7.861328e-01 -5.900879e-01 -1.895523e-02 2.844429e-02
1.881653e+08 -4.647255e-03 1.573181e-02 7.733765e-01 -6.128540e-01 7.858276e-01 -5.904541e-01 -1.885223e-02 2.871132e-02
1.883831e+08 -4.554749e-03 1.596451e-02 7.725220e-01 -6.138916e-01 7.861328e-01 -5.914307e-01 -1.862335e-02 2.895737e-02
1.886009e+08 -4.526138e-03 1.619339e-02 7.716064e-01 -6.143799e-01 7.843018e-01 -5.914917e-01 -1.841736e-02 2.916908e-02
1.888188e+08 -4.462242e-03 1.636314e-02 7.710571e-01 -6.152344e-01 7.837524e-01 -5.922852e-01 -1.820183e-02 2.941322e-02
1.890366e+08 -4.455566e-03 1.665115e-02 7.705078e-01 -6.156006e-01 7.843628e-01 -5.938721e-01 -1.800728e-02 2.963066e-02
1.892544e+08 -4.407883e-03 1.683235e-02 7.708740e-01 -6.159058e-01 7.831421e-01 -5.936279e-01 -1.786423e-02 2.985573e-02
1.894722e+08 -4.372597e-03 1.705360e-02 7.702026e-01 -6.171875e-01 7.821045e-01 -5.942993e-01 -1.763535e-02 3.007698e-02
1.896900e+08 -4.262924e-03 1.726437e-02 7.693481e-01 -6.176147e-01 7.816772e-01 -5.946045e-01 -1.747704e-02 3.030586e-02
1.899078e+08 -4.266739e-03 1.747990e-02 7.687988e-01 -6.182861e-01 7.818604e-01 -5.952148e-01 -1.726723e-02 3.053856e-02
1.901256e+08 -4.240036e-03 1.771164e-02 7.677002e-01 -6.182861e-01 7.812500e-01 -5.950317e-01 -1.709366e-02 3.072166e-02
1.903434e+08 -4.172325e-03 1.795101e-02 7.678833e-01 -6.199341e-01 7.805176e-01 -5.960083e-01 -1.681519e-02 3.099060e-02
1.905612e+08 -4.119873e-03 1.811409e-02 7.676392e-01 -6.194458e-01 7.804565e-01 -5.964966e-01 -1.668358e-02 3.120995e-02
1.907791e+08 -4.014015e-03 1.838493e-02 7.667847e-01 -6.208496e-01 7.800293e-01 -5.967407e-01 -1.641464e-02 3.143692e-02
1.909969e+08 -3.952980e-03 1.861763e-02 7.658691e-01 -6.204224e-01 7.786255e-01 -5.976562e-01 -1.630020e-02 3.163910e-02
1.912147e+08 -3.877640e-03 1.878262e-02 7.652588e-01 -6.216431e-01 7.784424e-01 -5.972900e-01 -1.602554e-02 3.186226e-02
1.914325e+08 -3.830910e-03 1.903915e-02 7.644653e-01 -6.221313e-01 7.779541e-01 -5.992432e-01 -1.583862e-02 3.207397e-02
1.916503e+08 -3.810883e-03 1.924419e-02 7.640381e-01 -6.229248e-01 7.774048e-01 -5.999146e-01 -1.560020e-02 3.227234e-02
1.918681e+08 -3.726959e-03 1.939297e-02 7.639160e-01 -6.235962e-01 7.768555e-01 -5.995483e-01 -1.538086e-02 3.253174e-02
1.920859e+08 -3.631592e-03 1.963806e-02 7.634888e-01 -6.238403e-01 7.769775e-01 -6.004028e-01 -1.517296e-02 3.272820e-02
1.923038e+08 -3.617287e-03 1.983929e-02 7.623901e-01 -6.233521e-01 7.757568e-01 -6.004639e-01 -1.495552e-02 3.287506e-02
1.925216e+08 -3.565788e-03 2.010918e-02 7.620850e-01 -6.252441e-01 7.754517e-01 -6.016235e-01 -1.468277e-02 3.314781e-02
1.927394e+08 -3.471375e-03 2.036095e-02 7.626343e-01 -6.253052e-01 7.752686e-01 -6.026611e-01 -1.459312e-02 3.335381e-02
1.929572e+08 -3.364563e-03 2.053452e-02 7.614746e-01 -6.265869e-01 7.747192e-01 -6.030273e-01 -1.430321e-02 3.359032e-02
1.931750e+08 -3.293991e-03 2.071953e-02 7.608032e-01 -6.268311e-01 7.742920e-01 -6.033325e-01 -1.410866e-02 3.376770e-02
1.933928e+08 -3.208160e-03 2.098656e-02 7.601318e-01 -6.268311e-01 7.744751e-01 -6.038818e-01 -1.389122e-02 3.393745e-02
1.936106e+08 -3.160477e-03 2.115440e-02 7.601318e-01 -6.272583e-01 7.738037e-01 -6.044922e-01 -1.367188e-02 3.416252e-02
1.938284e+08 -3.112793e-03 2.141953e-02 7.598267e-01 -6.282349e-01 7.733154e-01 -6.055298e-01 -1.349258e-02 3.440094e-02
1.940462e+08 -3.030777e-03 2.163887e-02 7.584839e-01 -6.290283e-01 7.725220e-01 -6.062622e-01 -1.319695e-02 3.460121e-02
1.942641e+08 -2.906799e-03 2.176285e-02 7.576904e-01 -6.295776e-01 7.713013e-01 -6.061401e-01 -1.293182e-02 3.479958e-02
1.944819e+08 -2.851486e-03 2.202225e-02 7.586060e-01 -6.288452e-01 7.716064e-01 -6.062622e-01 -1.281738e-02 3.499031e-02
1.946997e+08 -2.754211e-03 2.220535e-02 7.572021e-01 -6.305542e-01 7.710571e-01 -6.069336e-01 -1.249886e-02 3.519630e-02
1.949175e+08 -2.674103e-03 2.245712e-02 7.571411e-01 -6.304932e-01 7.711182e-01 -6.082153e-01 -1.229858e-02 3.537178e-02
1.951353e+08 -2.576828e-03 2.257729e-02 7.561646e-01 -6.319580e-01 7.697144e-01 -6.078491e-01 -1.205063e-02 3.553581e-02
1.953531e+08 -2.515793e-03 2.279854e-02 7.559814e-01 -6.325684e-01 7.689819e-01 -6.082153e-01 -1.177597e-02 3.578568e-02
1.955709e+08 -2.437592e-03 2.305031e-02 7.548218e-01 -6.329346e-01 7.689819e-01 -6.087036e-01 -1.154709e-02 3.598785e-02
1.957888e+08 -2.309799e-03 2.321243e-02 7.550659e-01 -6.334839e-01 7.677612e-01 -6.088257e-01 -1.134109e-02 3.612137e-02
1.960066e+08 -2.193451e-03 2.345276e-02 7.545166e-01 -6.334229e-01 7.680664e-01 -6.103516e-01 -1.105690e-02 3.636742e-02
1.962244e+08 -2.168655e-03 2.367783e-02 7.538452e-01 -6.332397e-01 7.675781e-01 -6.108398e-01 -1.079559e-02 3.645134e-02
1.964422e+08 -2.016068e-03 2.390099e-02 7.529297e-01 -6.349487e-01 7.672119e-01 -6.109009e-01 -1.052856e-02 3.667068e-02
1.966600e+08 -1.945496e-03 2.406120e-02 7.525635e-01 -6.357422e-01 7.664795e-01 -6.117554e-01 -1.040459e-02 3.686333e-02
1.968778e+08 -1.813889e-03 2.428246e-02 7.517700e-01 -6.357422e-01 7.666626e-01 -6.121216e-01 -1.009750e-02 3.704262e-02
1.970956e+08 -1.810074e-03 2.451134e-02 7.519531e-01 -6.367188e-01 7.656860e-01 -6.127319e-01 -9.849548e-03 3.725624e-02
1.973134e+08 -1.672745e-03 2.471352e-02 7.516479e-01 -6.372070e-01 7.651978e-01 -6.126709e-01 -9.595871e-03 3.743935e-02
1.975312e+08 -1.514435e-03 2.484512e-02 7.500000e-01 -6.370850e-01 7.648926e-01 -6.139526e-01 -9.317398e-03 3.755951e-02
1.977491e+08 -1.451492e-03 2.513123e-02 7.500610e-01 -6.380005e-01 7.647095e-01 -6.146851e-01 -9.096146e-03 3.775978e-02
1.979669e+08 -1.361847e-03 2.529144e-02 7.496338e-01 -6.384888e-01 7.639771e-01 -6.147461e-01 -8.831024e-03 3.791809e-02
1.981847e+08 -1.247406e-03 2.543831e-02 7.484131e-01 -6.390991e-01 7.626343e-01 -6.151733e-01 -8.556366e-03 3.811836e-02
1.984025e+08 -1.121521e-03 2.565384e-02 7.479248e-01 -6.394043e-01 7.628784e-01 -6.156616e-01 -8.295059e-03 3.824425e-02
1.986203e+08 -9.765625e-04 2.584267e-02 7.476807e-01 -6.401978e-01 7.619629e-01 -6.162720e-01 -8.031845e-03 3.841400e-02
1.988381e+08 -9.193420e-04 2.606964e-02 7.473145e-01 -6.410522e-01 7.620239e-01 -6.166382e-01 -7.772446e-03 3.862572e-02
1.990559e+08 -7.476807e-04 2.627563e-02 7.459106e-01 -6.412964e-01 7.612915e-01 -6.184082e-01 -7.507324e-03 3.876686e-02
1.992738e+08 -6.752014e-04 2.650070e-02 7.453003e-01 -6.418457e-01 7.609863e-01 -6.188965e-01 -7.244110e-03 3.892708e-02
1.994916e+08 -5.321503e-04 2.661324e-02 7.450562e-01 -6.420898e-01 7.607422e-01 -6.177368e-01 -7.017136e-03 3.901672e-02
1.997094e+08 -4.272461e-04 2.680969e-02 7.443848e-01 -6.429443e-01 7.601318e-01 -6.188965e-01 -6.666183e-03 3.923416e-02
1.999272e+08 -3.032684e-04 2.699852e-02 7.449951e-01 -6.434937e-01 7.592773e-01 -6.196899e-01 -6.433487e-03 3.942108e-02
2.001450e+08 -2.403259e-04 2.717590e-02 7.440186e-01 -6.433105e-01 7.593384e-01 -6.201172e-01 -6.210327e-03 3.952599e-02
2.003628e+08 -5.912781e-05 2.741051e-02 7.432861e-01 -6.441650e-01 7.587891e-01 -6.208496e-01 -5.893707e-03 3.964996e-02
2.005806e+08 5.149841e-05 2.758408e-02 7.426758e-01 -6.448364e-01 7.573242e-01 -6.207275e-01 -5.636215e-03 3.985405e-02
2.007984e+08 1.373291e-04 2.777481e-02 7.421875e-01 -6.446533e-01 7.579956e-01 -6.214600e-01 -5.386353e-03 3.997993e-02
2.010162e+08 2.975464e-04 2.794838e-02 7.416992e-01 -6.460571e-01 7.571411e-01 -6.217651e-01 -5.052567e-03 4.014778e-02
2.012341e+08 4.024506e-04 2.815819e-02 7.410278e-01 -6.462402e-01 7.568359e-01 -6.226196e-01 -4.816055e-03 4.028893e-02
2.014519e+08 6.103516e-04 2.830315e-02 7.404175e-01 -6.455078e-01 7.557373e-01 -6.230469e-01 -4.558563e-03 4.038429e-02
2.016697e+08 6.408691e-04 2.849960e-02 7.403564e-01 -6.477051e-01 7.562256e-01 -6.228638e-01 -4.283905e-03 4.053879e-02
2.018875e+08 7.591248e-04 2.870369e-02 7.399292e-01 -6.472168e-01 7.551270e-01 -6.237793e-01 -3.992081e-03 4.066277e-02
2.021053e+08 9.002686e-04 2.888870e-02 7.390137e-01 -6.482544e-01 7.554321e-01 -6.246338e-01 -3.782272e-03 4.083061e-02
2.023231e+08 1.050949e-03 2.902412e-02 7.391968e-01 -6.483765e-01 7.539673e-01 -6.246338e-01 -3.482819e-03 4.094887e-02
2.025409e+08 1.171112e-03 2.924156e-02 7.379150e-01 -6.491089e-01 7.540894e-01 -6.253662e-01 -3.143311e-03 4.107666e-02
2.027588e+08 1.346588e-03 2.941132e-02 7.373657e-01 -6.489868e-01 7.536011e-01 -6.262207e-01 -2.851486e-03 4.117393e-02
2.029766e+08 1.432419e-03 2.958298e-02 7.365112e-01 -6.495972e-01 7.534180e-01 -6.260376e-01 -2.590179e-03 4.137993e-02
2.031944e+08 1.625061e-03 2.972603e-02 7.361450e-01 -6.506348e-01 7.520142e-01 -6.274414e-01 -2.330780e-03 4.140282e-02
2.034122e+08 1.749039e-03 2.988434e-02 7.363281e-01 -6.514893e-01 7.512817e-01 -6.271973e-01 -2.037048e-03 4.165268e-02
2.036300e+08 1.884460e-03 3.010559e-02 7.352905e-01 -6.508179e-01 7.514038e-01 -6.286011e-01 -1.766205e-03 4.168892e-02
2.038478e+08 1.998901e-03 3.026772e-02 7.349243e-01 -6.515503e-01 7.510376e-01 -6.288452e-01 -1.426697e-03 4.179764e-02
2.040656e+08 2.117157e-03 3.044319e-02 7.341919e-01 -6.528931e-01 7.506714e-01 -6.293945e-01 -1.155853e-03 4.193115e-02
2.042834e+08 2.319336e-03 3.062057e-02 7.341919e-01 -6.530151e-01 7.502441e-01 -6.304932e-01 -8.754730e-04 4.206848e-02
2.045012e+08 2.464294e-03 3.074455e-02 7.337036e-01 -6.531372e-01 7.488403e-01 -6.299438e-01 -5.798340e-04 4.220390e-02
2.047191e+08 2.634048e-03 3.094673e-02 7.326050e-01 -6.532593e-01 7.492065e-01 -6.312256e-01 -3.452301e-04 4.226494e-02
2.049369e+08 2.758026e-03 3.110313e-02 7.322388e-01 -6.537476e-01 7.489014e-01 -6.315308e-01 2.288818e-05 4.238319e-02
2.051547e+08 2.952576e-03 3.125954e-02 7.318115e-01 -6.547241e-01 7.480469e-01 -6.320190e-01 2.937317e-04 4.250717e-02
2.053725e+08 3.013611e-03 3.141022e-02 7.307739e-01 -6.547852e-01 7.484131e-01 -6.321411e-01 6.008148e-04 4.265785e-02
2.055903e+08 3.192902e-03 3.154755e-02 7.302856e-01 -6.553345e-01 7.471313e-01 -6.331177e-01 8.831024e-04 4.269028e-02
2.058081e+08 3.282547e-03 3.176689e-02 7.294922e-01 -6.559448e-01 7.474365e-01 -6.324463e-01 1.171112e-03 4.279137e-02
2.060259e+08 3.492355e-03 3.191757e-02 7.296143e-01 -6.573486e-01 7.461548e-01 -6.329956e-01 1.512527e-03 4.292297e-02
2.062438e+08 3.690720e-03 3.203964e-02 7.292480e-01 -6.573486e-01 7.454834e-01 -6.334229e-01 1.754761e-03 4.301834e-02
2.064616e+08 3.828049e-03 3.220940e-02 7.291870e-01 -6.579590e-01 7.452393e-01 -6.336670e-01 2.069473e-03 4.310989e-02
2.066794e+08 3.955841e-03 3.235054e-02 7.280273e-01 -6.585083e-01 7.453003e-01 -6.343994e-01 2.372742e-03 4.324341e-02
2.068972e+08 4.116058e-03 3.252792e-02 7.280273e-01 -6.596680e-01 7.451782e-01 -6.351929e-01 2.653122e-03 4.330063e-02
2.071150e+08 4.276276e-03 3.266525e-02 7.261353e-01 -6.589966e-01 7.442017e-01 -6.362915e-01 2.998352e-03 4.330254e-02
2.073328e+08 4.465103e-03 3.281021e-02 7.266846e-01 -6.597290e-01 7.436523e-01 -6.364136e-01 3.284454e-03 4.346657e-02
2.075506e+08 4.560471e-03 3.291512e-02 7.257080e-01 -6.607056e-01 7.432861e-01 -6.368408e-01 3.643036e-03 4.355240e-02
2.077684e+08 4.751205e-03 3.308487e-02 7.258301e-01 -6.610107e-01 7.424316e-01 -6.372070e-01 3.890991e-03 4.363251e-02
2.079862e+08 4.915237e-03 3.322029e-02 7.252197e-01 -6.605225e-01 7.427368e-01 -6.380615e-01 4.203796e-03 4.365921e-02
2.082041e+08 5.092621e-03 3.339005e-02 7.249756e-01 -6.619873e-01 7.415161e-01 -6.386108e-01 4.487991e-03 4.378891e-02
2.084219e+08 5.260468e-03 3.352165e-02 7.239990e-01 -6.617432e-01 7.407837e-01 -6.389771e-01 4.840851e-03 4.387856e-02
2.086397e+08 5.445480e-03 3.368187e-02 7.237549e-01 -6.625977e-01 7.399902e-01 -6.395264e-01 5.111694e-03 4.394341e-02
2.088575e+08 5.575180e-03 3.378868e-02 7.233887e-01 -6.635132e-01 7.395020e-01 -6.395264e-01 5.428314e-03 4.401970e-02
2.090753e+08 5.809784e-03 3.393936e-02 7.229614e-01 -6.635132e-01 7.395020e-01 -6.405640e-01 5.691528e-03 4.407501e-02
2.092931e+08 5.962372e-03 3.403854e-02 7.220459e-01 -6.639404e-01 7.391968e-01 -6.414795e-01 6.031036e-03 4.410553e-02
2.095109e+08 6.038666e-03 3.419685e-02 7.213745e-01 -6.644287e-01 7.385864e-01 -6.412354e-01 6.361008e-03 4.420280e-02
2.097288e+08 6.286621e-03 3.432465e-02 7.210083e-01 -6.654663e-01 7.385254e-01 -6.419678e-01 6.677628e-03 4.426193e-02
2.099466e+08 6.437302e-03 3.447723e-02 7.204590e-01 -6.655273e-01 7.384644e-01 -6.423950e-01 6.937027e-03 4.432487e-02
2.101644e+08 6.605148e-03 3.459740e-02 7.206421e-01 -6.659546e-01 7.375488e-01 -6.428833e-01 7.190704e-03 4.436684e-02
2.103822e+08 6.757736e-03 3.471756e-02 7.196045e-01 -6.665039e-01 7.373657e-01 -6.434937e-01 7.553101e-03 4.441071e-02
2.106000e+08 6.967545e-03 3.486061e-02 7.196655e-01 -6.676636e-01 7.365723e-01 -6.443481e-01 7.829666e-03 4.451370e-02
2.108178e+08 7.196426e-03 3.496361e-02 7.188110e-01 -6.678467e-01 7.365112e-01 -6.444702e-01 8.211136e-03 4.451180e-02
2.110356e+08 7.253647e-03 3.512764e-02 7.185669e-01 -6.681519e-01 7.362671e-01 -6.442871e-01 8.476257e-03 4.459763e-02
2.112534e+08 7.492065e-03 3.522301e-02 7.182007e-01 -6.687622e-01 7.352905e-01 -6.447144e-01 8.813858e-03 4.462814e-02
2.114712e+08 7.650375e-03 3.533173e-02 7.166748e-01 -6.691895e-01 7.355347e-01 -6.454468e-01 9.117126e-03 4.467392e-02
2.116891e+08 7.820129e-03 3.547096e-02 7.163696e-01 -6.693726e-01 7.343140e-01 -6.456909e-01 9.460449e-03 4.475403e-02
2.119069e+08 8.001328e-03 3.557777e-02 7.167969e-01 -6.700439e-01 7.346802e-01 -6.465454e-01 9.765625e-03 4.475021e-02
2.121247e+08 8.190155e-03 3.570938e-02 7.160645e-01 -6.703491e-01 7.339478e-01 -6.472778e-01 1.001740e-02 4.477310e-02
2.123425e+08 8.310318e-03 3.573608e-02 7.158203e-01 -6.701660e-01 7.333374e-01 -6.465454e-01 1.032639e-02 4.482651e-02
2.125603e+08 8.556366e-03 3.596497e-02 7.150879e-01 -6.711426e-01 7.327271e-01 -6.486816e-01 1.062393e-02 4.481506e-02
2.127781e+08 8.758545e-03 3.599358e-02 7.142334e-01 -6.715698e-01 7.324829e-01 -6.488037e-01 1.102066e-02 4.491043e-02
2.129959e+08 8.943558e-03 3.605652e-02 7.142944e-01 -6.719360e-01 7.320557e-01 -6.491699e-01 1.124573e-02 4.488373e-02
2.132138e+08 9.092331e-03 3.625488e-02 7.144775e-01 -6.730347e-01 7.315674e-01 -6.494751e-01 1.158142e-02 4.496384e-02
2.134316e+08 9.313583e-03 3.635216e-02 7.137451e-01 -6.734619e-01 7.319336e-01 -6.500244e-01 1.191711e-02 4.497910e-02
2.136494e+08 9.502411e-03 3.647232e-02 7.134399e-01 -6.742554e-01 7.308350e-01 -6.505737e-01 1.223373e-02 4.502869e-02
2.138672e+08 9.643555e-03 3.653908e-02 7.124634e-01 -6.746216e-01 7.300415e-01 -6.505127e-01 1.259232e-02 4.498672e-02
2.140850e+08 9.832382e-03 3.665924e-02 7.115479e-01 -6.749878e-01 7.302856e-01 -6.515503e-01 1.284409e-02 4.502487e-02
2.143028e+08 1.006126e-02 3.673553e-02 7.111816e-01 -6.746826e-01 7.292480e-01 -6.518555e-01 1.316833e-02 4.502106e-02
2.145206e+08 1.016235e-02 3.688049e-02 7.116699e-01 -6.755371e-01 7.288818e-01 -6.522827e-01 1.356506e-02 4.499817e-02
2.147384e+08 1.041412e-02 3.691101e-02 7.105713e-01 -6.760864e-01 7.281494e-01 -6.533813e-01 1.372910e-02 4.499054e-02
2.149562e+08 1.059341e-02 3.702927e-02 7.104492e-01 -6.773071e-01 7.283325e-01 -6.535034e-01 1.410294e-02 4.507065e-02
2.151741e+08 1.078224e-02 3.708458e-02 7.103882e-01 -6.772461e-01 7.272949e-01 -6.539917e-01 1.448441e-02 4.507065e-02
2.153919e+08 1.092911e-02 3.719139e-02 7.095947e-01 -6.773071e-01 7.274780e-01 -6.544800e-01 1.467896e-02 4.507446e-02
2.156097e+08 1.107407e-02 3.730774e-02 7.084351e-01 -6.783447e-01 7.270508e-01 -6.539917e-01 1.513290e-02 4.509354e-02
2.158275e+08 1.133347e-02 3.737068e-02 7.088013e-01 -6.781006e-01 7.264404e-01 -6.553345e-01 1.542282e-02 4.504013e-02
2.160453e+08 1.155281e-02 3.744507e-02 7.080078e-01 -6.786499e-01 7.265015e-01 -6.557007e-01 1.571655e-02 4.515457e-02
2.162631e+08 1.174736e-02 3.753662e-02 7.078857e-01 -6.796875e-01 7.257690e-01 -6.561279e-01 1.595688e-02 4.505539e-02
2.164809e+08 1.192856e-02 3.761292e-02 7.070923e-01 -6.798706e-01 7.256470e-01 -6.566772e-01 1.621246e-02 4.503632e-02
2.166988e+08 1.213074e-02 3.773689e-02 7.064209e-01 -6.801147e-01 7.252808e-01 -6.572266e-01 1.671219e-02 4.494476e-02
2.169166e+08 1.231194e-02 3.776741e-02 7.063599e-01 -6.812744e-01 7.244873e-01 -6.581421e-01 1.706314e-02 4.506302e-02
2.171344e+08 1.247787e-02 3.776741e-02 7.056885e-01 -6.810303e-01 7.242432e-01 -6.585693e-01 1.726532e-02 4.502487e-02
2.173522e+08 1.272964e-02 3.787231e-02 7.054443e-01 -6.823120e-01 7.231445e-01 -6.589966e-01 1.762009e-02 4.491043e-02
2.175700e+08 1.290321e-02 3.793144e-02 7.046509e-01 -6.820679e-01 7.227173e-01 -6.593018e-01 1.793671e-02 4.493332e-02
2.177878e+08 1.310730e-02 3.801727e-02 7.047729e-01 -6.834106e-01 7.228394e-01 -6.601562e-01 1.824951e-02 4.492188e-02
2.180056e+08 1.330757e-02 3.811646e-02 7.041016e-01 -6.837769e-01 7.231445e-01 -6.605225e-01 1.849747e-02 4.494858e-02
2.182234e+08 1.350784e-02 3.817177e-02 7.034302e-01 -6.849976e-01 7.225342e-01 -6.606445e-01 1.888275e-02 4.482651e-02
2.184412e+08 1.366997e-02 3.823090e-02 7.028198e-01 -6.845093e-01 7.218018e-01 -6.614380e-01 1.929092e-02 4.488373e-02
2.186591e+08 1.389885e-02 3.828621e-02 7.031250e-01 -6.856689e-01 7.211914e-01 -6.619873e-01 1.942444e-02 4.488373e-02
2.188769e+08 1.409531e-02 3.831100e-02 7.013550e-01 -6.857910e-01 7.199707e-01 -6.626587e-01 1.982498e-02 4.474640e-02
2.190947e+08 1.421928e-02 3.840637e-02 7.010498e-01 -6.862793e-01 7.206421e-01 -6.623535e-01 2.014923e-02 4.468918e-02
2.193125e+08 1.442337e-02 3.846359e-02 7.001343e-01 -6.865234e-01 7.202759e-01 -6.635132e-01 2.049255e-02 4.476547e-02
2.195303e+08 1.466560e-02 3.849983e-02 7.008057e-01 -6.869507e-01 7.191772e-01 -6.638184e-01 2.078247e-02 4.470062e-02
2.197481e+08 1.479721e-02 3.856468e-02 7.002563e-01 -6.876221e-01 7.189941e-01 -6.646729e-01 2.103424e-02 4.476166e-02
2.199659e+08 1.502419e-02 3.858948e-02 6.997070e-01 -6.878052e-01 7.186890e-01 -6.647949e-01 2.142143e-02 4.454613e-02
2.201838e+08 1.528740e-02 3.863144e-02 6.989136e-01 -6.886597e-01 7.182617e-01 -6.657715e-01 2.175140e-02 4.448891e-02
2.204016e+08 1.548004e-02 3.867722e-02 6.983032e-01 -6.888428e-01 7.176514e-01 -6.665039e-01 2.215958e-02 4.446983e-02
2.206194e+08 1.564980e-02 3.874969e-02 6.980591e-01 -6.895752e-01 7.177734e-01 -6.669312e-01 2.232742e-02 4.438591e-02
2.208372e+08 1.588631e-02 3.874588e-02 6.973877e-01 -6.896973e-01 7.163696e-01 -6.672363e-01 2.251053e-02 4.436111e-02
2.210550e+08 1.608086e-02 3.881645e-02 6.968994e-01 -6.906738e-01 7.164307e-01 -6.677856e-01 2.298164e-02 4.441452e-02
2.212728e+08 1.626396e-02 3.882599e-02 6.966553e-01 -6.912231e-01 7.160034e-01 -6.679688e-01 2.330399e-02 4.425812e-02
2.214906e+08 1.651001e-02 3.886604e-02 6.957397e-01 -6.917114e-01 7.156982e-01 -6.688232e-01 2.368164e-02 4.424477e-02
2.217084e+08 1.665306e-02 3.886795e-02 6.958008e-01 -6.920166e-01 7.145386e-01 -6.688232e-01 2.382851e-02 4.405594e-02
2.219262e+08 1.693153e-02 3.899384e-02 6.945801e-01 -6.929321e-01 7.144165e-01 -6.705017e-01 2.430916e-02 4.408264e-02
2.221441e+08 1.717186e-02 3.898430e-02 6.939697e-01 -6.941528e-01 7.145081e-01 -6.709290e-01 2.458382e-02 4.397392e-02
2.223619e+08 1.725197e-02 3.897095e-02 6.945801e-01 -6.934814e-01 7.140198e-01 -6.703186e-01 2.479935e-02 4.380035e-02
2.225797e+08 1.744080e-02 3.902626e-02 6.940308e-01 -6.945801e-01 7.137146e-01 -6.710510e-01 2.507401e-02 4.372215e-02
2.227975e+08 1.768494e-02 3.910446e-02 6.929321e-01 -6.954346e-01 7.137451e-01 -6.721802e-01 2.527809e-02 4.367638e-02
2.230153e+08 1.790810e-02 3.905678e-02 6.927490e-01 -6.963501e-01 7.131653e-01 -6.725769e-01 2.574730e-02 4.369926e-02
2.232331e+08 1.810265e-02 3.912354e-02 6.932983e-01 -6.968994e-01 7.127075e-01 -6.737976e-01 2.609062e-02 4.345703e-02
2.234509e+08 1.827431e-02 3.911400e-02 6.923218e-01 -6.967773e-01 7.123413e-01 -6.734009e-01 2.649117e-02 4.349518e-02
2.236688e+08 1.847649e-02 3.909683e-02 6.917114e-01 -6.974487e-01 7.114868e-01 -6.737366e-01 2.669144e-02 4.339218e-02
2.238866e+08 1.861572e-02 3.910637e-02 6.911011e-01 -6.974487e-01 7.112427e-01 -6.741333e-01 2.688026e-02 4.335785e-02
2.241044e+08 1.884651e-02 3.906250e-02 6.906738e-01 -6.986694e-01 7.106934e-01 -6.752319e-01 2.736855e-02 4.327393e-02
2.243222e+08 1.902771e-02 3.911209e-02 6.906128e-01 -6.984253e-01 7.102356e-01 -6.750183e-01 2.753258e-02 4.316330e-02
2.245400e+08 1.929474e-02 3.919411e-02 6.892090e-01 -6.994019e-01 7.098083e-01 -6.767578e-01 2.785492e-02 4.297256e-02
2.247578e+08 1.947212e-02 3.917503e-02 6.888428e-01 -6.992188e-01 7.099304e-01 -6.767578e-01 2.803040e-02 4.283142e-02
2.249756e+08 1.970673e-02 3.914833e-02 6.892090e-01 -7.009277e-01 7.081299e-01 -6.764526e-01 2.832031e-02 4.272842e-02
2.251934e+08 1.990128e-02 3.915024e-02 6.881714e-01 -7.014160e-01 7.084656e-01 -6.782532e-01 2.874184e-02 4.265404e-02
2.254112e+08 2.006721e-02 3.916931e-02 6.884155e-01 -7.012939e-01 7.075806e-01 -6.786194e-01 2.900887e-02 4.266548e-02
2.256291e+08 2.027130e-02 3.913116e-02 6.875000e-01 -7.017822e-01 7.076721e-01 -6.790771e-01 2.925110e-02 4.251480e-02
2.258469e+08 2.049828e-02 3.911591e-02 6.862183e-01 -7.026367e-01 7.070618e-01 -6.799011e-01 2.974892e-02 4.235840e-02
2.260647e+08 2.065277e-02 3.910446e-02 6.858521e-01 -7.039795e-01 7.066345e-01 -6.797485e-01 3.012657e-02 4.225731e-02
2.262825e+08 2.085304e-02 3.907013e-02 6.862183e-01 -7.040405e-01 7.063904e-01 -6.806641e-01 3.026581e-02 4.207039e-02
2.265003e+08 2.107620e-02 3.912735e-02 6.853027e-01 -7.042847e-01 7.059631e-01 -6.813354e-01 3.049850e-02 4.199982e-02
2.267181e+08 2.126503e-02 3.909111e-02 6.847534e-01 -7.047119e-01 7.052612e-01 -6.810608e-01 3.077888e-02 4.187584e-02
2.269359e+08 2.148628e-02 3.908348e-02 6.845703e-01 -7.052612e-01 7.050781e-01 -6.822510e-01 3.118515e-02 4.181290e-02
2.271538e+08 2.162743e-02 3.911209e-02 6.840210e-01 -7.057495e-01 7.048340e-01 -6.831360e-01 3.129959e-02 4.157257e-02
2.273716e+08 2.185249e-02 3.908730e-02 6.831055e-01 -7.058716e-01 7.047424e-01 -6.833191e-01 3.154182e-02 4.145622e-02
2.275894e+08 2.209854e-02 3.902817e-02 6.831055e-01 -7.074585e-01 7.034302e-01 -6.843567e-01 3.194237e-02 4.137802e-02
2.278072e+08 2.229881e-02 3.898621e-02 6.820679e-01 -7.073975e-01 7.030334e-01 -6.847229e-01 3.231239e-02 4.128075e-02
2.280250e+08 2.251053e-02 3.893089e-02 6.820679e-01 -7.079468e-01 7.030029e-01 -6.852722e-01 3.271866e-02 4.105568e-02
2.282428e+08 2.264404e-02 3.895187e-02 6.813354e-01 -7.088623e-01 7.026367e-01 -6.853943e-01 3.283691e-02 4.091072e-02
2.284606e+08 2.283096e-02 3.888702e-02 6.806030e-01 -7.093506e-01 7.022400e-01 -6.862183e-01 3.315544e-02 4.078484e-02
2.286784e+08 2.308655e-02 3.887749e-02 6.809082e-01 -7.101440e-01 7.012329e-01 -6.864319e-01 3.347206e-02 4.075813e-02
2.288962e+08 2.319145e-02 3.878403e-02 6.802368e-01 -7.099609e-01 7.015991e-01 -6.868286e-01 3.360367e-02 4.045296e-02
2.291141e+08 2.342987e-02 3.871346e-02 6.795654e-01 -7.105713e-01 7.004700e-01 -6.876831e-01 3.394890e-02 4.035759e-02
2.293319e+08 2.363205e-02 3.874969e-02 6.788940e-01 -7.117920e-01 7.003479e-01 -6.885986e-01 3.411484e-02 4.025269e-02
2.295497e+08 2.387619e-02 3.869247e-02 6.787109e-01 -7.119141e-01 6.995544e-01 -6.893311e-01 3.447914e-02 4.006767e-02
2.297675e+08 2.399254e-02 3.863907e-02 6.776123e-01 -7.128906e-01 6.989746e-01 -6.896973e-01 3.491592e-02 3.987122e-02
2.299853e+08 2.418518e-02 3.857994e-02 6.774902e-01 -7.130737e-01 6.984253e-01 -6.904907e-01 3.509712e-02 3.978920e-02
2.302031e+08 2.444077e-02 3.855133e-02 6.772461e-01 -7.139282e-01 6.984253e-01 -6.903687e-01 3.524017e-02 3.958893e-02
2.304209e+08 2.460480e-02 3.849602e-02 6.764526e-01 -7.144775e-01 6.972961e-01 -6.916504e-01 3.580666e-02 3.944016e-02
2.306388e+08 2.484894e-02 3.847885e-02 6.754761e-01 -7.150269e-01 6.978455e-01 -6.926575e-01 3.588295e-02 3.920746e-02
2.308566e+08 2.501106e-02 3.836441e-02 6.749268e-01 -7.154541e-01 6.965942e-01 -6.928406e-01 3.618050e-02 3.907204e-02
2.310744e+08 2.517891e-02 3.834534e-02 6.755981e-01 -7.161255e-01 6.961060e-01 -6.933594e-01 3.650665e-02 3.895187e-02
2.312922e+08 2.532196e-02 3.836823e-02 6.747437e-01 -7.165527e-01 6.967163e-01 -6.938171e-01 3.658485e-02 3.870392e-02
2.315100e+08 2.556992e-02 3.816795e-02 6.740723e-01 -7.171021e-01 6.949463e-01 -6.946411e-01 3.698349e-02 3.863144e-02
2.317278e+08 2.571678e-02 3.809357e-02 6.730347e-01 -7.172241e-01 6.943054e-01 -6.943359e-01 3.718758e-02 3.837967e-02
2.319456e+08 2.595329e-02 3.811264e-02 6.723022e-01 -7.174683e-01 6.946106e-01 -6.952820e-01 3.752899e-02 3.824425e-02
2.321634e+08 2.616692e-02 3.804970e-02 6.723633e-01 -7.183228e-01 6.940918e-01 -6.960449e-01 3.775597e-02 3.808784e-02
2.323812e+08 2.629662e-02 3.792381e-02 6.710205e-01 -7.189941e-01 6.935120e-01 -6.966248e-01 3.783607e-02 3.783989e-02
2.325991e+08 2.640343e-02 3.781700e-02 6.712036e-01 -7.192993e-01 6.922302e-01 -6.964417e-01 3.816032e-02 3.766060e-02
2.328169e+08 2.669907e-02 3.782463e-02 6.705933e-01 -7.203369e-01 6.928711e-01 -6.973877e-01 3.845215e-02 3.733635e-02
2.330347e+08 2.687836e-02 3.772354e-02 6.691284e-01 -7.207031e-01 6.915894e-01 -6.988525e-01 3.861427e-02 3.722572e-02
2.332525e+08 2.706528e-02 3.765678e-02 6.688232e-01 -7.214966e-01 6.912537e-01 -6.992798e-01 3.898621e-02 3.702736e-02
2.334703e+08 2.717781e-02 3.755379e-02 6.693115e-01 -7.222900e-01 6.907654e-01 -6.991577e-01 3.923035e-02 3.682899e-02
2.336881e+08 2.732849e-02 3.748322e-02 6.684570e-01 -7.221680e-01 6.904602e-01 -6.994934e-01 3.932571e-02 3.658867e-02
2.339059e+08 2.753639e-02 3.733253e-02 6.678467e-01 -7.238159e-01 6.899719e-01 -7.002258e-01 3.964043e-02 3.641701e-02
2.341238e+08 2.778435e-02 3.730202e-02 6.667480e-01 -7.241821e-01 6.898499e-01 -7.006226e-01 4.010201e-02 3.629303e-02
2.343416e+08 2.791977e-02 3.722572e-02 6.666870e-01 -7.240601e-01 6.894226e-01 -7.012939e-01 4.019547e-02 3.612137e-02
2.345594e+08 2.804947e-02 3.713989e-02 6.658325e-01 -7.243042e-01 6.879578e-01 -7.016296e-01 4.046059e-02 3.583527e-02
2.347772e+08 2.828026e-02 3.703880e-02 6.655273e-01 -7.255859e-01 6.877747e-01 -7.026062e-01 4.075813e-02 3.568649e-02
2.349950e+08 2.844810e-02 3.695297e-02 6.654053e-01 -7.255249e-01 6.878052e-01 -7.040710e-01 4.097366e-02 3.550529e-02
2.352128e+08 2.856827e-02 3.684998e-02 6.651611e-01 -7.269897e-01 6.869812e-01 -7.033386e-01 4.120636e-02 3.528595e-02
2.354306e+08 2.878189e-02 3.676796e-02 6.640015e-01 -7.270508e-01 6.864319e-01 -7.044373e-01 4.149628e-02 3.505516e-02
2.356484e+08 2.896500e-02 3.659058e-02 6.631470e-01 -7.273560e-01 6.858521e-01 -7.048035e-01 4.169083e-02 3.475189e-02
2.358662e+08 2.914429e-02 3.653717e-02 6.627197e-01 -7.276001e-01 6.852722e-01 -7.058411e-01 4.186630e-02 3.467751e-02
2.360841e+08 2.925491e-02 3.642845e-02 6.625366e-01 -7.284546e-01 6.848450e-01 -7.053528e-01 4.207230e-02 3.437996e-02
2.363019e+08 2.947426e-02 3.633118e-02 6.612549e-01 -7.284546e-01 6.847534e-01 -7.074280e-01 4.220200e-02 3.419876e-02
2.365197e+08 2.956200e-02 3.620720e-02 6.610107e-01 -7.293701e-01 6.840820e-01 -7.070312e-01 4.255295e-02 3.389359e-02
2.367375e+08 2.974319e-02 3.611755e-02 6.604614e-01 -7.305298e-01 6.828918e-01 -7.074890e-01 4.277420e-02 3.377914e-02
2.369553e+08 2.994537e-02 3.602791e-02 6.596069e-01 -7.311401e-01 6.828613e-01 -7.085571e-01 4.309845e-02 3.357887e-02
2.371731e+08 3.012276e-02 3.590393e-02 6.587524e-01 -7.314453e-01 6.818848e-01 -7.093201e-01 4.313660e-02 3.322411e-02
2.373909e+08 3.026390e-02 3.578186e-02 6.591187e-01 -7.322998e-01 6.817932e-01 -7.088623e-01 4.351807e-02 3.309822e-02
2.376088e+08 3.040886e-02 3.563690e-02 6.583862e-01 -7.323608e-01 6.810913e-01 -7.104797e-01 4.366684e-02 3.289604e-02
2.378266e+08 3.058434e-02 3.550148e-02 6.574707e-01 -7.330322e-01 6.809692e-01 -7.103271e-01 4.386330e-02 3.265762e-02
2.380444e+08 3.070259e-02 3.540039e-02 6.573486e-01 -7.333984e-01 6.801758e-01 -7.113647e-01 4.407310e-02 3.230476e-02
2.382622e+08 3.092957e-02 3.528786e-02 6.566772e-01 -7.340698e-01 6.792603e-01 -7.115479e-01 4.438210e-02 3.219223e-02
2.384800e+08 3.105354e-02 3.511620e-02 6.563721e-01 -7.343750e-01 6.789246e-01 -7.123108e-01 4.442215e-02 3.184509e-02
2.386978e+08 3.120232e-02 3.498459e-02 6.553955e-01 -7.355347e-01 6.788025e-01 -7.129211e-01 4.482651e-02 3.165436e-02
2.389156e+08 3.133011e-02 3.488922e-02 6.552734e-01 -7.354126e-01 6.783447e-01 -7.131958e-01 4.482269e-02 3.138733e-02
2.391334e+08 3.147316e-02 3.481865e-02 6.542969e-01 -7.362061e-01 6.777954e-01 -7.142944e-01 4.512024e-02 3.119659e-02
2.393512e+08 3.163910e-02 3.462982e-02 6.537476e-01 -7.374268e-01 6.766968e-01 -7.142029e-01 4.547501e-02 3.090286e-02
2.395691e+08 3.172302e-02 3.454590e-02 6.527710e-01 -7.374878e-01 6.768799e-01 -7.142944e-01 4.553986e-02 3.075790e-02
2.397869e+08 3.191185e-02 3.437614e-02 6.527710e-01 -7.374878e-01 6.756592e-01 -7.146606e-01 4.574203e-02 3.038025e-02
2.400047e+08 3.207779e-02 3.423500e-02 6.516113e-01 -7.381592e-01 6.757812e-01 -7.165527e-01 4.585648e-02 3.023148e-02
2.402225e+08 3.218079e-02 3.407288e-02 6.513062e-01 -7.383423e-01 6.750488e-01 -7.161865e-01 4.600143e-02 3.004074e-02
2.404403e+08 3.234482e-02 3.397179e-02 6.512451e-01 -7.387695e-01 6.747437e-01 -7.168579e-01 4.627228e-02 2.964020e-02
2.406581e+08 3.250504e-02 3.387070e-02 6.502686e-01 -7.396240e-01 6.748657e-01 -7.176514e-01 4.644775e-02 2.942276e-02
2.408759e+08 3.258324e-02 3.365707e-02 6.492920e-01 -7.398682e-01 6.734009e-01 -7.180176e-01 4.666138e-02 2.917099e-02
2.410938e+08 3.270531e-02 3.352356e-02 6.486816e-01 -7.404175e-01 6.726074e-01 -7.185059e-01 4.676056e-02 2.890015e-02
2.413116e+08 3.293037e-02 3.335190e-02 6.483154e-01 -7.408447e-01 6.718750e-01 -7.195435e-01 4.696274e-02 2.875137e-02
2.415294e+08 3.298950e-02 3.321648e-02 6.480103e-01 -7.420044e-01 6.718140e-01 -7.194214e-01 4.718781e-02 2.851486e-02
2.417472e+08 3.309631e-02 3.304672e-02 6.466675e-01 -7.420044e-01 6.708984e-01 -7.201538e-01 4.725266e-02 2.824783e-02
2.419650e+08 3.322029e-02 3.294754e-02 6.467896e-01 -7.424316e-01 6.709595e-01 -7.209473e-01 4.735565e-02 2.790451e-02
2.421828e+08 3.339005e-02 3.279114e-02 6.453857e-01 -7.431641e-01 6.702881e-01 -7.206421e-01 4.762268e-02 2.769089e-02
2.424006e+08 3.350639e-02 3.259277e-02 6.447144e-01 -7.432861e-01 6.695557e-01 -7.216797e-01 4.767227e-02 2.730179e-02
2.426184e+08 3.366280e-02 3.245735e-02 6.451416e-01 -7.445068e-01 6.691895e-01 -7.227783e-01 4.815674e-02 2.714920e-02
2.428362e+08 3.377914e-02 3.238297e-02 6.444092e-01 -7.442627e-01 6.692505e-01 -7.227783e-01 4.822540e-02 2.681732e-02
2.430541e+08 3.394508e-02 3.214645e-02 6.438599e-01 -7.454224e-01 6.676636e-01 -7.241211e-01 4.833221e-02 2.655792e-02
2.432719e+08 3.396988e-02 3.196907e-02 6.429443e-01 -7.464600e-01 6.669312e-01 -7.238770e-01 4.841614e-02 2.620316e-02
2.434897e+08 3.418922e-02 3.181648e-02 6.423950e-01 -7.464600e-01 6.666870e-01 -7.249146e-01 4.859161e-02 2.592850e-02
2.437075e+08 3.427505e-02 3.169250e-02 6.419067e-01 -7.456665e-01 6.664429e-01 -7.252808e-01 4.858780e-02 2.565765e-02
2.439253e+08 3.433228e-02 3.149986e-02 6.411133e-01 -7.476196e-01 6.649780e-01 -7.256470e-01 4.889297e-02 2.541351e-02
2.441431e+08 3.451729e-02 3.130150e-02 6.405029e-01 -7.480469e-01 6.642456e-01 -7.265015e-01 4.896927e-02 2.515411e-02
2.443609e+08 3.455544e-02 3.117561e-02 6.407471e-01 -7.483521e-01 6.646729e-01 -7.261963e-01 4.905701e-02 2.488327e-02
2.445788e+08 3.464127e-02 3.098488e-02 6.397095e-01 -7.489014e-01 6.638794e-01 -7.264404e-01 4.931259e-02 2.453995e-02
2.447966e+08 3.481483e-02 3.080559e-02 6.398926e-01 -7.493896e-01 6.634521e-01 -7.277832e-01 4.959869e-02 2.442169e-02
2.450144e+08 3.490829e-02 3.065300e-02 6.386719e-01 -7.499390e-01 6.628418e-01 -7.280884e-01 4.958344e-02 2.402878e-02
2.452322e+08 3.503036e-02 3.043556e-02 6.370239e-01 -7.495728e-01 6.622314e-01 -7.292480e-01 4.969025e-02 2.378464e-02
2.454500e+08 3.511238e-02 3.028107e-02 6.372681e-01 -7.503662e-01 6.619873e-01 -7.290649e-01 4.972458e-02 2.357864e-02
2.456678e+08 3.524017e-02 3.015518e-02 6.367188e-01 -7.506104e-01 6.616821e-01 -7.297974e-01 4.989624e-02 2.318573e-02
2.458856e+08 3.530312e-02 2.992630e-02 6.350708e-01 -7.513428e-01 6.611328e-01 -7.296143e-01 4.996872e-02 2.291107e-02
2.461034e+08 3.543663e-02 2.977753e-02 6.351318e-01 -7.519531e-01 6.602173e-01 -7.307129e-01 5.015564e-02 2.276611e-02
2.463212e+08 3.549194e-02 2.958679e-02 6.341553e-01 -7.523193e-01 6.594238e-01 -7.308350e-01 5.027008e-02 2.238464e-02
2.465391e+08 3.556633e-02 2.937508e-02 6.337280e-01 -7.529907e-01 6.589355e-01 -7.316284e-01 5.031204e-02 2.206802e-02
2.467569e+08 3.568840e-02 2.924919e-02 6.342163e-01 -7.542114e-01 6.591187e-01 -7.318115e-01 5.067825e-02 2.183151e-02
2.469747e+08 3.585434e-02 2.906990e-02 6.331787e-01 -7.533569e-01 6.582031e-01 -7.329102e-01 5.059433e-02 2.153397e-02
2.471925e+08 3.586578e-02 2.883339e-02 6.325073e-01 -7.539062e-01 6.567993e-01 -7.335205e-01 5.084229e-02 2.125549e-02
2.474103e+08 3.590584e-02 2.869987e-02 6.318359e-01 -7.552490e-01 6.566162e-01 -7.335205e-01 5.093002e-02 2.093124e-02
2.476281e+08 3.604698e-02 2.851105e-02 6.312866e-01 -7.564697e-01 6.561890e-01 -7.339478e-01 5.101776e-02 2.055740e-02
2.478459e+08 3.609848e-02 2.830315e-02 6.306763e-01 -7.556763e-01 6.556396e-01 -7.346191e-01 5.097580e-02 2.037430e-02
2.480638e+08 3.617287e-02 2.815056e-02 6.304321e-01 -7.561035e-01 6.546631e-01 -7.351685e-01 5.112839e-02 2.004623e-02
2.482816e+08 3.619385e-02 2.793694e-02 6.289673e-01 -7.562866e-01 6.544189e-01 -7.352295e-01 5.121994e-02 1.986313e-02
2.484994e+08 3.638077e-02 2.766991e-02 6.285400e-01 -7.570801e-01 6.527710e-01 -7.365112e-01 5.125046e-02 1.950836e-02
2.487172e+08 3.632736e-02 2.752686e-02 6.285400e-01 -7.587280e-01 6.525879e-01 -7.363892e-01 5.152893e-02 1.915741e-02
2.489350e+08 3.658295e-02 2.729797e-02 6.279297e-01 -7.581177e-01 6.519775e-01 -7.374268e-01 5.138016e-02 1.890564e-02
2.491528e+08 3.655815e-02 2.718163e-02 6.272583e-01 -7.588501e-01 6.519775e-01 -7.379761e-01 5.146027e-02 1.869583e-02
2.493706e+08 3.663445e-02 2.695274e-02 6.259155e-01 -7.588501e-01 6.510010e-01 -7.379150e-01 5.152893e-02 1.839066e-02
2.495884e+08 3.668022e-02 2.670670e-02 6.257935e-01 -7.604980e-01 6.501465e-01 -7.379150e-01 5.168152e-02 1.805878e-02
2.498062e+08 3.676224e-02 2.662086e-02 6.245728e-01 -7.603149e-01 6.512451e-01 -7.395630e-01 5.151367e-02 1.772308e-02
2.500241e+08 3.679085e-02 2.634621e-02 6.246338e-01 -7.601929e-01 6.499634e-01 -7.394409e-01 5.166245e-02 1.749039e-02
2.502419e+08 3.684616e-02 2.615356e-02 6.237793e-01 -7.611694e-01 6.492310e-01 -7.398071e-01 5.185699e-02 1.714706e-02
2.504597e+08 3.690147e-02 2.591896e-02 6.231079e-01 -7.608643e-01 6.483154e-01 -7.399292e-01 5.194092e-02 1.683426e-02
2.506775e+08 3.695297e-02 2.580833e-02 6.224365e-01 -7.619629e-01 6.481934e-01 -7.402344e-01 5.208969e-02 1.650620e-02
2.508953e+08 3.702927e-02 2.562141e-02 6.229248e-01 -7.627563e-01 6.477051e-01 -7.412109e-01 5.214691e-02 1.628113e-02
2.511131e+08 3.704262e-02 2.541161e-02 6.221313e-01 -7.619629e-01 6.470947e-01 -7.417603e-01 5.215454e-02 1.597595e-02
2.513309e+08 3.712082e-02 2.517509e-02 6.207886e-01 -7.630005e-01 6.459961e-01 -7.424927e-01 5.213928e-02 1.579285e-02
2.515488e+08 3.717041e-02 2.495003e-02 6.209717e-01 -7.637329e-01 6.462402e-01 -7.431641e-01 5.234146e-02 1.549530e-02
2.517666e+08 3.715324e-02 2.479935e-02 6.195068e-01 -7.644043e-01 6.452637e-01 -7.428589e-01 5.230331e-02 1.501465e-02
2.519844e+08 3.729820e-02 2.456665e-02 6.194458e-01 -7.645874e-01 6.450806e-01 -7.440186e-01 5.244064e-02 1.480865e-02
2.522022e+08 3.734398e-02 2.437782e-02 6.190186e-01 -7.651367e-01 6.444702e-01 -7.444458e-01 5.242920e-02 1.448441e-02
2.524200e+08 3.738594e-02 2.412796e-02 6.179199e-01 -7.661743e-01 6.438599e-01 -7.450562e-01 5.246735e-02 1.421356e-02
2.526378e+08 3.739166e-02 2.394104e-02 6.174316e-01 -7.662964e-01 6.431274e-01 -7.450562e-01 5.253601e-02 1.381683e-02
2.528556e+08 3.747177e-02 2.372169e-02 6.165771e-01 -7.666016e-01 6.430054e-01 -7.458496e-01 5.261612e-02 1.353836e-02
2.530734e+08 3.745270e-02 2.350426e-02 6.166382e-01 -7.666016e-01 6.422119e-01 -7.457275e-01 5.264282e-02 1.327133e-02
2.532912e+08 3.748322e-02 2.330399e-02 6.145020e-01 -7.674561e-01 6.411743e-01 -7.462769e-01 5.254364e-02 1.287079e-02
2.535091e+08 3.751564e-02 2.309799e-02 6.151733e-01 -7.680664e-01 6.405029e-01 -7.463379e-01 5.275345e-02 1.266861e-02
2.537269e+08 3.761101e-02 2.291489e-02 6.140137e-01 -7.678223e-01 6.404419e-01 -7.478638e-01 5.264664e-02 1.231766e-02
2.539447e+08 3.766251e-02 2.264023e-02 6.141357e-01 -7.684326e-01 6.395264e-01 -7.485352e-01 5.273819e-02 1.193619e-02
2.541625e+08 3.763771e-02 2.248383e-02 6.137085e-01 -7.687988e-01 6.395874e-01 -7.484741e-01 5.253220e-02 1.178741e-02
2.543803e+08 3.758621e-02 2.224159e-02 6.127319e-01 -7.692261e-01 6.376343e-01 -7.482300e-01 5.261230e-02 1.147842e-02
2.545981e+08 3.760147e-02 2.199364e-02 6.125488e-01 -7.700195e-01 6.362305e-01 -7.487183e-01 5.268097e-02 1.114655e-02
2.548159e+08 3.759575e-02 2.185822e-02 6.112061e-01 -7.698975e-01 6.371460e-01 -7.491455e-01 5.269623e-02 1.074219e-02
2.550338e+08 3.763008e-02 2.164841e-02 6.113892e-01 -7.711792e-01 6.365967e-01 -7.498169e-01 5.295181e-02 1.048660e-02
2.552516e+08 3.770065e-02 2.137947e-02 6.116333e-01 -7.714844e-01 6.357422e-01 -7.507935e-01 5.289459e-02 1.021957e-02
2.554694e+08 3.767204e-02 2.121544e-02 6.102295e-01 -7.721558e-01 6.356201e-01 -7.512207e-01 5.287933e-02 9.906769e-03
2.556872e+08 3.773499e-02 2.099037e-02 6.097412e-01 -7.727661e-01 6.347046e-01 -7.521973e-01 5.279922e-02 9.658813e-03
2.559050e+08 3.771973e-02 2.073669e-02 6.088867e-01 -7.723999e-01 6.342163e-01 -7.521362e-01 5.273438e-02 9.403229e-03
2.561228e+08 3.776169e-02 2.054977e-02 6.083984e-01 -7.731323e-01 6.334229e-01 -7.529907e-01 5.276108e-02 8.983612e-03
2.563406e+08 3.772736e-02 2.033997e-02 6.074219e-01 -7.733765e-01 6.331177e-01 -7.534790e-01 5.274582e-02 8.697510e-03
2.565584e+08 3.774452e-02 2.014351e-02 6.076050e-01 -7.745361e-01 6.333008e-01 -7.537231e-01 5.274200e-02 8.579254e-03
2.567762e+08 3.773499e-02 1.989365e-02 6.069946e-01 -7.739868e-01 6.320801e-01 -7.539673e-01 5.286407e-02 8.224487e-03
2.569941e+08 3.765488e-02 1.969719e-02 6.055298e-01 -7.749023e-01 6.316528e-01 -7.539062e-01 5.280304e-02 7.904053e-03
2.572119e+08 3.771782e-02 1.950645e-02 6.052246e-01 -7.756348e-01 6.314697e-01 -7.551880e-01 5.272675e-02 7.549286e-03
2.574297e+08 3.765488e-02 1.931000e-02 6.053467e-01 -7.762451e-01 6.305542e-01 -7.548218e-01 5.279160e-02 7.289886e-03
2.576475e+08 3.768539e-02 1.899147e-02 6.044922e-01 -7.764282e-01 6.296387e-01 -7.559204e-01 5.267334e-02 7.011414e-03
2.578653e+08 3.768349e-02 1.879692e-02 6.030884e-01 -7.773438e-01 6.292725e-01 -7.561035e-01 5.258560e-02 6.633759e-03
2.580831e+08 3.757286e-02 1.857567e-02 6.033325e-01 -7.777710e-01 6.282959e-01 -7.556152e-01 5.277252e-02 6.290436e-03
2.583009e+08 3.766632e-02 1.840591e-02 6.029053e-01 -7.775269e-01 6.287231e-01 -7.570190e-01 5.275345e-02 6.149292e-03
2.585188e+08 3.761482e-02 1.819420e-02 6.019897e-01 -7.775269e-01 6.279907e-01 -7.578125e-01 5.267334e-02 5.825043e-03
2.587366e+08 3.754616e-02 1.793861e-02 6.019897e-01 -7.785034e-01 6.271973e-01 -7.574463e-01 5.258942e-02 5.508423e-03
2.589544e+08 3.763390e-02 1.772881e-02 6.008911e-01 -7.787476e-01 6.265869e-01 -7.583618e-01 5.253220e-02 5.264282e-03
2.591722e+08 3.755760e-02 1.748276e-02 6.006470e-01 -7.787476e-01 6.257324e-01 -7.580566e-01 5.257034e-02 4.817963e-03
2.593900e+08 3.754997e-02 1.728630e-02 6.000366e-01 -7.797852e-01 6.259155e-01 -7.593994e-01 5.250931e-02 4.554749e-03
2.596078e+08 3.751183e-02 1.706696e-02 5.992432e-01 -7.807617e-01 6.253662e-01 -7.596436e-01 5.256271e-02 4.230499e-03
2.598256e+08 3.746796e-02 1.687431e-02 5.989380e-01 -7.807617e-01 6.248169e-01 -7.597046e-01 5.227661e-02 3.879547e-03
2.600434e+08 3.739357e-02 1.665497e-02 5.977173e-01 -7.815552e-01 6.237183e-01 -7.610474e-01 5.233383e-02 3.707886e-03
2.602612e+08 3.743553e-02 1.643372e-02 5.969238e-01 -7.815552e-01 6.235962e-01 -7.616577e-01 5.228424e-02 3.273010e-03
2.604791e+08 3.736305e-02 1.621246e-02 5.968018e-01 -7.823486e-01 6.226196e-01 -7.615967e-01 5.225372e-02 3.067017e-03
2.606969e+08 3.733063e-02 1.599503e-02 5.970459e-01 -7.829590e-01 6.217041e-01 -7.623901e-01 5.233383e-02 2.788544e-03
2.609147e+08 3.727531e-02 1.578140e-02 5.952148e-01 -7.835693e-01 6.221924e-01 -7.631226e-01 5.212784e-02 2.689362e-03
2.611325e+08 3.721809e-02 1.559639e-02 5.949707e-01 -7.829590e-01 6.210938e-01 -7.626343e-01 5.198288e-02 2.132416e-03
2.613503e+08 3.724098e-02 1.531792e-02 5.943604e-01 -7.827759e-01 6.199341e-01 -7.639771e-01 5.206299e-02 1.995087e-03
2.615681e+08 3.716660e-02 1.510429e-02 5.939941e-01 -7.843018e-01 6.200562e-01 -7.639771e-01 5.192947e-02 1.659393e-03
2.617859e+08 3.711891e-02 1.486206e-02 5.927124e-01 -7.840576e-01 6.191406e-01 -7.650757e-01 5.192947e-02 1.228333e-03
2.620038e+08 3.704834e-02 1.467514e-02 5.922241e-01 -7.849121e-01 6.191406e-01 -7.649536e-01 5.177689e-02 1.056671e-03
2.622216e+08 3.702927e-02 1.446152e-02 5.919189e-01 -7.855225e-01 6.180420e-01 -7.653809e-01 5.159760e-02 6.980896e-04
2.624394e+08 3.693581e-02 1.427269e-02 5.913086e-01 -7.859497e-01 6.176147e-01 -7.659302e-01 5.164337e-02 4.043579e-04
2.626572e+08 3.689384e-02 1.400566e-02 5.914307e-01 -7.870483e-01 6.174927e-01 -7.667847e-01 5.162811e-02 2.479553e-04
2.628750e+08 3.683281e-02 1.385880e-02 5.906372e-01 -7.869263e-01 6.168213e-01 -7.661133e-01 5.164337e-02 -8.392334e-05
2.630928e+08 3.677368e-02 1.361847e-02 5.891113e-01 -7.871704e-01 6.168823e-01 -7.666016e-01 5.140305e-02 -4.043579e-04
2.633106e+08 3.678322e-02 1.335335e-02 5.893555e-01 -7.874756e-01 6.152954e-01 -7.681274e-01 5.130386e-02 -6.752014e-04
2.635284e+08 3.672218e-02 1.313782e-02 5.883789e-01 -7.882690e-01 6.145630e-01 -7.683105e-01 5.128860e-02 -9.765625e-04
2.637462e+08 3.660965e-02 1.292801e-02 5.875244e-01 -7.885742e-01 6.139526e-01 -7.678833e-01 5.131149e-02 -1.281738e-03
2.639641e+08 3.654289e-02 1.273918e-02 5.872803e-01 -7.880859e-01 6.138916e-01 -7.690430e-01 5.106354e-02 -1.556396e-03
2.641819e+08 3.647041e-02 1.251984e-02 5.868530e-01 -7.896118e-01 6.128540e-01 -7.689209e-01 5.102539e-02 -1.796722e-03
2.643997e+08 3.641891e-02 1.227951e-02 5.861816e-01 -7.894287e-01 6.128540e-01 -7.697754e-01 5.085754e-02 -2.147675e-03
2.646175e+08 3.634834e-02 1.208115e-02 5.856323e-01 -7.904663e-01 6.123047e-01 -7.704468e-01 5.083084e-02 -2.368927e-03
2.648353e+08 3.623390e-02 1.185226e-02 5.844116e-01 -7.905273e-01 6.112061e-01 -7.698975e-01 5.069733e-02 -2.593994e-03
2.650531e+08 3.616905e-02 1.156425e-02 5.838623e-01 -7.912598e-01 6.099854e-01 -7.714844e-01 5.042648e-02 -2.906799e-03
2.652709e+08 3.612900e-02 1.149559e-02 5.838013e-01 -7.919312e-01 6.109619e-01 -7.714844e-01 5.053329e-02 -3.189087e-03
2.654888e+08 3.604507e-02 1.119995e-02 5.831299e-01 -7.924805e-01 6.099243e-01 -7.724609e-01 5.042267e-02 -3.448486e-03
2.657066e+08 3.597069e-02 1.096153e-02 5.825806e-01 -7.926025e-01 6.088867e-01 -7.728271e-01 5.034637e-02 -3.757477e-03
2.659244e+08 3.586960e-02 1.077652e-02 5.823364e-01 -7.933350e-01 6.082764e-01 -7.730713e-01 5.020905e-02 -3.917694e-03
2.661422e+08 3.574562e-02 1.057243e-02 5.808105e-01 -7.935181e-01 6.077881e-01 -7.734985e-01 5.003357e-02 -4.184723e-03
2.663600e+08 3.570557e-02 1.039696e-02 5.806274e-01 -7.945557e-01 6.073608e-01 -7.744751e-01 4.992676e-02 -4.638672e-03
2.665778e+08 3.561211e-02 1.016617e-02 5.806885e-01 -7.944336e-01 6.067505e-01 -7.750854e-01 4.992676e-02 -4.901886e-03
2.667956e+08 3.549957e-02 9.929657e-03 5.802612e-01 -7.947388e-01 6.058350e-01 -7.746582e-01 4.963684e-02 -5.222321e-03
2.670134e+08 3.539467e-02 9.775162e-03 5.792847e-01 -7.955933e-01 6.059570e-01 -7.747192e-01 4.940414e-02 -5.455017e-03
2.672312e+08 3.529358e-02 9.492874e-03 5.789795e-01 -7.958374e-01 6.054077e-01 -7.761230e-01 4.932404e-02 -5.722046e-03
2.674491e+08 3.520584e-02 9.319305e-03 5.777588e-01 -7.961426e-01 6.046143e-01 -7.760620e-01 4.933167e-02 -5.989075e-03
2.676669e+08 3.515434e-02 9.147644e-03 5.778198e-01 -7.968750e-01 6.040039e-01 -7.770386e-01 4.915237e-02 -6.336212e-03
2.678847e+08 3.494835e-02 8.939743e-03 5.770874e-01 -7.976074e-01 6.038208e-01 -7.773438e-01 4.905701e-02 -6.538391e-03
2.681025e+08 3.497124e-02 8.657455e-03 5.761719e-01 -7.977295e-01 6.024780e-01 -7.781982e-01 4.897690e-02 -6.614685e-03
2.683203e+08 3.478622e-02 8.489609e-03 5.756226e-01 -7.981567e-01 6.016846e-01 -7.770996e-01 4.882050e-02 -6.969452e-03
2.685381e+08 3.465080e-02 8.243561e-03 5.756226e-01 -7.990112e-01 6.015625e-01 -7.784424e-01 4.877090e-02 -7.350922e-03
2.687559e+08 3.458214e-02 8.047104e-03 5.739136e-01 -7.992554e-01 6.016846e-01 -7.785645e-01 4.845810e-02 -7.556915e-03
2.689738e+08 3.457069e-02 7.850647e-03 5.736084e-01 -8.004150e-01 6.015015e-01 -7.801514e-01 4.835129e-02 -7.781982e-03
2.691916e+08 3.436852e-02 7.614136e-03 5.728760e-01 -8.005371e-01 6.001587e-01 -7.798462e-01 4.827499e-02 -8.129120e-03
2.694094e+08 3.429794e-02 7.396698e-03 5.725098e-01 -8.006592e-01 5.997314e-01 -7.810059e-01 4.801559e-02 -8.422852e-03
2.696272e+08 3.412628e-02 7.244110e-03 5.716553e-01 -8.014526e-01 5.991211e-01 -7.807007e-01 4.792023e-02 -8.522034e-03
2.698450e+08 3.403091e-02 7.001877e-03 5.718384e-01 -8.012695e-01 5.985107e-01 -7.813721e-01 4.787064e-02 -8.800507e-03
2.700628e+08 3.389931e-02 6.866455e-03 5.698242e-01 -8.020630e-01 5.980835e-01 -7.816772e-01 4.769516e-02 -9.082794e-03
2.702806e+08 3.377914e-02 6.603241e-03 5.701294e-01 -8.021240e-01 5.971069e-01 -7.822876e-01 4.752731e-02 -9.281158e-03
2.704984e+08 3.369713e-02 6.423950e-03 5.700684e-01 -8.031616e-01 5.964966e-01 -7.828979e-01 4.729080e-02 -9.502411e-03
2.707162e+08 3.352737e-02 6.221771e-03 5.690918e-01 -8.034058e-01 5.959473e-01 -7.832031e-01 4.722595e-02 -9.860992e-03
2.709341e+08 3.349113e-02 6.042480e-03 5.686646e-01 -8.044434e-01 5.960083e-01 -7.838745e-01 4.705048e-02 -1.008987e-02
2.711519e+08 3.328896e-02 5.828857e-03 5.678711e-01 -8.052368e-01 5.946655e-01 -7.843628e-01 4.678345e-02 -1.035309e-02
2.713697e+08 3.315353e-02 5.617142e-03 5.676270e-01 -8.052979e-01 5.939941e-01 -7.840576e-01 4.666901e-02 -1.057053e-02
2.715875e+08 3.299904e-02 5.426407e-03 5.664062e-01 -8.056641e-01 5.932617e-01 -7.848511e-01 4.656219e-02 -1.078415e-02
2.718053e+08 3.289223e-02 5.233765e-03 5.655518e-01 -8.060913e-01 5.931396e-01 -7.855835e-01 4.632950e-02 -1.110077e-02
2.720231e+08 3.282166e-02 5.100250e-03 5.650024e-01 -8.063354e-01 5.925903e-01 -7.858887e-01 4.608917e-02 -1.131821e-02
2.722409e+08 3.261185e-02 4.846573e-03 5.646973e-01 -8.063965e-01 5.914307e-01 -7.864990e-01 4.580307e-02 -1.155853e-02
2.724588e+08 3.252983e-02 4.608154e-03 5.642090e-01 -8.070068e-01 5.914307e-01 -7.871094e-01 4.585648e-02 -1.171875e-02
2.726766e+08 3.238869e-02 4.419327e-03 5.634155e-01 -8.080444e-01 5.907593e-01 -7.871094e-01 4.562378e-02 -1.198196e-02
2.728944e+08 3.225327e-02 4.215240e-03 5.621948e-01 -8.077393e-01 5.897827e-01 -7.882080e-01 4.534149e-02 -1.240921e-02
2.731122e+08 3.209114e-02 4.072189e-03 5.621948e-01 -8.087158e-01 5.891113e-01 -7.874756e-01 4.524612e-02 -1.249695e-02
2.733300e+08 3.198433e-02 3.852844e-03 5.612793e-01 -8.087769e-01 5.891724e-01 -7.883301e-01 4.527283e-02 -1.283646e-02
2.735478e+08 3.186226e-02 3.602982e-03 5.603638e-01 -8.100586e-01 5.875854e-01 -7.894897e-01 4.483032e-02 -1.290512e-02
2.737656e+08 3.167915e-02 3.459930e-03 5.604858e-01 -8.107300e-01 5.871582e-01 -7.892456e-01 4.460144e-02 -1.319504e-02
2.739834e+08 3.155518e-02 3.309250e-03 5.593262e-01 -8.106689e-01 5.868530e-01 -7.907104e-01 4.459000e-02 -1.342583e-02
2.742012e+08 3.137016e-02 3.089905e-03 5.595703e-01 -8.110962e-01 5.858154e-01 -7.907104e-01 4.430199e-02 -1.364326e-02
2.744191e+08 3.127289e-02 2.859116e-03 5.581665e-01 -8.117065e-01 5.859375e-01 -7.910767e-01 4.398346e-02 -1.387978e-02
2.746369e+08 3.101730e-02 2.763748e-03 5.581055e-01 -8.123779e-01 5.852051e-01 -7.908936e-01 4.383469e-02 -1.420212e-02
2.748547e+08 3.092384e-02 2.513885e-03 5.570679e-01 -8.120728e-01 5.847778e-01 -7.916870e-01 4.371071e-02 -1.437759e-02
2.750725e+08 3.077507e-02 2.347946e-03 5.562744e-01 -8.120728e-01 5.841064e-01 -7.923584e-01 4.351616e-02 -1.445007e-02
2.752903e+08 3.057098e-02 2.201080e-03 5.557861e-01 -8.126831e-01 5.838013e-01 -7.924805e-01 4.326248e-02 -1.464081e-02
2.755081e+08 3.040123e-02 2.033234e-03 5.554810e-01 -8.137817e-01 5.825806e-01 -7.924805e-01 4.311180e-02 -1.485634e-02
2.757259e+08 3.027916e-02 1.802444e-03 5.535889e-01 -8.141479e-01 5.819702e-01 -7.937012e-01 4.295921e-02 -1.516724e-02
2.759438e+08 3.008842e-02 1.621246e-03 5.539551e-01 -8.155518e-01 5.819702e-01 -7.935181e-01 4.273796e-02 -1.532745e-02
2.761616e+08 2.997017e-02 1.459122e-03 5.526733e-01 -8.156128e-01 5.812378e-01 -7.940674e-01 4.239082e-02 -1.560402e-02
2.763794e+08 2.982521e-02 1.264572e-03 5.518799e-01 -8.154297e-01 5.805054e-01 -7.949219e-01 4.220581e-02 -1.578331e-02
2.765972e+08 2.960205e-02 1.117706e-03 5.519409e-01 -8.170166e-01 5.798340e-01 -7.946167e-01 4.205894e-02 -1.604843e-02
2.768150e+08 2.947044e-02 9.059906e-04 5.513916e-01 -8.170166e-01 5.789795e-01 -7.958374e-01 4.189873e-02 -1.621246e-02
2.770328e+08 2.933121e-02 7.343292e-04 5.500488e-01 -8.174438e-01 5.790405e-01 -7.966919e-01 4.162025e-02 -1.639366e-02
2.772506e+08 2.907372e-02 6.141663e-04 5.496216e-01 -8.177490e-01 5.778809e-01 -7.958374e-01 4.147530e-02 -1.663017e-02
2.774684e+08 2.892113e-02 4.005432e-04 5.491333e-01 -8.182373e-01 5.767822e-01 -7.974854e-01 4.115868e-02 -1.678467e-02
2.776862e+08 2.880859e-02 1.888275e-04 5.487671e-01 -8.189087e-01 5.767822e-01 -7.982788e-01 4.111862e-02 -1.712608e-02
2.779041e+08 2.864456e-02 3.623962e-05 5.473633e-01 -8.190308e-01 5.758667e-01 -7.984619e-01 4.077148e-02 -1.728058e-02
2.781219e+08 2.842903e-02 -1.487732e-04 5.483398e-01 -8.197632e-01 5.748291e-01 -7.989502e-01 4.054832e-02 -1.747894e-02
2.783397e+08 2.826118e-02 -2.803802e-04 5.464478e-01 -8.194580e-01 5.744629e-01 -7.993164e-01 4.036331e-02 -1.774597e-02
2.785575e+08 2.809525e-02 -4.577637e-04 5.458984e-01 -8.197632e-01 5.733032e-01 -7.988281e-01 4.006958e-02 -1.778793e-02
2.787753e+08 2.797508e-02 -5.645752e-04 5.460205e-01 -8.206787e-01 5.733643e-01 -7.999878e-01 3.987122e-02 -1.791573e-02
2.789931e+08 2.770233e-02 -7.820129e-04 5.441284e-01 -8.217163e-01 5.726929e-01 -7.999268e-01 3.960991e-02 -1.821327e-02
2.792109e+08 2.754784e-02 -9.250641e-04 5.441284e-01 -8.216553e-01 5.722656e-01 -7.998657e-01 3.940201e-02 -1.836014e-02
2.794288e+08 2.737808e-02 -1.100540e-03 5.438843e-01 -8.218994e-01 5.708008e-01 -8.005981e-01 3.919983e-02 -1.850128e-02
2.796466e+08 2.717972e-02 -1.241684e-03 5.424194e-01 -8.234253e-01 5.704956e-01 -8.016357e-01 3.912354e-02 -1.874733e-02
2.798644e+08 2.702141e-02 -1.399994e-03 5.421143e-01 -8.234253e-01 5.706177e-01 -8.018188e-01 3.870964e-02 -1.894760e-02
2.800822e+08 2.686501e-02 -1.655579e-03 5.417480e-01 -8.231812e-01 5.692139e-01 -8.025513e-01 3.853607e-02 -1.909065e-02
2.803000e+08 2.664566e-02 -1.758575e-03 5.403442e-01 -8.237305e-01 5.693359e-01 -8.030396e-01 3.829956e-02 -1.923943e-02
2.805178e+08 2.643967e-02 -1.941681e-03 5.401611e-01 -8.245239e-01 5.681152e-01 -8.031616e-01 3.798676e-02 -1.939774e-02
2.807356e+08 2.631187e-02 -2.056122e-03 5.388794e-01 -8.249512e-01 5.683594e-01 -8.038940e-01 3.793144e-02 -1.960754e-02
2.809534e+08 2.607155e-02 -2.227783e-03 5.391235e-01 -8.250732e-01 5.673218e-01 -8.036499e-01 3.756714e-02 -1.973152e-02
2.811712e+08 2.585411e-02 -2.376556e-03 5.370483e-01 -8.261719e-01 5.667114e-01 -8.039551e-01 3.731537e-02 -1.992798e-02
2.813891e+08 2.569771e-02 -2.553940e-03 5.364990e-01 -8.262329e-01 5.654297e-01 -8.051758e-01 3.711700e-02 -2.012825e-02
2.816069e+08 2.550888e-02 -2.666473e-03 5.367432e-01 -8.269653e-01 5.651245e-01 -8.048096e-01 3.692818e-02 -2.027512e-02
2.818247e+08 2.532196e-02 -2.794266e-03 5.352783e-01 -8.267212e-01 5.646973e-01 -8.057251e-01 3.674126e-02 -2.059746e-02
2.820425e+08 2.507973e-02 -2.973557e-03 5.352783e-01 -8.264160e-01 5.631714e-01 -8.062744e-01 3.631783e-02 -2.057076e-02
2.822603e+08 2.489662e-02 -3.091812e-03 5.347900e-01 -8.273926e-01 5.637207e-01 -8.065186e-01 3.617096e-02 -2.074051e-02
2.824781e+08 2.469444e-02 -3.282547e-03 5.330811e-01 -8.271484e-01 5.617065e-01 -8.066406e-01 3.593063e-02 -2.082825e-02
2.826959e+08 2.454185e-02 -3.372192e-03 5.330200e-01 -8.275146e-01 5.627441e-01 -8.077393e-01 3.563309e-02 -2.099991e-02
2.829138e+08 2.426910e-02 -3.566742e-03 5.322876e-01 -8.277588e-01 5.609131e-01 -8.074341e-01 3.553581e-02 -2.115440e-02
2.831316e+08 2.413750e-02 -3.692627e-03 5.306396e-01 -8.285522e-01 5.607300e-01 -8.079224e-01 3.499985e-02 -2.148819e-02
2.833494e+08 2.395058e-02 -3.841400e-03 5.309448e-01 -8.292847e-01 5.598145e-01 -8.089600e-01 3.485870e-02 -2.154541e-02
2.835672e+08 2.374077e-02 -3.934860e-03 5.304565e-01 -8.300171e-01 5.595093e-01 -8.100586e-01 3.467751e-02 -2.166557e-02
2.837850e+08 2.353096e-02 -4.085541e-03 5.292358e-01 -8.303223e-01 5.592651e-01 -8.086548e-01 3.442764e-02 -2.179337e-02
2.840028e+08 2.335358e-02 -4.266739e-03 5.283813e-01 -8.312378e-01 5.581665e-01 -8.103638e-01 3.413391e-02 -2.202606e-02
2.842206e+08 2.314568e-02 -4.404068e-03 5.276489e-01 -8.313599e-01 5.576782e-01 -8.103638e-01 3.392029e-02 -2.218437e-02
2.844384e+08 2.289391e-02 -4.489899e-03 5.270386e-01 -8.309326e-01 5.569458e-01 -8.102417e-01 3.357697e-02 -2.217484e-02
2.846562e+08 2.263451e-02 -4.627228e-03 5.264893e-01 -8.317261e-01 5.549316e-01 -8.104248e-01 3.341484e-02 -2.245331e-02
2.848741e+08 2.248383e-02 -4.762650e-03 5.256348e-01 -8.324585e-01 5.557251e-01 -8.110962e-01 3.307533e-02 -2.260399e-02
2.850919e+08 2.222824e-02 -4.896164e-03 5.252686e-01 -8.331299e-01 5.546265e-01 -8.123169e-01 3.290749e-02 -2.270126e-02
2.853097e+08 2.203178e-02 -5.016327e-03 5.238647e-01 -8.328247e-01 5.540161e-01 -8.123169e-01 3.246307e-02 -2.272034e-02
2.855275e+08 2.185822e-02 -5.144119e-03 5.229492e-01 -8.334961e-01 5.532227e-01 -8.126831e-01 3.234291e-02 -2.298927e-02
2.857453e+08 2.165031e-02 -5.325317e-03 5.225830e-01 -8.338013e-01 5.525513e-01 -8.129272e-01 3.215599e-02 -2.307510e-02
2.859631e+08 2.143860e-02 -5.384445e-03 5.222168e-01 -8.341064e-01 5.518188e-01 -8.135376e-01 3.178596e-02 -2.322960e-02
2.861809e+08 2.122879e-02 -5.563736e-03 5.217896e-01 -8.345947e-01 5.517578e-01 -8.140259e-01 3.166008e-02 -2.318764e-02
2.863988e+08 2.105522e-02 -5.702972e-03 5.212402e-01 -8.348999e-01 5.507812e-01 -8.150635e-01 3.130531e-02 -2.340126e-02
2.866166e+08 2.081299e-02 -5.775452e-03 5.204468e-01 -8.348389e-01 5.494385e-01 -8.144531e-01 3.101349e-02 -2.366257e-02
2.868344e+08 2.058220e-02 -5.926132e-03 5.201416e-01 -8.354492e-01 5.496826e-01 -8.153687e-01 3.098488e-02 -2.370453e-02
2.870522e+08 2.035522e-02 -6.023407e-03 5.191040e-01 -8.356323e-01 5.485229e-01 -8.158569e-01 3.037262e-02 -2.365494e-02
2.872700e+08 2.016830e-02 -6.097794e-03 5.184326e-01 -8.362427e-01 5.496216e-01 -8.159790e-01 3.010178e-02 -2.360725e-02
2.874878e+08 1.997375e-02 -6.262779e-03 5.178223e-01 -8.369751e-01 5.474243e-01 -8.167114e-01 3.003120e-02 -2.391052e-02
2.877056e+08 1.975727e-02 -6.309509e-03 5.172729e-01 -8.374634e-01 5.477295e-01 -8.161621e-01 2.992821e-02 -2.408600e-02
2.879234e+08 1.950359e-02 -6.466866e-03 5.161133e-01 -8.373413e-01 5.468140e-01 -8.175049e-01 2.945518e-02 -2.415848e-02
2.881412e+08 1.930904e-02 -6.571770e-03 5.158081e-01 -8.380737e-01 5.463867e-01 -8.171997e-01 2.919197e-02 -2.434349e-02
2.883591e+08 1.910782e-02 -6.705284e-03 5.152588e-01 -8.379517e-01 5.458984e-01 -8.178711e-01 2.894402e-02 -2.436256e-02
2.885769e+08 1.888084e-02 -6.815910e-03 5.141602e-01 -8.388672e-01 5.443115e-01 -8.181152e-01 2.866936e-02 -2.439690e-02
2.887947e+08 1.865101e-02 -6.906509e-03 5.129395e-01 -8.386841e-01 5.437622e-01 -8.184204e-01 2.840805e-02 -2.462578e-02
2.890125e+08 1.844215e-02 -7.000923e-03 5.128174e-01 -8.394775e-01 5.427856e-01 -8.190918e-01 2.805138e-02 -2.488327e-02
2.892303e+08 1.821232e-02 -7.093430e-03 5.128174e-01 -8.399658e-01 5.425415e-01 -8.187256e-01 2.772331e-02 -2.485847e-02
2.894481e+08 1.799297e-02 -7.208824e-03 5.111694e-01 -8.400269e-01 5.416260e-01 -8.184814e-01 2.766800e-02 -2.480507e-02
2.896659e+08 1.774120e-02 -7.301331e-03 5.100098e-01 -8.410034e-01 5.408936e-01 -8.196411e-01 2.720451e-02 -2.505112e-02
2.898838e+08 1.751804e-02 -7.371902e-03 5.105591e-01 -8.408203e-01 5.405884e-01 -8.193359e-01 2.701378e-02 -2.506638e-02
2.901016e+08 1.736069e-02 -7.532120e-03 5.095215e-01 -8.407593e-01 5.396118e-01 -8.201294e-01 2.673721e-02 -2.520370e-02
2.903194e+08 1.712418e-02 -7.640839e-03 5.084839e-01 -8.416748e-01 5.393677e-01 -8.212891e-01 2.652168e-02 -2.531815e-02
2.905372e+08 1.689339e-02 -7.687569e-03 5.080566e-01 -8.412476e-01 5.385742e-01 -8.213501e-01 2.620125e-02 -2.531052e-02
2.907550e+08 1.664639e-02 -7.777214e-03 5.075073e-01 -8.415527e-01 5.379028e-01 -8.226929e-01 2.604485e-02 -2.543259e-02
2.909728e+08 1.646042e-02 -7.866859e-03 5.062256e-01 -8.427734e-01 5.375366e-01 -8.220825e-01 2.564240e-02 -2.550507e-02
2.911906e+08 1.623344e-02 -7.970810e-03 5.053711e-01 -8.427734e-01 5.367432e-01 -8.226929e-01 2.551079e-02 -2.559471e-02
2.914084e+08 1.596546e-02 -8.041382e-03 5.056152e-01 -8.432007e-01 5.361328e-01 -8.228149e-01 2.507973e-02 -2.552795e-02
2.916262e+08 1.571083e-02 -8.112907e-03 5.042725e-01 -8.436890e-01 5.352783e-01 -8.226318e-01 2.483940e-02 -2.571487e-02
2.918441e+08 1.553154e-02 -8.228302e-03 5.034790e-01 -8.441772e-01 5.350952e-01 -8.228760e-01 2.446175e-02 -2.582550e-02
2.920619e+08 1.532650e-02 -8.341789e-03 5.025635e-01 -8.444214e-01 5.347290e-01 -8.239746e-01 2.433205e-02 -2.578735e-02
2.922797e+08 1.510429e-02 -8.449554e-03 5.023193e-01 -8.450317e-01 5.339355e-01 -8.248291e-01 2.405930e-02 -2.592087e-02
2.924975e+08 1.487827e-02 -8.527756e-03 5.017090e-01 -8.441772e-01 5.329590e-01 -8.247681e-01 2.376175e-02 -2.599335e-02
2.927153e+08 1.466370e-02 -8.552551e-03 5.006714e-01 -8.457642e-01 5.328979e-01 -8.247070e-01 2.345848e-02 -2.608299e-02
2.929331e+08 1.441765e-02 -8.680344e-03 5.003052e-01 -8.452148e-01 5.321045e-01 -8.259277e-01 2.322006e-02 -2.609634e-02
2.931509e+08 1.418877e-02 -8.746147e-03 5.000000e-01 -8.458252e-01 5.305176e-01 -8.256836e-01 2.297211e-02 -2.613831e-02
2.933688e+08 1.403713e-02 -8.814812e-03 4.993286e-01 -8.474121e-01 5.305176e-01 -8.261108e-01 2.272797e-02 -2.631187e-02
2.935866e+08 1.375389e-02 -8.920670e-03 4.985962e-01 -8.471680e-01 5.296021e-01 -8.265381e-01 2.245712e-02 -2.633095e-02
2.938044e+08 1.355362e-02 -8.991241e-03 4.982910e-01 -8.474121e-01 5.293579e-01 -8.269043e-01 2.213097e-02 -2.635574e-02
2.940222e+08 1.329613e-02 -9.050369e-03 4.970093e-01 -8.476562e-01 5.286255e-01 -8.278809e-01 2.184868e-02 -2.643013e-02
2.942400e+08 1.307774e-02 -9.098053e-03 4.961548e-01 -8.474121e-01 5.277100e-01 -8.278198e-01 2.157974e-02 -2.646446e-02
2.944578e+08 1.290989e-02 -9.181023e-03 4.949951e-01 -8.475952e-01 5.272827e-01 -8.275757e-01 2.127075e-02 -2.647591e-02
2.946756e+08 1.263046e-02 -9.281158e-03 4.954834e-01 -8.485107e-01 5.266724e-01 -8.280640e-01 2.107430e-02 -2.651215e-02
2.948934e+08 1.240730e-02 -9.320259e-03 4.945068e-01 -8.486328e-01 5.265503e-01 -8.277588e-01 2.079010e-02 -2.662086e-02
2.951112e+08 1.219273e-02 -9.397507e-03 4.937744e-01 -8.486328e-01 5.252686e-01 -8.293457e-01 2.054596e-02 -2.661896e-02
2.953291e+08 1.192093e-02 -9.434700e-03 4.931641e-01 -8.501587e-01 5.247803e-01 -8.286743e-01 2.028465e-02 -2.670479e-02
2.955469e+08 1.171398e-02 -9.521484e-03 4.918213e-01 -8.499146e-01 5.239868e-01 -8.305054e-01 1.992989e-02 -2.675056e-02
2.957647e+08 1.154900e-02 -9.581566e-03 4.915771e-01 -8.495483e-01 5.240479e-01 -8.302002e-01 1.970482e-02 -2.674866e-02
2.959825e+08 1.125717e-02 -9.698868e-03 4.904175e-01 -8.505249e-01 5.223389e-01 -8.305054e-01 1.939583e-02 -2.680016e-02
2.962003e+08 1.101875e-02 -9.685516e-03 4.898071e-01 -8.500977e-01 5.223999e-01 -8.308716e-01 1.911736e-02 -2.687454e-02
2.964181e+08 1.083946e-02 -9.803772e-03 4.901123e-01 -8.503418e-01 5.219727e-01 -8.310547e-01 1.898003e-02 -2.687263e-02
2.966359e+08 1.057720e-02 -9.851456e-03 4.891357e-01 -8.515625e-01 5.204468e-01 -8.308716e-01 1.865959e-02 -2.694702e-02
2.968538e+08 1.031590e-02 -9.864807e-03 4.879761e-01 -8.515625e-01 5.201416e-01 -8.312378e-01 1.837349e-02 -2.698326e-02
2.970716e+08 1.013756e-02 -9.972572e-03 4.876709e-01 -8.521118e-01 5.195312e-01 -8.321533e-01 1.811218e-02 -2.700615e-02
2.972894e+08 9.869099e-03 -9.956360e-03 4.869385e-01 -8.522339e-01 5.189209e-01 -8.322144e-01 1.781845e-02 -2.702522e-02
2.975072e+08 9.725571e-03 -9.991646e-03 4.865112e-01 -8.520508e-01 5.177612e-01 -8.328247e-01 1.759720e-02 -2.702332e-02
2.977250e+08 9.439468e-03 -1.009846e-02 4.858398e-01 -8.523560e-01 5.178223e-01 -8.329468e-01 1.733398e-02 -2.701759e-02
2.979428e+08 9.239197e-03 -1.015568e-02 4.851074e-01 -8.529663e-01 5.172119e-01 -8.329468e-01 1.705933e-02 -2.707291e-02
2.981606e+08 8.992195e-03 -1.020622e-02 4.848633e-01 -8.535156e-01 5.160522e-01 -8.338623e-01 1.675606e-02 -2.712631e-02
2.983784e+08 8.810997e-03 -1.024818e-02 4.836426e-01 -8.530273e-01 5.161743e-01 -8.341675e-01 1.651573e-02 -2.706337e-02
2.985962e+08 8.572578e-03 -1.024628e-02 4.829712e-01 -8.538208e-01 5.152588e-01 -8.350220e-01 1.623917e-02 -2.711105e-02
2.988141e+08 8.280754e-03 -1.029968e-02 4.815063e-01 -8.540039e-01 5.142822e-01 -8.344727e-01 1.593590e-02 -2.713203e-02
2.990319e+08 8.104324e-03 -1.034546e-02 4.815674e-01 -8.549194e-01 5.147705e-01 -8.336182e-01 1.574135e-02 -2.714157e-02
2.992497e+08 7.845879e-03 -1.040173e-02 4.805908e-01 -8.550415e-01 5.135498e-01 -8.349609e-01 1.538658e-02 -2.717590e-02
2.994675e+08 7.627487e-03 -1.048279e-02 4.796753e-01 -8.544922e-01 5.139160e-01 -8.351440e-01 1.518440e-02 -2.715111e-02
2.996853e+08 7.403374e-03 -1.052094e-02 4.791870e-01 -8.553467e-01 5.122681e-01 -8.360596e-01 1.490211e-02 -2.719688e-02
2.999031e+08 7.198334e-03 -1.059437e-02 4.794312e-01 -8.554688e-01 5.122681e-01 -8.363647e-01 1.470375e-02 -2.716637e-02
3.001209e+08 6.979942e-03 -1.060295e-02 4.788818e-01 -8.564453e-01 5.116577e-01 -8.359375e-01 1.437950e-02 -2.721405e-02
3.003388e+08 6.752968e-03 -1.057243e-02 4.785156e-01 -8.568115e-01 5.111694e-01 -8.369751e-01 1.413727e-02 -2.723694e-02
3.005566e+08 6.543159e-03 -1.064396e-02 4.777222e-01 -8.562622e-01 5.106201e-01 -8.375854e-01 1.385498e-02 -2.720833e-02
3.007744e+08 6.351471e-03 -1.070023e-02 4.764404e-01 -8.566284e-01 5.097656e-01 -8.374023e-01 1.361656e-02 -2.714539e-02
3.009922e+08 6.061554e-03 -1.070881e-02 4.753418e-01 -8.569336e-01 5.085449e-01 -8.378296e-01 1.334572e-02 -2.714157e-02
3.012100e+08 5.830765e-03 -1.072979e-02 4.755249e-01 -8.580933e-01 5.078125e-01 -8.383179e-01 1.306915e-02 -2.716064e-02
3.014278e+08 5.547523e-03 -1.078892e-02 4.746094e-01 -8.573608e-01 5.071411e-01 -8.382568e-01 1.282501e-02 -2.714539e-02
3.016456e+08 5.385399e-03 -1.080227e-02 4.736328e-01 -8.583374e-01 5.072021e-01 -8.387451e-01 1.253700e-02 -2.717018e-02
3.018634e+08 5.160332e-03 -1.088047e-02 4.727173e-01 -8.580322e-01 5.072021e-01 -8.391724e-01 1.231194e-02 -2.713203e-02
3.020812e+08 4.932404e-03 -1.087856e-02 4.721069e-01 -8.590698e-01 5.056152e-01 -8.398438e-01 1.203346e-02 -2.715683e-02
3.022991e+08 4.735947e-03 -1.092529e-02 4.719238e-01 -8.588867e-01 5.051270e-01 -8.400879e-01 1.175499e-02 -2.713966e-02
3.025169e+08 4.472733e-03 -1.089573e-02 4.717407e-01 -8.602295e-01 5.049438e-01 -8.400269e-01 1.151276e-02 -2.709961e-02
3.027347e+08 4.278183e-03 -1.094818e-02 4.708252e-01 -8.598633e-01 5.042725e-01 -8.403931e-01 1.124001e-02 -2.710915e-02
3.029525e+08 4.100800e-03 -1.100159e-02 4.698486e-01 -8.607788e-01 5.031738e-01 -8.407593e-01 1.105690e-02 -2.714729e-02
3.031703e+08 3.860474e-03 -1.103497e-02 4.687500e-01 -8.607178e-01 5.025024e-01 -8.407593e-01 1.072311e-02 -2.705193e-02
3.033881e+08 3.598213e-03 -1.102543e-02 4.685669e-01 -8.609619e-01 5.021973e-01 -8.416138e-01 1.045418e-02 -2.707100e-02
3.036059e+08 3.405571e-03 -1.107502e-02 4.682007e-01 -8.605347e-01 5.015869e-01 -8.415527e-01 1.023293e-02 -2.701759e-02
3.038238e+08 3.213882e-03 -1.106358e-02 4.671631e-01 -8.610840e-01 5.009155e-01 -8.416748e-01 9.984970e-03 -2.701950e-02
3.040416e+08 2.943039e-03 -1.118279e-02 4.667358e-01 -8.614502e-01 5.005493e-01 -8.430176e-01 9.693146e-03 -2.697182e-02
3.042594e+08 2.705574e-03 -1.111698e-02 4.666748e-01 -8.619385e-01 5.000000e-01 -8.432007e-01 9.490967e-03 -2.692795e-02
3.044772e+08 2.456665e-03 -1.113033e-02 4.656372e-01 -8.624268e-01 5.001221e-01 -8.433838e-01 9.229660e-03 -2.690125e-02
3.046950e+08 2.303123e-03 -1.111412e-02 4.647217e-01 -8.627319e-01 4.987183e-01 -8.438110e-01 8.956909e-03 -2.696037e-02
3.049128e+08 2.068520e-03 -1.116467e-02 4.646606e-01 -8.620605e-01 4.984741e-01 -8.436279e-01 8.651733e-03 -2.686310e-02
3.051306e+08 1.835823e-03 -1.117229e-02 4.635620e-01 -8.624878e-01 4.981079e-01 -8.438110e-01 8.464813e-03 -2.686119e-02
3.053484e+08 1.654625e-03 -1.121902e-02 4.638062e-01 -8.627930e-01 4.973145e-01 -8.441772e-01 8.277893e-03 -2.678680e-02
3.055662e+08 1.440048e-03 -1.126385e-02 4.621582e-01 -8.637085e-01 4.965210e-01 -8.442993e-01 7.946014e-03 -2.679825e-02
3.057841e+08 1.201630e-03 -1.117611e-02 4.622803e-01 -8.645020e-01 4.955444e-01 -8.446045e-01 7.783890e-03 -2.676964e-02
3.060019e+08 9.880066e-04 -1.123428e-02 4.606323e-01 -8.647461e-01 4.952393e-01 -8.452759e-01 7.486343e-03 -2.670288e-02
3.062197e+08 7.314682e-04 -1.123047e-02 4.607544e-01 -8.651733e-01 4.945679e-01 -8.461304e-01 7.232666e-03 -2.666855e-02
3.064375e+08 5.321503e-04 -1.128292e-02 4.591675e-01 -8.654175e-01 4.938354e-01 -8.461914e-01 7.001877e-03 -2.668381e-02
3.066553e+08 3.261566e-04 -1.128006e-02 4.586792e-01 -8.648071e-01 4.937744e-01 -8.465576e-01 6.740570e-03 -2.658272e-02
3.068731e+08 8.964539e-05 -1.128387e-02 4.586792e-01 -8.663940e-01 4.932251e-01 -8.469238e-01 6.496429e-03 -2.659225e-02
3.070909e+08 -1.029968e-04 -1.124287e-02 4.583740e-01 -8.659668e-01 4.929199e-01 -8.468628e-01 6.256104e-03 -2.655029e-02
3.073088e+08 -2.889633e-04 -1.129627e-02 4.572754e-01 -8.665771e-01 4.916992e-01 -8.468018e-01 6.017685e-03 -2.652168e-02
3.075266e+08 -5.264282e-04 -1.123714e-02 4.567261e-01 -8.657837e-01 4.909058e-01 -8.476562e-01 5.790710e-03 -2.648735e-02
3.077444e+08 -7.143021e-04 -1.125622e-02 4.559326e-01 -8.671265e-01 4.902954e-01 -8.474731e-01 5.542755e-03 -2.640152e-02
3.079622e+08 -9.641647e-04 -1.124096e-02 4.548340e-01 -8.668213e-01 4.894409e-01 -8.490601e-01 5.281448e-03 -2.637863e-02
3.081800e+08 -1.131058e-03 -1.125431e-02 4.552612e-01 -8.674927e-01 4.889526e-01 -8.485107e-01 5.071640e-03 -2.633095e-02
3.083978e+08 -1.379967e-03 -1.127434e-02 4.546509e-01 -8.682861e-01 4.890747e-01 -8.491211e-01 4.865646e-03 -2.629662e-02
3.086156e+08 -1.575470e-03 -1.128960e-02 4.536133e-01 -8.678589e-01 4.884644e-01 -8.497314e-01 4.592896e-03 -2.620697e-02
3.088334e+08 -1.822472e-03 -1.120090e-02 4.531860e-01 -8.688354e-01 4.865112e-01 -8.494263e-01 4.299164e-03 -2.615356e-02
3.090512e+08 -1.999855e-03 -1.128101e-02 4.524536e-01 -8.685913e-01 4.872437e-01 -8.505249e-01 4.100800e-03 -2.610397e-02
3.092691e+08 -2.208710e-03 -1.119804e-02 4.512939e-01 -8.693237e-01 4.867554e-01 -8.506470e-01 3.868103e-03 -2.608109e-02
3.094869e+08 -2.458572e-03 -1.125526e-02 4.508057e-01 -8.699341e-01 4.860229e-01 -8.509521e-01 3.643036e-03 -2.606010e-02
3.097047e+08 -2.612114e-03 -1.126671e-02 4.499512e-01 -8.696289e-01 4.850464e-01 -8.519287e-01 3.402710e-03 -2.595711e-02
3.099225e+08 -2.871513e-03 -1.120758e-02 4.494019e-01 -8.696289e-01 4.846802e-01 -8.516846e-01 3.154755e-03 -2.591515e-02
3.101403e+08 -3.020287e-03 -1.123714e-02 4.488525e-01 -8.704834e-01 4.846802e-01 -8.514404e-01 2.916336e-03 -2.584648e-02
3.103581e+08 -3.273964e-03 -1.125336e-02 4.478760e-01 -8.700562e-01 4.835815e-01 -8.522949e-01 2.674103e-03 -2.579689e-02
3.105759e+08 -3.460884e-03 -1.124096e-02 4.478149e-01 -8.704224e-01 4.823608e-01 -8.527832e-01 2.485275e-03 -2.571487e-02
3.107938e+08 -3.704071e-03 -1.121235e-02 4.476318e-01 -8.707886e-01 4.826050e-01 -8.530884e-01 2.265930e-03 -2.570724e-02
3.110116e+08 -3.929138e-03 -1.123905e-02 4.472046e-01 -8.708496e-01 4.815674e-01 -8.525391e-01 2.023697e-03 -2.558517e-02
3.112294e+08 -4.074097e-03 -1.126003e-02 4.459229e-01 -8.713379e-01 4.807739e-01 -8.533325e-01 1.810074e-03 -2.554131e-02
3.114472e+08 -4.309654e-03 -1.116180e-02 4.455566e-01 -8.720093e-01 4.804688e-01 -8.543091e-01 1.573563e-03 -2.547836e-02
3.116650e+08 -4.486084e-03 -1.115417e-02 4.446411e-01 -8.726807e-01 4.801636e-01 -8.540039e-01 1.361847e-03 -2.546501e-02
3.118828e+08 -4.672050e-03 -1.116276e-02 4.439087e-01 -8.730469e-01 4.793701e-01 -8.542480e-01 1.094818e-03 -2.538872e-02
3.121006e+08 -4.947662e-03 -1.111984e-02 4.442139e-01 -8.724976e-01 4.785156e-01 -8.557129e-01 9.250641e-04 -2.528572e-02
3.123184e+08 -5.159378e-03 -1.115894e-02 4.427490e-01 -8.731689e-01 4.782715e-01 -8.548584e-01 7.171631e-04 -2.523994e-02
3.125362e+08 -5.324364e-03 -1.111221e-02 4.421997e-01 -8.736572e-01 4.772339e-01 -8.554077e-01 4.253387e-04 -2.516556e-02
3.127541e+08 -5.537033e-03 -1.112652e-02 4.406128e-01 -8.740234e-01 4.758301e-01 -8.563232e-01 2.613068e-04 -2.511215e-02
3.129719e+08 -5.698204e-03 -1.107693e-02 4.409790e-01 -8.742676e-01 4.758911e-01 -8.565063e-01 -2.098083e-05 -2.502632e-02
3.131897e+08 -5.955696e-03 -1.108551e-02 4.401245e-01 -8.744507e-01 4.750977e-01 -8.572388e-01 -1.926422e-04 -2.494621e-02
3.134075e+08 -6.165504e-03 -1.103878e-02 4.400024e-01 -8.756714e-01 4.750366e-01 -8.566895e-01 -4.329681e-04 -2.495575e-02
3.136253e+08 -6.316185e-03 -1.100540e-02 4.389038e-01 -8.750610e-01 4.749146e-01 -8.576050e-01 -6.256104e-04 -2.481651e-02
3.138431e+08 -6.546021e-03 -1.108074e-02 4.379883e-01 -8.751831e-01 4.740601e-01 -8.574219e-01 -8.354187e-04 -2.478790e-02
3.140609e+08 -6.752014e-03 -1.095772e-02 4.370117e-01 -8.767090e-01 4.738770e-01 -8.583374e-01 -1.113892e-03 -2.467918e-02
3.142788e+08 -6.932259e-03 -1.099300e-02 4.365845e-01 -8.770142e-01 4.729004e-01 -8.580322e-01 -1.281738e-03 -2.463531e-02
3.144966e+08 -7.122993e-03 -1.095486e-02 4.364624e-01 -8.771362e-01 4.721069e-01 -8.588867e-01 -1.523972e-03 -2.455711e-02
3.147144e+08 -7.361412e-03 -1.089764e-02 4.352417e-01 -8.769531e-01 4.718628e-01 -8.595581e-01 -1.724243e-03 -2.444458e-02
3.149322e+08 -7.585526e-03 -1.091576e-02 4.351196e-01 -8.770142e-01 4.707642e-01 -8.600464e-01 -1.897812e-03 -2.438736e-02
3.151500e+08 -7.727623e-03 -1.088905e-02 4.345093e-01 -8.777466e-01 4.700317e-01 -8.606567e-01 -2.124786e-03 -2.433777e-02
3.153678e+08 -7.906914e-03 -1.086998e-02 4.343872e-01 -8.780518e-01 4.695435e-01 -8.604736e-01 -2.332687e-03 -2.427292e-02
3.155856e+08 -8.102417e-03 -1.084709e-02 4.329224e-01 -8.781128e-01 4.694214e-01 -8.605957e-01 -2.559662e-03 -2.419662e-02
3.158034e+08 -8.262634e-03 -1.077366e-02 4.326782e-01 -8.784180e-01 4.674683e-01 -8.608398e-01 -2.794266e-03 -2.409172e-02
3.160212e+08 -8.456230e-03 -1.077843e-02 4.323730e-01 -8.792114e-01 4.684448e-01 -8.612061e-01 -2.895355e-03 -2.406120e-02
3.162391e+08 -8.656502e-03 -1.072979e-02 4.315796e-01 -8.799438e-01 4.663696e-01 -8.614502e-01 -3.152847e-03 -2.399445e-02
3.164569e+08 -8.906364e-03 -1.073551e-02 4.308472e-01 -8.801270e-01 4.659424e-01 -8.630371e-01 -3.347397e-03 -2.389908e-02
3.166747e+08 -9.111404e-03 -1.068306e-02 4.304199e-01 -8.801880e-01 4.653320e-01 -8.635254e-01 -3.570557e-03 -2.378273e-02
3.168925e+08 -9.284019e-03 -1.068687e-02 4.289551e-01 -8.801270e-01 4.642944e-01 -8.624268e-01 -3.787994e-03 -2.368927e-02
3.171103e+08 -9.451866e-03 -1.064682e-02 4.282837e-01 -8.806152e-01 4.641724e-01 -8.630981e-01 -3.944397e-03 -2.366257e-02
3.173281e+08 -9.634972e-03 -1.058483e-02 4.286499e-01 -8.811035e-01 4.641113e-01 -8.634033e-01 -4.159927e-03 -2.359009e-02
3.175459e+08 -9.873390e-03 -1.059723e-02 4.274292e-01 -8.812256e-01 4.631348e-01 -8.640747e-01 -4.375458e-03 -2.348328e-02
3.177638e+08 -1.003265e-02 -1.056290e-02 4.269409e-01 -8.814697e-01 4.625854e-01 -8.646240e-01 -4.589081e-03 -2.334785e-02
3.179816e+08 -1.019859e-02 -1.048851e-02 4.254761e-01 -8.821411e-01 4.617920e-01 -8.645630e-01 -4.789352e-03 -2.326775e-02
3.181994e+08 -1.042461e-02 -1.049709e-02 4.249878e-01 -8.818970e-01 4.614868e-01 -8.648682e-01 -5.025864e-03 -2.316284e-02
3.184172e+08 -1.053333e-02 -1.047516e-02 4.248657e-01 -8.825073e-01 4.614868e-01 -8.649902e-01 -5.098343e-03 -2.311516e-02
3.186350e+08 -1.072979e-02 -1.037693e-02 4.240723e-01 -8.827515e-01 4.608765e-01 -8.650513e-01 -5.319595e-03 -2.305603e-02
3.188528e+08 -1.096821e-02 -1.037216e-02 4.236450e-01 -8.834229e-01 4.601440e-01 -8.660278e-01 -5.575180e-03 -2.296066e-02
3.190706e+08 -1.112175e-02 -1.032639e-02 4.224243e-01 -8.836060e-01 4.588623e-01 -8.662109e-01 -5.756378e-03 -2.287674e-02
3.192884e+08 -1.135635e-02 -1.033974e-02 4.220581e-01 -8.840942e-01 4.588623e-01 -8.662109e-01 -5.964279e-03 -2.275658e-02
3.195062e+08 -1.148605e-02 -1.025009e-02 4.214478e-01 -8.842773e-01 4.577026e-01 -8.665161e-01 -6.126404e-03 -2.272606e-02
3.197241e+08 -1.172638e-02 -1.024628e-02 4.206543e-01 -8.843384e-01 4.575806e-01 -8.671875e-01 -6.319046e-03 -2.260208e-02
3.199419e+08 -1.184177e-02 -1.024151e-02 4.205322e-01 -8.847656e-01 4.572754e-01 -8.677979e-01 -6.471634e-03 -2.255249e-02
3.201597e+08 -1.206970e-02 -1.021862e-02 4.188843e-01 -8.849487e-01 4.562378e-01 -8.685303e-01 -6.696701e-03 -2.244568e-02
3.203775e+08 -1.225948e-02 -1.017761e-02 4.193115e-01 -8.854980e-01 4.548950e-01 -8.684082e-01 -6.855011e-03 -2.236557e-02
3.205953e+08 -1.245308e-02 -1.012325e-02 4.180298e-01 -8.861694e-01 4.541016e-01 -8.692627e-01 -7.084846e-03 -2.229786e-02
3.208131e+08 -1.262093e-02 -1.007175e-02 4.169312e-01 -8.862915e-01 4.541626e-01 -8.684082e-01 -7.243156e-03 -2.217579e-02
3.210309e+08 -1.278305e-02 -1.003361e-02 4.169922e-01 -8.869629e-01 4.533081e-01 -8.694458e-01 -7.444382e-03 -2.209091e-02
3.212488e+08 -1.298523e-02 -9.994507e-03 4.157715e-01 -8.867188e-01 4.529419e-01 -8.694458e-01 -7.616997e-03 -2.200127e-02
3.214666e+08 -1.312637e-02 -9.995461e-03 4.146118e-01 -8.875122e-01 4.523926e-01 -8.706665e-01 -7.800102e-03 -2.192974e-02
3.216844e+08 -1.335430e-02 -9.881020e-03 4.148560e-01 -8.881226e-01 4.510498e-01 -8.704224e-01 -7.982254e-03 -2.183342e-02
3.219022e+08 -1.350212e-02 -9.870529e-03 4.141235e-01 -8.866577e-01 4.503784e-01 -8.709717e-01 -8.144379e-03 -2.170658e-02
3.221200e+08 -1.369476e-02 -9.851456e-03 4.135132e-01 -8.886108e-01 4.505615e-01 -8.711548e-01 -8.345604e-03 -2.165127e-02
3.223378e+08 -1.387882e-02 -9.766579e-03 4.135132e-01 -8.884888e-01 4.491577e-01 -8.722534e-01 -8.488655e-03 -2.152157e-02
3.225556e+08 -1.405430e-02 -9.771347e-03 4.117432e-01 -8.893433e-01 4.488525e-01 -8.718872e-01 -8.743286e-03 -2.144623e-02
3.227734e+08 -1.417446e-02 -9.728432e-03 4.122925e-01 -8.886108e-01 4.483032e-01 -8.721924e-01 -8.800507e-03 -2.137375e-02
3.229912e+08 -1.439667e-02 -9.687424e-03 4.106445e-01 -8.894653e-01 4.473877e-01 -8.731079e-01 -9.037018e-03 -2.130890e-02
3.232091e+08 -1.453590e-02 -9.634972e-03 4.099731e-01 -8.890381e-01 4.465942e-01 -8.734131e-01 -9.158134e-03 -2.115917e-02
3.234269e+08 -1.476669e-02 -9.585381e-03 4.087524e-01 -8.907471e-01 4.465332e-01 -8.732910e-01 -9.429932e-03 -2.109623e-02
3.236447e+08 -1.488590e-02 -9.577751e-03 4.088135e-01 -8.902588e-01 4.462891e-01 -8.731079e-01 -9.497643e-03 -2.100182e-02
3.238625e+08 -1.508808e-02 -9.474754e-03 4.083252e-01 -8.912354e-01 4.450684e-01 -8.735962e-01 -9.777069e-03 -2.089596e-02
3.240803e+08 -1.526260e-02 -9.523392e-03 4.071655e-01 -8.913574e-01 4.439087e-01 -8.746338e-01 -9.912491e-03 -2.082443e-02
3.242981e+08 -1.546001e-02 -9.419441e-03 4.062500e-01 -8.909302e-01 4.439087e-01 -8.753052e-01 -1.005840e-02 -2.070045e-02
3.245159e+08 -1.565456e-02 -9.328842e-03 4.059448e-01 -8.918457e-01 4.427490e-01 -8.752441e-01 -1.023388e-02 -2.058029e-02
3.247338e+08 -1.579285e-02 -9.323120e-03 4.052124e-01 -8.923950e-01 4.425049e-01 -8.756104e-01 -1.043224e-02 -2.050018e-02
3.249516e+08 -1.588249e-02 -9.286880e-03 4.041748e-01 -8.925781e-01 4.420166e-01 -8.756104e-01 -1.056576e-02 -2.041626e-02
3.251694e+08 -1.610470e-02 -9.256363e-03 4.033813e-01 -8.926392e-01 4.408569e-01 -8.760376e-01 -1.075935e-02 -2.029514e-02
3.253872e+08 -1.628494e-02 -9.186745e-03 4.038696e-01 -8.924561e-01 4.400635e-01 -8.762207e-01 -1.088238e-02 -2.025318e-02
3.256050e+08 -1.647663e-02 -9.128571e-03 4.028931e-01 -8.939209e-01 4.402466e-01 -8.764038e-01 -1.111412e-02 -2.018261e-02
3.258228e+08 -1.661396e-02 -9.113312e-03 4.019775e-01 -8.942261e-01 4.396362e-01 -8.770142e-01 -1.131058e-02 -2.007675e-02
3.260406e+08 -1.676750e-02 -9.034157e-03 4.012451e-01 -8.937988e-01 4.384155e-01 -8.770752e-01 -1.138401e-02 -1.996326e-02
3.262584e+08 -1.691151e-02 -9.049416e-03 4.012451e-01 -8.945312e-01 4.385376e-01 -8.774414e-01 -1.153946e-02 -1.985645e-02
3.264762e+08 -1.707840e-02 -8.989334e-03 4.004517e-01 -8.947754e-01 4.369507e-01 -8.787842e-01 -1.170635e-02 -1.978588e-02
3.266941e+08 -1.730824e-02 -8.943558e-03 3.988647e-01 -8.940430e-01 4.366455e-01 -8.782959e-01 -1.185513e-02 -1.964951e-02
3.269119e+08 -1.743412e-02 -8.867264e-03 3.982544e-01 -8.953247e-01 4.359131e-01 -8.778687e-01 -1.206684e-02 -1.962566e-02
3.271297e+08 -1.758099e-02 -8.800507e-03 3.974609e-01 -8.959351e-01 4.348145e-01 -8.789062e-01 -1.219654e-02 -1.945877e-02
3.273475e+08 -1.775932e-02 -8.778572e-03 3.972168e-01 -8.956909e-01 4.345093e-01 -8.792725e-01 -1.238632e-02 -1.944351e-02
3.275653e+08 -1.791668e-02 -8.765221e-03 3.959351e-01 -8.959351e-01 4.336548e-01 -8.791504e-01 -1.247692e-02 -1.928902e-02
3.277831e+08 -1.811504e-02 -8.706093e-03 3.953247e-01 -8.972168e-01 4.335327e-01 -8.803101e-01 -1.266384e-02 -1.918602e-02
3.280009e+08 -1.822186e-02 -8.636475e-03 3.942261e-01 -8.970337e-01 4.326782e-01 -8.803101e-01 -1.285744e-02 -1.909256e-02
3.282188e+08 -1.841736e-02 -8.492470e-03 3.942261e-01 -8.978882e-01 4.314575e-01 -8.809204e-01 -1.298809e-02 -1.901531e-02
3.284366e+08 -1.851654e-02 -8.560181e-03 3.933716e-01 -8.970337e-01 4.313965e-01 -8.808594e-01 -1.313210e-02 -1.888561e-02
3.286544e+08 -1.877499e-02 -8.480072e-03 3.925781e-01 -8.971558e-01 4.307251e-01 -8.820190e-01 -1.326656e-02 -1.880932e-02
3.288722e+08 -1.891041e-02 -8.414268e-03 3.918457e-01 -8.978882e-01 4.299927e-01 -8.818970e-01 -1.342869e-02 -1.873779e-02
3.290900e+08 -1.904297e-02 -8.368492e-03 3.923340e-01 -8.980103e-01 4.293213e-01 -8.819580e-01 -1.353073e-02 -1.859951e-02
3.293078e+08 -1.919174e-02 -8.335114e-03 3.912964e-01 -8.989258e-01 4.285278e-01 -8.826294e-01 -1.371193e-02 -1.853943e-02
3.295256e+08 -1.936817e-02 -8.269310e-03 3.908081e-01 -8.986206e-01 4.277954e-01 -8.825684e-01 -1.384068e-02 -1.844597e-02
3.297434e+08 -1.946163e-02 -8.202553e-03 3.894043e-01 -8.986206e-01 4.274902e-01 -8.830566e-01 -1.402569e-02 -1.828003e-02
3.299612e+08 -1.968098e-02 -8.211136e-03 3.890381e-01 -8.989258e-01 4.274902e-01 -8.827515e-01 -1.418591e-02 -1.820755e-02
3.301791e+08 -1.986694e-02 -8.058548e-03 3.888550e-01 -8.995972e-01 4.257202e-01 -8.832397e-01 -1.429176e-02 -1.815701e-02
3.303969e+08 -2.001095e-02 -8.070946e-03 3.869629e-01 -8.999634e-01 4.251099e-01 -8.829956e-01 -1.445007e-02 -1.802349e-02
3.306147e+08 -2.018166e-02 -7.970810e-03 3.865356e-01 -8.996582e-01 4.244385e-01 -8.838501e-01 -1.460934e-02 -1.790047e-02
3.308325e+08 -2.028847e-02 -7.938385e-03 3.869629e-01 -9.006958e-01 4.236450e-01 -8.839722e-01 -1.472378e-02 -1.790237e-02
3.310503e+08 -2.044106e-02 -7.917404e-03 3.856812e-01 -9.011230e-01 4.227905e-01 -8.839722e-01 -1.486778e-02 -1.776600e-02
3.312681e+08 -2.061272e-02 -7.873535e-03 3.844604e-01 -9.020996e-01 4.232178e-01 -8.847656e-01 -1.505375e-02 -1.765347e-02
3.314859e+08 -2.078056e-02 -7.822037e-03 3.837280e-01 -9.016113e-01 4.218750e-01 -8.852539e-01 -1.515293e-02 -1.755047e-02
3.317038e+08 -2.087975e-02 -7.764816e-03 3.834229e-01 -9.017334e-01 4.212036e-01 -8.854980e-01 -1.529598e-02 -1.749611e-02
3.319216e+08 -2.105522e-02 -7.686615e-03 3.825684e-01 -9.019775e-01 4.203491e-01 -8.861084e-01 -1.543045e-02 -1.735306e-02
3.321394e+08 -2.120590e-02 -7.627487e-03 3.812256e-01 -9.024048e-01 4.192505e-01 -8.867188e-01 -1.556015e-02 -1.725006e-02
3.323572e+08 -2.131844e-02 -7.608414e-03 3.811035e-01 -9.027710e-01 4.201050e-01 -8.859863e-01 -1.568604e-02 -1.713657e-02
3.325750e+08 -2.153015e-02 -7.514954e-03 3.806763e-01 -9.031982e-01 4.179688e-01 -8.867188e-01 -1.587486e-02 -1.707935e-02
3.327928e+08 -2.166367e-02 -7.465363e-03 3.800659e-01 -9.036255e-01 4.172974e-01 -8.867188e-01 -1.596642e-02 -1.702309e-02
3.330106e+08 -2.179718e-02 -7.431030e-03 3.791504e-01 -9.035034e-01 4.175415e-01 -8.872070e-01 -1.613140e-02 -1.694679e-02
3.332284e+08 -2.201653e-02 -7.350922e-03 3.779297e-01 -9.037476e-01 4.163208e-01 -8.887939e-01 -1.626396e-02 -1.680374e-02
3.334462e+08 -2.210999e-02 -7.297516e-03 3.776855e-01 -9.036255e-01 4.163208e-01 -8.879395e-01 -1.640511e-02 -1.670265e-02
3.336641e+08 -2.226448e-02 -7.255554e-03 3.775635e-01 -9.041138e-01 4.155273e-01 -8.883667e-01 -1.649761e-02 -1.661301e-02
3.338819e+08 -2.238464e-02 -7.238388e-03 3.761597e-01 -9.044189e-01 4.147949e-01 -8.890381e-01 -1.667690e-02 -1.648617e-02
3.340997e+08 -2.254868e-02 -7.112503e-03 3.752441e-01 -9.052124e-01 4.141846e-01 -8.894043e-01 -1.679611e-02 -1.640511e-02
3.343175e+08 -2.270889e-02 -7.080078e-03 3.741455e-01 -9.052124e-01 4.131470e-01 -8.896484e-01 -1.689053e-02 -1.634502e-02
3.345353e+08 -2.284241e-02 -7.015228e-03 3.737183e-01 -9.061890e-01 4.126587e-01 -8.900757e-01 -1.707077e-02 -1.622391e-02
3.347531e+08 -2.299118e-02 -6.988525e-03 3.737183e-01 -9.055176e-01 4.114990e-01 -8.898926e-01 -1.717567e-02 -1.612091e-02
3.349709e+08 -2.315331e-02 -6.883621e-03 3.728027e-01 -9.055786e-01 4.107666e-01 -8.903809e-01 -1.727676e-02 -1.603794e-02
3.351888e+08 -2.324104e-02 -6.851196e-03 3.720703e-01 -9.068604e-01 4.106445e-01 -8.908081e-01 -1.744080e-02 -1.596069e-02
3.354066e+08 -2.345276e-02 -6.780624e-03 3.708496e-01 -9.066772e-01 4.097900e-01 -8.902588e-01 -1.755333e-02 -1.587486e-02
3.356244e+08 -2.351570e-02 -6.748199e-03 3.706665e-01 -9.064941e-01 4.096680e-01 -8.911743e-01 -1.766491e-02 -1.574421e-02
3.358422e+08 -2.371788e-02 -6.675720e-03 3.697510e-01 -9.072876e-01 4.085083e-01 -8.915405e-01 -1.777363e-02 -1.562595e-02
3.360600e+08 -2.378654e-02 -6.652832e-03 3.693848e-01 -9.075928e-01 4.074707e-01 -8.918457e-01 -1.794529e-02 -1.556778e-02
3.362778e+08 -2.397346e-02 -6.607056e-03 3.680420e-01 -9.077148e-01 4.075928e-01 -8.920898e-01 -1.800537e-02 -1.548862e-02
3.364956e+08 -2.407455e-02 -6.547928e-03 3.676758e-01 -9.074097e-01 4.069214e-01 -8.928223e-01 -1.817417e-02 -1.540947e-02
3.367134e+08 -2.423668e-02 -6.439209e-03 3.676147e-01 -9.075928e-01 4.062500e-01 -8.922119e-01 -1.830387e-02 -1.532555e-02
3.369312e+08 -2.439117e-02 -6.385803e-03 3.662720e-01 -9.085083e-01 4.042358e-01 -8.930664e-01 -1.842499e-02 -1.524258e-02
3.371491e+08 -2.457428e-02 -6.315231e-03 3.665161e-01 -9.085693e-01 4.047241e-01 -8.935547e-01 -1.853657e-02 -1.519394e-02
3.373669e+08 -2.469635e-02 -6.307602e-03 3.655396e-01 -9.090576e-01 4.039917e-01 -8.931885e-01 -1.865768e-02 -1.506329e-02
3.375847e+08 -2.489471e-02 -6.217957e-03 3.641968e-01 -9.096069e-01 4.027710e-01 -8.940430e-01 -1.879025e-02 -1.493454e-02
3.378025e+08 -2.494431e-02 -6.162643e-03 3.636475e-01 -9.102173e-01 4.027710e-01 -8.944092e-01 -1.892662e-02 -1.487255e-02
3.380203e+08 -2.514458e-02 -6.116867e-03 3.635254e-01 -9.099121e-01 4.025879e-01 -8.940430e-01 -1.898289e-02 -1.481533e-02
3.382381e+08 -2.524185e-02 -6.072998e-03 3.622437e-01 -9.093628e-01 4.019165e-01 -8.948975e-01 -1.914310e-02 -1.466656e-02
3.384559e+08 -2.532387e-02 -5.989075e-03 3.619995e-01 -9.105225e-01 4.010620e-01 -8.948364e-01 -1.922417e-02 -1.461220e-02
3.386738e+08 -2.545929e-02 -5.962372e-03 3.607788e-01 -9.108276e-01 4.001465e-01 -8.953247e-01 -1.938343e-02 -1.447582e-02
3.388916e+08 -2.561569e-02 -5.857468e-03 3.600464e-01 -9.112549e-01 3.986206e-01 -8.952637e-01 -1.945782e-02 -1.443100e-02
3.391094e+08 -2.578163e-02 -5.811691e-03 3.599243e-01 -9.115601e-01 3.986816e-01 -8.961182e-01 -1.962090e-02 -1.433754e-02
3.393272e+08 -2.594185e-02 -5.743027e-03 3.593140e-01 -9.108276e-01 3.979492e-01 -8.963013e-01 -1.969242e-02 -1.423264e-02
3.395450e+08 -2.604866e-02 -5.689621e-03 3.574829e-01 -9.121704e-01 3.976440e-01 -8.963013e-01 -1.982212e-02 -1.409626e-02
3.397628e+08 -2.618027e-02 -5.628586e-03 3.569946e-01 -9.122925e-01 3.964233e-01 -8.970337e-01 -1.992035e-02 -1.403427e-02
3.399806e+08 -2.633667e-02 -5.525589e-03 3.569946e-01 -9.126587e-01 3.960571e-01 -8.972778e-01 -2.000999e-02 -1.395321e-02
3.401984e+08 -2.643204e-02 -5.504608e-03 3.563232e-01 -9.118652e-01 3.955688e-01 -8.972778e-01 -2.016163e-02 -1.388359e-02
3.404162e+08 -2.655220e-02 -5.451202e-03 3.556519e-01 -9.127197e-01 3.942261e-01 -8.976440e-01 -2.031898e-02 -1.380634e-02
3.406341e+08 -2.668762e-02 -5.357742e-03 3.546753e-01 -9.127808e-01 3.937378e-01 -8.981934e-01 -2.037525e-02 -1.371098e-02
3.408519e+08 -2.690887e-02 -5.384445e-03 3.535767e-01 -9.135742e-01 3.934326e-01 -8.984375e-01 -2.050972e-02 -1.363468e-02
3.410697e+08 -2.701759e-02 -5.308151e-03 3.532715e-01 -9.136963e-01 3.925781e-01 -8.986206e-01 -2.059746e-02 -1.352978e-02
3.412875e+08 -2.708244e-02 -5.218506e-03 3.526001e-01 -9.132690e-01 3.920288e-01 -8.980103e-01 -2.072144e-02 -1.348019e-02
3.415053e+08 -2.725410e-02 -5.096436e-03 3.513184e-01 -9.138794e-01 3.909912e-01 -8.985596e-01 -2.083778e-02 -1.339817e-02
3.417231e+08 -2.741051e-02 -5.119324e-03 3.511963e-01 -9.146729e-01 3.902588e-01 -8.992310e-01 -2.097416e-02 -1.326847e-02
3.419409e+08 -2.753067e-02 -5.022049e-03 3.502197e-01 -9.145508e-01 3.896484e-01 -8.997192e-01 -2.103710e-02 -1.318455e-02
3.421588e+08 -2.759933e-02 -4.987717e-03 3.496094e-01 -9.143677e-01 3.894043e-01 -8.997803e-01 -2.116776e-02 -1.309586e-02
3.423766e+08 -2.774620e-02 -4.863739e-03 3.494873e-01 -9.157104e-01 3.879395e-01 -8.995972e-01 -2.127934e-02 -1.305580e-02
3.425944e+08 -2.789879e-02 -4.804611e-03 3.480835e-01 -9.152832e-01 3.883057e-01 -9.006348e-01 -2.138805e-02 -1.294994e-02
3.428122e+08 -2.803230e-02 -4.787445e-03 3.477173e-01 -9.154663e-01 3.874512e-01 -9.002075e-01 -2.146435e-02 -1.285458e-02
3.430300e+08 -2.815056e-02 -4.655838e-03 3.468018e-01 -9.151611e-01 3.872070e-01 -9.017334e-01 -2.169704e-02 -1.276588e-02
3.432478e+08 -2.829742e-02 -4.631042e-03 3.452148e-01 -9.154663e-01 3.867188e-01 -9.017944e-01 -2.174377e-02 -1.267529e-02
3.434656e+08 -2.846527e-02 -4.562378e-03 3.453979e-01 -9.158325e-01 3.854980e-01 -9.016724e-01 -2.177143e-02 -1.264191e-02
3.436834e+08 -2.849960e-02 -4.529953e-03 3.447266e-01 -9.160156e-01 3.842773e-01 -9.015503e-01 -2.192974e-02 -1.250362e-02
3.439012e+08 -2.864075e-02 -4.446030e-03 3.436890e-01 -9.168091e-01 3.835449e-01 -9.018555e-01 -2.211094e-02 -1.245117e-02
3.441191e+08 -2.882004e-02 -4.344940e-03 3.432007e-01 -9.167480e-01 3.829956e-01 -9.024048e-01 -2.213001e-02 -1.237488e-02
3.443369e+08 -2.897072e-02 -4.346848e-03 3.428345e-01 -9.176636e-01 3.831787e-01 -9.022827e-01 -2.222729e-02 -1.229572e-02
3.445547e+08 -2.902985e-02 -4.306793e-03 3.420410e-01 -9.163818e-01 3.820190e-01 -9.025269e-01 -2.229977e-02 -1.220798e-02
3.447725e+08 -2.917862e-02 -4.213333e-03 3.413086e-01 -9.178467e-01 3.815308e-01 -9.030762e-01 -2.248192e-02 -1.211357e-02
3.449903e+08 -2.932167e-02 -4.121780e-03 3.408813e-01 -9.184570e-01 3.801270e-01 -9.036865e-01 -2.252960e-02 -1.208496e-02
3.452081e+08 -2.945709e-02 -4.018784e-03 3.395996e-01 -9.190063e-01 3.793945e-01 -9.037476e-01 -2.266312e-02 -1.195335e-02
3.454259e+08 -2.960014e-02 -3.984451e-03 3.388672e-01 -9.182739e-01 3.789062e-01 -9.047852e-01 -2.273750e-02 -1.191902e-02
3.456438e+08 -2.962303e-02 -3.913879e-03 3.384399e-01 -9.199829e-01 3.779297e-01 -9.042358e-01 -2.287102e-02 -1.185036e-02
3.458616e+08 -2.983856e-02 -3.871918e-03 3.374023e-01 -9.193115e-01 3.781738e-01 -9.050903e-01 -2.298546e-02 -1.175499e-02
3.460794e+08 -2.996826e-02 -3.791809e-03 3.374634e-01 -9.201050e-01 3.767700e-01 -9.051514e-01 -2.303886e-02 -1.169586e-02
3.462972e+08 -3.006554e-02 -3.747940e-03 3.362427e-01 -9.196777e-01 3.767700e-01 -9.049072e-01 -2.313232e-02 -1.156998e-02
3.465150e+08 -3.009987e-02 -3.679276e-03 3.353271e-01 -9.202271e-01 3.754272e-01 -9.044800e-01 -2.326775e-02 -1.150322e-02
3.467328e+08 -3.026962e-02 -3.625870e-03 3.342896e-01 -9.198608e-01 3.748169e-01 -9.052124e-01 -2.337074e-02 -1.140785e-02
3.469506e+08 -3.039169e-02 -3.553391e-03 3.344116e-01 -9.205933e-01 3.742065e-01 -9.055176e-01 -2.344322e-02 -1.132965e-02
3.471684e+08 -3.050995e-02 -3.461838e-03 3.329468e-01 -9.209595e-01 3.735352e-01 -9.063110e-01 -2.352142e-02 -1.127243e-02
3.473862e+08 -3.067970e-02 -3.414154e-03 3.330078e-01 -9.199829e-01 3.737793e-01 -9.068604e-01 -2.367783e-02 -1.120377e-02
3.476041e+08 -3.074265e-02 -3.337860e-03 3.325806e-01 -9.211426e-01 3.721924e-01 -9.071655e-01 -2.376175e-02 -1.115227e-02
3.478219e+08 -3.088760e-02 -3.271103e-03 3.305664e-01 -9.217529e-01 3.715820e-01 -9.070435e-01 -2.383614e-02 -1.103020e-02
3.480397e+08 -3.101349e-02 -3.185272e-03 3.306274e-01 -9.208984e-01 3.706665e-01 -9.075317e-01 -2.394295e-02 -1.092529e-02
3.482575e+08 -3.115082e-02 -3.158569e-03 3.299561e-01 -9.221191e-01 3.703613e-01 -9.082031e-01 -2.405357e-02 -1.087379e-02
3.484753e+08 -3.117180e-02 -3.101349e-03 3.289185e-01 -9.223022e-01 3.691406e-01 -9.067993e-01 -2.416039e-02 -1.079750e-02
3.486931e+08 -3.136063e-02 -3.028870e-03 3.281860e-01 -9.226685e-01 3.695679e-01 -9.083862e-01 -2.424431e-02 -1.070595e-02
3.489109e+08 -3.145409e-02 -2.941132e-03 3.282471e-01 -9.229736e-01 3.682251e-01 -9.075317e-01 -2.439117e-02 -1.066780e-02
3.491288e+08 -3.161240e-02 -2.861023e-03 3.267822e-01 -9.237671e-01 3.679199e-01 -9.082642e-01 -2.450371e-02 -1.053810e-02
3.493466e+08 -3.170586e-02 -2.788544e-03 3.263550e-01 -9.234009e-01 3.667603e-01 -9.089966e-01 -2.450943e-02 -1.050186e-02
3.495644e+08 -3.183937e-02 -2.759933e-03 3.253174e-01 -9.237671e-01 3.665161e-01 -9.094849e-01 -2.468300e-02 -1.041985e-02
3.497822e+08 -3.199196e-02 -2.708435e-03 3.243408e-01 -9.244385e-01 3.662109e-01 -9.089966e-01 -2.474976e-02 -1.033211e-02
3.500000e+08 -3.203964e-02 -2.660751e-03 3.240967e-01 -9.241943e-01 3.649902e-01 -9.090576e-01 -2.486229e-02 -1.029968e-02
