# Hz S RI R 50
! RAW DATA - UNCALIBRATED
1.500000e+06 -2.067566e-02 1.403809e-03 9.921265e-01 -2.435303e-02 9.912109e-01 -3.619385e-02 -2.761269e-02 2.372742e-03
1.717812e+06 -2.119255e-02 8.487701e-04 9.904175e-01 -2.545166e-02 9.899902e-01 -3.454590e-02 -2.812386e-02 1.293182e-03
1.935625e+06 -2.176285e-02 4.901886e-04 9.915161e-01 -2.453613e-02 9.915771e-01 -3.588867e-02 -2.887344e-02 6.885529e-04
2.153438e+06 -2.235413e-02 2.689362e-04 9.924927e-01 -2.301025e-02 9.928589e-01 -3.222656e-02 -2.962494e-02 1.506805e-04
2.371250e+06 -2.287865e-02 2.384186e-04 9.929810e-01 -2.093506e-02 9.924927e-01 -3.015137e-02 -3.027344e-02 -1.525879e-04
2.589062e+06 -2.334976e-02 2.555847e-04 9.924316e-01 -1.983643e-02 9.927368e-01 -2.941895e-02 -3.089333e-02 -3.356934e-04
2.806875e+06 -2.386284e-02 3.509521e-04 9.926758e-01 -1.593018e-02 9.934692e-01 -2.673340e-02 -3.150558e-02 -4.062653e-04
3.024688e+06 -2.428818e-02 5.607605e-04 9.945068e-01 -1.519775e-02 9.940796e-01 -2.496338e-02 -3.212547e-02 -4.310608e-04
3.242500e+06 -2.471733e-02 7.019043e-04 9.940796e-01 -1.116943e-02 9.951172e-01 -2.307129e-02 -3.273010e-02 -4.463196e-04
3.460312e+06 -2.519989e-02 1.054764e-03 9.940186e-01 -1.171875e-02 9.967041e-01 -1.879883e-02 -3.353500e-02 -3.395081e-04
3.678125e+06 -2.555656e-02 1.392365e-03 9.937134e-01 -1.263428e-02 9.959106e-01 -2.014160e-02 -3.411293e-02 -8.201599e-05
3.895938e+06 -2.589417e-02 1.859665e-03 9.945679e-01 -1.477051e-02 9.957886e-01 -2.154541e-02 -3.446198e-02 1.907349e-06
4.113750e+06 -2.615547e-02 2.315521e-03 9.936523e-01 -1.690674e-02 9.943237e-01 -2.435303e-02 -3.491211e-02 4.310608e-04
4.331562e+06 -2.645111e-02 2.788544e-03 9.950562e-01 -1.763916e-02 9.940796e-01 -2.410889e-02 -3.549004e-02 6.980896e-04
4.549375e+06 -2.667046e-02 3.311157e-03 9.944458e-01 -1.892090e-02 9.940796e-01 -2.539062e-02 -3.601456e-02 1.020432e-03
4.767188e+06 -2.684212e-02 3.870010e-03 9.950562e-01 -1.947021e-02 9.934692e-01 -2.526855e-02 -3.641701e-02 1.449585e-03
4.985000e+06 -2.702332e-02 4.489899e-03 9.949951e-01 -2.099609e-02 9.924927e-01 -2.722168e-02 -3.683090e-02 1.834869e-03
5.202812e+06 -2.716255e-02 5.025864e-03 9.934692e-01 -2.178955e-02 9.925537e-01 -2.905273e-02 -3.727531e-02 2.290726e-03
5.420625e+06 -2.717781e-02 5.640030e-03 9.940186e-01 -2.337646e-02 9.915771e-01 -2.911377e-02 -3.776169e-02 2.803802e-03
5.638438e+06 -2.721977e-02 6.235123e-03 9.945679e-01 -2.307129e-02 9.915771e-01 -2.954102e-02 -3.824615e-02 3.292084e-03
5.856250e+06 -2.717400e-02 6.866455e-03 9.953003e-01 -2.453613e-02 9.906006e-01 -3.112793e-02 -3.862000e-02 3.952026e-03
6.074062e+06 -2.709579e-02 7.474899e-03 9.953613e-01 -2.575684e-02 9.899902e-01 -3.137207e-02 -3.902626e-02 4.539490e-03
6.291875e+06 -2.698708e-02 8.018494e-03 9.951172e-01 -2.593994e-02 9.896851e-01 -3.240967e-02 -3.940392e-02 5.235672e-03
6.509688e+06 -2.681923e-02 8.615494e-03 9.954834e-01 -2.697754e-02 9.902954e-01 -3.240967e-02 -3.961754e-02 6.013870e-03
6.727500e+06 -2.659225e-02 9.134293e-03 9.961548e-01 -2.691650e-02 9.882812e-01 -3.234863e-02 -4.012489e-02 6.582260e-03
6.945312e+06 -2.637100e-02 9.651184e-03 9.960327e-01 -2.752686e-02 9.888916e-01 -3.302002e-02 -4.025650e-02 7.310867e-03
7.163125e+06 -2.609444e-02 1.008606e-02 9.960938e-01 -2.807617e-02 9.874268e-01 -3.387451e-02 -4.057121e-02 8.152008e-03
7.380938e+06 -2.581406e-02 1.059341e-02 9.971924e-01 -2.917480e-02 9.877930e-01 -3.503418e-02 -4.061699e-02 8.857727e-03
7.598750e+06 -2.547646e-02 1.096916e-02 9.966431e-01 -2.984619e-02 9.876709e-01 -3.424072e-02 -4.070091e-02 9.672165e-03
7.816562e+06 -2.519798e-02 1.133537e-02 9.976196e-01 -3.039551e-02 9.868164e-01 -3.546143e-02 -4.084587e-02 1.054955e-02
8.034375e+06 -2.487755e-02 1.164436e-02 9.986572e-01 -3.161621e-02 9.871216e-01 -3.533936e-02 -4.093361e-02 1.151657e-02
8.252188e+06 -2.454948e-02 1.199150e-02 9.985962e-01 -3.265381e-02 9.873657e-01 -3.564453e-02 -4.084969e-02 1.226616e-02
8.470000e+06 -2.430344e-02 1.224518e-02 9.999390e-01 -3.417969e-02 9.863281e-01 -3.607178e-02 -4.087830e-02 1.306915e-02
8.687812e+06 -2.397919e-02 1.250648e-02 9.991455e-01 -3.540039e-02 9.862671e-01 -3.698730e-02 -4.068184e-02 1.391792e-02
8.905625e+06 -2.367020e-02 1.274490e-02 9.995728e-01 -3.582764e-02 9.873657e-01 -3.692627e-02 -4.061508e-02 1.466370e-02
9.123438e+06 -2.339363e-02 1.298332e-02 9.999390e-01 -3.692627e-02 9.858398e-01 -3.607178e-02 -4.038239e-02 1.541138e-02
9.341250e+06 -2.315903e-02 1.316261e-02 1.000061e+00 -3.851318e-02 9.860840e-01 -3.778076e-02 -4.007149e-02 1.642990e-02
9.559062e+06 -2.285767e-02 1.329803e-02 1.000610e+00 -3.839111e-02 9.864502e-01 -3.717041e-02 -3.974342e-02 1.710320e-02
9.776875e+06 -2.269554e-02 1.350403e-02 1.000244e+00 -4.010010e-02 9.870605e-01 -3.869629e-02 -3.962135e-02 1.780510e-02
9.994688e+06 -2.247238e-02 1.362419e-02 1.001038e+00 -4.144287e-02 9.877319e-01 -3.759766e-02 -3.921318e-02 1.865959e-02
1.021250e+07 -2.225685e-02 1.376534e-02 1.001282e+00 -4.150391e-02 9.864502e-01 -3.833008e-02 -3.890991e-02 1.932526e-02
1.043031e+07 -2.203178e-02 1.389694e-02 1.001465e+00 -4.266357e-02 9.859009e-01 -3.967285e-02 -3.846550e-02 2.008820e-02
1.064812e+07 -2.185059e-02 1.400566e-02 1.001038e+00 -4.467773e-02 9.877930e-01 -3.973389e-02 -3.795242e-02 2.070999e-02
1.086594e+07 -2.172470e-02 1.418114e-02 9.998169e-01 -4.608154e-02 9.865723e-01 -4.150391e-02 -3.764725e-02 2.129364e-02
1.108375e+07 -2.157021e-02 1.431274e-02 1.001404e+00 -4.534912e-02 9.865112e-01 -4.156494e-02 -3.710175e-02 2.174759e-02
1.130156e+07 -2.144623e-02 1.445770e-02 1.001038e+00 -4.876709e-02 9.867554e-01 -4.174805e-02 -3.655434e-02 2.244377e-02
1.151938e+07 -2.133369e-02 1.451111e-02 1.000244e+00 -4.730225e-02 9.864502e-01 -4.162598e-02 -3.599358e-02 2.293777e-02
1.173719e+07 -2.124214e-02 1.470947e-02 1.000427e+00 -4.919434e-02 9.868774e-01 -4.406738e-02 -3.551292e-02 2.327347e-02
1.195500e+07 -2.113914e-02 1.483917e-02 1.000366e+00 -5.096436e-02 9.873657e-01 -4.315186e-02 -3.512001e-02 2.387428e-02
1.217281e+07 -2.103806e-02 1.497269e-02 9.998169e-01 -5.114746e-02 9.876709e-01 -4.541016e-02 -3.460121e-02 2.405548e-02
1.239062e+07 -2.097893e-02 1.514435e-02 1.000183e+00 -5.194092e-02 9.874878e-01 -4.461670e-02 -3.396034e-02 2.458191e-02
1.260844e+07 -2.091408e-02 1.534271e-02 9.993896e-01 -5.230713e-02 9.879761e-01 -4.656982e-02 -3.344536e-02 2.496719e-02
1.282625e+07 -2.088356e-02 1.552773e-02 9.979248e-01 -5.352783e-02 9.878540e-01 -4.571533e-02 -3.286934e-02 2.519608e-02
1.304406e+07 -2.086067e-02 1.566696e-02 9.978027e-01 -5.541992e-02 9.891357e-01 -4.681396e-02 -3.227997e-02 2.553558e-02
1.326188e+07 -2.084160e-02 1.589775e-02 9.978027e-01 -5.541992e-02 9.885254e-01 -4.846191e-02 -3.199959e-02 2.578735e-02
1.347969e+07 -2.074432e-02 1.612473e-02 9.976807e-01 -5.603027e-02 9.884033e-01 -4.846191e-02 -3.161621e-02 2.595901e-02
1.369750e+07 -2.075768e-02 1.638603e-02 9.970703e-01 -5.627441e-02 9.882812e-01 -4.998779e-02 -3.097153e-02 2.618790e-02
1.391531e+07 -2.071190e-02 1.662636e-02 9.968872e-01 -5.706787e-02 9.885254e-01 -5.084229e-02 -3.055763e-02 2.641678e-02
1.413312e+07 -2.068901e-02 1.689529e-02 9.963989e-01 -5.718994e-02 9.880981e-01 -5.126953e-02 -3.017426e-02 2.657700e-02
1.435094e+07 -2.063370e-02 1.717758e-02 9.957886e-01 -5.816650e-02 9.880981e-01 -5.297852e-02 -2.968216e-02 2.674675e-02
1.456875e+07 -2.060699e-02 1.753616e-02 9.954224e-01 -5.804443e-02 9.885864e-01 -5.310059e-02 -2.913475e-02 2.690125e-02
1.478656e+07 -2.056313e-02 1.783752e-02 9.950562e-01 -5.792236e-02 9.886475e-01 -5.267334e-02 -2.894211e-02 2.690506e-02
1.500438e+07 -2.050781e-02 1.814651e-02 9.948730e-01 -5.883789e-02 9.893799e-01 -5.456543e-02 -2.845383e-02 2.708435e-02
1.522219e+07 -2.041435e-02 1.850891e-02 9.944458e-01 -5.895996e-02 9.901123e-01 -5.548096e-02 -2.820206e-02 2.717972e-02
1.544000e+07 -2.035141e-02 1.887131e-02 9.938354e-01 -5.938721e-02 9.891968e-01 -5.596924e-02 -2.770042e-02 2.727890e-02
1.565781e+07 -2.020645e-02 1.925468e-02 9.929810e-01 -5.902100e-02 9.898071e-01 -5.718994e-02 -2.733421e-02 2.730179e-02
1.587562e+07 -2.011013e-02 1.962376e-02 9.930420e-01 -5.816650e-02 9.897461e-01 -5.712891e-02 -2.717972e-02 2.726936e-02
1.609344e+07 -2.007961e-02 2.013016e-02 9.938965e-01 -5.902100e-02 9.924927e-01 -5.560303e-02 -2.706146e-02 2.736473e-02
1.631125e+07 -1.984787e-02 2.052879e-02 9.934692e-01 -6.091309e-02 9.922485e-01 -5.670166e-02 -2.668381e-02 2.753067e-02
1.652906e+07 -1.962280e-02 2.097321e-02 9.926147e-01 -6.140137e-02 9.920044e-01 -5.780029e-02 -2.638054e-02 2.740288e-02
1.674688e+07 -1.943588e-02 2.136040e-02 9.916382e-01 -6.182861e-02 9.923706e-01 -5.914307e-02 -2.617836e-02 2.744484e-02
1.696469e+07 -1.917076e-02 2.183723e-02 9.916992e-01 -6.292725e-02 9.924927e-01 -6.018066e-02 -2.610016e-02 2.772713e-02
1.718250e+07 -1.888657e-02 2.233887e-02 9.909058e-01 -6.317139e-02 9.921265e-01 -6.097412e-02 -2.573204e-02 2.762985e-02
1.740031e+07 -1.861954e-02 2.274704e-02 9.913330e-01 -6.433105e-02 9.918823e-01 -6.250000e-02 -2.562332e-02 2.775955e-02
1.761812e+07 -1.828194e-02 2.311516e-02 9.905396e-01 -6.475830e-02 9.916992e-01 -6.323242e-02 -2.560425e-02 2.788544e-02
1.783594e+07 -1.796913e-02 2.352333e-02 9.903564e-01 -6.536865e-02 9.923096e-01 -6.451416e-02 -2.536964e-02 2.800751e-02
1.805375e+07 -1.760674e-02 2.391624e-02 9.891357e-01 -6.542969e-02 9.915161e-01 -6.567383e-02 -2.523422e-02 2.814674e-02
1.827156e+07 -1.725769e-02 2.431679e-02 9.901123e-01 -6.542969e-02 9.912720e-01 -6.665039e-02 -2.515793e-02 2.811813e-02
1.848938e+07 -1.680374e-02 2.472878e-02 9.899902e-01 -6.652832e-02 9.921265e-01 -6.756592e-02 -2.495956e-02 2.831268e-02
1.870719e+07 -1.647186e-02 2.512550e-02 9.896851e-01 -6.774902e-02 9.912109e-01 -6.927490e-02 -2.481651e-02 2.847290e-02
1.892500e+07 -1.597977e-02 2.541161e-02 9.888916e-01 -6.768799e-02 9.910278e-01 -6.878662e-02 -2.481079e-02 2.861786e-02
1.914281e+07 -1.552773e-02 2.578163e-02 9.898071e-01 -6.799316e-02 9.915161e-01 -7.055664e-02 -2.464867e-02 2.881241e-02
1.936062e+07 -1.500893e-02 2.604294e-02 9.890137e-01 -6.872559e-02 9.906006e-01 -7.183838e-02 -2.456856e-02 2.888870e-02
1.957844e+07 -1.451874e-02 2.633095e-02 9.884033e-01 -6.933594e-02 9.901123e-01 -7.354736e-02 -2.450562e-02 2.913666e-02
1.979625e+07 -1.402855e-02 2.662086e-02 9.895630e-01 -6.945801e-02 9.905396e-01 -7.415771e-02 -2.448654e-02 2.924919e-02
2.001406e+07 -1.354408e-02 2.685547e-02 9.893188e-01 -7.006836e-02 9.891968e-01 -7.507324e-02 -2.432823e-02 2.953148e-02
2.023188e+07 -1.303864e-02 2.708244e-02 9.891357e-01 -7.086182e-02 9.895020e-01 -7.611084e-02 -2.436829e-02 2.973366e-02
2.044969e+07 -1.256561e-02 2.725601e-02 9.895020e-01 -7.147217e-02 9.888306e-01 -7.727051e-02 -2.409363e-02 3.003120e-02
2.066750e+07 -1.208687e-02 2.740860e-02 9.895630e-01 -7.220459e-02 9.886475e-01 -7.879639e-02 -2.411270e-02 3.025055e-02
2.088531e+07 -1.155281e-02 2.758789e-02 9.893799e-01 -7.208252e-02 9.890137e-01 -7.873535e-02 -2.401352e-02 3.039169e-02
2.110312e+07 -1.103020e-02 2.773666e-02 9.892578e-01 -7.379150e-02 9.891357e-01 -7.977295e-02 -2.388382e-02 3.085518e-02
2.132094e+07 -1.058006e-02 2.785492e-02 9.899292e-01 -7.415771e-02 9.874268e-01 -8.172607e-02 -2.384758e-02 3.118515e-02
2.153875e+07 -1.004219e-02 2.794838e-02 9.898682e-01 -7.342529e-02 9.871826e-01 -8.178711e-02 -2.380180e-02 3.136826e-02
2.175656e+07 -9.605408e-03 2.799034e-02 9.898071e-01 -7.513428e-02 9.868164e-01 -8.331299e-02 -2.367592e-02 3.190994e-02
2.197438e+07 -9.071350e-03 2.810478e-02 9.907837e-01 -7.629395e-02 9.871216e-01 -8.312988e-02 -2.367973e-02 3.212738e-02
2.219219e+07 -8.586884e-03 2.818298e-02 9.901123e-01 -7.696533e-02 9.868774e-01 -8.447266e-02 -2.338982e-02 3.252792e-02
2.241000e+07 -8.131027e-03 2.816582e-02 9.907837e-01 -7.800293e-02 9.865112e-01 -8.496094e-02 -2.330780e-02 3.288269e-02
2.262781e+07 -7.694244e-03 2.819443e-02 9.910889e-01 -7.769775e-02 9.853516e-01 -8.605957e-02 -2.311707e-02 3.325653e-02
2.284562e+07 -7.253647e-03 2.825165e-02 9.906616e-01 -7.891846e-02 9.852295e-01 -8.752441e-02 -2.283287e-02 3.375053e-02
2.306344e+07 -6.731033e-03 2.821922e-02 9.904785e-01 -7.916260e-02 9.844360e-01 -8.746338e-02 -2.270317e-02 3.401566e-02
2.328125e+07 -6.322861e-03 2.824402e-02 9.913330e-01 -8.123779e-02 9.849243e-01 -8.843994e-02 -2.247429e-02 3.453255e-02
2.349906e+07 -5.853653e-03 2.822495e-02 9.909668e-01 -8.178711e-02 9.848022e-01 -8.953857e-02 -2.230453e-02 3.489113e-02
2.371688e+07 -5.451202e-03 2.822304e-02 9.904175e-01 -8.209229e-02 9.843750e-01 -8.984375e-02 -2.203751e-02 3.544807e-02
2.393469e+07 -5.041122e-03 2.823448e-02 9.912109e-01 -8.294678e-02 9.835205e-01 -9.051514e-02 -2.182198e-02 3.568077e-02
2.415250e+07 -4.613876e-03 2.821541e-02 9.909058e-01 -8.355713e-02 9.830933e-01 -9.124756e-02 -2.146149e-02 3.612900e-02
2.437031e+07 -4.173279e-03 2.818871e-02 9.921875e-01 -8.380127e-02 9.834595e-01 -9.161377e-02 -2.119255e-02 3.664780e-02
2.458812e+07 -3.816605e-03 2.817535e-02 9.925537e-01 -8.563232e-02 9.827881e-01 -9.216309e-02 -2.098656e-02 3.691864e-02
2.480594e+07 -3.406525e-03 2.807808e-02 9.927979e-01 -8.642578e-02 9.824219e-01 -9.326172e-02 -2.054024e-02 3.755379e-02
2.502375e+07 -3.034592e-03 2.803421e-02 9.926758e-01 -8.789062e-02 9.820557e-01 -9.429932e-02 -2.036858e-02 3.786469e-02
2.524156e+07 -2.651215e-03 2.797127e-02 9.926758e-01 -8.892822e-02 9.824829e-01 -9.411621e-02 -1.987457e-02 3.822327e-02
2.545938e+07 -2.305984e-03 2.794266e-02 9.928589e-01 -8.953857e-02 9.824829e-01 -9.484863e-02 -1.946640e-02 3.855515e-02
2.567719e+07 -1.865387e-03 2.787018e-02 9.928589e-01 -9.106445e-02 9.816284e-01 -9.552002e-02 -1.900482e-02 3.902054e-02
2.589500e+07 -1.455307e-03 2.778816e-02 9.933472e-01 -9.155273e-02 9.816895e-01 -9.552002e-02 -1.870537e-02 3.938484e-02
2.611281e+07 -1.089096e-03 2.770805e-02 9.924316e-01 -9.234619e-02 9.808350e-01 -9.710693e-02 -1.809120e-02 3.971863e-02
2.633062e+07 -7.476807e-04 2.758789e-02 9.931030e-01 -9.289551e-02 9.812622e-01 -9.704590e-02 -1.783943e-02 4.010201e-02
2.654844e+07 -4.119873e-04 2.750206e-02 9.937744e-01 -9.393311e-02 9.813232e-01 -9.771729e-02 -1.730156e-02 4.055595e-02
2.676625e+07 -8.010864e-05 2.741051e-02 9.934082e-01 -9.539795e-02 9.810181e-01 -9.887695e-02 -1.687050e-02 4.078293e-02
2.698406e+07 2.365112e-04 2.731895e-02 9.934082e-01 -9.619141e-02 9.812622e-01 -9.906006e-02 -1.638603e-02 4.115486e-02
2.720188e+07 5.550385e-04 2.723694e-02 9.935303e-01 -9.790039e-02 9.802856e-01 -1.001587e-01 -1.592064e-02 4.146385e-02
2.741969e+07 8.831024e-04 2.716255e-02 9.928589e-01 -9.838867e-02 9.808350e-01 -1.005249e-01 -1.538086e-02 4.158211e-02
2.763750e+07 1.213074e-03 2.708817e-02 9.937134e-01 -9.967041e-02 9.808960e-01 -1.015625e-01 -1.478577e-02 4.185295e-02
2.785531e+07 1.522064e-03 2.692795e-02 9.938354e-01 -1.008301e-01 9.809570e-01 -1.018677e-01 -1.432228e-02 4.216194e-02
2.807312e+07 1.817703e-03 2.690697e-02 9.938354e-01 -1.015015e-01 9.806519e-01 -1.026001e-01 -1.366806e-02 4.240990e-02
2.829094e+07 2.164841e-03 2.676201e-02 9.938354e-01 -1.032715e-01 9.806519e-01 -1.029053e-01 -1.328659e-02 4.257011e-02
2.850875e+07 2.447128e-03 2.661133e-02 9.938354e-01 -1.036987e-01 9.813232e-01 -1.040039e-01 -1.266479e-02 4.301643e-02
2.872656e+07 2.702713e-03 2.658272e-02 9.938965e-01 -1.051025e-01 9.821167e-01 -1.042480e-01 -1.217079e-02 4.306221e-02
2.894438e+07 2.998352e-03 2.644348e-02 9.945068e-01 -1.055908e-01 9.808350e-01 -1.052856e-01 -1.174355e-02 4.318237e-02
2.916219e+07 3.290176e-03 2.635002e-02 9.942017e-01 -1.062012e-01 9.821167e-01 -1.057739e-01 -1.124763e-02 4.347992e-02
2.938000e+07 3.604889e-03 2.624130e-02 9.947510e-01 -1.081543e-01 9.815674e-01 -1.062622e-01 -1.060295e-02 4.368782e-02
2.959781e+07 3.879547e-03 2.609634e-02 9.942017e-01 -1.088867e-01 9.822998e-01 -1.071167e-01 -1.011848e-02 4.371452e-02
2.981562e+07 4.146576e-03 2.599525e-02 9.943848e-01 -1.105347e-01 9.816284e-01 -1.086426e-01 -9.605408e-03 4.392815e-02
3.003344e+07 4.409790e-03 2.590561e-02 9.946289e-01 -1.115112e-01 9.821167e-01 -1.089478e-01 -8.989334e-03 4.409027e-02
3.025125e+07 4.722595e-03 2.576447e-02 9.950562e-01 -1.127319e-01 9.827881e-01 -1.094971e-01 -8.428574e-03 4.410172e-02
3.046906e+07 4.903793e-03 2.562332e-02 9.946289e-01 -1.137085e-01 9.813232e-01 -1.102905e-01 -7.825851e-03 4.427528e-02
3.068688e+07 5.193710e-03 2.549744e-02 9.949951e-01 -1.146851e-01 9.822998e-01 -1.106567e-01 -7.329941e-03 4.424858e-02
3.090469e+07 5.479813e-03 2.542305e-02 9.949951e-01 -1.157837e-01 9.822388e-01 -1.113892e-01 -6.767273e-03 4.442978e-02
3.112250e+07 5.689621e-03 2.533913e-02 9.956055e-01 -1.156006e-01 9.832764e-01 -1.113892e-01 -6.319046e-03 4.450417e-02
3.134031e+07 5.939484e-03 2.521133e-02 9.943237e-01 -1.176758e-01 9.834595e-01 -1.118774e-01 -5.590439e-03 4.448318e-02
3.155812e+07 6.153107e-03 2.510071e-02 9.960938e-01 -1.175537e-01 9.838867e-01 -1.132202e-01 -5.340576e-03 4.440498e-02
3.177594e+07 6.418228e-03 2.493286e-02 9.948120e-01 -1.191406e-01 9.838257e-01 -1.134033e-01 -4.741669e-03 4.443741e-02
3.199375e+07 6.645203e-03 2.487755e-02 9.951172e-01 -1.191406e-01 9.827271e-01 -1.137085e-01 -4.230499e-03 4.447746e-02
3.221156e+07 6.841660e-03 2.477837e-02 9.954224e-01 -1.203613e-01 9.838257e-01 -1.149292e-01 -3.789902e-03 4.456711e-02
3.242938e+07 7.139206e-03 2.459908e-02 9.953003e-01 -1.210327e-01 9.840088e-01 -1.150513e-01 -3.166199e-03 4.442596e-02
3.264719e+07 7.345200e-03 2.453423e-02 9.942017e-01 -1.223145e-01 9.831543e-01 -1.157227e-01 -2.584457e-03 4.453087e-02
3.286500e+07 7.528305e-03 2.437973e-02 9.951782e-01 -1.231689e-01 9.840088e-01 -1.157227e-01 -2.164841e-03 4.430580e-02
3.308281e+07 7.734299e-03 2.427292e-02 9.951172e-01 -1.229248e-01 9.840088e-01 -1.166992e-01 -1.768112e-03 4.424286e-02
3.330062e+07 7.944107e-03 2.413177e-02 9.942017e-01 -1.247559e-01 9.840088e-01 -1.173096e-01 -1.117706e-03 4.440689e-02
3.351844e+07 8.186340e-03 2.402115e-02 9.949951e-01 -1.247559e-01 9.838257e-01 -1.182251e-01 -7.305145e-04 4.437256e-02
3.373625e+07 8.403778e-03 2.383423e-02 9.943848e-01 -1.253662e-01 9.842529e-01 -1.184692e-01 -2.746582e-04 4.421997e-02
3.395406e+07 8.579254e-03 2.377892e-02 9.943237e-01 -1.260376e-01 9.838867e-01 -1.188354e-01 2.365112e-04 4.404831e-02
3.417188e+07 8.794785e-03 2.365875e-02 9.945679e-01 -1.265869e-01 9.845581e-01 -1.196899e-01 6.523132e-04 4.397202e-02
3.438969e+07 8.977890e-03 2.354240e-02 9.949951e-01 -1.279297e-01 9.852295e-01 -1.205444e-01 1.125336e-03 4.388618e-02
3.460750e+07 9.252548e-03 2.344704e-02 9.943237e-01 -1.279297e-01 9.841309e-01 -1.204224e-01 1.592636e-03 4.380608e-02
3.482531e+07 9.422302e-03 2.332497e-02 9.946289e-01 -1.293335e-01 9.851685e-01 -1.213379e-01 2.014160e-03 4.371834e-02
3.504312e+07 9.599686e-03 2.321625e-02 9.942627e-01 -1.294556e-01 9.838257e-01 -1.219482e-01 2.248764e-03 4.358864e-02
3.526094e+07 9.817123e-03 2.308464e-02 9.945068e-01 -1.306763e-01 9.846802e-01 -1.225586e-01 2.944946e-03 4.357147e-02
3.547875e+07 9.935379e-03 2.296257e-02 9.949951e-01 -1.318359e-01 9.848633e-01 -1.233521e-01 3.198624e-03 4.335785e-02
3.569656e+07 1.012802e-02 2.280426e-02 9.947510e-01 -1.333008e-01 9.856567e-01 -1.237793e-01 3.814697e-03 4.337311e-02
3.591438e+07 1.036835e-02 2.271843e-02 9.938965e-01 -1.339722e-01 9.852905e-01 -1.240234e-01 4.213333e-03 4.314613e-02
3.613219e+07 1.052094e-02 2.261734e-02 9.937744e-01 -1.339111e-01 9.857178e-01 -1.251831e-01 4.526138e-03 4.298401e-02
3.635000e+07 1.072311e-02 2.249718e-02 9.938354e-01 -1.350708e-01 9.852295e-01 -1.246948e-01 4.917145e-03 4.288864e-02
3.656781e+07 1.089096e-02 2.228737e-02 9.940796e-01 -1.351929e-01 9.854126e-01 -1.261597e-01 5.296707e-03 4.274559e-02
3.678562e+07 1.109123e-02 2.220535e-02 9.943237e-01 -1.366577e-01 9.861450e-01 -1.268311e-01 5.689621e-03 4.260826e-02
3.700344e+07 1.126099e-02 2.216148e-02 9.936523e-01 -1.370850e-01 9.862671e-01 -1.278076e-01 6.067276e-03 4.243851e-02
3.722125e+07 1.148224e-02 2.199745e-02 9.934082e-01 -1.383057e-01 9.852905e-01 -1.282349e-01 6.361008e-03 4.228210e-02
3.743906e+07 1.158142e-02 2.186584e-02 9.934692e-01 -1.387329e-01 9.860229e-01 -1.287231e-01 6.755829e-03 4.213905e-02
3.765688e+07 1.177216e-02 2.171516e-02 9.938354e-01 -1.397095e-01 9.862671e-01 -1.298828e-01 7.223129e-03 4.211998e-02
3.787469e+07 1.188850e-02 2.168655e-02 9.939575e-01 -1.405029e-01 9.861450e-01 -1.306763e-01 7.488251e-03 4.197121e-02
3.809250e+07 1.205063e-02 2.152443e-02 9.939575e-01 -1.405640e-01 9.860229e-01 -1.315918e-01 7.869720e-03 4.172707e-02
3.831031e+07 1.229286e-02 2.143669e-02 9.931030e-01 -1.417847e-01 9.857788e-01 -1.313477e-01 8.279800e-03 4.165649e-02
3.852812e+07 1.247025e-02 2.126503e-02 9.932251e-01 -1.432495e-01 9.852905e-01 -1.329956e-01 8.596420e-03 4.135513e-02
3.874594e+07 1.261902e-02 2.119255e-02 9.929810e-01 -1.443481e-01 9.859009e-01 -1.336670e-01 9.082794e-03 4.109573e-02
3.896375e+07 1.271248e-02 2.112198e-02 9.936523e-01 -1.441040e-01 9.860229e-01 -1.352539e-01 9.191513e-03 4.080582e-02
3.918156e+07 1.289177e-02 2.097702e-02 9.929810e-01 -1.450806e-01 9.857788e-01 -1.346436e-01 9.572983e-03 4.085922e-02
3.939938e+07 1.306915e-02 2.086449e-02 9.927368e-01 -1.458740e-01 9.861450e-01 -1.358643e-01 9.874344e-03 4.071617e-02
3.961719e+07 1.326180e-02 2.074432e-02 9.920654e-01 -1.472778e-01 9.860229e-01 -1.369019e-01 1.026344e-02 4.062271e-02
3.983500e+07 1.334572e-02 2.066040e-02 9.924316e-01 -1.483154e-01 9.855347e-01 -1.376953e-01 1.041603e-02 4.026794e-02
4.005281e+07 1.350975e-02 2.053833e-02 9.927368e-01 -1.483154e-01 9.859619e-01 -1.386108e-01 1.078033e-02 4.018021e-02
4.027062e+07 1.373482e-02 2.040100e-02 9.920044e-01 -1.496582e-01 9.860229e-01 -1.389160e-01 1.107216e-02 3.989029e-02
4.048844e+07 1.386452e-02 2.031136e-02 9.920654e-01 -1.499634e-01 9.861450e-01 -1.397095e-01 1.138496e-02 3.965950e-02
4.070625e+07 1.401138e-02 2.018738e-02 9.918823e-01 -1.511841e-01 9.868164e-01 -1.401367e-01 1.162910e-02 3.937721e-02
4.092406e+07 1.412868e-02 2.006245e-02 9.912109e-01 -1.514282e-01 9.867554e-01 -1.414795e-01 1.194763e-02 3.939629e-02
4.114188e+07 1.434422e-02 2.003765e-02 9.912720e-01 -1.533813e-01 9.859619e-01 -1.411743e-01 1.223564e-02 3.914452e-02
4.135969e+07 1.442623e-02 1.988029e-02 9.912109e-01 -1.540527e-01 9.858398e-01 -1.428223e-01 1.245117e-02 3.900528e-02
4.157750e+07 1.455975e-02 1.970959e-02 9.912720e-01 -1.547241e-01 9.857788e-01 -1.433105e-01 1.270866e-02 3.893852e-02
4.179531e+07 1.474667e-02 1.961613e-02 9.902344e-01 -1.549683e-01 9.862061e-01 -1.441040e-01 1.299095e-02 3.861809e-02
4.201312e+07 1.489162e-02 1.954365e-02 9.912109e-01 -1.555176e-01 9.858398e-01 -1.450806e-01 1.327133e-02 3.833771e-02
4.223094e+07 1.507282e-02 1.944733e-02 9.904785e-01 -1.568604e-01 9.864502e-01 -1.461182e-01 1.363754e-02 3.827095e-02
4.244875e+07 1.516342e-02 1.935101e-02 9.906616e-01 -1.570435e-01 9.858398e-01 -1.471558e-01 1.371193e-02 3.812027e-02
4.266656e+07 1.530361e-02 1.922417e-02 9.900513e-01 -1.581421e-01 9.859619e-01 -1.477661e-01 1.387978e-02 3.792953e-02
4.288438e+07 1.543236e-02 1.907444e-02 9.902954e-01 -1.590576e-01 9.858398e-01 -1.480713e-01 1.436996e-02 3.775215e-02
4.310219e+07 1.559639e-02 1.899242e-02 9.898682e-01 -1.593018e-01 9.859009e-01 -1.496582e-01 1.448631e-02 3.762054e-02
4.332000e+07 1.574707e-02 1.887512e-02 9.895630e-01 -1.609497e-01 9.860229e-01 -1.502075e-01 1.480103e-02 3.731728e-02
4.353781e+07 1.586437e-02 1.881409e-02 9.898071e-01 -1.612549e-01 9.860229e-01 -1.510620e-01 1.493835e-02 3.725243e-02
4.375562e+07 1.603127e-02 1.870441e-02 9.895630e-01 -1.624756e-01 9.854736e-01 -1.520386e-01 1.510620e-02 3.710938e-02
4.397344e+07 1.610756e-02 1.866817e-02 9.888916e-01 -1.630249e-01 9.852905e-01 -1.519165e-01 1.548386e-02 3.679085e-02
4.419125e+07 1.627350e-02 1.849365e-02 9.888916e-01 -1.635742e-01 9.853516e-01 -1.531372e-01 1.562881e-02 3.651810e-02
4.440906e+07 1.641178e-02 1.837254e-02 9.886475e-01 -1.646118e-01 9.852295e-01 -1.540527e-01 1.586723e-02 3.646088e-02
4.462688e+07 1.654243e-02 1.825237e-02 9.887695e-01 -1.651611e-01 9.847412e-01 -1.548462e-01 1.611519e-02 3.633690e-02
4.484469e+07 1.668453e-02 1.823616e-02 9.892578e-01 -1.661377e-01 9.846191e-01 -1.560669e-01 1.626778e-02 3.609085e-02
4.506250e+07 1.678467e-02 1.809406e-02 9.879150e-01 -1.663818e-01 9.852295e-01 -1.561279e-01 1.645470e-02 3.574562e-02
4.528031e+07 1.688194e-02 1.804924e-02 9.884033e-01 -1.672363e-01 9.844360e-01 -1.572266e-01 1.665306e-02 3.581810e-02
4.549812e+07 1.703167e-02 1.787376e-02 9.879761e-01 -1.675415e-01 9.851685e-01 -1.579590e-01 1.677322e-02 3.582764e-02
4.571594e+07 1.719856e-02 1.776123e-02 9.878540e-01 -1.696167e-01 9.847412e-01 -1.588745e-01 1.704407e-02 3.542900e-02
4.593375e+07 1.733971e-02 1.772404e-02 9.882202e-01 -1.697998e-01 9.846191e-01 -1.597900e-01 1.723289e-02 3.509903e-02
4.615156e+07 1.747799e-02 1.758575e-02 9.871216e-01 -1.704102e-01 9.840088e-01 -1.609497e-01 1.752281e-02 3.503799e-02
4.636938e+07 1.758575e-02 1.752949e-02 9.872437e-01 -1.714478e-01 9.840088e-01 -1.613159e-01 1.763344e-02 3.477287e-02
4.658719e+07 1.776886e-02 1.743603e-02 9.871216e-01 -1.725464e-01 9.848022e-01 -1.627197e-01 1.788139e-02 3.465652e-02
4.680500e+07 1.784515e-02 1.739216e-02 9.868774e-01 -1.730957e-01 9.846191e-01 -1.636963e-01 1.806259e-02 3.451347e-02
4.702281e+07 1.795101e-02 1.724529e-02 9.855347e-01 -1.743774e-01 9.838257e-01 -1.638794e-01 1.821136e-02 3.443146e-02
4.724062e+07 1.811981e-02 1.713848e-02 9.862061e-01 -1.748657e-01 9.844360e-01 -1.647339e-01 1.862335e-02 3.416634e-02
4.745844e+07 1.825905e-02 1.703262e-02 9.849854e-01 -1.755371e-01 9.832764e-01 -1.659546e-01 1.868439e-02 3.400612e-02
4.767625e+07 1.835918e-02 1.692772e-02 9.853516e-01 -1.767578e-01 9.827881e-01 -1.666260e-01 1.890755e-02 3.376389e-02
4.789406e+07 1.852417e-02 1.684475e-02 9.856567e-01 -1.766357e-01 9.829102e-01 -1.667480e-01 1.888466e-02 3.356171e-02
4.811188e+07 1.861382e-02 1.674652e-02 9.846191e-01 -1.779785e-01 9.837036e-01 -1.677856e-01 1.913261e-02 3.358841e-02
4.832969e+07 1.879311e-02 1.665688e-02 9.848022e-01 -1.784668e-01 9.835205e-01 -1.690063e-01 1.941872e-02 3.339767e-02
4.854750e+07 1.894760e-02 1.656628e-02 9.845581e-01 -1.791992e-01 9.824219e-01 -1.699219e-01 1.949883e-02 3.308105e-02
4.876531e+07 1.902390e-02 1.645279e-02 9.849243e-01 -1.797485e-01 9.829102e-01 -1.704102e-01 1.967812e-02 3.306580e-02
4.898312e+07 1.925182e-02 1.639843e-02 9.843140e-01 -1.807251e-01 9.826050e-01 -1.716309e-01 1.978111e-02 3.274918e-02
4.920094e+07 1.928329e-02 1.631451e-02 9.841309e-01 -1.816406e-01 9.819946e-01 -1.714478e-01 1.999283e-02 3.264999e-02
4.941875e+07 1.949310e-02 1.618195e-02 9.838867e-01 -1.815796e-01 9.826050e-01 -1.729736e-01 2.018738e-02 3.242493e-02
4.963656e+07 1.960182e-02 1.607418e-02 9.837036e-01 -1.827393e-01 9.824829e-01 -1.732788e-01 2.037430e-02 3.231812e-02
4.985438e+07 1.972961e-02 1.600361e-02 9.831543e-01 -1.831055e-01 9.819946e-01 -1.736450e-01 2.048302e-02 3.215599e-02
5.007219e+07 1.982307e-02 1.593113e-02 9.829102e-01 -1.841431e-01 9.816895e-01 -1.744995e-01 2.068901e-02 3.189850e-02
5.029000e+07 1.991177e-02 1.583004e-02 9.829102e-01 -1.845703e-01 9.814453e-01 -1.760254e-01 2.085686e-02 3.176308e-02
5.050781e+07 2.014351e-02 1.573563e-02 9.832153e-01 -1.857300e-01 9.812622e-01 -1.754150e-01 2.100372e-02 3.158569e-02
5.072562e+07 2.025604e-02 1.559830e-02 9.813843e-01 -1.865845e-01 9.810791e-01 -1.766357e-01 2.124214e-02 3.145599e-02
5.094344e+07 2.040672e-02 1.554108e-02 9.819336e-01 -1.864624e-01 9.806519e-01 -1.788330e-01 2.120018e-02 3.132629e-02
5.116125e+07 2.055168e-02 1.535606e-02 9.829102e-01 -1.878662e-01 9.810181e-01 -1.786499e-01 2.151680e-02 3.125572e-02
5.137906e+07 2.067566e-02 1.528358e-02 9.810181e-01 -1.887817e-01 9.799805e-01 -1.794434e-01 2.161598e-02 3.086281e-02
5.159688e+07 2.080536e-02 1.517487e-02 9.817505e-01 -1.888428e-01 9.804688e-01 -1.809692e-01 2.170372e-02 3.084564e-02
5.181469e+07 2.090263e-02 1.510048e-02 9.813843e-01 -1.896973e-01 9.799194e-01 -1.813965e-01 2.189636e-02 3.065109e-02
5.203250e+07 2.103043e-02 1.499176e-02 9.801025e-01 -1.898804e-01 9.797974e-01 -1.820068e-01 2.193260e-02 3.057480e-02
5.225031e+07 2.115440e-02 1.489639e-02 9.801636e-01 -1.913452e-01 9.796753e-01 -1.825562e-01 2.220726e-02 3.026962e-02
5.246812e+07 2.136040e-02 1.478004e-02 9.799194e-01 -1.915283e-01 9.786377e-01 -1.832886e-01 2.232742e-02 3.012085e-02
5.268594e+07 2.145576e-02 1.470947e-02 9.796143e-01 -1.931763e-01 9.791870e-01 -1.843262e-01 2.240944e-02 3.006744e-02
5.290375e+07 2.155113e-02 1.458168e-02 9.793091e-01 -1.928711e-01 9.787598e-01 -1.851807e-01 2.261162e-02 2.982903e-02
5.312156e+07 2.166939e-02 1.449203e-02 9.787598e-01 -1.945801e-01 9.775391e-01 -1.855469e-01 2.288628e-02 2.974319e-02
5.333938e+07 2.182198e-02 1.436806e-02 9.790039e-01 -1.950684e-01 9.772949e-01 -1.867065e-01 2.290916e-02 2.942276e-02
5.355719e+07 2.197266e-02 1.428223e-02 9.788208e-01 -1.954956e-01 9.777222e-01 -1.878662e-01 2.299881e-02 2.928734e-02
5.377500e+07 2.209663e-02 1.420212e-02 9.776001e-01 -1.960449e-01 9.774780e-01 -1.884766e-01 2.305412e-02 2.910805e-02
5.399281e+07 2.223969e-02 1.408768e-02 9.774780e-01 -1.971436e-01 9.771729e-01 -1.893311e-01 2.341652e-02 2.904129e-02
5.421062e+07 2.233887e-02 1.401329e-02 9.778442e-01 -1.977539e-01 9.770508e-01 -1.893311e-01 2.338982e-02 2.888870e-02
5.442844e+07 2.248573e-02 1.390076e-02 9.771729e-01 -1.980591e-01 9.762573e-01 -1.910400e-01 2.340698e-02 2.877617e-02
5.464625e+07 2.258682e-02 1.376724e-02 9.770508e-01 -1.990356e-01 9.766846e-01 -1.913452e-01 2.371979e-02 2.847862e-02
5.486406e+07 2.276421e-02 1.362991e-02 9.767456e-01 -1.995239e-01 9.766846e-01 -1.923218e-01 2.372742e-02 2.848244e-02
5.508188e+07 2.287292e-02 1.355553e-02 9.767456e-01 -1.997070e-01 9.763794e-01 -1.925659e-01 2.396011e-02 2.837181e-02
5.529969e+07 2.298737e-02 1.343346e-02 9.754028e-01 -2.012329e-01 9.754639e-01 -1.934814e-01 2.391815e-02 2.805901e-02
5.551750e+07 2.310562e-02 1.335907e-02 9.756470e-01 -2.014771e-01 9.755859e-01 -1.940308e-01 2.408981e-02 2.788925e-02
5.573531e+07 2.323151e-02 1.325417e-02 9.746704e-01 -2.019653e-01 9.750366e-01 -1.951294e-01 2.423096e-02 2.796173e-02
5.595312e+07 2.336693e-02 1.311684e-02 9.757690e-01 -2.030640e-01 9.746704e-01 -1.951294e-01 2.439308e-02 2.764702e-02
5.617094e+07 2.347565e-02 1.301765e-02 9.748535e-01 -2.039185e-01 9.736328e-01 -1.962891e-01 2.460480e-02 2.762032e-02
5.638875e+07 2.361107e-02 1.291275e-02 9.750977e-01 -2.044067e-01 9.743652e-01 -1.973267e-01 2.460861e-02 2.754211e-02
5.660656e+07 2.374840e-02 1.279068e-02 9.741821e-01 -2.053223e-01 9.742432e-01 -1.973877e-01 2.472305e-02 2.728462e-02
5.682438e+07 2.386093e-02 1.270103e-02 9.746704e-01 -2.056274e-01 9.736938e-01 -1.992798e-01 2.498627e-02 2.709007e-02
5.704219e+07 2.394295e-02 1.261139e-02 9.741821e-01 -2.067871e-01 9.726562e-01 -1.987305e-01 2.506065e-02 2.691650e-02
5.726000e+07 2.413177e-02 1.242256e-02 9.732056e-01 -2.072144e-01 9.729004e-01 -2.005005e-01 2.509117e-02 2.687836e-02
5.747781e+07 2.420998e-02 1.237679e-02 9.723511e-01 -2.088013e-01 9.722290e-01 -2.003174e-01 2.543449e-02 2.657509e-02
5.769562e+07 2.438545e-02 1.225662e-02 9.729004e-01 -2.091064e-01 9.727173e-01 -2.011108e-01 2.545738e-02 2.642632e-02
5.791344e+07 2.451324e-02 1.210976e-02 9.729614e-01 -2.085571e-01 9.721680e-01 -2.021484e-01 2.557945e-02 2.646065e-02
5.813125e+07 2.464294e-02 1.198769e-02 9.719238e-01 -2.098389e-01 9.718018e-01 -2.035522e-01 2.565956e-02 2.630043e-02
5.834906e+07 2.472115e-02 1.192665e-02 9.718628e-01 -2.106934e-01 9.710693e-01 -2.041626e-01 2.581406e-02 2.596092e-02
5.856688e+07 2.487373e-02 1.178932e-02 9.712524e-01 -2.111206e-01 9.711914e-01 -2.046509e-01 2.586937e-02 2.586174e-02
5.878469e+07 2.499771e-02 1.169395e-02 9.705811e-01 -2.120972e-01 9.709473e-01 -2.052002e-01 2.600479e-02 2.588844e-02
5.900250e+07 2.515030e-02 1.156235e-02 9.711304e-01 -2.121582e-01 9.707031e-01 -2.061768e-01 2.627373e-02 2.560806e-02
5.922031e+07 2.524948e-02 1.144600e-02 9.703369e-01 -2.129517e-01 9.703979e-01 -2.059937e-01 2.619553e-02 2.550316e-02
5.943812e+07 2.537346e-02 1.139069e-02 9.707642e-01 -2.138672e-01 9.700928e-01 -2.062378e-01 2.651596e-02 2.536201e-02
5.965594e+07 2.544975e-02 1.119423e-02 9.707642e-01 -2.144165e-01 9.697266e-01 -2.076416e-01 2.660561e-02 2.519226e-02
5.987375e+07 2.560234e-02 1.113129e-02 9.700317e-01 -2.144165e-01 9.688110e-01 -2.084351e-01 2.671814e-02 2.497864e-02
6.009156e+07 2.569199e-02 1.103210e-02 9.705200e-01 -2.158203e-01 9.691772e-01 -2.094116e-01 2.681541e-02 2.498817e-02
6.030938e+07 2.584457e-02 1.088524e-02 9.692383e-01 -2.158203e-01 9.686890e-01 -2.100830e-01 2.691650e-02 2.478218e-02
6.052719e+07 2.594948e-02 1.072884e-02 9.691162e-01 -2.163086e-01 9.685059e-01 -2.106934e-01 2.707291e-02 2.468300e-02
6.074500e+07 2.607346e-02 1.062202e-02 9.689331e-01 -2.169800e-01 9.676514e-01 -2.108154e-01 2.724838e-02 2.444839e-02
6.096281e+07 2.621651e-02 1.052666e-02 9.687500e-01 -2.178955e-01 9.679565e-01 -2.120972e-01 2.728462e-02 2.440834e-02
6.118062e+07 2.640915e-02 1.044846e-02 9.691162e-01 -2.179565e-01 9.688721e-01 -2.120972e-01 2.737236e-02 2.420044e-02
6.139844e+07 2.649689e-02 1.021194e-02 9.686890e-01 -2.205811e-01 9.665527e-01 -2.138062e-01 2.768517e-02 2.403450e-02
6.161625e+07 2.660751e-02 1.014328e-02 9.687500e-01 -2.200317e-01 9.670410e-01 -2.139282e-01 2.769852e-02 2.395821e-02
6.183406e+07 2.677345e-02 9.988785e-03 9.674072e-01 -2.215576e-01 9.656982e-01 -2.147217e-01 2.788544e-02 2.360153e-02
6.205188e+07 2.691078e-02 9.855270e-03 9.674072e-01 -2.218018e-01 9.665527e-01 -2.164917e-01 2.804756e-02 2.363586e-02
6.226969e+07 2.701187e-02 9.735107e-03 9.667358e-01 -2.230225e-01 9.658813e-01 -2.160645e-01 2.809715e-02 2.344131e-02
6.248750e+07 2.713394e-02 9.630203e-03 9.671021e-01 -2.234497e-01 9.655151e-01 -2.173462e-01 2.836609e-02 2.330589e-02
6.270531e+07 2.721024e-02 9.412766e-03 9.664307e-01 -2.243652e-01 9.650879e-01 -2.175293e-01 2.824211e-02 2.303886e-02
6.292312e+07 2.735710e-02 9.363174e-03 9.667969e-01 -2.252197e-01 9.653320e-01 -2.188110e-01 2.850914e-02 2.299881e-02
6.314094e+07 2.753830e-02 9.178162e-03 9.666138e-01 -2.261353e-01 9.655151e-01 -2.192383e-01 2.864838e-02 2.291870e-02
6.335875e+07 2.760506e-02 9.075165e-03 9.663696e-01 -2.263794e-01 9.641113e-01 -2.208252e-01 2.883148e-02 2.267647e-02
6.357656e+07 2.772141e-02 8.945465e-03 9.655151e-01 -2.269897e-01 9.648438e-01 -2.213135e-01 2.885628e-02 2.251434e-02
6.379438e+07 2.782440e-02 8.758545e-03 9.655762e-01 -2.284546e-01 9.638672e-01 -2.220459e-01 2.897453e-02 2.238464e-02
6.401219e+07 2.792168e-02 8.623123e-03 9.649048e-01 -2.280884e-01 9.633179e-01 -2.224121e-01 2.929306e-02 2.214241e-02
6.423000e+07 2.810478e-02 8.487701e-03 9.649048e-01 -2.291870e-01 9.634399e-01 -2.226562e-01 2.937508e-02 2.215195e-02
6.444781e+07 2.813339e-02 8.344650e-03 9.642334e-01 -2.304688e-01 9.625854e-01 -2.234497e-01 2.957916e-02 2.187347e-02
6.466562e+07 2.830124e-02 8.207321e-03 9.635620e-01 -2.311401e-01 9.628906e-01 -2.248535e-01 2.962685e-02 2.168655e-02
6.488344e+07 2.836227e-02 8.092880e-03 9.639893e-01 -2.313843e-01 9.624634e-01 -2.254639e-01 2.966118e-02 2.152634e-02
6.510125e+07 2.848244e-02 7.987976e-03 9.639282e-01 -2.322998e-01 9.625854e-01 -2.258911e-01 2.984238e-02 2.131271e-02
6.531906e+07 2.865601e-02 7.801056e-03 9.635010e-01 -2.330933e-01 9.619141e-01 -2.271118e-01 3.012848e-02 2.125168e-02
6.553688e+07 2.876282e-02 7.682800e-03 9.638062e-01 -2.340698e-01 9.621582e-01 -2.282715e-01 3.011703e-02 2.106857e-02
6.575469e+07 2.886581e-02 7.509232e-03 9.633179e-01 -2.344971e-01 9.616699e-01 -2.290649e-01 3.028679e-02 2.089310e-02
6.597250e+07 2.898598e-02 7.347107e-03 9.627686e-01 -2.351685e-01 9.612427e-01 -2.301636e-01 3.040314e-02 2.067184e-02
6.619031e+07 2.905083e-02 7.228851e-03 9.632568e-01 -2.349854e-01 9.608765e-01 -2.304077e-01 3.043938e-02 2.066612e-02
6.640812e+07 2.916336e-02 7.036209e-03 9.620361e-01 -2.366333e-01 9.603271e-01 -2.314453e-01 3.071022e-02 2.051353e-02
6.662594e+07 2.925682e-02 6.933212e-03 9.624634e-01 -2.370605e-01 9.602661e-01 -2.312622e-01 3.079796e-02 2.034950e-02
6.684375e+07 2.937508e-02 6.782532e-03 9.612427e-01 -2.385254e-01 9.602661e-01 -2.323608e-01 3.096199e-02 1.997757e-02
6.706156e+07 2.948380e-02 6.601334e-03 9.621582e-01 -2.387085e-01 9.602051e-01 -2.326660e-01 3.105164e-02 1.980782e-02
6.727938e+07 2.951050e-02 6.467819e-03 9.615479e-01 -2.400513e-01 9.583740e-01 -2.340088e-01 3.128624e-02 1.972389e-02
6.749719e+07 2.971268e-02 6.336212e-03 9.611816e-01 -2.407227e-01 9.594116e-01 -2.349854e-01 3.145790e-02 1.954269e-02
6.771500e+07 2.974701e-02 6.160736e-03 9.609985e-01 -2.408447e-01 9.588013e-01 -2.351685e-01 3.154182e-02 1.937866e-02
6.793281e+07 2.986336e-02 6.101608e-03 9.606934e-01 -2.420654e-01 9.583740e-01 -2.360840e-01 3.157043e-02 1.912689e-02
6.815062e+07 3.002930e-02 5.867004e-03 9.600220e-01 -2.426147e-01 9.586792e-01 -2.371826e-01 3.175354e-02 1.900864e-02
6.836844e+07 3.005791e-02 5.651474e-03 9.604492e-01 -2.431030e-01 9.575806e-01 -2.368774e-01 3.181076e-02 1.885605e-02
6.858625e+07 3.014946e-02 5.558014e-03 9.605713e-01 -2.443848e-01 9.577637e-01 -2.382202e-01 3.193665e-02 1.869392e-02
6.880406e+07 3.024292e-02 5.397797e-03 9.602661e-01 -2.446289e-01 9.564819e-01 -2.385864e-01 3.220177e-02 1.854134e-02
6.902188e+07 3.037834e-02 5.258560e-03 9.603271e-01 -2.458496e-01 9.574585e-01 -2.394409e-01 3.247452e-02 1.827431e-02
6.923969e+07 3.041649e-02 5.050659e-03 9.595947e-01 -2.459106e-01 9.564209e-01 -2.407227e-01 3.244972e-02 1.798058e-02
6.945750e+07 3.046036e-02 4.896164e-03 9.591064e-01 -2.463379e-01 9.564209e-01 -2.402954e-01 3.258705e-02 1.800346e-02
6.967531e+07 3.063202e-02 4.741669e-03 9.592896e-01 -2.472534e-01 9.557495e-01 -2.411499e-01 3.267479e-02 1.754379e-02
6.989312e+07 3.064728e-02 4.585266e-03 9.579468e-01 -2.482300e-01 9.547729e-01 -2.423096e-01 3.286934e-02 1.748466e-02
7.011094e+07 3.069305e-02 4.402161e-03 9.587402e-01 -2.490845e-01 9.554443e-01 -2.421875e-01 3.290558e-02 1.731873e-02
7.032875e+07 3.089142e-02 4.283905e-03 9.591064e-01 -2.500000e-01 9.554443e-01 -2.434692e-01 3.313446e-02 1.716423e-02
7.054656e+07 3.098297e-02 4.159927e-03 9.587402e-01 -2.507935e-01 9.555664e-01 -2.435913e-01 3.329086e-02 1.674843e-02
7.076438e+07 3.109550e-02 3.938675e-03 9.584961e-01 -2.517700e-01 9.548950e-01 -2.445068e-01 3.338623e-02 1.671600e-02
7.098219e+07 3.108215e-02 3.755569e-03 9.571533e-01 -2.526245e-01 9.539795e-01 -2.453003e-01 3.357506e-02 1.660728e-02
7.120000e+07 3.118706e-02 3.648758e-03 9.578247e-01 -2.527466e-01 9.546509e-01 -2.459106e-01 3.373909e-02 1.622009e-02
7.141781e+07 3.127289e-02 3.461838e-03 9.569702e-01 -2.532959e-01 9.542236e-01 -2.460327e-01 3.378677e-02 1.607895e-02
7.163562e+07 3.132820e-02 3.295898e-03 9.567261e-01 -2.545166e-01 9.542236e-01 -2.467041e-01 3.381538e-02 1.573181e-02
7.185344e+07 3.141785e-02 3.116608e-03 9.570923e-01 -2.553101e-01 9.528809e-01 -2.488403e-01 3.394699e-02 1.564598e-02
7.207125e+07 3.144646e-02 2.958298e-03 9.561768e-01 -2.557983e-01 9.530029e-01 -2.486572e-01 3.410721e-02 1.544380e-02
7.228906e+07 3.154182e-02 2.771378e-03 9.563599e-01 -2.565918e-01 9.520874e-01 -2.495728e-01 3.417587e-02 1.522446e-02
7.250688e+07 3.161430e-02 2.645493e-03 9.558716e-01 -2.579346e-01 9.520874e-01 -2.501221e-01 3.438377e-02 1.497650e-02
7.272469e+07 3.174591e-02 2.479553e-03 9.555664e-01 -2.575073e-01 9.529419e-01 -2.504883e-01 3.443527e-02 1.467896e-02
7.294250e+07 3.181076e-02 2.305984e-03 9.555054e-01 -2.589722e-01 9.517212e-01 -2.517700e-01 3.460503e-02 1.448250e-02
7.316031e+07 3.183174e-02 2.147675e-03 9.550171e-01 -2.590332e-01 9.517822e-01 -2.518921e-01 3.475571e-02 1.421165e-02
7.337812e+07 3.185654e-02 1.968384e-03 9.549561e-01 -2.603760e-01 9.514160e-01 -2.531128e-01 3.480911e-02 1.403046e-02
7.359594e+07 3.194237e-02 1.817703e-03 9.548340e-01 -2.606812e-01 9.502563e-01 -2.536011e-01 3.493690e-02 1.385307e-02
7.381375e+07 3.204536e-02 1.640320e-03 9.548950e-01 -2.619629e-01 9.511719e-01 -2.545776e-01 3.514862e-02 1.355934e-02
7.403156e+07 3.206444e-02 1.491547e-03 9.543457e-01 -2.622070e-01 9.511719e-01 -2.550659e-01 3.515434e-02 1.342392e-02
7.424938e+07 3.214645e-02 1.325607e-03 9.547729e-01 -2.622070e-01 9.499512e-01 -2.555542e-01 3.526878e-02 1.322746e-02
7.446719e+07 3.218651e-02 1.148224e-03 9.546509e-01 -2.634888e-01 9.505615e-01 -2.557983e-01 3.543854e-02 1.293373e-02
7.468500e+07 3.222847e-02 9.613037e-04 9.532471e-01 -2.644653e-01 9.498291e-01 -2.562256e-01 3.549194e-02 1.272392e-02
7.490281e+07 3.235435e-02 7.553101e-04 9.533081e-01 -2.650757e-01 9.497681e-01 -2.582397e-01 3.548622e-02 1.247215e-02
7.512062e+07 3.238678e-02 6.046295e-04 9.530029e-01 -2.666626e-01 9.499512e-01 -2.582397e-01 3.569984e-02 1.210403e-02
7.533844e+07 3.241539e-02 4.253387e-04 9.528809e-01 -2.668457e-01 9.490967e-01 -2.587280e-01 3.581047e-02 1.182747e-02
7.555625e+07 3.247261e-02 2.346039e-04 9.523315e-01 -2.677612e-01 9.490967e-01 -2.598877e-01 3.583336e-02 1.168633e-02
7.577406e+07 3.252602e-02 1.201630e-04 9.520874e-01 -2.683105e-01 9.484253e-01 -2.603760e-01 3.599358e-02 1.141167e-02
7.599188e+07 3.256416e-02 -3.814697e-05 9.519653e-01 -2.689819e-01 9.484253e-01 -2.611694e-01 3.611183e-02 1.113510e-02
7.620969e+07 3.263664e-02 -2.288818e-04 9.515991e-01 -2.700195e-01 9.475098e-01 -2.622681e-01 3.623390e-02 1.078606e-02
7.642750e+07 3.270340e-02 -4.272461e-04 9.515381e-01 -2.702637e-01 9.475708e-01 -2.627563e-01 3.629303e-02 1.075935e-02
7.664531e+07 3.268623e-02 -6.122589e-04 9.516602e-01 -2.712402e-01 9.467163e-01 -2.634277e-01 3.639412e-02 1.047707e-02
7.686312e+07 3.274536e-02 -7.209778e-04 9.518433e-01 -2.713013e-01 9.476318e-01 -2.635498e-01 3.638840e-02 1.013184e-02
7.708094e+07 3.276825e-02 -9.670258e-04 9.506836e-01 -2.731934e-01 9.463501e-01 -2.651367e-01 3.648567e-02 9.906769e-03
7.729875e+07 3.284645e-02 -1.140594e-03 9.509277e-01 -2.727051e-01 9.472046e-01 -2.651367e-01 3.674316e-02 9.675980e-03
7.751656e+07 3.289223e-02 -1.319885e-03 9.507446e-01 -2.739258e-01 9.468384e-01 -2.663574e-01 3.669548e-02 9.298325e-03
7.773438e+07 3.290939e-02 -1.422882e-03 9.514160e-01 -2.749634e-01 9.464722e-01 -2.659302e-01 3.683662e-02 9.071350e-03
7.795219e+07 3.290749e-02 -1.605988e-03 9.501953e-01 -2.743530e-01 9.459839e-01 -2.671509e-01 3.681183e-02 8.848190e-03
7.817000e+07 3.302956e-02 -1.750946e-03 9.503174e-01 -2.760620e-01 9.458008e-01 -2.674561e-01 3.689575e-02 8.539200e-03
7.838781e+07 3.300285e-02 -1.930237e-03 9.503174e-01 -2.776489e-01 9.456787e-01 -2.680054e-01 3.700256e-02 8.190155e-03
7.860562e+07 3.308105e-02 -2.159119e-03 9.497070e-01 -2.775879e-01 9.462280e-01 -2.689819e-01 3.701973e-02 7.911682e-03
7.882344e+07 3.309441e-02 -2.300262e-03 9.501953e-01 -2.780762e-01 9.454346e-01 -2.691040e-01 3.708076e-02 7.629395e-03
7.904125e+07 3.311920e-02 -2.418518e-03 9.497070e-01 -2.791748e-01 9.453735e-01 -2.702026e-01 3.710556e-02 7.432938e-03
7.925906e+07 3.312683e-02 -2.586365e-03 9.497681e-01 -2.792969e-01 9.443970e-01 -2.711182e-01 3.720093e-02 7.352829e-03
7.947688e+07 3.312111e-02 -2.845764e-03 9.497070e-01 -2.809448e-01 9.439697e-01 -2.720947e-01 3.727341e-02 6.868362e-03
7.969469e+07 3.321648e-02 -2.950668e-03 9.494629e-01 -2.806396e-01 9.445190e-01 -2.724609e-01 3.738785e-02 6.643295e-03
7.991250e+07 3.321838e-02 -3.103256e-03 9.485474e-01 -2.819214e-01 9.436035e-01 -2.733154e-01 3.727150e-02 6.301880e-03
8.013031e+07 3.323746e-02 -3.274918e-03 9.484253e-01 -2.827759e-01 9.432983e-01 -2.735596e-01 3.737259e-02 6.187439e-03
8.034812e+07 3.319168e-02 -3.479004e-03 9.483032e-01 -2.839355e-01 9.434814e-01 -2.739868e-01 3.754425e-02 5.876541e-03
8.056594e+07 3.323746e-02 -3.635406e-03 9.475708e-01 -2.846680e-01 9.427490e-01 -2.749023e-01 3.753090e-02 5.428314e-03
8.078375e+07 3.319550e-02 -3.911972e-03 9.478760e-01 -2.841187e-01 9.418945e-01 -2.753296e-01 3.761482e-02 5.287170e-03
8.100156e+07 3.333664e-02 -3.961563e-03 9.476929e-01 -2.858276e-01 9.431152e-01 -2.757568e-01 3.778648e-02 4.840851e-03
8.121938e+07 3.327560e-02 -4.165649e-03 9.476929e-01 -2.856445e-01 9.432983e-01 -2.767334e-01 3.772736e-02 4.697800e-03
8.143719e+07 3.330994e-02 -4.270554e-03 9.470215e-01 -2.874146e-01 9.419556e-01 -2.775269e-01 3.768539e-02 4.346848e-03
8.165500e+07 3.331947e-02 -4.491806e-03 9.462280e-01 -2.881470e-01 9.420776e-01 -2.781372e-01 3.774261e-02 3.995895e-03
8.187281e+07 3.330421e-02 -4.657745e-03 9.465332e-01 -2.883911e-01 9.418335e-01 -2.791138e-01 3.768730e-02 3.753662e-03
8.209062e+07 3.334427e-02 -4.835129e-03 9.469604e-01 -2.895508e-01 9.415283e-01 -2.803955e-01 3.766441e-02 3.503799e-03
8.230844e+07 3.330612e-02 -5.018234e-03 9.464722e-01 -2.899780e-01 9.417114e-01 -2.803345e-01 3.775215e-02 3.206253e-03
8.252625e+07 3.325653e-02 -5.170822e-03 9.454346e-01 -2.910156e-01 9.409180e-01 -2.808838e-01 3.777695e-02 2.849579e-03
8.274406e+07 3.332329e-02 -5.342484e-03 9.459229e-01 -2.917480e-01 9.412842e-01 -2.816162e-01 3.785515e-02 2.567291e-03
8.296188e+07 3.329086e-02 -5.489349e-03 9.458618e-01 -2.921143e-01 9.405518e-01 -2.823486e-01 3.789330e-02 2.386093e-03
8.317969e+07 3.330994e-02 -5.596161e-03 9.455566e-01 -2.928467e-01 9.404297e-01 -2.825928e-01 3.789711e-02 1.930237e-03
8.339750e+07 3.325653e-02 -5.805969e-03 9.452515e-01 -2.935181e-01 9.403076e-01 -2.837524e-01 3.782272e-02 1.768112e-03
8.361531e+07 3.330421e-02 -5.924225e-03 9.454346e-01 -2.947388e-01 9.394531e-01 -2.844849e-01 3.796387e-02 1.327515e-03
8.383312e+07 3.327560e-02 -6.078720e-03 9.445801e-01 -2.954102e-01 9.401245e-01 -2.843628e-01 3.789902e-02 1.134872e-03
8.405094e+07 3.328133e-02 -6.265640e-03 9.448853e-01 -2.968750e-01 9.391479e-01 -2.855835e-01 3.784943e-02 9.117126e-04
8.426875e+07 3.328514e-02 -6.397247e-03 9.442749e-01 -2.966919e-01 9.398193e-01 -2.856445e-01 3.791046e-02 5.435944e-04
8.448656e+07 3.324127e-02 -6.589890e-03 9.445190e-01 -2.975464e-01 9.393311e-01 -2.866821e-01 3.782272e-02 1.182556e-04
8.470438e+07 3.324318e-02 -6.769180e-03 9.439697e-01 -2.984009e-01 9.379883e-01 -2.874146e-01 3.781128e-02 6.294250e-05
8.492219e+07 3.323364e-02 -6.881714e-03 9.439697e-01 -2.989502e-01 9.385376e-01 -2.882080e-01 3.787231e-02 -4.291534e-04
8.514000e+07 3.320885e-02 -7.072449e-03 9.429321e-01 -2.997437e-01 9.385376e-01 -2.890015e-01 3.775978e-02 -6.942749e-04
8.535781e+07 3.315544e-02 -7.266998e-03 9.434814e-01 -3.000488e-01 9.378052e-01 -2.894287e-01 3.796768e-02 -9.117126e-04
8.557562e+07 3.318977e-02 -7.381439e-03 9.430542e-01 -3.018188e-01 9.382935e-01 -2.902222e-01 3.781700e-02 -1.251221e-03
8.579344e+07 3.311920e-02 -7.547379e-03 9.434814e-01 -3.020630e-01 9.370117e-01 -2.905273e-01 3.778648e-02 -1.447678e-03
8.601125e+07 3.319168e-02 -7.659912e-03 9.426880e-01 -3.034668e-01 9.377441e-01 -2.912598e-01 3.783989e-02 -1.914978e-03
8.622906e+07 3.314972e-02 -7.871628e-03 9.426880e-01 -3.029785e-01 9.375610e-01 -2.926025e-01 3.772163e-02 -2.084732e-03
8.644688e+07 3.313065e-02 -7.989883e-03 9.417114e-01 -3.037109e-01 9.375610e-01 -2.930908e-01 3.764343e-02 -2.490997e-03
8.666469e+07 3.310966e-02 -8.153915e-03 9.418945e-01 -3.048096e-01 9.375000e-01 -2.938843e-01 3.751564e-02 -2.750397e-03
8.688250e+07 3.303337e-02 -8.285522e-03 9.409180e-01 -3.056030e-01 9.363403e-01 -2.935791e-01 3.757858e-02 -3.047943e-03
8.710031e+07 3.300667e-02 -8.394241e-03 9.411011e-01 -3.066406e-01 9.365234e-01 -2.946777e-01 3.749847e-02 -3.274918e-03
8.731812e+07 3.300095e-02 -8.609772e-03 9.413452e-01 -3.068237e-01 9.353027e-01 -2.954712e-01 3.737831e-02 -3.509521e-03
8.753594e+07 3.299904e-02 -8.779526e-03 9.410400e-01 -3.074341e-01 9.365845e-01 -2.967529e-01 3.736687e-02 -3.915787e-03
8.775375e+07 3.294182e-02 -8.884430e-03 9.403076e-01 -3.079224e-01 9.357910e-01 -2.969360e-01 3.731155e-02 -4.177094e-03
8.797156e+07 3.291512e-02 -9.040833e-03 9.407959e-01 -3.092041e-01 9.364014e-01 -2.976685e-01 3.731537e-02 -4.590988e-03
8.818938e+07 3.288269e-02 -9.103775e-03 9.406128e-01 -3.104858e-01 9.358521e-01 -2.974854e-01 3.716660e-02 -4.718781e-03
8.840719e+07 3.278542e-02 -9.357452e-03 9.403687e-01 -3.109131e-01 9.347534e-01 -2.989502e-01 3.712273e-02 -5.172729e-03
8.862500e+07 3.278732e-02 -9.525299e-03 9.396973e-01 -3.124390e-01 9.346313e-01 -2.994995e-01 3.707886e-02 -5.462646e-03
8.884281e+07 3.278923e-02 -9.653091e-03 9.398804e-01 -3.123779e-01 9.352417e-01 -3.001709e-01 3.697395e-02 -5.704880e-03
8.906062e+07 3.274345e-02 -9.822845e-03 9.396973e-01 -3.132935e-01 9.349365e-01 -3.009644e-01 3.694534e-02 -6.057739e-03
8.927844e+07 3.276443e-02 -9.904861e-03 9.393311e-01 -3.137817e-01 9.343262e-01 -3.013916e-01 3.682899e-02 -6.362915e-03
8.949625e+07 3.270721e-02 -1.004982e-02 9.391479e-01 -3.143921e-01 9.354858e-01 -3.020630e-01 3.671646e-02 -6.591797e-03
8.971406e+07 3.262520e-02 -1.012421e-02 9.387207e-01 -3.161621e-01 9.329834e-01 -3.024292e-01 3.656197e-02 -6.969452e-03
8.993188e+07 3.258133e-02 -1.029968e-02 9.386597e-01 -3.162231e-01 9.334106e-01 -3.039551e-01 3.655434e-02 -7.240295e-03
9.014969e+07 3.259087e-02 -1.041985e-02 9.388428e-01 -3.167114e-01 9.341431e-01 -3.041992e-01 3.639793e-02 -7.488251e-03
9.036750e+07 3.247452e-02 -1.058960e-02 9.382324e-01 -3.167725e-01 9.335938e-01 -3.058472e-01 3.642273e-02 -7.665634e-03
9.058531e+07 3.242874e-02 -1.068687e-02 9.384766e-01 -3.189697e-01 9.332886e-01 -3.057861e-01 3.631783e-02 -8.138657e-03
9.080312e+07 3.239822e-02 -1.082420e-02 9.373169e-01 -3.193359e-01 9.332886e-01 -3.067627e-01 3.630257e-02 -8.367538e-03
9.102094e+07 3.233337e-02 -1.098061e-02 9.379883e-01 -3.199463e-01 9.323730e-01 -3.074341e-01 3.618813e-02 -8.699417e-03
9.123875e+07 3.234482e-02 -1.109314e-02 9.370117e-01 -3.204956e-01 9.329834e-01 -3.081665e-01 3.589821e-02 -8.966446e-03
9.145656e+07 3.228378e-02 -1.124763e-02 9.371338e-01 -3.215332e-01 9.329834e-01 -3.085327e-01 3.583527e-02 -9.246826e-03
9.167438e+07 3.220940e-02 -1.133728e-02 9.367065e-01 -3.218384e-01 9.319458e-01 -3.094482e-01 3.564072e-02 -9.513855e-03
9.189219e+07 3.214645e-02 -1.145172e-02 9.367065e-01 -3.232422e-01 9.318237e-01 -3.096313e-01 3.553963e-02 -9.775162e-03
9.211000e+07 3.210068e-02 -1.157761e-02 9.362793e-01 -3.240967e-01 9.317627e-01 -3.106079e-01 3.551865e-02 -1.002312e-02
9.232781e+07 3.203583e-02 -1.175690e-02 9.367676e-01 -3.244019e-01 9.315796e-01 -3.107300e-01 3.537941e-02 -1.027298e-02
9.254562e+07 3.201866e-02 -1.190948e-02 9.354248e-01 -3.258057e-01 9.311523e-01 -3.121338e-01 3.526115e-02 -1.068497e-02
9.276344e+07 3.200150e-02 -1.199150e-02 9.354248e-01 -3.259277e-01 9.318848e-01 -3.128662e-01 3.517342e-02 -1.087570e-02
9.298125e+07 3.190041e-02 -1.214027e-02 9.353027e-01 -3.269043e-01 9.310303e-01 -3.135986e-01 3.491592e-02 -1.114655e-02
9.319906e+07 3.189087e-02 -1.223755e-02 9.344482e-01 -3.274536e-01 9.306030e-01 -3.142090e-01 3.480148e-02 -1.131821e-02
9.341688e+07 3.179359e-02 -1.235199e-02 9.353638e-01 -3.287964e-01 9.296265e-01 -3.149414e-01 3.464699e-02 -1.156807e-02
9.363469e+07 3.178024e-02 -1.248169e-02 9.346313e-01 -3.284302e-01 9.307251e-01 -3.161621e-01 3.464127e-02 -1.207733e-02
9.385250e+07 3.166962e-02 -1.258278e-02 9.338379e-01 -3.300171e-01 9.291382e-01 -3.161011e-01 3.440857e-02 -1.219559e-02
9.407031e+07 3.169632e-02 -1.269150e-02 9.342041e-01 -3.302002e-01 9.296265e-01 -3.167114e-01 3.428268e-02 -1.238823e-02
9.428812e+07 3.164864e-02 -1.281357e-02 9.338379e-01 -3.314209e-01 9.295654e-01 -3.173828e-01 3.412819e-02 -1.274681e-02
9.450594e+07 3.156471e-02 -1.296043e-02 9.341431e-01 -3.322144e-01 9.291382e-01 -3.188477e-01 3.400803e-02 -1.286888e-02
9.472375e+07 3.156662e-02 -1.306152e-02 9.329834e-01 -3.322754e-01 9.296265e-01 -3.186035e-01 3.367805e-02 -1.329041e-02
9.494156e+07 3.148651e-02 -1.318359e-02 9.331665e-01 -3.323364e-01 9.288940e-01 -3.193970e-01 3.366661e-02 -1.347542e-02
9.515938e+07 3.143311e-02 -1.326180e-02 9.324951e-01 -3.342285e-01 9.285278e-01 -3.197021e-01 3.355026e-02 -1.368141e-02
9.537719e+07 3.137398e-02 -1.337433e-02 9.324341e-01 -3.356934e-01 9.287109e-01 -3.204346e-01 3.334236e-02 -1.404190e-02
9.559500e+07 3.125572e-02 -1.349258e-02 9.328613e-01 -3.357544e-01 9.279175e-01 -3.208618e-01 3.321075e-02 -1.424980e-02
9.581281e+07 3.129005e-02 -1.360703e-02 9.317627e-01 -3.364258e-01 9.285278e-01 -3.218384e-01 3.306770e-02 -1.432037e-02
9.603062e+07 3.120613e-02 -1.380157e-02 9.311523e-01 -3.369751e-01 9.280396e-01 -3.232422e-01 3.286934e-02 -1.458549e-02
9.624844e+07 3.114891e-02 -1.389313e-02 9.309692e-01 -3.377075e-01 9.276733e-01 -3.233643e-01 3.255463e-02 -1.494598e-02
9.646625e+07 3.109360e-02 -1.397133e-02 9.310913e-01 -3.388672e-01 9.276733e-01 -3.239746e-01 3.235054e-02 -1.511955e-02
9.668406e+07 3.106499e-02 -1.403236e-02 9.307861e-01 -3.399658e-01 9.265137e-01 -3.247070e-01 3.234673e-02 -1.540565e-02
9.690188e+07 3.093338e-02 -1.416588e-02 9.305420e-01 -3.400879e-01 9.260864e-01 -3.259888e-01 3.228378e-02 -1.564026e-02
9.711969e+07 3.089714e-02 -1.430511e-02 9.308472e-01 -3.410034e-01 9.262695e-01 -3.259277e-01 3.205681e-02 -1.585007e-02
9.733750e+07 3.083801e-02 -1.442146e-02 9.298096e-01 -3.414307e-01 9.263916e-01 -3.267212e-01 3.193283e-02 -1.598358e-02
9.755531e+07 3.077316e-02 -1.457405e-02 9.292603e-01 -3.419189e-01 9.260254e-01 -3.277588e-01 3.161240e-02 -1.637077e-02
9.777312e+07 3.072929e-02 -1.464844e-02 9.297485e-01 -3.435669e-01 9.256592e-01 -3.284302e-01 3.153610e-02 -1.652336e-02
9.799094e+07 3.060913e-02 -1.472664e-02 9.295654e-01 -3.439941e-01 9.251709e-01 -3.289795e-01 3.132057e-02 -1.683235e-02
9.820875e+07 3.059387e-02 -1.483917e-02 9.290771e-01 -3.442383e-01 9.251709e-01 -3.295898e-01 3.113365e-02 -1.699257e-02
9.842656e+07 3.059196e-02 -1.497841e-02 9.288940e-01 -3.447266e-01 9.259644e-01 -3.307495e-01 3.099442e-02 -1.737022e-02
9.864438e+07 3.047371e-02 -1.507759e-02 9.294434e-01 -3.452759e-01 9.253540e-01 -3.316040e-01 3.085899e-02 -1.719856e-02
9.886219e+07 3.046227e-02 -1.512337e-02 9.287109e-01 -3.466797e-01 9.254761e-01 -3.313599e-01 3.056908e-02 -1.768684e-02
9.908000e+07 3.037071e-02 -1.525497e-02 9.282227e-01 -3.472290e-01 9.251709e-01 -3.328247e-01 3.047371e-02 -1.774788e-02
9.929781e+07 3.026772e-02 -1.538467e-02 9.277954e-01 -3.483276e-01 9.247437e-01 -3.331299e-01 3.025818e-02 -1.789474e-02
9.951562e+07 3.020096e-02 -1.545715e-02 9.279785e-01 -3.484497e-01 9.242554e-01 -3.337402e-01 3.002167e-02 -1.816940e-02
9.973344e+07 3.016663e-02 -1.558685e-02 9.270630e-01 -3.494263e-01 9.239502e-01 -3.347778e-01 2.989960e-02 -1.838493e-02
9.995125e+07 3.006744e-02 -1.564026e-02 9.271851e-01 -3.496704e-01 9.232788e-01 -3.355103e-01 2.963257e-02 -1.852417e-02
1.001691e+08 2.995682e-02 -1.578903e-02 9.267578e-01 -3.511963e-01 9.233398e-01 -3.356323e-01 2.951050e-02 -1.884842e-02
1.003869e+08 2.991295e-02 -1.584435e-02 9.271851e-01 -3.511353e-01 9.232788e-01 -3.364258e-01 2.936935e-02 -1.906204e-02
1.006047e+08 2.988243e-02 -1.597977e-02 9.262085e-01 -3.526001e-01 9.225464e-01 -3.373413e-01 2.918816e-02 -1.921082e-02
1.008225e+08 2.980042e-02 -1.600075e-02 9.260254e-01 -3.534546e-01 9.221191e-01 -3.374023e-01 2.892113e-02 -1.944351e-02
1.010403e+08 2.971458e-02 -1.620102e-02 9.253540e-01 -3.545532e-01 9.222412e-01 -3.383179e-01 2.878380e-02 -1.968765e-02
1.012581e+08 2.961159e-02 -1.627731e-02 9.251099e-01 -3.552856e-01 9.216309e-01 -3.392334e-01 2.852631e-02 -1.984596e-02
1.014759e+08 2.958298e-02 -1.638222e-02 9.255371e-01 -3.553467e-01 9.221191e-01 -3.403931e-01 2.836418e-02 -2.002907e-02
1.016938e+08 2.950859e-02 -1.645279e-02 9.247437e-01 -3.563843e-01 9.210815e-01 -3.403320e-01 2.810860e-02 -2.024841e-02
1.019116e+08 2.945518e-02 -1.654243e-02 9.237671e-01 -3.571167e-01 9.213867e-01 -3.413086e-01 2.793694e-02 -2.045631e-02
1.021294e+08 2.932167e-02 -1.669884e-02 9.238892e-01 -3.577271e-01 9.208984e-01 -3.427734e-01 2.776337e-02 -2.064705e-02
1.023472e+08 2.925873e-02 -1.674271e-02 9.237061e-01 -3.591309e-01 9.207764e-01 -3.428955e-01 2.758789e-02 -2.081871e-02
1.025650e+08 2.918434e-02 -1.682854e-02 9.237061e-01 -3.588257e-01 9.204102e-01 -3.436279e-01 2.735901e-02 -2.099609e-02
1.027828e+08 2.907562e-02 -1.692963e-02 9.232788e-01 -3.600464e-01 9.194336e-01 -3.438721e-01 2.718353e-02 -2.118492e-02
1.030006e+08 2.904701e-02 -1.701164e-02 9.233398e-01 -3.601074e-01 9.205933e-01 -3.444214e-01 2.700043e-02 -2.133369e-02
1.032184e+08 2.889824e-02 -1.708794e-02 9.227905e-01 -3.609619e-01 9.199829e-01 -3.447876e-01 2.677155e-02 -2.155113e-02
1.034362e+08 2.885818e-02 -1.717949e-02 9.234619e-01 -3.610840e-01 9.191284e-01 -3.458252e-01 2.659416e-02 -2.176666e-02
1.036541e+08 2.875137e-02 -1.727486e-02 9.218750e-01 -3.629761e-01 9.190063e-01 -3.462524e-01 2.637672e-02 -2.192307e-02
1.038719e+08 2.874565e-02 -1.738358e-02 9.221191e-01 -3.630981e-01 9.188843e-01 -3.474121e-01 2.618980e-02 -2.212143e-02
1.040897e+08 2.863503e-02 -1.746178e-02 9.218140e-01 -3.640137e-01 9.181519e-01 -3.485718e-01 2.595139e-02 -2.225876e-02
1.043075e+08 2.852058e-02 -1.753044e-02 9.205322e-01 -3.649292e-01 9.180908e-01 -3.487549e-01 2.569008e-02 -2.248192e-02
1.045253e+08 2.839661e-02 -1.760292e-02 9.207153e-01 -3.650513e-01 9.176025e-01 -3.496094e-01 2.550125e-02 -2.261925e-02
1.047431e+08 2.831841e-02 -1.769257e-02 9.211426e-01 -3.665771e-01 9.170532e-01 -3.500366e-01 2.529335e-02 -2.282524e-02
1.049609e+08 2.829170e-02 -1.773643e-02 9.199219e-01 -3.673706e-01 9.175415e-01 -3.499756e-01 2.505684e-02 -2.296066e-02
1.051788e+08 2.815437e-02 -1.787758e-02 9.197388e-01 -3.674927e-01 9.170532e-01 -3.513794e-01 2.484322e-02 -2.313995e-02
1.053966e+08 2.805519e-02 -1.793098e-02 9.199219e-01 -3.687744e-01 9.165649e-01 -3.519287e-01 2.461815e-02 -2.330399e-02
1.056144e+08 2.798271e-02 -1.798058e-02 9.193115e-01 -3.698120e-01 9.165039e-01 -3.520508e-01 2.441025e-02 -2.352333e-02
1.058322e+08 2.792168e-02 -1.810074e-02 9.201660e-01 -3.701172e-01 9.167480e-01 -3.531494e-01 2.421761e-02 -2.366638e-02
1.060500e+08 2.778244e-02 -1.818085e-02 9.175415e-01 -3.707886e-01 9.157104e-01 -3.540649e-01 2.391052e-02 -2.379417e-02
1.062678e+08 2.770042e-02 -1.818657e-02 9.179077e-01 -3.712158e-01 9.151611e-01 -3.538818e-01 2.372551e-02 -2.394867e-02
1.064856e+08 2.759171e-02 -1.831627e-02 9.187012e-01 -3.715820e-01 9.151001e-01 -3.550415e-01 2.347183e-02 -2.409935e-02
1.067034e+08 2.753830e-02 -1.841354e-02 9.176636e-01 -3.722534e-01 9.151001e-01 -3.560181e-01 2.329445e-02 -2.423859e-02
1.069212e+08 2.743912e-02 -1.846886e-02 9.179688e-01 -3.735962e-01 9.151001e-01 -3.567505e-01 2.304840e-02 -2.443695e-02
1.071391e+08 2.735901e-02 -1.855278e-02 9.176025e-01 -3.732910e-01 9.151001e-01 -3.577271e-01 2.281189e-02 -2.451134e-02
1.073569e+08 2.723503e-02 -1.861382e-02 9.174194e-01 -3.754272e-01 9.141846e-01 -3.585205e-01 2.257156e-02 -2.474594e-02
1.075747e+08 2.717018e-02 -1.871872e-02 9.166260e-01 -3.763428e-01 9.141235e-01 -3.594360e-01 2.234077e-02 -2.486610e-02
1.077925e+08 2.706146e-02 -1.871300e-02 9.166870e-01 -3.760986e-01 9.139404e-01 -3.596191e-01 2.212524e-02 -2.503586e-02
1.080103e+08 2.698517e-02 -1.880074e-02 9.176025e-01 -3.773193e-01 9.138794e-01 -3.597412e-01 2.188301e-02 -2.518845e-02
1.082281e+08 2.691460e-02 -1.881409e-02 9.161987e-01 -3.775635e-01 9.133911e-01 -3.603516e-01 2.162933e-02 -2.528763e-02
1.084459e+08 2.679062e-02 -1.894951e-02 9.167480e-01 -3.783569e-01 9.122925e-01 -3.611450e-01 2.144241e-02 -2.546692e-02
1.086638e+08 2.667236e-02 -1.898003e-02 9.155884e-01 -3.792725e-01 9.124756e-01 -3.623047e-01 2.118111e-02 -2.561378e-02
1.088816e+08 2.665520e-02 -1.903915e-02 9.152832e-01 -3.800659e-01 9.130859e-01 -3.624878e-01 2.091408e-02 -2.575684e-02
1.090994e+08 2.654266e-02 -1.910782e-02 9.151001e-01 -3.809814e-01 9.121704e-01 -3.635864e-01 2.071762e-02 -2.584839e-02
1.093172e+08 2.639961e-02 -1.927948e-02 9.148560e-01 -3.817749e-01 9.119263e-01 -3.641357e-01 2.044868e-02 -2.597427e-02
1.095350e+08 2.635956e-02 -1.922035e-02 9.149780e-01 -3.818970e-01 9.118652e-01 -3.643799e-01 2.021980e-02 -2.611542e-02
1.097528e+08 2.619934e-02 -1.931572e-02 9.143677e-01 -3.828125e-01 9.111328e-01 -3.648071e-01 2.002525e-02 -2.627373e-02
1.099706e+08 2.611732e-02 -1.936340e-02 9.133301e-01 -3.838501e-01 9.109497e-01 -3.660889e-01 1.969147e-02 -2.638817e-02
1.101884e+08 2.604294e-02 -1.940918e-02 9.138794e-01 -3.847656e-01 9.114380e-01 -3.659668e-01 1.948166e-02 -2.651978e-02
1.104062e+08 2.598953e-02 -1.947784e-02 9.128418e-01 -3.848267e-01 9.106445e-01 -3.666382e-01 1.924324e-02 -2.661133e-02
1.106241e+08 2.591896e-02 -1.952934e-02 9.129639e-01 -3.851929e-01 9.115601e-01 -3.673706e-01 1.901817e-02 -2.672577e-02
1.108419e+08 2.577209e-02 -1.957512e-02 9.132080e-01 -3.864746e-01 9.100342e-01 -3.683472e-01 1.873589e-02 -2.680016e-02
1.110597e+08 2.566719e-02 -1.970291e-02 9.129639e-01 -3.865356e-01 9.105225e-01 -3.699951e-01 1.850891e-02 -2.694702e-02
1.112775e+08 2.557373e-02 -1.969528e-02 9.121704e-01 -3.876953e-01 9.100952e-01 -3.690186e-01 1.824760e-02 -2.704620e-02
1.114953e+08 2.548027e-02 -1.972198e-02 9.116211e-01 -3.881226e-01 9.094238e-01 -3.698120e-01 1.800156e-02 -2.716446e-02
1.117131e+08 2.533340e-02 -1.979828e-02 9.119263e-01 -3.884888e-01 9.088135e-01 -3.711548e-01 1.777649e-02 -2.722740e-02
1.119309e+08 2.531433e-02 -1.981354e-02 9.114380e-01 -3.899536e-01 9.082031e-01 -3.711548e-01 1.745224e-02 -2.740860e-02
1.121488e+08 2.519608e-02 -1.985168e-02 9.111328e-01 -3.898315e-01 9.086914e-01 -3.720093e-01 1.725769e-02 -2.745628e-02
1.123666e+08 2.501488e-02 -1.988411e-02 9.105225e-01 -3.914185e-01 9.085083e-01 -3.721313e-01 1.695824e-02 -2.757645e-02
1.125844e+08 2.503395e-02 -2.004051e-02 9.097900e-01 -3.909912e-01 9.093018e-01 -3.739014e-01 1.675224e-02 -2.769089e-02
1.128022e+08 2.490616e-02 -2.004433e-02 9.102173e-01 -3.922729e-01 9.078369e-01 -3.739624e-01 1.651192e-02 -2.777290e-02
1.130200e+08 2.476311e-02 -2.005196e-02 9.100952e-01 -3.930054e-01 9.074097e-01 -3.745728e-01 1.624680e-02 -2.787399e-02
1.132378e+08 2.465248e-02 -2.010345e-02 9.097290e-01 -3.934326e-01 9.071655e-01 -3.752441e-01 1.598549e-02 -2.795982e-02
1.134556e+08 2.457047e-02 -2.012825e-02 9.087524e-01 -3.948975e-01 9.075928e-01 -3.762817e-01 1.575470e-02 -2.805328e-02
1.136734e+08 2.443123e-02 -2.027130e-02 9.088745e-01 -3.950195e-01 9.069824e-01 -3.770142e-01 1.547432e-02 -2.810669e-02
1.138912e+08 2.434921e-02 -2.026749e-02 9.080811e-01 -3.958740e-01 9.063721e-01 -3.771362e-01 1.521492e-02 -2.819252e-02
1.141091e+08 2.429008e-02 -2.029037e-02 9.080811e-01 -3.967896e-01 9.068604e-01 -3.775635e-01 1.493454e-02 -2.829170e-02
1.143269e+08 2.417564e-02 -2.033043e-02 9.082031e-01 -3.976440e-01 9.052734e-01 -3.782349e-01 1.469040e-02 -2.837181e-02
1.145447e+08 2.410698e-02 -2.038193e-02 9.077759e-01 -3.983765e-01 9.060669e-01 -3.794556e-01 1.445961e-02 -2.847481e-02
1.147625e+08 2.399635e-02 -2.038574e-02 9.075928e-01 -3.986816e-01 9.046631e-01 -3.804932e-01 1.418114e-02 -2.851677e-02
1.149803e+08 2.382088e-02 -2.045059e-02 9.069824e-01 -3.988647e-01 9.057617e-01 -3.811035e-01 1.399422e-02 -2.855492e-02
1.151981e+08 2.376175e-02 -2.055359e-02 9.069824e-01 -4.001465e-01 9.057617e-01 -3.823242e-01 1.366997e-02 -2.870941e-02
1.154159e+08 2.370834e-02 -2.050781e-02 9.058838e-01 -4.006348e-01 9.055176e-01 -3.822632e-01 1.343346e-02 -2.874565e-02
1.156338e+08 2.354050e-02 -2.057648e-02 9.061279e-01 -4.010620e-01 9.050293e-01 -3.834229e-01 1.319504e-02 -2.877808e-02
1.158516e+08 2.345085e-02 -2.062416e-02 9.064941e-01 -4.021606e-01 9.038696e-01 -3.838501e-01 1.289749e-02 -2.888107e-02
1.160694e+08 2.339554e-02 -2.063942e-02 9.051514e-01 -4.028320e-01 9.045410e-01 -3.847046e-01 1.263237e-02 -2.894020e-02
1.162872e+08 2.326584e-02 -2.065086e-02 9.052734e-01 -4.025879e-01 9.040527e-01 -3.847046e-01 1.241302e-02 -2.898788e-02
1.165050e+08 2.315712e-02 -2.070999e-02 9.053955e-01 -4.038086e-01 9.038696e-01 -3.851318e-01 1.211357e-02 -2.908516e-02
1.167228e+08 2.302933e-02 -2.068329e-02 9.049072e-01 -4.044189e-01 9.031982e-01 -3.858032e-01 1.184845e-02 -2.910805e-02
1.169406e+08 2.297401e-02 -2.075005e-02 9.047852e-01 -4.053955e-01 9.035034e-01 -3.862915e-01 1.159668e-02 -2.919006e-02
1.171584e+08 2.283287e-02 -2.078438e-02 9.045410e-01 -4.060059e-01 9.025879e-01 -3.875122e-01 1.134491e-02 -2.919006e-02
1.173762e+08 2.275276e-02 -2.079582e-02 9.046631e-01 -4.070435e-01 9.028320e-01 -3.875122e-01 1.109505e-02 -2.925110e-02
1.175941e+08 2.263832e-02 -2.087021e-02 9.034424e-01 -4.077148e-01 9.031982e-01 -3.881226e-01 1.078796e-02 -2.928162e-02
1.178119e+08 2.249718e-02 -2.085686e-02 9.039917e-01 -4.087524e-01 9.011230e-01 -3.900146e-01 1.057053e-02 -2.935219e-02
1.180297e+08 2.245522e-02 -2.088928e-02 9.033813e-01 -4.096680e-01 9.022217e-01 -3.900757e-01 1.030540e-02 -2.942467e-02
1.182475e+08 2.234459e-02 -2.091599e-02 9.025879e-01 -4.102173e-01 9.014893e-01 -3.908691e-01 1.007271e-02 -2.943611e-02
1.184653e+08 2.220917e-02 -2.092934e-02 9.033813e-01 -4.105835e-01 9.011230e-01 -3.911133e-01 9.788513e-03 -2.948570e-02
1.186831e+08 2.211952e-02 -2.097321e-02 9.024658e-01 -4.114990e-01 9.016113e-01 -3.921509e-01 9.525299e-03 -2.947617e-02
1.189009e+08 2.204132e-02 -2.098274e-02 9.031982e-01 -4.115601e-01 9.014893e-01 -3.920898e-01 9.344101e-03 -2.953720e-02
1.191188e+08 2.193451e-02 -2.100182e-02 9.026489e-01 -4.124756e-01 9.017944e-01 -3.930054e-01 9.025574e-03 -2.957726e-02
1.193366e+08 2.179337e-02 -2.104950e-02 9.012451e-01 -4.135742e-01 9.007568e-01 -3.942261e-01 8.785248e-03 -2.963066e-02
1.195544e+08 2.164841e-02 -2.105713e-02 9.028320e-01 -4.133301e-01 9.006958e-01 -3.945312e-01 8.518219e-03 -2.962685e-02
1.197722e+08 2.159309e-02 -2.106476e-02 9.010010e-01 -4.148560e-01 9.002686e-01 -3.954468e-01 8.230209e-03 -2.968788e-02
1.199900e+08 2.142715e-02 -2.112198e-02 9.015503e-01 -4.155273e-01 9.006958e-01 -3.965454e-01 8.010864e-03 -2.969170e-02
1.202078e+08 2.134705e-02 -2.110672e-02 9.017944e-01 -4.163208e-01 8.997803e-01 -3.961792e-01 7.751465e-03 -2.973747e-02
1.204256e+08 2.129173e-02 -2.112579e-02 9.010010e-01 -4.168701e-01 8.998413e-01 -3.970337e-01 7.453918e-03 -2.972031e-02
1.206434e+08 2.118874e-02 -2.116203e-02 8.999023e-01 -4.174805e-01 9.000244e-01 -3.980103e-01 7.175446e-03 -2.977753e-02
1.208612e+08 2.105904e-02 -2.116394e-02 8.999023e-01 -4.187012e-01 8.995361e-01 -3.984985e-01 6.879807e-03 -2.976799e-02
1.210791e+08 2.098274e-02 -2.118683e-02 8.999023e-01 -4.182739e-01 8.990479e-01 -3.982544e-01 6.694794e-03 -2.973938e-02
1.212969e+08 2.088547e-02 -2.127075e-02 8.996582e-01 -4.203491e-01 8.990479e-01 -3.999023e-01 6.427765e-03 -2.979660e-02
1.215147e+08 2.074814e-02 -2.121544e-02 8.981934e-01 -4.196167e-01 8.978271e-01 -3.993530e-01 6.116867e-03 -2.973175e-02
1.217325e+08 2.065086e-02 -2.124596e-02 8.983765e-01 -4.210205e-01 8.984375e-01 -4.012451e-01 5.865097e-03 -2.974510e-02
1.219503e+08 2.049828e-02 -2.126312e-02 8.988037e-01 -4.215698e-01 8.981323e-01 -4.020386e-01 5.645752e-03 -2.976036e-02
1.221681e+08 2.045631e-02 -2.125549e-02 8.978271e-01 -4.221191e-01 8.978271e-01 -4.031372e-01 5.388260e-03 -2.976036e-02
1.223859e+08 2.036476e-02 -2.124977e-02 8.973389e-01 -4.221802e-01 8.976440e-01 -4.034424e-01 5.123138e-03 -2.970505e-02
1.226038e+08 2.023888e-02 -2.126503e-02 8.966064e-01 -4.231567e-01 8.972778e-01 -4.044800e-01 4.861832e-03 -2.973557e-02
1.228216e+08 2.013588e-02 -2.122498e-02 8.974609e-01 -4.252319e-01 8.973389e-01 -4.032593e-01 4.650116e-03 -2.981186e-02
1.230394e+08 2.004433e-02 -2.125359e-02 8.967285e-01 -4.239502e-01 8.966675e-01 -4.042969e-01 4.402161e-03 -2.976799e-02
1.232572e+08 1.990318e-02 -2.125549e-02 8.958130e-01 -4.256592e-01 8.968506e-01 -4.052734e-01 4.056931e-03 -2.971840e-02
1.234750e+08 1.978111e-02 -2.129745e-02 8.961182e-01 -4.254150e-01 8.961182e-01 -4.060059e-01 3.877640e-03 -2.974129e-02
1.236928e+08 1.969719e-02 -2.130508e-02 8.960571e-01 -4.263916e-01 8.965454e-01 -4.064941e-01 3.549576e-03 -2.974319e-02
1.239106e+08 1.959038e-02 -2.130699e-02 8.959351e-01 -4.275513e-01 8.957520e-01 -4.069214e-01 3.299713e-03 -2.966309e-02
1.241284e+08 1.947403e-02 -2.128601e-02 8.947144e-01 -4.277954e-01 8.953857e-01 -4.075317e-01 3.055573e-03 -2.963257e-02
1.243462e+08 1.935196e-02 -2.130699e-02 8.948364e-01 -4.279785e-01 8.954468e-01 -4.082642e-01 2.794266e-03 -2.965164e-02
1.245641e+08 1.928329e-02 -2.126694e-02 8.945312e-01 -4.301758e-01 8.951416e-01 -4.082031e-01 2.544403e-03 -2.965927e-02
1.247819e+08 1.918030e-02 -2.123451e-02 8.941040e-01 -4.296875e-01 8.946533e-01 -4.091797e-01 2.334595e-03 -2.962112e-02
1.249997e+08 1.904488e-02 -2.130699e-02 8.939209e-01 -4.306641e-01 8.951416e-01 -4.101562e-01 2.096176e-03 -2.960587e-02
1.252175e+08 1.893425e-02 -2.125740e-02 8.936768e-01 -4.309082e-01 8.944702e-01 -4.106445e-01 1.811981e-03 -2.956963e-02
1.254353e+08 1.884460e-02 -2.128029e-02 8.931885e-01 -4.328003e-01 8.939819e-01 -4.108887e-01 1.562119e-03 -2.951622e-02
1.256531e+08 1.867104e-02 -2.133942e-02 8.921509e-01 -4.321289e-01 8.937988e-01 -4.126587e-01 1.331329e-03 -2.953148e-02
1.258709e+08 1.865005e-02 -2.126503e-02 8.923340e-01 -4.328003e-01 8.941650e-01 -4.124146e-01 1.096725e-03 -2.946472e-02
1.260888e+08 1.855278e-02 -2.127838e-02 8.931274e-01 -4.331055e-01 8.932495e-01 -4.131470e-01 8.583069e-04 -2.944756e-02
1.263066e+08 1.837158e-02 -2.127838e-02 8.921509e-01 -4.349365e-01 8.934326e-01 -4.136353e-01 5.836487e-04 -2.942085e-02
1.265244e+08 1.825905e-02 -2.126694e-02 8.928223e-01 -4.348755e-01 8.930054e-01 -4.140625e-01 3.299713e-04 -2.941704e-02
1.267422e+08 1.821709e-02 -2.127457e-02 8.922729e-01 -4.352417e-01 8.933105e-01 -4.143677e-01 1.354218e-04 -2.934837e-02
1.269600e+08 1.809120e-02 -2.119827e-02 8.915405e-01 -4.365845e-01 8.925171e-01 -4.152832e-01 -1.773834e-04 -2.931976e-02
1.271778e+08 1.792145e-02 -2.119827e-02 8.914795e-01 -4.368896e-01 8.924561e-01 -4.154053e-01 -4.100800e-04 -2.925682e-02
1.273956e+08 1.784515e-02 -2.121544e-02 8.902588e-01 -4.376831e-01 8.923340e-01 -4.169922e-01 -6.732941e-04 -2.917671e-02
1.276134e+08 1.774597e-02 -2.119637e-02 8.904419e-01 -4.386597e-01 8.923340e-01 -4.166260e-01 -9.155273e-04 -2.913666e-02
1.278312e+08 1.764297e-02 -2.123260e-02 8.906250e-01 -4.386597e-01 8.914185e-01 -4.176025e-01 -1.148224e-03 -2.913857e-02
1.280491e+08 1.752853e-02 -2.115059e-02 8.897095e-01 -4.395142e-01 8.914185e-01 -4.184570e-01 -1.367569e-03 -2.906227e-02
1.282669e+08 1.741409e-02 -2.113914e-02 8.894043e-01 -4.402466e-01 8.911133e-01 -4.188843e-01 -1.619339e-03 -2.895164e-02
1.284847e+08 1.728630e-02 -2.113152e-02 8.895264e-01 -4.405518e-01 8.911743e-01 -4.197998e-01 -1.861572e-03 -2.897644e-02
1.287025e+08 1.715279e-02 -2.107048e-02 8.893433e-01 -4.404907e-01 8.905029e-01 -4.197998e-01 -2.073288e-03 -2.888107e-02
1.289203e+08 1.705742e-02 -2.108765e-02 8.889771e-01 -4.425049e-01 8.908081e-01 -4.215698e-01 -2.395630e-03 -2.882576e-02
1.291381e+08 1.695251e-02 -2.111816e-02 8.883667e-01 -4.425049e-01 8.906860e-01 -4.211426e-01 -2.641678e-03 -2.877426e-02
1.293559e+08 1.689911e-02 -2.112198e-02 8.875732e-01 -4.433594e-01 8.906250e-01 -4.218140e-01 -2.840042e-03 -2.866554e-02
1.295738e+08 1.672745e-02 -2.110100e-02 8.880005e-01 -4.443970e-01 8.897095e-01 -4.229736e-01 -3.143311e-03 -2.865219e-02
1.297916e+08 1.667595e-02 -2.106476e-02 8.870239e-01 -4.448853e-01 8.898926e-01 -4.232788e-01 -3.337860e-03 -2.858925e-02
1.300094e+08 1.653862e-02 -2.103043e-02 8.872070e-01 -4.452515e-01 8.897095e-01 -4.239502e-01 -3.503799e-03 -2.850914e-02
1.302272e+08 1.643562e-02 -2.103996e-02 8.869629e-01 -4.459229e-01 8.884888e-01 -4.244995e-01 -3.791809e-03 -2.847862e-02
1.304450e+08 1.634979e-02 -2.093124e-02 8.859253e-01 -4.467773e-01 8.890991e-01 -4.243774e-01 -3.988266e-03 -2.836227e-02
1.306628e+08 1.620102e-02 -2.099991e-02 8.861694e-01 -4.482422e-01 8.898315e-01 -4.255371e-01 -4.274368e-03 -2.828789e-02
1.308806e+08 1.608086e-02 -2.092743e-02 8.861084e-01 -4.487915e-01 8.890381e-01 -4.268188e-01 -4.499435e-03 -2.823830e-02
1.310984e+08 1.597023e-02 -2.095222e-02 8.852539e-01 -4.481812e-01 8.888550e-01 -4.271240e-01 -4.716873e-03 -2.811623e-02
1.313162e+08 1.583290e-02 -2.091789e-02 8.850098e-01 -4.491577e-01 8.878784e-01 -4.274902e-01 -4.972458e-03 -2.804565e-02
1.315341e+08 1.577950e-02 -2.088737e-02 8.856812e-01 -4.499512e-01 8.879395e-01 -4.281616e-01 -5.157471e-03 -2.801514e-02
1.317519e+08 1.568794e-02 -2.085304e-02 8.852539e-01 -4.500122e-01 8.873291e-01 -4.283447e-01 -5.441666e-03 -2.789497e-02
1.319697e+08 1.556396e-02 -2.087212e-02 8.847046e-01 -4.512939e-01 8.877563e-01 -4.299927e-01 -5.695343e-03 -2.783203e-02
1.321875e+08 1.539421e-02 -2.083206e-02 8.847656e-01 -4.525146e-01 8.867188e-01 -4.304810e-01 -5.924225e-03 -2.774620e-02
1.324053e+08 1.531601e-02 -2.080917e-02 8.837891e-01 -4.525757e-01 8.869019e-01 -4.315796e-01 -6.141663e-03 -2.763939e-02
1.326231e+08 1.514244e-02 -2.077293e-02 8.828125e-01 -4.531250e-01 8.865356e-01 -4.314575e-01 -6.357193e-03 -2.750397e-02
1.328409e+08 1.508904e-02 -2.070236e-02 8.833618e-01 -4.542847e-01 8.861084e-01 -4.315186e-01 -6.504059e-03 -2.750778e-02
1.330588e+08 1.495361e-02 -2.066231e-02 8.826904e-01 -4.548950e-01 8.858032e-01 -4.331665e-01 -6.797791e-03 -2.736664e-02
1.332766e+08 1.485062e-02 -2.066422e-02 8.826294e-01 -4.550781e-01 8.854370e-01 -4.333496e-01 -6.992340e-03 -2.735138e-02
1.334944e+08 1.473045e-02 -2.065086e-02 8.822021e-01 -4.558716e-01 8.854980e-01 -4.346313e-01 -7.249832e-03 -2.719879e-02
1.337122e+08 1.461029e-02 -2.059937e-02 8.818970e-01 -4.569702e-01 8.850098e-01 -4.349365e-01 -7.492065e-03 -2.711678e-02
1.339300e+08 1.452065e-02 -2.057838e-02 8.820801e-01 -4.577637e-01 8.851318e-01 -4.352417e-01 -7.711411e-03 -2.696037e-02
1.341478e+08 1.442337e-02 -2.053452e-02 8.813477e-01 -4.584351e-01 8.847046e-01 -4.364014e-01 -7.978439e-03 -2.687073e-02
1.343656e+08 1.432610e-02 -2.045822e-02 8.815918e-01 -4.588013e-01 8.843994e-01 -4.362793e-01 -8.152008e-03 -2.680779e-02
1.345834e+08 1.420212e-02 -2.050018e-02 8.804932e-01 -4.591675e-01 8.840942e-01 -4.376221e-01 -8.365631e-03 -2.666473e-02
1.348012e+08 1.403999e-02 -2.040672e-02 8.806152e-01 -4.605103e-01 8.837280e-01 -4.388428e-01 -8.590698e-03 -2.660942e-02
1.350191e+08 1.391220e-02 -2.037811e-02 8.810425e-01 -4.613647e-01 8.834839e-01 -4.390259e-01 -8.783340e-03 -2.652550e-02
1.352369e+08 1.382637e-02 -2.035522e-02 8.793945e-01 -4.618530e-01 8.830566e-01 -4.392090e-01 -9.073257e-03 -2.637100e-02
1.354547e+08 1.375008e-02 -2.031326e-02 8.789673e-01 -4.622192e-01 8.833008e-01 -4.398804e-01 -9.250641e-03 -2.625084e-02
1.356725e+08 1.359177e-02 -2.024460e-02 8.790283e-01 -4.630127e-01 8.829346e-01 -4.402466e-01 -9.445190e-03 -2.616310e-02
1.358903e+08 1.350212e-02 -2.019691e-02 8.782959e-01 -4.633789e-01 8.828735e-01 -4.406128e-01 -9.689331e-03 -2.602386e-02
1.361081e+08 1.336479e-02 -2.018166e-02 8.780518e-01 -4.641113e-01 8.826294e-01 -4.413452e-01 -9.860992e-03 -2.588272e-02
1.363259e+08 1.323605e-02 -2.010727e-02 8.783569e-01 -4.644775e-01 8.822632e-01 -4.415894e-01 -1.008034e-02 -2.582741e-02
1.365438e+08 1.313019e-02 -2.011013e-02 8.782959e-01 -4.644165e-01 8.822021e-01 -4.432373e-01 -1.031113e-02 -2.571487e-02
1.367616e+08 1.307583e-02 -2.007675e-02 8.780518e-01 -4.655762e-01 8.820801e-01 -4.436646e-01 -1.051331e-02 -2.557182e-02
1.369794e+08 1.295185e-02 -2.001762e-02 8.777466e-01 -4.659424e-01 8.816528e-01 -4.447021e-01 -1.070595e-02 -2.548027e-02
1.371972e+08 1.279259e-02 -1.996613e-02 8.765259e-01 -4.678955e-01 8.812866e-01 -4.443359e-01 -1.094818e-02 -2.533531e-02
1.374150e+08 1.270580e-02 -1.991749e-02 8.760376e-01 -4.683228e-01 8.804321e-01 -4.448242e-01 -1.116562e-02 -2.516747e-02
1.376328e+08 1.257229e-02 -1.990223e-02 8.759766e-01 -4.692993e-01 8.807373e-01 -4.464722e-01 -1.139832e-02 -2.512741e-02
1.378506e+08 1.245499e-02 -1.984692e-02 8.760986e-01 -4.691162e-01 8.801270e-01 -4.473267e-01 -1.155853e-02 -2.501106e-02
1.380684e+08 1.229286e-02 -1.982212e-02 8.751831e-01 -4.707031e-01 8.802490e-01 -4.484253e-01 -1.181030e-02 -2.484131e-02
1.382862e+08 1.221275e-02 -1.973152e-02 8.748169e-01 -4.711914e-01 8.796387e-01 -4.475708e-01 -1.197243e-02 -2.467728e-02
1.385041e+08 1.210499e-02 -1.972008e-02 8.740845e-01 -4.713135e-01 8.801270e-01 -4.495239e-01 -1.218605e-02 -2.456284e-02
1.387219e+08 1.199150e-02 -1.968956e-02 8.754883e-01 -4.729004e-01 8.788452e-01 -4.497070e-01 -1.236725e-02 -2.445602e-02
1.389397e+08 1.188278e-02 -1.960659e-02 8.741455e-01 -4.728394e-01 8.790894e-01 -4.506226e-01 -1.257706e-02 -2.431679e-02
1.391575e+08 1.177502e-02 -1.956558e-02 8.746338e-01 -4.737549e-01 8.784790e-01 -4.502563e-01 -1.280212e-02 -2.421188e-02
1.393753e+08 1.157379e-02 -1.950359e-02 8.731689e-01 -4.744873e-01 8.790894e-01 -4.512329e-01 -1.302147e-02 -2.404213e-02
1.395931e+08 1.149178e-02 -1.942730e-02 8.731689e-01 -4.745483e-01 8.780518e-01 -4.521484e-01 -1.318359e-02 -2.393341e-02
1.398109e+08 1.136303e-02 -1.939106e-02 8.726196e-01 -4.756470e-01 8.779907e-01 -4.526367e-01 -1.337051e-02 -2.378464e-02
1.400288e+08 1.129532e-02 -1.934528e-02 8.719482e-01 -4.761963e-01 8.778076e-01 -4.532471e-01 -1.360130e-02 -2.367401e-02
1.402466e+08 1.116943e-02 -1.931858e-02 8.710938e-01 -4.770508e-01 8.775024e-01 -4.548340e-01 -1.374817e-02 -2.348328e-02
1.404644e+08 1.105881e-02 -1.924038e-02 8.715210e-01 -4.780884e-01 8.773804e-01 -4.551392e-01 -1.399994e-02 -2.334404e-02
1.406822e+08 1.095963e-02 -1.918507e-02 8.713379e-01 -4.779053e-01 8.765869e-01 -4.550781e-01 -1.417732e-02 -2.319336e-02
1.409000e+08 1.079559e-02 -1.915741e-02 8.704224e-01 -4.794922e-01 8.760986e-01 -4.567871e-01 -1.431465e-02 -2.306938e-02
1.411178e+08 1.068974e-02 -1.907158e-02 8.701782e-01 -4.797974e-01 8.757935e-01 -4.569702e-01 -1.457787e-02 -2.288818e-02
1.413356e+08 1.057720e-02 -1.900768e-02 8.699951e-01 -4.797974e-01 8.751831e-01 -4.580078e-01 -1.472664e-02 -2.276802e-02
1.415534e+08 1.049423e-02 -1.896286e-02 8.696289e-01 -4.813843e-01 8.747559e-01 -4.579468e-01 -1.494217e-02 -2.260590e-02
1.417712e+08 1.036549e-02 -1.895046e-02 8.695679e-01 -4.822998e-01 8.754272e-01 -4.589844e-01 -1.512527e-02 -2.245712e-02
1.419891e+08 1.027298e-02 -1.884651e-02 8.697510e-01 -4.820557e-01 8.751831e-01 -4.592896e-01 -1.528358e-02 -2.232265e-02
1.422069e+08 1.012039e-02 -1.875019e-02 8.692627e-01 -4.832153e-01 8.748779e-01 -4.599609e-01 -1.546669e-02 -2.221394e-02
1.424247e+08 1.000023e-02 -1.871300e-02 8.686523e-01 -4.837646e-01 8.747559e-01 -4.613037e-01 -1.565933e-02 -2.202797e-02
1.426425e+08 9.882927e-03 -1.863956e-02 8.674927e-01 -4.840698e-01 8.745117e-01 -4.620972e-01 -1.579380e-02 -2.185822e-02
1.428603e+08 9.776115e-03 -1.856422e-02 8.677979e-01 -4.852905e-01 8.731689e-01 -4.622192e-01 -1.605606e-02 -2.171516e-02
1.430781e+08 9.654999e-03 -1.854420e-02 8.675537e-01 -4.859009e-01 8.729858e-01 -4.628906e-01 -1.623821e-02 -2.156353e-02
1.432959e+08 9.537697e-03 -1.847363e-02 8.662109e-01 -4.866333e-01 8.732300e-01 -4.645386e-01 -1.641941e-02 -2.136898e-02
1.435138e+08 9.368896e-03 -1.836681e-02 8.668823e-01 -4.866943e-01 8.718262e-01 -4.650879e-01 -1.659584e-02 -2.122498e-02
1.437316e+08 9.300232e-03 -1.830006e-02 8.657227e-01 -4.870605e-01 8.723145e-01 -4.656982e-01 -1.676750e-02 -2.103233e-02
1.439494e+08 9.167671e-03 -1.823616e-02 8.656616e-01 -4.883423e-01 8.720703e-01 -4.663696e-01 -1.694965e-02 -2.089882e-02
1.441672e+08 9.095192e-03 -1.814747e-02 8.656616e-01 -4.896851e-01 8.718872e-01 -4.667358e-01 -1.713848e-02 -2.074623e-02
1.443850e+08 8.913994e-03 -1.810455e-02 8.654175e-01 -4.903564e-01 8.720703e-01 -4.677124e-01 -1.731014e-02 -2.055740e-02
1.446028e+08 8.808136e-03 -1.802826e-02 8.653564e-01 -4.907837e-01 8.703003e-01 -4.678955e-01 -1.744461e-02 -2.039719e-02
1.448206e+08 8.726120e-03 -1.796436e-02 8.644409e-01 -4.916992e-01 8.711548e-01 -4.684448e-01 -1.766014e-02 -2.025700e-02
1.450384e+08 8.600235e-03 -1.788521e-02 8.639526e-01 -4.924316e-01 8.701782e-01 -4.687500e-01 -1.782799e-02 -2.001286e-02
1.452562e+08 8.413315e-03 -1.780605e-02 8.631592e-01 -4.925537e-01 8.714600e-01 -4.701538e-01 -1.800632e-02 -1.987362e-02
1.454741e+08 8.377075e-03 -1.774597e-02 8.628540e-01 -4.931641e-01 8.707275e-01 -4.703369e-01 -1.813507e-02 -1.974106e-02
1.456919e+08 8.221626e-03 -1.771259e-02 8.620605e-01 -4.942017e-01 8.701172e-01 -4.717407e-01 -1.831627e-02 -1.950645e-02
1.459097e+08 8.123398e-03 -1.760578e-02 8.619995e-01 -4.951172e-01 8.697510e-01 -4.717407e-01 -1.849174e-02 -1.935291e-02
1.461275e+08 7.993698e-03 -1.749516e-02 8.618774e-01 -4.952393e-01 8.694458e-01 -4.725342e-01 -1.866436e-02 -1.917744e-02
1.463453e+08 7.880211e-03 -1.741600e-02 8.610229e-01 -4.963379e-01 8.693848e-01 -4.732666e-01 -1.886368e-02 -1.900291e-02
1.465631e+08 7.740974e-03 -1.729774e-02 8.609009e-01 -4.961548e-01 8.683472e-01 -4.732666e-01 -1.890755e-02 -1.882839e-02
1.467809e+08 7.661819e-03 -1.722622e-02 8.609009e-01 -4.975586e-01 8.682251e-01 -4.747314e-01 -1.913452e-02 -1.861095e-02
1.469988e+08 7.523537e-03 -1.720142e-02 8.607788e-01 -4.976196e-01 8.677368e-01 -4.754028e-01 -1.928616e-02 -1.841640e-02
1.472166e+08 7.417679e-03 -1.710320e-02 8.591919e-01 -4.983521e-01 8.680420e-01 -4.760132e-01 -1.943398e-02 -1.824188e-02
1.474344e+08 7.298470e-03 -1.697636e-02 8.593750e-01 -4.998169e-01 8.669434e-01 -4.768677e-01 -1.958561e-02 -1.807594e-02
1.476522e+08 7.176399e-03 -1.695633e-02 8.588257e-01 -4.996948e-01 8.672485e-01 -4.774780e-01 -1.976681e-02 -1.788139e-02
1.478700e+08 7.034302e-03 -1.683331e-02 8.579102e-01 -5.004883e-01 8.663330e-01 -4.781494e-01 -1.994801e-02 -1.768875e-02
1.480878e+08 6.922722e-03 -1.678371e-02 8.579102e-01 -5.020752e-01 8.664551e-01 -4.787598e-01 -2.006721e-02 -1.751518e-02
1.483056e+08 6.813049e-03 -1.664639e-02 8.578491e-01 -5.021973e-01 8.654785e-01 -4.786377e-01 -2.021790e-02 -1.731873e-02
1.485234e+08 6.662369e-03 -1.655293e-02 8.573608e-01 -5.030518e-01 8.651123e-01 -4.796143e-01 -2.036858e-02 -1.717663e-02
1.487412e+08 6.525040e-03 -1.644135e-02 8.566895e-01 -5.028076e-01 8.648071e-01 -4.810791e-01 -2.049351e-02 -1.691818e-02
1.489591e+08 6.502151e-03 -1.633739e-02 8.562622e-01 -5.042114e-01 8.646851e-01 -4.810181e-01 -2.070904e-02 -1.673889e-02
1.491769e+08 6.318092e-03 -1.631737e-02 8.563232e-01 -5.046387e-01 8.637085e-01 -4.824219e-01 -2.085018e-02 -1.652336e-02
1.493947e+08 6.226540e-03 -1.616001e-02 8.557739e-01 -5.050659e-01 8.631592e-01 -4.824829e-01 -2.097988e-02 -1.633263e-02
1.496125e+08 6.095886e-03 -1.612473e-02 8.554688e-01 -5.059204e-01 8.635254e-01 -4.832764e-01 -2.109909e-02 -1.617336e-02
1.498303e+08 5.952835e-03 -1.602554e-02 8.547363e-01 -5.070190e-01 8.631592e-01 -4.842529e-01 -2.124500e-02 -1.595879e-02
1.500481e+08 5.856514e-03 -1.595020e-02 8.548584e-01 -5.076904e-01 8.628540e-01 -4.856567e-01 -2.140236e-02 -1.575565e-02
1.502659e+08 5.747795e-03 -1.582718e-02 8.539429e-01 -5.073242e-01 8.630371e-01 -4.849854e-01 -2.151108e-02 -1.554680e-02
1.504838e+08 5.631447e-03 -1.572704e-02 8.529663e-01 -5.086060e-01 8.617554e-01 -4.860840e-01 -2.168465e-02 -1.532459e-02
1.507016e+08 5.502701e-03 -1.559544e-02 8.527832e-01 -5.097046e-01 8.620605e-01 -4.868774e-01 -2.180576e-02 -1.517773e-02
1.509194e+08 5.434990e-03 -1.552582e-02 8.525391e-01 -5.095215e-01 8.615723e-01 -4.872437e-01 -2.192974e-02 -1.492214e-02
1.511372e+08 5.267143e-03 -1.543045e-02 8.517456e-01 -5.107422e-01 8.605347e-01 -4.881592e-01 -2.207184e-02 -1.473618e-02
1.513550e+08 5.172729e-03 -1.531601e-02 8.521118e-01 -5.106812e-01 8.604736e-01 -4.890137e-01 -2.222919e-02 -1.451397e-02
1.515728e+08 5.046844e-03 -1.518726e-02 8.514404e-01 -5.112915e-01 8.604736e-01 -4.888306e-01 -2.231216e-02 -1.433277e-02
1.517906e+08 4.930496e-03 -1.511574e-02 8.507690e-01 -5.122070e-01 8.595581e-01 -4.904785e-01 -2.244568e-02 -1.409912e-02
1.520084e+08 4.778862e-03 -1.496887e-02 8.508911e-01 -5.126953e-01 8.595581e-01 -4.912720e-01 -2.261925e-02 -1.388168e-02
1.522262e+08 4.661560e-03 -1.486397e-02 8.505859e-01 -5.139160e-01 8.585815e-01 -4.912720e-01 -2.271652e-02 -1.371765e-02
1.524441e+08 4.529953e-03 -1.476574e-02 8.496704e-01 -5.148926e-01 8.584595e-01 -4.926758e-01 -2.283096e-02 -1.347923e-02
1.526619e+08 4.501343e-03 -1.463890e-02 8.493042e-01 -5.150146e-01 8.576050e-01 -4.935303e-01 -2.298546e-02 -1.330185e-02
1.528797e+08 4.364014e-03 -1.454926e-02 8.485107e-01 -5.161743e-01 8.579712e-01 -4.935913e-01 -2.307510e-02 -1.307106e-02
1.530975e+08 4.222870e-03 -1.443768e-02 8.487549e-01 -5.161133e-01 8.570557e-01 -4.929810e-01 -2.319908e-02 -1.286888e-02
1.533153e+08 4.137039e-03 -1.434898e-02 8.480835e-01 -5.173950e-01 8.566895e-01 -4.940796e-01 -2.334023e-02 -1.266670e-02
1.535331e+08 4.047394e-03 -1.422119e-02 8.472290e-01 -5.178223e-01 8.568726e-01 -4.952393e-01 -2.341080e-02 -1.240349e-02
1.537509e+08 3.887177e-03 -1.416016e-02 8.468628e-01 -5.181885e-01 8.568726e-01 -4.966431e-01 -2.356529e-02 -1.221466e-02
1.539688e+08 3.765106e-03 -1.400089e-02 8.463135e-01 -5.183105e-01 8.550415e-01 -4.968262e-01 -2.371788e-02 -1.199532e-02
1.541866e+08 3.685951e-03 -1.390076e-02 8.460083e-01 -5.200806e-01 8.554077e-01 -4.975586e-01 -2.379608e-02 -1.176262e-02
1.544044e+08 3.585815e-03 -1.378822e-02 8.458862e-01 -5.206299e-01 8.550415e-01 -4.979858e-01 -2.390480e-02 -1.157570e-02
1.546222e+08 3.426552e-03 -1.368141e-02 8.457031e-01 -5.204468e-01 8.541870e-01 -4.987793e-01 -2.399635e-02 -1.135635e-02
1.548400e+08 3.330231e-03 -1.355934e-02 8.449707e-01 -5.219727e-01 8.544312e-01 -4.992065e-01 -2.418137e-02 -1.111984e-02
1.550578e+08 3.221512e-03 -1.342869e-02 8.439941e-01 -5.220947e-01 8.543091e-01 -4.994507e-01 -2.423096e-02 -1.083755e-02
1.552756e+08 3.096581e-03 -1.323128e-02 8.438110e-01 -5.222168e-01 8.536377e-01 -5.003052e-01 -2.429962e-02 -1.066208e-02
1.554934e+08 2.956390e-03 -1.317406e-02 8.432617e-01 -5.239258e-01 8.533325e-01 -5.015869e-01 -2.450180e-02 -1.043892e-02
1.557112e+08 2.876282e-03 -1.305008e-02 8.432007e-01 -5.237427e-01 8.523560e-01 -5.012207e-01 -2.448845e-02 -1.019478e-02
1.559291e+08 2.753258e-03 -1.292610e-02 8.425293e-01 -5.236206e-01 8.521118e-01 -5.031738e-01 -2.463531e-02 -9.962082e-03
1.561469e+08 2.633095e-03 -1.280403e-02 8.419189e-01 -5.241699e-01 8.515015e-01 -5.027466e-01 -2.472496e-02 -9.771347e-03
1.563647e+08 2.603531e-03 -1.266098e-02 8.416748e-01 -5.258789e-01 8.512573e-01 -5.034180e-01 -2.486801e-02 -9.519577e-03
1.565825e+08 2.417564e-03 -1.256466e-02 8.416138e-01 -5.264893e-01 8.510132e-01 -5.041504e-01 -2.492523e-02 -9.294510e-03
1.568003e+08 2.335548e-03 -1.241302e-02 8.410034e-01 -5.275879e-01 8.505249e-01 -5.049438e-01 -2.499771e-02 -9.067535e-03
1.570181e+08 2.244949e-03 -1.230049e-02 8.407593e-01 -5.276489e-01 8.504639e-01 -5.052490e-01 -2.515030e-02 -8.768082e-03
1.572359e+08 2.121925e-03 -1.215744e-02 8.399048e-01 -5.281982e-01 8.492432e-01 -5.072021e-01 -2.519798e-02 -8.636475e-03
1.574538e+08 1.995087e-03 -1.200581e-02 8.391113e-01 -5.292969e-01 8.490601e-01 -5.070190e-01 -2.529907e-02 -8.323669e-03
1.576716e+08 1.866341e-03 -1.190662e-02 8.395386e-01 -5.294800e-01 8.482056e-01 -5.078125e-01 -2.539444e-02 -8.125305e-03
1.578894e+08 1.778603e-03 -1.177502e-02 8.380127e-01 -5.302734e-01 8.483276e-01 -5.078125e-01 -2.547073e-02 -7.892609e-03
1.581072e+08 1.710892e-03 -1.166248e-02 8.375244e-01 -5.302124e-01 8.474121e-01 -5.091553e-01 -2.556229e-02 -7.642746e-03
1.583250e+08 1.554489e-03 -1.151180e-02 8.367310e-01 -5.315552e-01 8.473511e-01 -5.094604e-01 -2.561760e-02 -7.417679e-03
1.585428e+08 1.521111e-03 -1.139832e-02 8.369141e-01 -5.311890e-01 8.469849e-01 -5.100098e-01 -2.568817e-02 -7.171631e-03
1.587606e+08 1.350403e-03 -1.120758e-02 8.367310e-01 -5.316772e-01 8.469238e-01 -5.106201e-01 -2.575684e-02 -6.946564e-03
1.589784e+08 1.290321e-03 -1.104546e-02 8.366089e-01 -5.332031e-01 8.460083e-01 -5.108643e-01 -2.589989e-02 -6.685257e-03
1.591962e+08 1.174927e-03 -1.094246e-02 8.353271e-01 -5.333862e-01 8.455811e-01 -5.115967e-01 -2.592659e-02 -6.473541e-03
1.594141e+08 1.012802e-03 -1.082134e-02 8.354492e-01 -5.347900e-01 8.457642e-01 -5.126953e-01 -2.603149e-02 -6.196976e-03
1.596319e+08 9.183884e-04 -1.062965e-02 8.351440e-01 -5.350342e-01 8.446655e-01 -5.126343e-01 -2.607346e-02 -5.962372e-03
1.598497e+08 7.896423e-04 -1.056385e-02 8.338623e-01 -5.355835e-01 8.444824e-01 -5.143433e-01 -2.612495e-02 -5.702972e-03
1.600675e+08 7.333755e-04 -1.042843e-02 8.338623e-01 -5.358887e-01 8.438721e-01 -5.144043e-01 -2.622032e-02 -5.493164e-03
1.602853e+08 5.989075e-04 -1.024723e-02 8.334351e-01 -5.371094e-01 8.435669e-01 -5.151367e-01 -2.633858e-02 -5.266190e-03
1.605031e+08 5.302429e-04 -1.007080e-02 8.320923e-01 -5.379028e-01 8.437500e-01 -5.155029e-01 -2.637291e-02 -5.014420e-03
1.607209e+08 3.595352e-04 -9.902000e-03 8.326416e-01 -5.380249e-01 8.431396e-01 -5.166016e-01 -2.643394e-02 -4.789352e-03
1.609388e+08 3.337860e-04 -9.815216e-03 8.319702e-01 -5.383911e-01 8.421021e-01 -5.170898e-01 -2.648735e-02 -4.495621e-03
1.611566e+08 2.427101e-04 -9.678841e-03 8.322754e-01 -5.389404e-01 8.413696e-01 -5.175781e-01 -2.660751e-02 -4.264832e-03
1.613744e+08 1.268387e-04 -9.481907e-03 8.308716e-01 -5.392456e-01 8.410034e-01 -5.180054e-01 -2.660179e-02 -4.013062e-03
1.615922e+08 1.144409e-05 -9.395123e-03 8.302002e-01 -5.404053e-01 8.411865e-01 -5.191040e-01 -2.666664e-02 -3.732681e-03
1.618100e+08 -5.292892e-05 -9.192944e-03 8.300171e-01 -5.408325e-01 8.399658e-01 -5.195312e-01 -2.672577e-02 -3.541946e-03
1.620278e+08 -1.592636e-04 -9.049416e-03 8.298950e-01 -5.410767e-01 8.403931e-01 -5.197144e-01 -2.675819e-02 -3.290176e-03
1.622456e+08 -2.555847e-04 -8.908749e-03 8.291016e-01 -5.422974e-01 8.404541e-01 -5.211182e-01 -2.685547e-02 -3.032684e-03
1.624634e+08 -3.843307e-04 -8.735180e-03 8.287354e-01 -5.430298e-01 8.388062e-01 -5.213623e-01 -2.685547e-02 -2.790451e-03
1.626812e+08 -4.305840e-04 -8.567333e-03 8.281860e-01 -5.441895e-01 8.385620e-01 -5.213623e-01 -2.693176e-02 -2.508163e-03
1.628991e+08 -5.769730e-04 -8.407116e-03 8.276978e-01 -5.438843e-01 8.379517e-01 -5.217896e-01 -2.695847e-02 -2.279282e-03
1.631169e+08 -6.794930e-04 -8.298397e-03 8.273315e-01 -5.445557e-01 8.379517e-01 -5.231323e-01 -2.702904e-02 -2.002716e-03
1.633347e+08 -7.429123e-04 -8.098125e-03 8.268433e-01 -5.454712e-01 8.377686e-01 -5.238037e-01 -2.709961e-02 -1.764297e-03
1.635525e+08 -8.206367e-04 -7.969856e-03 8.273926e-01 -5.458374e-01 8.368530e-01 -5.239868e-01 -2.714157e-02 -1.543045e-03
1.637703e+08 -9.360313e-04 -7.830143e-03 8.264160e-01 -5.462646e-01 8.365479e-01 -5.245972e-01 -2.716064e-02 -1.270294e-03
1.639881e+08 -1.053810e-03 -7.695675e-03 8.260498e-01 -5.473022e-01 8.358154e-01 -5.255737e-01 -2.718925e-02 -1.037598e-03
1.642059e+08 -1.132965e-03 -7.465363e-03 8.248901e-01 -5.480347e-01 8.363647e-01 -5.255127e-01 -2.723312e-02 -7.438660e-04
1.644238e+08 -1.243591e-03 -7.297039e-03 8.253784e-01 -5.480957e-01 8.350220e-01 -5.265503e-01 -2.725601e-02 -5.130768e-04
1.646416e+08 -1.319408e-03 -7.180214e-03 8.245850e-01 -5.483398e-01 8.350220e-01 -5.271606e-01 -2.727890e-02 -2.365112e-04
1.648594e+08 -1.415253e-03 -7.017612e-03 8.239746e-01 -5.493164e-01 8.337402e-01 -5.281982e-01 -2.731895e-02 1.907349e-05
1.650772e+08 -1.517296e-03 -6.780624e-03 8.236084e-01 -5.506592e-01 8.338013e-01 -5.280762e-01 -2.735519e-02 2.861023e-04
1.652950e+08 -1.595020e-03 -6.675720e-03 8.231201e-01 -5.505371e-01 8.337402e-01 -5.299072e-01 -2.736664e-02 5.321503e-04
1.655128e+08 -1.679420e-03 -6.495953e-03 8.217773e-01 -5.507812e-01 8.321533e-01 -5.294800e-01 -2.737999e-02 7.858276e-04
1.657306e+08 -1.736164e-03 -6.340504e-03 8.213501e-01 -5.520020e-01 8.323975e-01 -5.305786e-01 -2.742767e-02 1.073837e-03
1.659484e+08 -1.824856e-03 -6.134033e-03 8.215942e-01 -5.523682e-01 8.314819e-01 -5.310059e-01 -2.742004e-02 1.300812e-03
1.661662e+08 -1.935959e-03 -6.005764e-03 8.213501e-01 -5.534058e-01 8.316650e-01 -5.316162e-01 -2.745247e-02 1.598358e-03
1.663841e+08 -1.977444e-03 -5.809307e-03 8.209839e-01 -5.534668e-01 8.310547e-01 -5.322266e-01 -2.746391e-02 1.813889e-03
1.666019e+08 -2.107620e-03 -5.672455e-03 8.200684e-01 -5.534668e-01 8.312988e-01 -5.324097e-01 -2.751541e-02 2.044678e-03
1.668197e+08 -2.161503e-03 -5.512238e-03 8.200684e-01 -5.545654e-01 8.302002e-01 -5.332642e-01 -2.754784e-02 2.351761e-03
1.670375e+08 -2.247334e-03 -5.280495e-03 8.187256e-01 -5.559082e-01 8.302612e-01 -5.339355e-01 -2.752876e-02 2.595901e-03
1.672553e+08 -2.351761e-03 -5.089760e-03 8.187866e-01 -5.557861e-01 8.295288e-01 -5.338745e-01 -2.753448e-02 2.889633e-03
1.674731e+08 -2.442837e-03 -4.971027e-03 8.180542e-01 -5.570679e-01 8.295288e-01 -5.348511e-01 -2.754784e-02 3.105164e-03
1.676909e+08 -2.526760e-03 -4.751205e-03 8.175049e-01 -5.574341e-01 8.280640e-01 -5.352783e-01 -2.750587e-02 3.345490e-03
1.679088e+08 -2.533436e-03 -4.622698e-03 8.173828e-01 -5.573120e-01 8.281250e-01 -5.363770e-01 -2.754402e-02 3.644943e-03
1.681266e+08 -2.663851e-03 -4.411221e-03 8.165894e-01 -5.586548e-01 8.272095e-01 -5.369873e-01 -2.757454e-02 3.908157e-03
1.683444e+08 -2.712011e-03 -4.243851e-03 8.165894e-01 -5.583496e-01 8.269653e-01 -5.374146e-01 -2.754211e-02 4.123688e-03
1.685622e+08 -2.828360e-03 -4.002571e-03 8.161621e-01 -5.588379e-01 8.267212e-01 -5.388184e-01 -2.754974e-02 4.446030e-03
1.687800e+08 -2.886772e-03 -3.866911e-03 8.151855e-01 -5.603027e-01 8.269043e-01 -5.389404e-01 -2.754211e-02 4.764557e-03
1.689978e+08 -2.959013e-03 -3.707647e-03 8.151245e-01 -5.601807e-01 8.258667e-01 -5.404053e-01 -2.758789e-02 4.974365e-03
1.692156e+08 -3.076315e-03 -3.533602e-03 8.144531e-01 -5.606689e-01 8.250122e-01 -5.398560e-01 -2.754402e-02 5.199432e-03
1.694334e+08 -3.095865e-03 -3.352165e-03 8.137207e-01 -5.614624e-01 8.252563e-01 -5.407104e-01 -2.751732e-02 5.455017e-03
1.696512e+08 -3.166437e-03 -3.132343e-03 8.130493e-01 -5.621338e-01 8.240356e-01 -5.411987e-01 -2.752495e-02 5.764008e-03
1.698691e+08 -3.230095e-03 -2.948046e-03 8.137207e-01 -5.633545e-01 8.235474e-01 -5.414429e-01 -2.754784e-02 6.031036e-03
1.700869e+08 -3.310680e-03 -2.759457e-03 8.118896e-01 -5.631714e-01 8.237305e-01 -5.420532e-01 -2.749062e-02 6.271362e-03
1.703047e+08 -3.389835e-03 -2.600431e-03 8.123779e-01 -5.641479e-01 8.225098e-01 -5.429077e-01 -2.750397e-02 6.530762e-03
1.705225e+08 -3.472805e-03 -2.404928e-03 8.118286e-01 -5.641479e-01 8.222046e-01 -5.439453e-01 -2.747536e-02 6.816864e-03
1.707403e+08 -3.500462e-03 -2.176523e-03 8.113403e-01 -5.646973e-01 8.226929e-01 -5.438843e-01 -2.744293e-02 7.057190e-03
1.709581e+08 -3.588200e-03 -2.030611e-03 8.103638e-01 -5.665894e-01 8.218994e-01 -5.440674e-01 -2.742577e-02 7.394791e-03
1.711759e+08 -3.625631e-03 -1.865149e-03 8.107300e-01 -5.668335e-01 8.215942e-01 -5.447388e-01 -2.744675e-02 7.625580e-03
1.713938e+08 -3.702879e-03 -1.649857e-03 8.098145e-01 -5.666504e-01 8.210449e-01 -5.455322e-01 -2.739525e-02 7.873535e-03
1.716116e+08 -3.720045e-03 -1.517773e-03 8.095093e-01 -5.680542e-01 8.201294e-01 -5.467529e-01 -2.737999e-02 8.144379e-03
1.718294e+08 -3.802776e-03 -1.224756e-03 8.097534e-01 -5.685425e-01 8.199463e-01 -5.471191e-01 -2.730942e-02 8.417130e-03
1.720472e+08 -3.913164e-03 -1.073599e-03 8.083496e-01 -5.688477e-01 8.194580e-01 -5.474243e-01 -2.727318e-02 8.720398e-03
1.722650e+08 -3.977299e-03 -9.052753e-04 8.081665e-01 -5.694580e-01 8.190918e-01 -5.484619e-01 -2.726555e-02 8.949280e-03
1.724828e+08 -4.021168e-03 -6.990433e-04 8.070679e-01 -5.695801e-01 8.180542e-01 -5.484009e-01 -2.725601e-02 9.201050e-03
1.727006e+08 -4.087448e-03 -4.575253e-04 8.073730e-01 -5.704956e-01 8.184204e-01 -5.487061e-01 -2.719116e-02 9.460449e-03
1.729184e+08 -4.095078e-03 -2.892017e-04 8.071289e-01 -5.713501e-01 8.174438e-01 -5.493164e-01 -2.714348e-02 9.725571e-03
1.731362e+08 -4.185438e-03 -1.208782e-04 8.059692e-01 -5.716553e-01 8.170166e-01 -5.501709e-01 -2.712059e-02 1.003075e-02
1.733541e+08 -4.218340e-03 7.677078e-05 8.063354e-01 -5.722046e-01 8.171997e-01 -5.503540e-01 -2.708435e-02 1.027107e-02
1.735719e+08 -4.310846e-03 2.632141e-04 8.052368e-01 -5.721436e-01 8.160400e-01 -5.512085e-01 -2.705193e-02 1.053810e-02
1.737897e+08 -4.326344e-03 4.582405e-04 8.048096e-01 -5.744629e-01 8.161011e-01 -5.521851e-01 -2.702141e-02 1.083565e-02
1.740075e+08 -4.416466e-03 6.420612e-04 8.043213e-01 -5.745239e-01 8.154907e-01 -5.521240e-01 -2.693748e-02 1.113319e-02
1.742253e+08 -4.439116e-03 8.718967e-04 8.040771e-01 -5.742188e-01 8.143921e-01 -5.536499e-01 -2.687645e-02 1.135445e-02
1.744431e+08 -4.493952e-03 1.107693e-03 8.032837e-01 -5.748291e-01 8.140869e-01 -5.535889e-01 -2.683830e-02 1.162529e-02
1.746609e+08 -4.553556e-03 1.306534e-03 8.023682e-01 -5.756836e-01 8.145142e-01 -5.544434e-01 -2.676964e-02 1.185608e-02
1.748788e+08 -4.539728e-03 1.493692e-03 8.031006e-01 -5.764160e-01 8.132935e-01 -5.545044e-01 -2.677155e-02 1.216507e-02
1.750966e+08 -4.668951e-03 1.685143e-03 8.021240e-01 -5.774536e-01 8.129883e-01 -5.551758e-01 -2.670288e-02 1.245117e-02
1.753144e+08 -4.683971e-03 1.864910e-03 8.022461e-01 -5.784302e-01 8.118286e-01 -5.555420e-01 -2.664566e-02 1.269150e-02
1.755322e+08 -4.718542e-03 2.080441e-03 8.009033e-01 -5.787964e-01 8.118286e-01 -5.560913e-01 -2.655411e-02 1.298714e-02
1.757500e+08 -4.764318e-03 2.331734e-03 7.999878e-01 -5.787354e-01 8.115845e-01 -5.562134e-01 -2.647972e-02 1.319504e-02
1.759678e+08 -4.826546e-03 2.498150e-03 8.004761e-01 -5.786743e-01 8.107300e-01 -5.576782e-01 -2.643204e-02 1.348495e-02
1.761856e+08 -4.837513e-03 2.708673e-03 7.994995e-01 -5.800171e-01 8.111572e-01 -5.590820e-01 -2.629662e-02 1.375961e-02
1.764034e+08 -4.872799e-03 2.915382e-03 7.996826e-01 -5.807495e-01 8.099976e-01 -5.579224e-01 -2.632523e-02 1.407242e-02
1.766212e+08 -4.920959e-03 3.132105e-03 7.990112e-01 -5.811157e-01 8.103638e-01 -5.596924e-01 -2.622223e-02 1.427078e-02
1.768391e+08 -4.971981e-03 3.319502e-03 7.982788e-01 -5.815430e-01 8.091431e-01 -5.608521e-01 -2.610779e-02 1.456833e-02
1.770569e+08 -4.996538e-03 3.460646e-03 7.981567e-01 -5.826416e-01 8.087158e-01 -5.601807e-01 -2.609444e-02 1.478767e-02
1.772747e+08 -4.973412e-03 3.777981e-03 7.970581e-01 -5.833740e-01 8.087158e-01 -5.621948e-01 -2.595711e-02 1.510239e-02
1.774925e+08 -5.035400e-03 3.994465e-03 7.969971e-01 -5.841675e-01 8.092041e-01 -5.619507e-01 -2.585602e-02 1.536179e-02
1.777103e+08 -5.017757e-03 4.127741e-03 7.962646e-01 -5.842896e-01 8.071289e-01 -5.622559e-01 -2.582169e-02 1.561928e-02
1.779281e+08 -5.079269e-03 4.335403e-03 7.962646e-01 -5.855103e-01 8.068848e-01 -5.622559e-01 -2.572441e-02 1.590538e-02
1.781459e+08 -5.112648e-03 4.611492e-03 7.963867e-01 -5.844727e-01 8.068237e-01 -5.634155e-01 -2.570915e-02 1.617432e-02
1.783638e+08 -5.210876e-03 4.754066e-03 7.943115e-01 -5.858154e-01 8.056030e-01 -5.636597e-01 -2.553940e-02 1.645851e-02
1.785816e+08 -5.144596e-03 4.982948e-03 7.949829e-01 -5.856323e-01 8.052979e-01 -5.648193e-01 -2.549553e-02 1.664543e-02
1.787994e+08 -5.240440e-03 5.202293e-03 7.940674e-01 -5.870361e-01 8.054810e-01 -5.652466e-01 -2.541351e-02 1.698875e-02
1.790172e+08 -5.223751e-03 5.366325e-03 7.935181e-01 -5.870361e-01 8.045654e-01 -5.656128e-01 -2.528000e-02 1.721764e-02
1.792350e+08 -5.264282e-03 5.666256e-03 7.927246e-01 -5.884399e-01 8.042603e-01 -5.665894e-01 -2.519608e-02 1.750755e-02
1.794528e+08 -5.327225e-03 5.859852e-03 7.922363e-01 -5.895996e-01 8.037109e-01 -5.674438e-01 -2.510262e-02 1.776314e-02
1.796706e+08 -5.307674e-03 6.054401e-03 7.916260e-01 -5.893555e-01 8.029175e-01 -5.674438e-01 -2.498245e-02 1.803780e-02
1.798884e+08 -5.299568e-03 6.233215e-03 7.917480e-01 -5.895996e-01 8.031006e-01 -5.676880e-01 -2.488327e-02 1.829529e-02
1.801062e+08 -5.386353e-03 6.493092e-03 7.902832e-01 -5.900879e-01 8.026123e-01 -5.685425e-01 -2.481842e-02 1.852417e-02
1.803241e+08 -5.393505e-03 6.715298e-03 7.903442e-01 -5.906982e-01 8.015137e-01 -5.684814e-01 -2.470589e-02 1.877403e-02
1.805419e+08 -5.368233e-03 6.905556e-03 7.911987e-01 -5.921021e-01 8.015137e-01 -5.696411e-01 -2.462006e-02 1.906586e-02
1.807597e+08 -5.370617e-03 7.133484e-03 7.898560e-01 -5.922241e-01 8.007812e-01 -5.696411e-01 -2.443886e-02 1.929855e-02
1.809775e+08 -5.410671e-03 7.361889e-03 7.893066e-01 -5.924072e-01 8.002319e-01 -5.711670e-01 -2.431107e-02 1.959038e-02
1.811953e+08 -5.407810e-03 7.561684e-03 7.884521e-01 -5.938721e-01 8.002319e-01 -5.721436e-01 -2.426338e-02 1.989365e-02
1.814131e+08 -5.453110e-03 7.771015e-03 7.888794e-01 -5.944214e-01 7.994995e-01 -5.713501e-01 -2.412987e-02 2.011681e-02
1.816309e+08 -5.413532e-03 7.938385e-03 7.873535e-01 -5.949707e-01 7.994385e-01 -5.731812e-01 -2.403831e-02 2.041245e-02
1.818488e+08 -5.484104e-03 8.215427e-03 7.875977e-01 -5.948486e-01 7.986450e-01 -5.734863e-01 -2.383804e-02 2.060318e-02
1.820666e+08 -5.422115e-03 8.429527e-03 7.868042e-01 -5.965576e-01 7.983398e-01 -5.733643e-01 -2.378654e-02 2.092934e-02
1.822844e+08 -5.434990e-03 8.653164e-03 7.861938e-01 -5.967407e-01 7.987061e-01 -5.746460e-01 -2.366447e-02 2.117920e-02
1.825022e+08 -5.480766e-03 8.853436e-03 7.858887e-01 -5.966187e-01 7.974854e-01 -5.751953e-01 -2.352333e-02 2.144814e-02
1.827200e+08 -5.403042e-03 9.123325e-03 7.858887e-01 -5.974731e-01 7.966919e-01 -5.760498e-01 -2.335548e-02 2.165222e-02
1.829378e+08 -5.438805e-03 9.289265e-03 7.845459e-01 -5.983276e-01 7.966919e-01 -5.764160e-01 -2.322960e-02 2.188683e-02
1.831556e+08 -5.435944e-03 9.537697e-03 7.844238e-01 -5.999756e-01 7.963257e-01 -5.767822e-01 -2.314949e-02 2.218819e-02
1.833734e+08 -5.407333e-03 9.748936e-03 7.835083e-01 -5.996704e-01 7.958984e-01 -5.782471e-01 -2.297211e-02 2.242661e-02
1.835912e+08 -5.400181e-03 9.980679e-03 7.831421e-01 -6.011963e-01 7.958984e-01 -5.780640e-01 -2.287292e-02 2.268028e-02
1.838091e+08 -5.395889e-03 1.014900e-02 7.835693e-01 -6.007690e-01 7.945557e-01 -5.783691e-01 -2.276802e-02 2.291870e-02
1.840269e+08 -5.380630e-03 1.040077e-02 7.825928e-01 -6.022339e-01 7.941895e-01 -5.794678e-01 -2.254677e-02 2.317047e-02
1.842447e+08 -5.421638e-03 1.066113e-02 7.820435e-01 -6.015015e-01 7.937622e-01 -5.806274e-01 -2.240181e-02 2.341080e-02
1.844625e+08 -5.367279e-03 1.079655e-02 7.813721e-01 -6.022339e-01 7.935791e-01 -5.801392e-01 -2.225304e-02 2.369308e-02
1.846803e+08 -5.367279e-03 1.100826e-02 7.807007e-01 -6.030884e-01 7.931519e-01 -5.809937e-01 -2.216148e-02 2.396965e-02
1.848981e+08 -5.406380e-03 1.127911e-02 7.797241e-01 -6.036987e-01 7.924194e-01 -5.812988e-01 -2.196693e-02 2.415657e-02
1.851159e+08 -5.371094e-03 1.146793e-02 7.790527e-01 -6.044312e-01 7.913818e-01 -5.819092e-01 -2.182579e-02 2.440453e-02
1.853338e+08 -5.294800e-03 1.172543e-02 7.789917e-01 -6.054077e-01 7.915039e-01 -5.829468e-01 -2.172661e-02 2.473259e-02
1.855516e+08 -5.276680e-03 1.190376e-02 7.786865e-01 -6.055908e-01 7.905273e-01 -5.837402e-01 -2.155304e-02 2.494431e-02
1.857694e+08 -5.343437e-03 1.215363e-02 7.786255e-01 -6.067505e-01 7.906494e-01 -5.836792e-01 -2.137566e-02 2.519798e-02
1.859872e+08 -5.348206e-03 1.237488e-02 7.783203e-01 -6.068726e-01 7.899170e-01 -5.842285e-01 -2.124214e-02 2.541542e-02
1.862050e+08 -5.204201e-03 1.260185e-02 7.769165e-01 -6.075439e-01 7.894897e-01 -5.850830e-01 -2.102470e-02 2.563858e-02
1.864228e+08 -5.218506e-03 1.281071e-02 7.767944e-01 -6.080322e-01 7.888794e-01 -5.858154e-01 -2.095795e-02 2.592659e-02
1.866406e+08 -5.218506e-03 1.297379e-02 7.766724e-01 -6.093750e-01 7.877808e-01 -5.861816e-01 -2.070427e-02 2.616119e-02
1.868584e+08 -5.185127e-03 1.323986e-02 7.755127e-01 -6.093140e-01 7.883301e-01 -5.870972e-01 -2.050781e-02 2.639961e-02
1.870762e+08 -5.142212e-03 1.346588e-02 7.752686e-01 -6.105347e-01 7.885132e-01 -5.870972e-01 -2.038574e-02 2.657700e-02
1.872941e+08 -5.134583e-03 1.373672e-02 7.748413e-01 -6.104126e-01 7.880859e-01 -5.874634e-01 -2.023315e-02 2.685928e-02
1.875119e+08 -5.084038e-03 1.391792e-02 7.742310e-01 -6.112671e-01 7.868652e-01 -5.881348e-01 -2.008438e-02 2.709198e-02
1.877297e+08 -5.052567e-03 1.409912e-02 7.739258e-01 -6.121216e-01 7.868042e-01 -5.886230e-01 -1.992035e-02 2.738190e-02
1.879475e+08 -5.067825e-03 1.428604e-02 7.727661e-01 -6.129150e-01 7.862549e-01 -5.889893e-01 -1.970291e-02 2.754784e-02
1.881653e+08 -4.979134e-03 1.457882e-02 7.733765e-01 -6.122437e-01 7.857056e-01 -5.905762e-01 -1.954460e-02 2.781677e-02
1.883831e+08 -4.994392e-03 1.475430e-02 7.731934e-01 -6.127930e-01 7.859497e-01 -5.906372e-01 -1.939774e-02 2.797508e-02
1.886009e+08 -4.869461e-03 1.497364e-02 7.725830e-01 -6.137695e-01 7.845459e-01 -5.911865e-01 -1.920891e-02 2.829933e-02
1.888188e+08 -4.860878e-03 1.520157e-02 7.719727e-01 -6.146851e-01 7.845459e-01 -5.920410e-01 -1.897621e-02 2.851868e-02
1.890366e+08 -4.850388e-03 1.547623e-02 7.700195e-01 -6.155396e-01 7.835083e-01 -5.928345e-01 -1.878166e-02 2.877235e-02
1.892544e+08 -4.821777e-03 1.565456e-02 7.704468e-01 -6.155396e-01 7.827148e-01 -5.924072e-01 -1.863289e-02 2.895164e-02
1.894722e+08 -4.700661e-03 1.583099e-02 7.702026e-01 -6.167603e-01 7.828369e-01 -5.936279e-01 -1.846123e-02 2.920341e-02
1.896900e+08 -4.686356e-03 1.615715e-02 7.696533e-01 -6.166992e-01 7.820435e-01 -5.941772e-01 -1.822472e-02 2.940559e-02
1.899078e+08 -4.620552e-03 1.630878e-02 7.695312e-01 -6.177979e-01 7.810059e-01 -5.941162e-01 -1.809692e-02 2.969170e-02
1.901256e+08 -4.567146e-03 1.654243e-02 7.685547e-01 -6.179810e-01 7.807617e-01 -5.949097e-01 -1.785469e-02 2.988815e-02
1.903434e+08 -4.551888e-03 1.672840e-02 7.674561e-01 -6.185303e-01 7.807617e-01 -5.956421e-01 -1.769257e-02 3.011513e-02
1.905612e+08 -4.466057e-03 1.690102e-02 7.673340e-01 -6.192017e-01 7.803345e-01 -5.959473e-01 -1.751709e-02 3.034401e-02
1.907791e+08 -4.419327e-03 1.717281e-02 7.673340e-01 -6.194458e-01 7.797241e-01 -5.965576e-01 -1.725769e-02 3.051376e-02
1.909969e+08 -4.323959e-03 1.741982e-02 7.662354e-01 -6.201782e-01 7.791138e-01 -5.974121e-01 -1.708984e-02 3.077698e-02
1.912147e+08 -4.319191e-03 1.759243e-02 7.660522e-01 -6.212769e-01 7.787476e-01 -5.979004e-01 -1.687622e-02 3.101158e-02
1.914325e+08 -4.210472e-03 1.780033e-02 7.647705e-01 -6.219482e-01 7.778931e-01 -5.980225e-01 -1.665878e-02 3.122711e-02
1.916503e+08 -4.178047e-03 1.804638e-02 7.648926e-01 -6.223145e-01 7.784424e-01 -5.992432e-01 -1.641655e-02 3.138542e-02
1.918681e+08 -4.117012e-03 1.828480e-02 7.648926e-01 -6.231079e-01 7.772827e-01 -5.997925e-01 -1.626968e-02 3.168869e-02
1.920859e+08 -4.028320e-03 1.843834e-02 7.645874e-01 -6.230469e-01 7.767944e-01 -6.002197e-01 -1.606369e-02 3.188133e-02
1.923038e+08 -3.999710e-03 1.867771e-02 7.632446e-01 -6.238403e-01 7.758789e-01 -6.000977e-01 -1.579666e-02 3.208542e-02
1.925216e+08 -3.957748e-03 1.884460e-02 7.628784e-01 -6.248169e-01 7.749634e-01 -6.011353e-01 -1.561546e-02 3.230476e-02
1.927394e+08 -3.873825e-03 1.908970e-02 7.615356e-01 -6.251221e-01 7.754517e-01 -6.014404e-01 -1.538277e-02 3.245163e-02
1.929572e+08 -3.782272e-03 1.934242e-02 7.615356e-01 -6.257324e-01 7.743530e-01 -6.024170e-01 -1.519012e-02 3.264236e-02
1.931750e+08 -3.690720e-03 1.954174e-02 7.614136e-01 -6.264648e-01 7.746582e-01 -6.027832e-01 -1.497078e-02 3.294182e-02
1.933928e+08 -3.632545e-03 1.972485e-02 7.605591e-01 -6.269531e-01 7.741089e-01 -6.035767e-01 -1.471710e-02 3.310013e-02
1.936106e+08 -3.555298e-03 1.990128e-02 7.603149e-01 -6.273804e-01 7.730103e-01 -6.038818e-01 -1.455116e-02 3.333855e-02
1.938284e+08 -3.467560e-03 2.019691e-02 7.595825e-01 -6.280518e-01 7.736206e-01 -6.049194e-01 -1.431656e-02 3.354645e-02
1.940462e+08 -3.425598e-03 2.040100e-02 7.588501e-01 -6.287842e-01 7.730103e-01 -6.052246e-01 -1.408386e-02 3.373718e-02
1.942641e+08 -3.309250e-03 2.063179e-02 7.581177e-01 -6.283569e-01 7.725830e-01 -6.054077e-01 -1.389503e-02 3.393936e-02
1.944819e+08 -3.261566e-03 2.078629e-02 7.575684e-01 -6.292114e-01 7.722168e-01 -6.066895e-01 -1.361847e-02 3.410530e-02
1.946997e+08 -3.156662e-03 2.097511e-02 7.578735e-01 -6.300049e-01 7.708740e-01 -6.067505e-01 -1.341248e-02 3.429794e-02
1.949175e+08 -3.118515e-03 2.122498e-02 7.568970e-01 -6.308594e-01 7.705688e-01 -6.071167e-01 -1.315689e-02 3.456306e-02
1.951353e+08 -3.002167e-03 2.138901e-02 7.566528e-01 -6.311646e-01 7.694702e-01 -6.074219e-01 -1.295280e-02 3.470039e-02
1.953531e+08 -2.929688e-03 2.162552e-02 7.556152e-01 -6.313477e-01 7.698975e-01 -6.077271e-01 -1.269150e-02 3.483200e-02
1.955709e+08 -2.840042e-03 2.183342e-02 7.554932e-01 -6.326294e-01 7.688599e-01 -6.084595e-01 -1.243591e-02 3.508568e-02
1.957888e+08 -2.761841e-03 2.201843e-02 7.545166e-01 -6.328125e-01 7.687378e-01 -6.090698e-01 -1.222229e-02 3.529549e-02
1.960066e+08 -2.605438e-03 2.223778e-02 7.548828e-01 -6.329346e-01 7.676392e-01 -6.093750e-01 -1.198578e-02 3.546143e-02
1.962244e+08 -2.532959e-03 2.244186e-02 7.536011e-01 -6.337891e-01 7.676392e-01 -6.107788e-01 -1.171303e-02 3.562927e-02
1.964422e+08 -2.443314e-03 2.264595e-02 7.528076e-01 -6.348877e-01 7.671509e-01 -6.103516e-01 -1.144600e-02 3.581619e-02
1.966600e+08 -2.351761e-03 2.285576e-02 7.520752e-01 -6.345825e-01 7.667847e-01 -6.117554e-01 -1.122475e-02 3.595924e-02
1.968778e+08 -2.283096e-03 2.310562e-02 7.514038e-01 -6.358032e-01 7.659302e-01 -6.123657e-01 -1.093483e-02 3.619957e-02
1.970956e+08 -2.162933e-03 2.318764e-02 7.517700e-01 -6.355591e-01 7.655029e-01 -6.124878e-01 -1.076698e-02 3.637314e-02
1.973134e+08 -2.063751e-03 2.348137e-02 7.507935e-01 -6.365356e-01 7.653198e-01 -6.130981e-01 -1.047707e-02 3.650284e-02
1.975312e+08 -1.985550e-03 2.365303e-02 7.505493e-01 -6.369019e-01 7.647095e-01 -6.136475e-01 -1.028252e-02 3.666306e-02
1.977491e+08 -1.853943e-03 2.382660e-02 7.494507e-01 -6.379395e-01 7.645874e-01 -6.142578e-01 -9.979248e-03 3.685188e-02
1.979669e+08 -1.741409e-03 2.404213e-02 7.487793e-01 -6.382446e-01 7.640991e-01 -6.149902e-01 -9.704590e-03 3.705788e-02
1.981847e+08 -1.699448e-03 2.419662e-02 7.490845e-01 -6.392212e-01 7.631836e-01 -6.152344e-01 -9.483337e-03 3.724480e-02
1.984025e+08 -1.539230e-03 2.438927e-02 7.486572e-01 -6.390991e-01 7.624512e-01 -6.158447e-01 -9.225845e-03 3.735924e-02
1.986203e+08 -1.457214e-03 2.466202e-02 7.477417e-01 -6.396484e-01 7.624512e-01 -6.162109e-01 -8.962631e-03 3.753471e-02
1.988381e+08 -1.321793e-03 2.481079e-02 7.467651e-01 -6.408691e-01 7.620239e-01 -6.163330e-01 -8.693695e-03 3.770638e-02
1.990559e+08 -1.272202e-03 2.498055e-02 7.467041e-01 -6.408691e-01 7.624512e-01 -6.171265e-01 -8.495331e-03 3.789520e-02
1.992738e+08 -1.142502e-03 2.520561e-02 7.457886e-01 -6.410522e-01 7.615967e-01 -6.179199e-01 -8.192062e-03 3.805733e-02
1.994916e+08 -1.020432e-03 2.539635e-02 7.449951e-01 -6.418457e-01 7.612305e-01 -6.185913e-01 -7.923126e-03 3.822708e-02
1.997094e+08 -9.441376e-04 2.557373e-02 7.449951e-01 -6.416016e-01 7.600098e-01 -6.190186e-01 -7.694244e-03 3.834152e-02
1.999272e+08 -7.476807e-04 2.574158e-02 7.441406e-01 -6.420898e-01 7.595215e-01 -6.196289e-01 -7.440567e-03 3.853798e-02
2.001450e+08 -6.427765e-04 2.595711e-02 7.441406e-01 -6.426392e-01 7.592163e-01 -6.199341e-01 -7.165909e-03 3.866577e-02
2.003628e+08 -5.359650e-04 2.606201e-02 7.436523e-01 -6.427002e-01 7.592163e-01 -6.205444e-01 -6.900787e-03 3.883362e-02
2.005806e+08 -4.253387e-04 2.632332e-02 7.421265e-01 -6.433716e-01 7.587891e-01 -6.199951e-01 -6.582260e-03 3.892326e-02
2.007984e+08 -2.861023e-04 2.649689e-02 7.420044e-01 -6.446533e-01 7.581787e-01 -6.213379e-01 -6.353378e-03 3.914070e-02
2.010162e+08 -1.602173e-04 2.665520e-02 7.418213e-01 -6.451416e-01 7.570801e-01 -6.212158e-01 -6.114960e-03 3.922844e-02
2.012341e+08 -6.675720e-05 2.685547e-02 7.407837e-01 -6.456909e-01 7.567749e-01 -6.221924e-01 -5.800247e-03 3.945923e-02
2.014519e+08 1.163483e-04 2.704048e-02 7.408447e-01 -6.469116e-01 7.559814e-01 -6.225586e-01 -5.491257e-03 3.959084e-02
2.016697e+08 1.964569e-04 2.723694e-02 7.397461e-01 -6.464844e-01 7.566528e-01 -6.228027e-01 -5.233765e-03 3.967667e-02
2.018875e+08 3.356934e-04 2.743530e-02 7.396851e-01 -6.464233e-01 7.551270e-01 -6.233521e-01 -4.999161e-03 3.980064e-02
2.021053e+08 4.501343e-04 2.760506e-02 7.387695e-01 -6.481323e-01 7.542725e-01 -6.243286e-01 -4.697800e-03 3.999901e-02
2.023231e+08 5.931854e-04 2.777672e-02 7.382202e-01 -6.481323e-01 7.546387e-01 -6.245117e-01 -4.430771e-03 4.010391e-02
2.025409e+08 7.495880e-04 2.788925e-02 7.376709e-01 -6.483765e-01 7.539673e-01 -6.249390e-01 -4.146576e-03 4.021072e-02
2.027588e+08 8.735657e-04 2.812195e-02 7.379150e-01 -6.495361e-01 7.539062e-01 -6.259155e-01 -3.864288e-03 4.033852e-02
2.029766e+08 1.003265e-03 2.825928e-02 7.371826e-01 -6.499634e-01 7.525024e-01 -6.260986e-01 -3.604889e-03 4.048157e-02
2.031944e+08 1.155853e-03 2.840996e-02 7.359619e-01 -6.497192e-01 7.523804e-01 -6.267700e-01 -3.278732e-03 4.056931e-02
2.034122e+08 1.258850e-03 2.865791e-02 7.360840e-01 -6.505737e-01 7.517700e-01 -6.274414e-01 -3.057480e-03 4.075432e-02
2.036300e+08 1.417160e-03 2.876282e-02 7.353516e-01 -6.517944e-01 7.509766e-01 -6.272583e-01 -2.729416e-03 4.089355e-02
2.038478e+08 1.602173e-03 2.897835e-02 7.347412e-01 -6.519165e-01 7.508545e-01 -6.286621e-01 -2.452850e-03 4.094315e-02
2.040656e+08 1.701355e-03 2.908897e-02 7.341919e-01 -6.525879e-01 7.505493e-01 -6.288452e-01 -2.149582e-03 4.107857e-02
2.042834e+08 1.802444e-03 2.931023e-02 7.343140e-01 -6.528320e-01 7.504883e-01 -6.289673e-01 -1.876831e-03 4.120064e-02
2.045012e+08 1.983643e-03 2.944183e-02 7.339478e-01 -6.525879e-01 7.496948e-01 -6.298218e-01 -1.657486e-03 4.140854e-02
2.047191e+08 2.174377e-03 2.961540e-02 7.329712e-01 -6.536865e-01 7.493286e-01 -6.303101e-01 -1.314163e-03 4.143143e-02
2.049369e+08 2.319336e-03 2.976227e-02 7.327271e-01 -6.538696e-01 7.484741e-01 -6.303101e-01 -1.037598e-03 4.154015e-02
2.051547e+08 2.447128e-03 2.991867e-02 7.318726e-01 -6.541138e-01 7.482910e-01 -6.317139e-01 -7.896423e-04 4.165077e-02
2.053725e+08 2.593994e-03 3.002739e-02 7.315674e-01 -6.547852e-01 7.478027e-01 -6.307983e-01 -4.367828e-04 4.180145e-02
2.055903e+08 2.716064e-03 3.024864e-02 7.306519e-01 -6.554565e-01 7.474365e-01 -6.328125e-01 -1.373291e-04 4.180908e-02
2.058081e+08 2.864838e-03 3.039551e-02 7.302856e-01 -6.558838e-01 7.469482e-01 -6.326294e-01 1.850128e-04 4.194069e-02
2.060259e+08 3.017426e-03 3.057098e-02 7.301636e-01 -6.558838e-01 7.470093e-01 -6.333008e-01 4.005432e-04 4.204559e-02
2.062438e+08 3.107071e-03 3.070450e-02 7.301025e-01 -6.566162e-01 7.456055e-01 -6.329346e-01 6.694794e-04 4.216766e-02
2.064616e+08 3.364563e-03 3.084564e-02 7.294312e-01 -6.572266e-01 7.449951e-01 -6.334229e-01 9.956360e-04 4.230499e-02
2.066794e+08 3.479004e-03 3.102684e-02 7.281494e-01 -6.580811e-01 7.448730e-01 -6.342773e-01 1.327515e-03 4.234886e-02
2.068972e+08 3.675461e-03 3.118324e-02 7.277832e-01 -6.580811e-01 7.441406e-01 -6.351318e-01 1.575470e-03 4.244995e-02
2.071150e+08 3.791809e-03 3.129005e-02 7.271118e-01 -6.594238e-01 7.442017e-01 -6.350098e-01 1.890182e-03 4.250145e-02
2.073328e+08 3.938675e-03 3.146744e-02 7.268677e-01 -6.604004e-01 7.441406e-01 -6.364136e-01 2.233505e-03 4.263687e-02
2.075506e+08 4.112244e-03 3.163147e-02 7.262573e-01 -6.603394e-01 7.433472e-01 -6.367798e-01 2.502441e-03 4.273987e-02
2.077684e+08 4.289627e-03 3.173256e-02 7.260132e-01 -6.601562e-01 7.427368e-01 -6.362915e-01 2.820969e-03 4.274940e-02
2.079862e+08 4.453659e-03 3.190804e-02 7.258911e-01 -6.605225e-01 7.423096e-01 -6.367188e-01 3.101349e-03 4.285240e-02
2.082041e+08 4.585266e-03 3.202248e-02 7.250366e-01 -6.602783e-01 7.416992e-01 -6.378174e-01 3.374100e-03 4.290771e-02
2.084219e+08 4.751205e-03 3.218460e-02 7.246704e-01 -6.618042e-01 7.407227e-01 -6.381836e-01 3.694534e-03 4.303551e-02
2.086397e+08 4.928589e-03 3.232574e-02 7.238159e-01 -6.623535e-01 7.411499e-01 -6.392212e-01 4.030228e-03 4.306030e-02
2.088575e+08 5.102158e-03 3.243256e-02 7.229004e-01 -6.622925e-01 7.401123e-01 -6.390381e-01 4.261017e-03 4.314041e-02
2.090753e+08 5.266190e-03 3.262329e-02 7.233276e-01 -6.626587e-01 7.404175e-01 -6.406250e-01 4.552841e-03 4.320526e-02
2.092931e+08 5.437851e-03 3.271103e-02 7.224731e-01 -6.636353e-01 7.390137e-01 -6.405640e-01 4.917145e-03 4.327393e-02
2.095109e+08 5.594254e-03 3.287506e-02 7.225342e-01 -6.646729e-01 7.382202e-01 -6.412964e-01 5.212784e-03 4.335403e-02
2.097288e+08 5.710602e-03 3.299522e-02 7.213745e-01 -6.638184e-01 7.385864e-01 -6.406860e-01 5.510330e-03 4.336548e-02
2.099466e+08 5.931854e-03 3.307343e-02 7.208252e-01 -6.654663e-01 7.384644e-01 -6.418457e-01 5.863190e-03 4.348946e-02
2.101644e+08 6.111145e-03 3.326797e-02 7.206421e-01 -6.655273e-01 7.378540e-01 -6.425781e-01 6.105423e-03 4.352379e-02
2.103822e+08 6.292343e-03 3.334427e-02 7.207031e-01 -6.661987e-01 7.374268e-01 -6.428833e-01 6.393433e-03 4.362679e-02
2.106000e+08 6.370544e-03 3.349304e-02 7.196655e-01 -6.665039e-01 7.372437e-01 -6.430054e-01 6.669998e-03 4.365158e-02
2.108178e+08 6.635666e-03 3.359222e-02 7.187500e-01 -6.674194e-01 7.363281e-01 -6.438599e-01 7.059097e-03 4.367065e-02
2.110356e+08 6.799698e-03 3.374100e-02 7.174683e-01 -6.679077e-01 7.360840e-01 -6.443481e-01 7.356644e-03 4.374695e-02
2.112534e+08 7.003784e-03 3.387260e-02 7.179565e-01 -6.684570e-01 7.366333e-01 -6.451416e-01 7.696152e-03 4.377365e-02
2.114712e+08 7.085800e-03 3.396988e-02 7.174683e-01 -6.685181e-01 7.352905e-01 -6.444092e-01 7.934570e-03 4.384804e-02
2.116891e+08 7.381439e-03 3.411293e-02 7.174683e-01 -6.688232e-01 7.351685e-01 -6.458740e-01 8.270264e-03 4.386711e-02
2.119069e+08 7.461548e-03 3.417587e-02 7.168579e-01 -6.699219e-01 7.346191e-01 -6.453247e-01 8.655548e-03 4.389381e-02
2.121247e+08 7.675171e-03 3.433800e-02 7.155762e-01 -6.698608e-01 7.337646e-01 -6.468506e-01 8.903503e-03 4.391289e-02
2.123425e+08 7.806778e-03 3.444099e-02 7.156372e-01 -6.704102e-01 7.337646e-01 -6.467896e-01 9.212494e-03 4.403496e-02
2.125603e+08 8.047104e-03 3.458023e-02 7.157593e-01 -6.713257e-01 7.333984e-01 -6.478271e-01 9.500504e-03 4.402542e-02
2.127781e+08 8.235931e-03 3.466797e-02 7.149048e-01 -6.707764e-01 7.329102e-01 -6.479492e-01 9.773254e-03 4.404068e-02
2.129959e+08 8.424759e-03 3.470421e-02 7.152710e-01 -6.709595e-01 7.314453e-01 -6.487427e-01 1.006508e-02 4.406548e-02
2.132138e+08 8.571625e-03 3.481293e-02 7.142334e-01 -6.730957e-01 7.318115e-01 -6.485596e-01 1.044464e-02 4.409599e-02
2.134316e+08 8.747101e-03 3.495407e-02 7.138672e-01 -6.729736e-01 7.315063e-01 -6.495361e-01 1.075172e-02 4.413414e-02
2.136494e+08 8.939743e-03 3.505516e-02 7.130127e-01 -6.737671e-01 7.308960e-01 -6.502075e-01 1.103973e-02 4.415512e-02
2.138672e+08 9.147644e-03 3.512383e-02 7.124634e-01 -6.739502e-01 7.297974e-01 -6.508179e-01 1.134872e-02 4.418373e-02
2.140850e+08 9.323120e-03 3.528214e-02 7.118530e-01 -6.744385e-01 7.299194e-01 -6.511230e-01 1.162148e-02 4.417610e-02
2.143028e+08 9.498596e-03 3.533363e-02 7.119751e-01 -6.748047e-01 7.300415e-01 -6.514893e-01 1.197433e-02 4.420280e-02
2.145206e+08 9.584427e-03 3.543282e-02 7.109375e-01 -6.758423e-01 7.293701e-01 -6.523438e-01 1.230049e-02 4.421234e-02
2.147384e+08 9.874344e-03 3.554344e-02 7.103882e-01 -6.752930e-01 7.288208e-01 -6.517334e-01 1.260376e-02 4.421997e-02
2.149562e+08 1.006889e-02 3.564835e-02 7.100830e-01 -6.767578e-01 7.282104e-01 -6.535645e-01 1.296806e-02 4.421234e-02
2.151741e+08 1.026726e-02 3.569984e-02 7.095337e-01 -6.768799e-01 7.279053e-01 -6.533813e-01 1.322174e-02 4.420662e-02
2.153919e+08 1.039314e-02 3.578186e-02 7.091064e-01 -6.776733e-01 7.277222e-01 -6.542969e-01 1.354599e-02 4.424477e-02
2.156097e+08 1.057434e-02 3.590584e-02 7.094727e-01 -6.778564e-01 7.268677e-01 -6.545410e-01 1.387024e-02 4.422379e-02
2.158275e+08 1.086426e-02 3.595352e-02 7.081909e-01 -6.779785e-01 7.263184e-01 -6.550903e-01 1.418495e-02 4.420280e-02
2.160453e+08 1.101112e-02 3.603363e-02 7.085571e-01 -6.789551e-01 7.260742e-01 -6.554565e-01 1.449966e-02 4.423523e-02
2.162631e+08 1.120186e-02 3.608894e-02 7.078857e-01 -6.787720e-01 7.257690e-01 -6.560669e-01 1.475906e-02 4.418373e-02
2.164809e+08 1.135063e-02 3.617477e-02 7.073364e-01 -6.801758e-01 7.254639e-01 -6.562500e-01 1.511765e-02 4.423523e-02
2.166988e+08 1.159859e-02 3.626633e-02 7.069092e-01 -6.799927e-01 7.252808e-01 -6.566162e-01 1.539612e-02 4.419327e-02
2.169166e+08 1.177979e-02 3.632736e-02 7.059937e-01 -6.820068e-01 7.251587e-01 -6.573486e-01 1.579475e-02 4.423141e-02
2.171344e+08 1.197433e-02 3.644180e-02 7.056274e-01 -6.817627e-01 7.243042e-01 -6.575317e-01 1.609802e-02 4.420280e-02
2.173522e+08 1.220512e-02 3.645134e-02 7.048950e-01 -6.816406e-01 7.234497e-01 -6.583862e-01 1.636696e-02 4.393768e-02
2.175700e+08 1.234818e-02 3.653908e-02 7.046509e-01 -6.820679e-01 7.230835e-01 -6.588745e-01 1.663589e-02 4.407501e-02
2.177878e+08 1.255989e-02 3.664970e-02 7.043457e-01 -6.826172e-01 7.231445e-01 -6.596680e-01 1.699829e-02 4.407692e-02
2.180056e+08 1.275826e-02 3.668976e-02 7.044678e-01 -6.828613e-01 7.229614e-01 -6.596680e-01 1.714516e-02 4.410172e-02
2.182234e+08 1.291084e-02 3.671074e-02 7.031250e-01 -6.843262e-01 7.219849e-01 -6.608887e-01 1.749229e-02 4.407692e-02
2.184412e+08 1.313782e-02 3.679085e-02 7.031860e-01 -6.842651e-01 7.221069e-01 -6.610718e-01 1.794434e-02 4.400635e-02
2.186591e+08 1.332283e-02 3.678703e-02 7.029419e-01 -6.847534e-01 7.208252e-01 -6.618042e-01 1.841545e-02 4.398537e-02
2.188769e+08 1.353264e-02 3.695297e-02 7.023315e-01 -6.859741e-01 7.213135e-01 -6.619263e-01 1.861000e-02 4.391098e-02
2.190947e+08 1.374054e-02 3.697014e-02 7.019653e-01 -6.861572e-01 7.202759e-01 -6.629639e-01 1.879120e-02 4.398155e-02
2.193125e+08 1.387787e-02 3.699303e-02 7.011108e-01 -6.869507e-01 7.194824e-01 -6.626587e-01 1.914024e-02 4.391479e-02
2.195303e+08 1.409149e-02 3.706741e-02 7.011719e-01 -6.867065e-01 7.194214e-01 -6.638794e-01 1.939964e-02 4.385757e-02
2.197481e+08 1.431847e-02 3.706741e-02 7.000732e-01 -6.876831e-01 7.188721e-01 -6.642456e-01 1.987267e-02 4.383850e-02
2.199659e+08 1.452065e-02 3.719139e-02 6.997681e-01 -6.868896e-01 7.185669e-01 -6.648560e-01 2.011681e-02 4.384041e-02
2.201838e+08 1.468658e-02 3.719711e-02 6.990356e-01 -6.887817e-01 7.186890e-01 -6.656494e-01 2.045250e-02 4.379082e-02
2.204016e+08 1.486969e-02 3.729057e-02 6.983643e-01 -6.883545e-01 7.179565e-01 -6.659546e-01 2.063751e-02 4.358673e-02
2.206194e+08 1.508331e-02 3.727531e-02 6.983643e-01 -6.895752e-01 7.178955e-01 -6.663818e-01 2.103615e-02 4.349709e-02
2.208372e+08 1.522446e-02 3.731155e-02 6.978149e-01 -6.895752e-01 7.174072e-01 -6.670532e-01 2.124023e-02 4.345322e-02
2.210550e+08 1.552391e-02 3.732872e-02 6.968384e-01 -6.901245e-01 7.165527e-01 -6.678467e-01 2.156830e-02 4.347801e-02
2.212728e+08 1.574707e-02 3.737831e-02 6.964722e-01 -6.905518e-01 7.152100e-01 -6.677856e-01 2.189255e-02 4.345131e-02
2.214906e+08 1.589203e-02 3.744507e-02 6.962280e-01 -6.911621e-01 7.159424e-01 -6.683960e-01 2.228928e-02 4.332161e-02
2.217084e+08 1.613998e-02 3.747940e-02 6.968994e-01 -6.921387e-01 7.153320e-01 -6.688232e-01 2.259254e-02 4.327774e-02
2.219262e+08 1.626587e-02 3.747559e-02 6.946411e-01 -6.929321e-01 7.150879e-01 -6.688843e-01 2.280045e-02 4.332161e-02
2.221441e+08 1.647758e-02 3.752518e-02 6.948853e-01 -6.933594e-01 7.150879e-01 -6.697998e-01 2.313614e-02 4.319191e-02
2.223619e+08 1.669312e-02 3.751564e-02 6.932983e-01 -6.936035e-01 7.144470e-01 -6.703491e-01 2.344894e-02 4.305077e-02
2.225797e+08 1.692009e-02 3.753662e-02 6.943970e-01 -6.937866e-01 7.141113e-01 -6.709595e-01 2.390671e-02 4.295158e-02
2.227975e+08 1.704216e-02 3.758812e-02 6.934204e-01 -6.953125e-01 7.134094e-01 -6.701965e-01 2.405167e-02 4.296684e-02
2.230153e+08 1.733780e-02 3.758812e-02 6.928711e-01 -6.951294e-01 7.130127e-01 -6.725464e-01 2.436829e-02 4.286957e-02
2.232331e+08 1.747131e-02 3.760719e-02 6.916504e-01 -6.960449e-01 7.121887e-01 -6.719055e-01 2.483940e-02 4.266930e-02
2.234509e+08 1.768303e-02 3.762054e-02 6.919556e-01 -6.959229e-01 7.121582e-01 -6.730957e-01 2.493095e-02 4.262733e-02
2.236688e+08 1.781464e-02 3.763962e-02 6.923218e-01 -6.967773e-01 7.117310e-01 -6.730957e-01 2.537537e-02 4.262924e-02
2.238866e+08 1.807404e-02 3.765488e-02 6.909790e-01 -6.967773e-01 7.118530e-01 -6.742554e-01 2.562904e-02 4.238892e-02
2.241044e+08 1.828575e-02 3.773117e-02 6.899414e-01 -6.981201e-01 7.117920e-01 -6.754456e-01 2.576447e-02 4.231644e-02
2.243222e+08 1.855850e-02 3.774643e-02 6.903687e-01 -6.984253e-01 7.105103e-01 -6.757507e-01 2.613640e-02 4.221916e-02
2.245400e+08 1.866722e-02 3.766441e-02 6.894531e-01 -6.987305e-01 7.091370e-01 -6.753845e-01 2.651024e-02 4.224777e-02
2.247578e+08 1.887321e-02 3.767204e-02 6.898804e-01 -6.994629e-01 7.099609e-01 -6.766357e-01 2.673340e-02 4.216194e-02
2.249756e+08 1.909828e-02 3.766632e-02 6.887817e-01 -6.995239e-01 7.087097e-01 -6.768494e-01 2.696800e-02 4.211998e-02
2.251934e+08 1.927376e-02 3.760910e-02 6.884155e-01 -7.007446e-01 7.082214e-01 -6.773682e-01 2.733803e-02 4.180527e-02
2.254112e+08 1.953125e-02 3.767014e-02 6.885376e-01 -7.011108e-01 7.076416e-01 -6.785889e-01 2.753258e-02 4.186440e-02
2.256291e+08 1.972771e-02 3.762054e-02 6.874390e-01 -7.006226e-01 7.070923e-01 -6.784058e-01 2.783775e-02 4.170799e-02
2.258469e+08 1.989555e-02 3.763008e-02 6.862793e-01 -7.028198e-01 7.073975e-01 -6.788330e-01 2.829742e-02 4.170799e-02
2.260647e+08 2.009010e-02 3.764725e-02 6.869507e-01 -7.027588e-01 7.066956e-01 -6.794128e-01 2.854729e-02 4.143143e-02
2.262825e+08 2.032661e-02 3.762245e-02 6.853027e-01 -7.036133e-01 7.064819e-01 -6.808167e-01 2.886963e-02 4.106903e-02
2.265003e+08 2.049065e-02 3.757858e-02 6.858521e-01 -7.041626e-01 7.058411e-01 -6.809998e-01 2.928352e-02 4.126740e-02
2.267181e+08 2.062988e-02 3.759003e-02 6.849976e-01 -7.042236e-01 7.056274e-01 -6.809692e-01 2.932167e-02 4.105568e-02
2.269359e+08 2.090454e-02 3.756905e-02 6.847534e-01 -7.052002e-01 7.055359e-01 -6.818237e-01 2.956581e-02 4.098320e-02
2.271538e+08 2.107048e-02 3.755569e-02 6.842041e-01 -7.050781e-01 7.043457e-01 -6.824036e-01 2.999878e-02 4.079056e-02
2.273716e+08 2.124977e-02 3.754234e-02 6.835938e-01 -7.057495e-01 7.043152e-01 -6.829529e-01 3.029633e-02 4.077530e-02
2.275894e+08 2.143860e-02 3.751564e-02 6.830444e-01 -7.070312e-01 7.044067e-01 -6.834106e-01 3.062439e-02 4.060555e-02
2.278072e+08 2.161407e-02 3.739738e-02 6.834717e-01 -7.063599e-01 7.027893e-01 -6.838684e-01 3.069687e-02 4.042816e-02
2.280250e+08 2.180290e-02 3.740120e-02 6.821289e-01 -7.072754e-01 7.029724e-01 -6.847839e-01 3.111458e-02 4.036331e-02
2.282428e+08 2.208519e-02 3.737831e-02 6.822510e-01 -7.080078e-01 7.026672e-01 -6.859131e-01 3.129768e-02 4.020691e-02
2.284606e+08 2.218819e-02 3.734398e-02 6.810303e-01 -7.082520e-01 7.018433e-01 -6.853027e-01 3.173065e-02 4.005432e-02
2.286784e+08 2.245140e-02 3.734016e-02 6.810303e-01 -7.098999e-01 7.024231e-01 -6.861572e-01 3.196526e-02 3.983307e-02
2.288962e+08 2.262497e-02 3.732109e-02 6.801147e-01 -7.100220e-01 7.018738e-01 -6.870728e-01 3.229332e-02 3.982925e-02
2.291141e+08 2.284241e-02 3.726768e-02 6.795654e-01 -7.090454e-01 7.009277e-01 -6.882324e-01 3.236389e-02 3.946304e-02
2.293319e+08 2.300835e-02 3.719330e-02 6.785889e-01 -7.108154e-01 7.006531e-01 -6.876526e-01 3.264618e-02 3.942871e-02
2.295497e+08 2.320480e-02 3.714943e-02 6.782227e-01 -7.108765e-01 7.001038e-01 -6.888733e-01 3.310966e-02 3.916359e-02
2.297675e+08 2.343369e-02 3.711700e-02 6.781616e-01 -7.131348e-01 6.990356e-01 -6.896667e-01 3.340530e-02 3.927231e-02
2.299853e+08 2.358246e-02 3.708839e-02 6.773682e-01 -7.133179e-01 6.988220e-01 -6.901245e-01 3.360939e-02 3.894997e-02
2.302031e+08 2.378273e-02 3.709412e-02 6.769409e-01 -7.139282e-01 6.991882e-01 -6.905212e-01 3.391457e-02 3.883743e-02
2.304209e+08 2.395821e-02 3.695297e-02 6.761475e-01 -7.143555e-01 6.981506e-01 -6.902466e-01 3.411102e-02 3.866386e-02
2.306388e+08 2.412224e-02 3.694725e-02 6.759644e-01 -7.143555e-01 6.977539e-01 -6.921997e-01 3.431511e-02 3.847122e-02
2.308566e+08 2.435493e-02 3.676796e-02 6.753540e-01 -7.150269e-01 6.962891e-01 -6.920776e-01 3.478813e-02 3.824615e-02
2.310744e+08 2.454948e-02 3.679466e-02 6.754761e-01 -7.153320e-01 6.964417e-01 -6.929321e-01 3.494263e-02 3.809929e-02
2.312922e+08 2.472496e-02 3.672218e-02 6.751709e-01 -7.156982e-01 6.957703e-01 -6.935120e-01 3.525734e-02 3.801537e-02
2.315100e+08 2.488708e-02 3.665924e-02 6.737061e-01 -7.167358e-01 6.953735e-01 -6.940308e-01 3.546333e-02 3.767967e-02
2.317278e+08 2.507019e-02 3.657150e-02 6.738892e-01 -7.170410e-01 6.946411e-01 -6.936951e-01 3.582382e-02 3.759193e-02
2.319456e+08 2.527237e-02 3.651047e-02 6.724854e-01 -7.174072e-01 6.950378e-01 -6.944885e-01 3.587914e-02 3.744698e-02
2.321634e+08 2.544403e-02 3.641701e-02 6.728516e-01 -7.184448e-01 6.936951e-01 -6.952515e-01 3.619766e-02 3.737831e-02
2.323812e+08 2.566719e-02 3.638458e-02 6.730347e-01 -7.188721e-01 6.932373e-01 -6.960754e-01 3.657722e-02 3.709793e-02
2.325991e+08 2.577782e-02 3.628922e-02 6.718140e-01 -7.191162e-01 6.927795e-01 -6.956482e-01 3.677177e-02 3.687096e-02
2.328169e+08 2.601624e-02 3.627968e-02 6.705322e-01 -7.199097e-01 6.925659e-01 -6.972656e-01 3.713036e-02 3.669167e-02
2.330347e+08 2.613449e-02 3.617287e-02 6.704712e-01 -7.210693e-01 6.923828e-01 -6.972961e-01 3.734016e-02 3.661346e-02
2.332525e+08 2.638817e-02 3.609276e-02 6.699219e-01 -7.214355e-01 6.915894e-01 -6.983337e-01 3.745079e-02 3.641891e-02
2.334703e+08 2.655411e-02 3.598595e-02 6.693115e-01 -7.216797e-01 6.909485e-01 -6.988525e-01 3.769493e-02 3.604317e-02
2.336881e+08 2.672386e-02 3.589821e-02 6.687012e-01 -7.227173e-01 6.902771e-01 -6.993713e-01 3.798294e-02 3.598213e-02
2.339059e+08 2.687836e-02 3.581047e-02 6.677856e-01 -7.228394e-01 6.905212e-01 -6.997681e-01 3.814888e-02 3.572273e-02
2.341238e+08 2.707100e-02 3.575897e-02 6.676636e-01 -7.238159e-01 6.902161e-01 -7.008972e-01 3.835106e-02 3.545761e-02
2.343416e+08 2.722168e-02 3.564835e-02 6.666870e-01 -7.238159e-01 6.893921e-01 -7.008972e-01 3.868675e-02 3.519440e-02
2.345594e+08 2.741432e-02 3.554153e-02 6.654663e-01 -7.245483e-01 6.891479e-01 -7.018127e-01 3.905106e-02 3.511429e-02
2.347772e+08 2.754211e-02 3.543854e-02 6.657715e-01 -7.252808e-01 6.889038e-01 -7.014465e-01 3.912735e-02 3.500748e-02
2.349950e+08 2.771187e-02 3.535461e-02 6.647339e-01 -7.245483e-01 6.877441e-01 -7.025452e-01 3.930283e-02 3.464890e-02
2.352128e+08 2.792931e-02 3.523636e-02 6.649780e-01 -7.256470e-01 6.867676e-01 -7.034912e-01 3.968048e-02 3.442383e-02
2.354306e+08 2.810478e-02 3.516579e-02 6.648560e-01 -7.262573e-01 6.869507e-01 -7.035828e-01 3.973198e-02 3.443718e-02
2.356484e+08 2.826118e-02 3.507423e-02 6.640015e-01 -7.273560e-01 6.866455e-01 -7.044067e-01 4.003716e-02 3.396606e-02
2.358662e+08 2.847290e-02 3.493881e-02 6.629028e-01 -7.274780e-01 6.854553e-01 -7.049866e-01 4.021835e-02 3.391838e-02
2.360841e+08 2.863121e-02 3.483582e-02 6.629639e-01 -7.281494e-01 6.855164e-01 -7.058716e-01 4.058075e-02 3.369331e-02
2.363019e+08 2.876282e-02 3.467178e-02 6.619263e-01 -7.288208e-01 6.847534e-01 -7.058716e-01 4.076385e-02 3.349495e-02
2.365197e+08 2.900314e-02 3.464890e-02 6.615601e-01 -7.299805e-01 6.846008e-01 -7.069092e-01 4.100990e-02 3.334045e-02
2.367375e+08 2.907181e-02 3.451538e-02 6.610718e-01 -7.301636e-01 6.837463e-01 -7.070312e-01 4.137993e-02 3.289413e-02
2.369553e+08 2.925873e-02 3.439331e-02 6.597290e-01 -7.303467e-01 6.834717e-01 -7.075500e-01 4.149818e-02 3.289032e-02
2.371731e+08 2.942467e-02 3.427124e-02 6.596680e-01 -7.312012e-01 6.824646e-01 -7.076721e-01 4.155922e-02 3.257179e-02
2.373909e+08 2.959442e-02 3.418541e-02 6.594238e-01 -7.319336e-01 6.813965e-01 -7.088928e-01 4.184151e-02 3.241158e-02
2.376088e+08 2.976036e-02 3.404617e-02 6.588745e-01 -7.325439e-01 6.818237e-01 -7.093811e-01 4.200935e-02 3.212929e-02
2.378266e+08 2.987862e-02 3.400803e-02 6.582642e-01 -7.327881e-01 6.815491e-01 -7.099304e-01 4.231453e-02 3.204346e-02
2.380444e+08 3.003883e-02 3.377342e-02 6.572876e-01 -7.337646e-01 6.799316e-01 -7.106934e-01 4.248619e-02 3.165817e-02
2.382622e+08 3.022385e-02 3.361702e-02 6.577148e-01 -7.348633e-01 6.799011e-01 -7.115784e-01 4.253387e-02 3.141022e-02
2.384800e+08 3.038406e-02 3.352165e-02 6.563110e-01 -7.338867e-01 6.794128e-01 -7.114563e-01 4.285049e-02 3.122330e-02
2.386978e+08 3.050995e-02 3.336525e-02 6.556396e-01 -7.346802e-01 6.777039e-01 -7.123718e-01 4.307175e-02 3.094482e-02
2.389156e+08 3.066063e-02 3.330231e-02 6.555176e-01 -7.351685e-01 6.781921e-01 -7.126770e-01 4.330826e-02 3.065872e-02
2.391334e+08 3.079224e-02 3.317451e-02 6.547852e-01 -7.360229e-01 6.777954e-01 -7.127380e-01 4.349327e-02 3.049660e-02
2.393512e+08 3.087616e-02 3.305435e-02 6.542969e-01 -7.362061e-01 6.774902e-01 -7.138062e-01 4.358864e-02 3.026772e-02
2.395691e+08 3.112411e-02 3.287888e-02 6.531982e-01 -7.368774e-01 6.771851e-01 -7.145081e-01 4.368782e-02 2.995110e-02
2.397869e+08 3.118706e-02 3.280258e-02 6.532593e-01 -7.369385e-01 6.768494e-01 -7.144165e-01 4.398727e-02 2.978134e-02
2.400047e+08 3.133774e-02 3.260612e-02 6.522217e-01 -7.379150e-01 6.759033e-01 -7.152710e-01 4.421997e-02 2.947235e-02
2.402225e+08 3.153229e-02 3.245354e-02 6.520386e-01 -7.384033e-01 6.753540e-01 -7.163696e-01 4.436302e-02 2.926254e-02
2.404403e+08 3.159714e-02 3.228760e-02 6.508789e-01 -7.388306e-01 6.747437e-01 -7.165527e-01 4.458237e-02 2.902985e-02
2.406581e+08 3.180504e-02 3.220367e-02 6.502686e-01 -7.387695e-01 6.747437e-01 -7.166748e-01 4.483414e-02 2.870560e-02
2.408759e+08 3.191376e-02 3.206253e-02 6.492920e-01 -7.404785e-01 6.740723e-01 -7.177124e-01 4.496002e-02 2.851868e-02
2.410938e+08 3.199577e-02 3.187180e-02 6.491699e-01 -7.398682e-01 6.726685e-01 -7.180176e-01 4.505539e-02 2.816772e-02
2.413116e+08 3.220367e-02 3.176880e-02 6.485596e-01 -7.407837e-01 6.725464e-01 -7.191162e-01 4.536438e-02 2.794647e-02
2.415294e+08 3.233337e-02 3.161621e-02 6.475830e-01 -7.407837e-01 6.719971e-01 -7.195435e-01 4.550171e-02 2.765656e-02
2.417472e+08 3.249359e-02 3.141403e-02 6.480713e-01 -7.418823e-01 6.714478e-01 -7.203369e-01 4.550552e-02 2.755356e-02
2.419650e+08 3.262520e-02 3.122139e-02 6.463623e-01 -7.424316e-01 6.705933e-01 -7.208252e-01 4.575348e-02 2.715302e-02
2.421828e+08 3.270912e-02 3.110695e-02 6.463013e-01 -7.426147e-01 6.697998e-01 -7.209473e-01 4.600906e-02 2.693176e-02
2.424006e+08 3.282356e-02 3.100967e-02 6.456909e-01 -7.424927e-01 6.704712e-01 -7.213745e-01 4.613495e-02 2.671814e-02
2.426184e+08 3.297806e-02 3.084564e-02 6.450806e-01 -7.440796e-01 6.695557e-01 -7.213745e-01 4.629135e-02 2.647781e-02
2.428362e+08 3.305054e-02 3.065300e-02 6.445923e-01 -7.443237e-01 6.685181e-01 -7.224121e-01 4.642868e-02 2.612686e-02
2.430541e+08 3.316116e-02 3.046608e-02 6.438599e-01 -7.446899e-01 6.672974e-01 -7.225952e-01 4.650497e-02 2.587128e-02
2.432719e+08 3.336143e-02 3.034592e-02 6.439819e-01 -7.454224e-01 6.669312e-01 -7.238159e-01 4.679489e-02 2.561188e-02
2.434897e+08 3.350067e-02 3.019333e-02 6.427612e-01 -7.467041e-01 6.672363e-01 -7.246094e-01 4.690552e-02 2.528763e-02
2.437075e+08 3.355408e-02 3.003502e-02 6.416016e-01 -7.460327e-01 6.663208e-01 -7.251587e-01 4.703140e-02 2.502823e-02
2.439253e+08 3.362656e-02 2.987862e-02 6.408691e-01 -7.476196e-01 6.660156e-01 -7.251587e-01 4.711151e-02 2.473831e-02
2.441431e+08 3.377533e-02 2.965355e-02 6.407471e-01 -7.472534e-01 6.651001e-01 -7.259521e-01 4.729080e-02 2.454376e-02
2.443609e+08 3.392029e-02 2.953339e-02 6.409302e-01 -7.481689e-01 6.649780e-01 -7.264404e-01 4.729080e-02 2.425385e-02
2.445788e+08 3.396606e-02 2.931786e-02 6.398926e-01 -7.482300e-01 6.638794e-01 -7.264404e-01 4.748917e-02 2.406693e-02
2.447966e+08 3.407097e-02 2.918625e-02 6.397095e-01 -7.484741e-01 6.637573e-01 -7.268066e-01 4.773712e-02 2.379608e-02
2.450144e+08 3.422165e-02 2.903175e-02 6.389771e-01 -7.499390e-01 6.630859e-01 -7.280273e-01 4.792786e-02 2.336121e-02
2.452322e+08 3.422165e-02 2.882767e-02 6.381226e-01 -7.499390e-01 6.631470e-01 -7.276001e-01 4.790878e-02 2.300644e-02
2.454500e+08 3.439522e-02 2.864838e-02 6.379395e-01 -7.505493e-01 6.628418e-01 -7.285767e-01 4.798126e-02 2.286911e-02
2.456678e+08 3.451538e-02 2.838898e-02 6.363525e-01 -7.509766e-01 6.608887e-01 -7.293701e-01 4.819107e-02 2.249146e-02
2.458856e+08 3.457260e-02 2.829552e-02 6.358643e-01 -7.514648e-01 6.609497e-01 -7.295532e-01 4.835129e-02 2.221298e-02
2.461034e+08 3.470039e-02 2.809334e-02 6.357422e-01 -7.512817e-01 6.608887e-01 -7.306519e-01 4.834366e-02 2.209473e-02
2.463212e+08 3.478432e-02 2.792168e-02 6.348267e-01 -7.522583e-01 6.603394e-01 -7.305908e-01 4.864120e-02 2.164841e-02
2.465391e+08 3.488159e-02 2.770805e-02 6.344604e-01 -7.529907e-01 6.584473e-01 -7.316895e-01 4.859543e-02 2.139664e-02
2.467569e+08 3.493881e-02 2.752876e-02 6.333618e-01 -7.526855e-01 6.585083e-01 -7.318726e-01 4.874039e-02 2.104950e-02
2.469747e+08 3.503036e-02 2.734184e-02 6.333008e-01 -7.534790e-01 6.575928e-01 -7.325439e-01 4.877472e-02 2.092743e-02
2.471925e+08 3.506851e-02 2.715302e-02 6.331787e-01 -7.529907e-01 6.571655e-01 -7.323608e-01 4.896164e-02 2.057648e-02
2.474103e+08 3.519821e-02 2.700043e-02 6.322632e-01 -7.547607e-01 6.566162e-01 -7.330322e-01 4.905701e-02 2.043915e-02
2.476281e+08 3.533363e-02 2.683258e-02 6.315308e-01 -7.548218e-01 6.563721e-01 -7.344360e-01 4.915237e-02 1.998138e-02
2.478459e+08 3.542709e-02 2.663422e-02 6.318359e-01 -7.555542e-01 6.555786e-01 -7.344360e-01 4.915619e-02 1.962280e-02
2.480638e+08 3.541565e-02 2.642441e-02 6.303711e-01 -7.562866e-01 6.551514e-01 -7.343140e-01 4.930496e-02 1.948929e-02
2.482816e+08 3.549767e-02 2.623749e-02 6.298828e-01 -7.569580e-01 6.542969e-01 -7.349854e-01 4.950714e-02 1.918411e-02
2.484994e+08 3.561401e-02 2.609253e-02 6.289062e-01 -7.570801e-01 6.546021e-01 -7.354126e-01 4.950714e-02 1.871109e-02
2.487172e+08 3.567886e-02 2.585030e-02 6.281738e-01 -7.573242e-01 6.538086e-01 -7.361450e-01 4.960251e-02 1.856995e-02
2.489350e+08 3.575134e-02 2.563667e-02 6.279907e-01 -7.578735e-01 6.523438e-01 -7.368164e-01 4.966736e-02 1.834488e-02
2.491528e+08 3.583145e-02 2.544022e-02 6.268921e-01 -7.586670e-01 6.525879e-01 -7.367554e-01 4.983521e-02 1.784897e-02
2.493706e+08 3.581619e-02 2.523041e-02 6.267090e-01 -7.589111e-01 6.508789e-01 -7.369995e-01 4.986954e-02 1.783371e-02
2.495884e+08 3.592682e-02 2.506256e-02 6.254272e-01 -7.593994e-01 6.508179e-01 -7.383423e-01 5.002213e-02 1.726913e-02
2.498062e+08 3.604889e-02 2.482414e-02 6.255493e-01 -7.603149e-01 6.501465e-01 -7.388306e-01 4.996490e-02 1.709366e-02
2.500241e+08 3.606987e-02 2.471161e-02 6.246948e-01 -7.608032e-01 6.500244e-01 -7.390137e-01 5.005646e-02 1.678848e-02
2.502419e+08 3.616333e-02 2.447319e-02 6.247559e-01 -7.603149e-01 6.491699e-01 -7.400513e-01 5.006027e-02 1.642227e-02
2.504597e+08 3.614807e-02 2.423096e-02 6.239014e-01 -7.617188e-01 6.486206e-01 -7.403564e-01 5.021286e-02 1.611710e-02
2.506775e+08 3.620720e-02 2.406502e-02 6.232910e-01 -7.617798e-01 6.483154e-01 -7.403564e-01 5.036926e-02 1.591873e-02
2.508953e+08 3.627968e-02 2.385330e-02 6.224365e-01 -7.620850e-01 6.475220e-01 -7.417603e-01 5.021286e-02 1.570129e-02
2.511131e+08 3.626633e-02 2.367210e-02 6.223755e-01 -7.622070e-01 6.473389e-01 -7.411499e-01 5.027771e-02 1.535416e-02
2.513309e+08 3.635025e-02 2.342224e-02 6.214600e-01 -7.621460e-01 6.466064e-01 -7.411499e-01 5.035400e-02 1.505280e-02
2.515488e+08 3.643227e-02 2.326202e-02 6.212769e-01 -7.634888e-01 6.470337e-01 -7.424316e-01 5.051804e-02 1.476669e-02
2.517666e+08 3.647614e-02 2.306747e-02 6.204834e-01 -7.636108e-01 6.458740e-01 -7.432251e-01 5.058289e-02 1.436996e-02
2.519844e+08 3.652000e-02 2.282715e-02 6.196899e-01 -7.649536e-01 6.449585e-01 -7.438965e-01 5.060959e-02 1.410294e-02
2.522022e+08 3.653908e-02 2.263832e-02 6.192017e-01 -7.642822e-01 6.439209e-01 -7.439575e-01 5.060196e-02 1.391602e-02
2.524200e+08 3.657341e-02 2.238464e-02 6.188354e-01 -7.647705e-01 6.436768e-01 -7.443237e-01 5.063629e-02 1.369095e-02
2.526378e+08 3.659439e-02 2.223587e-02 6.184082e-01 -7.655029e-01 6.436157e-01 -7.442627e-01 5.078506e-02 1.323318e-02
2.528556e+08 3.672218e-02 2.203178e-02 6.166992e-01 -7.662354e-01 6.432495e-01 -7.457886e-01 5.073929e-02 1.288986e-02
2.530734e+08 3.670120e-02 2.180862e-02 6.164551e-01 -7.666016e-01 6.422119e-01 -7.453003e-01 5.077362e-02 1.259613e-02
2.532912e+08 3.673935e-02 2.155876e-02 6.164551e-01 -7.673340e-01 6.412964e-01 -7.468872e-01 5.096054e-02 1.236343e-02
2.535091e+08 3.671265e-02 2.136421e-02 6.155396e-01 -7.674561e-01 6.405640e-01 -7.461548e-01 5.085373e-02 1.209641e-02
2.537269e+08 3.674698e-02 2.119255e-02 6.151733e-01 -7.679443e-01 6.403809e-01 -7.467041e-01 5.075455e-02 1.178360e-02
2.539447e+08 3.680801e-02 2.097321e-02 6.143799e-01 -7.681885e-01 6.398926e-01 -7.478638e-01 5.091858e-02 1.154327e-02
2.541625e+08 3.688240e-02 2.075386e-02 6.135254e-01 -7.680664e-01 6.394653e-01 -7.487793e-01 5.075455e-02 1.108551e-02
2.543803e+08 3.686523e-02 2.047729e-02 6.134033e-01 -7.697144e-01 6.383667e-01 -7.484741e-01 5.088043e-02 1.100922e-02
2.545981e+08 3.687096e-02 2.031517e-02 6.129761e-01 -7.695312e-01 6.380005e-01 -7.492065e-01 5.086136e-02 1.071548e-02
2.548159e+08 3.690720e-02 2.012253e-02 6.118774e-01 -7.697754e-01 6.374512e-01 -7.500000e-01 5.087280e-02 1.022720e-02
2.550338e+08 3.688622e-02 1.988220e-02 6.120605e-01 -7.701416e-01 6.370850e-01 -7.496338e-01 5.095673e-02 1.002121e-02
2.552516e+08 3.690720e-02 1.967621e-02 6.110840e-01 -7.705688e-01 6.364746e-01 -7.504272e-01 5.087280e-02 9.708405e-03
2.554694e+08 3.691864e-02 1.944160e-02 6.104736e-01 -7.706299e-01 6.361694e-01 -7.510986e-01 5.091095e-02 9.372711e-03
2.556872e+08 3.684998e-02 1.921654e-02 6.099854e-01 -7.719727e-01 6.349487e-01 -7.508545e-01 5.089951e-02 9.021759e-03
2.559050e+08 3.696060e-02 1.902390e-02 6.088257e-01 -7.724609e-01 6.342163e-01 -7.523193e-01 5.091476e-02 8.766174e-03
2.561228e+08 3.692627e-02 1.882744e-02 6.090698e-01 -7.725830e-01 6.345825e-01 -7.528687e-01 5.081558e-02 8.392334e-03
2.563406e+08 3.692055e-02 1.864052e-02 6.072388e-01 -7.730713e-01 6.342163e-01 -7.528076e-01 5.090332e-02 8.213043e-03
2.565584e+08 3.691483e-02 1.838875e-02 6.070557e-01 -7.733765e-01 6.326904e-01 -7.531738e-01 5.089951e-02 7.831573e-03
2.567762e+08 3.692245e-02 1.809502e-02 6.069946e-01 -7.738647e-01 6.318359e-01 -7.537842e-01 5.097198e-02 7.537842e-03
2.569941e+08 3.697395e-02 1.794624e-02 6.063232e-01 -7.747192e-01 6.327515e-01 -7.539062e-01 5.086517e-02 7.312775e-03
2.572119e+08 3.694534e-02 1.772308e-02 6.057739e-01 -7.753296e-01 6.314697e-01 -7.546997e-01 5.091476e-02 7.019043e-03
2.574297e+08 3.692627e-02 1.747131e-02 6.052246e-01 -7.755737e-01 6.309204e-01 -7.551270e-01 5.101776e-02 6.664276e-03
2.576475e+08 3.684235e-02 1.722145e-02 6.047974e-01 -7.761230e-01 6.301880e-01 -7.551880e-01 5.065155e-02 6.431580e-03
2.578653e+08 3.684616e-02 1.707840e-02 6.040039e-01 -7.766724e-01 6.295776e-01 -7.553101e-01 5.080414e-02 6.088257e-03
2.580831e+08 3.684616e-02 1.684570e-02 6.030884e-01 -7.765503e-01 6.292114e-01 -7.560425e-01 5.074692e-02 5.943298e-03
2.583009e+08 3.684425e-02 1.659966e-02 6.029053e-01 -7.765503e-01 6.289062e-01 -7.572021e-01 5.070877e-02 5.535126e-03
2.585188e+08 3.675270e-02 1.644897e-02 6.030273e-01 -7.777710e-01 6.286011e-01 -7.567749e-01 5.079269e-02 5.302429e-03
2.587366e+08 3.686333e-02 1.616287e-02 6.021729e-01 -7.778931e-01 6.278076e-01 -7.582397e-01 5.064392e-02 4.974365e-03
2.589544e+08 3.675270e-02 1.596260e-02 6.009521e-01 -7.784424e-01 6.270142e-01 -7.577515e-01 5.065918e-02 4.577637e-03
2.591722e+08 3.674507e-02 1.571465e-02 6.002197e-01 -7.795410e-01 6.259766e-01 -7.586060e-01 5.058289e-02 4.314423e-03
2.593900e+08 3.671455e-02 1.551819e-02 6.005249e-01 -7.789917e-01 6.260986e-01 -7.593994e-01 5.056381e-02 4.016876e-03
2.596078e+08 3.669167e-02 1.528168e-02 5.986328e-01 -7.805786e-01 6.249390e-01 -7.598267e-01 5.047226e-02 3.704071e-03
2.598256e+08 3.663826e-02 1.510429e-02 5.990601e-01 -7.810059e-01 6.245117e-01 -7.600098e-01 5.032349e-02 3.383636e-03
2.600434e+08 3.663254e-02 1.484108e-02 5.980835e-01 -7.807617e-01 6.235352e-01 -7.604980e-01 5.041122e-02 3.265381e-03
2.602612e+08 3.661156e-02 1.467514e-02 5.980225e-01 -7.820435e-01 6.237183e-01 -7.613525e-01 5.041885e-02 2.902985e-03
2.604791e+08 3.657341e-02 1.448059e-02 5.973511e-01 -7.817993e-01 6.232300e-01 -7.611084e-01 5.023575e-02 2.632141e-03
2.606969e+08 3.651047e-02 1.422310e-02 5.959473e-01 -7.822266e-01 6.224976e-01 -7.620239e-01 5.030823e-02 2.079010e-03
2.609147e+08 3.647614e-02 1.400948e-02 5.963745e-01 -7.830811e-01 6.220703e-01 -7.623291e-01 5.015564e-02 1.998901e-03
2.611325e+08 3.636932e-02 1.371956e-02 5.949097e-01 -7.828979e-01 6.204834e-01 -7.628784e-01 5.010605e-02 1.716614e-03
2.613503e+08 3.636360e-02 1.354408e-02 5.944824e-01 -7.839355e-01 6.203003e-01 -7.628784e-01 5.004501e-02 1.392365e-03
2.615681e+08 3.633881e-02 1.330757e-02 5.945435e-01 -7.839966e-01 6.201782e-01 -7.637939e-01 5.012131e-02 9.803772e-04
2.617859e+08 3.627014e-02 1.311111e-02 5.930786e-01 -7.838745e-01 6.192627e-01 -7.632446e-01 4.985046e-02 7.705688e-04
2.620038e+08 3.623390e-02 1.288033e-02 5.930176e-01 -7.841797e-01 6.188354e-01 -7.646484e-01 4.968643e-02 6.561279e-04
2.622216e+08 3.622437e-02 1.270866e-02 5.925293e-01 -7.852173e-01 6.188354e-01 -7.653809e-01 4.964066e-02 1.258850e-04
2.624394e+08 3.611374e-02 1.246834e-02 5.908203e-01 -7.857666e-01 6.179199e-01 -7.655029e-01 4.970932e-02 -4.577637e-05
2.626572e+08 3.606606e-02 1.225853e-02 5.917358e-01 -7.859497e-01 6.179199e-01 -7.661133e-01 4.959106e-02 -3.280640e-04
2.628750e+08 3.601837e-02 1.203156e-02 5.909424e-01 -7.866821e-01 6.173096e-01 -7.659912e-01 4.951477e-02 -5.264282e-04
2.630928e+08 3.592110e-02 1.181030e-02 5.898438e-01 -7.875977e-01 6.166992e-01 -7.659912e-01 4.943848e-02 -1.018524e-03
2.633106e+08 3.587532e-02 1.162338e-02 5.894775e-01 -7.882690e-01 6.162109e-01 -7.666016e-01 4.928970e-02 -1.316071e-03
2.635284e+08 3.579330e-02 1.137352e-02 5.888672e-01 -7.880249e-01 6.151733e-01 -7.675171e-01 4.920959e-02 -1.510620e-03
2.637462e+08 3.576088e-02 1.114464e-02 5.877075e-01 -7.878418e-01 6.146240e-01 -7.678833e-01 4.915619e-02 -1.682281e-03
2.639641e+08 3.571701e-02 1.090431e-02 5.869141e-01 -7.894897e-01 6.148071e-01 -7.687988e-01 4.910278e-02 -2.151489e-03
2.641819e+08 3.563690e-02 1.067352e-02 5.872803e-01 -7.890015e-01 6.130371e-01 -7.692261e-01 4.902267e-02 -2.403259e-03
2.643997e+08 3.550339e-02 1.049614e-02 5.864258e-01 -7.896118e-01 6.129761e-01 -7.693481e-01 4.895401e-02 -2.731323e-03
2.646175e+08 3.552628e-02 1.026726e-02 5.859375e-01 -7.899170e-01 6.124268e-01 -7.697144e-01 4.879761e-02 -2.956390e-03
2.648353e+08 3.538895e-02 1.001358e-02 5.847168e-01 -7.903442e-01 6.111450e-01 -7.706909e-01 4.857635e-02 -3.280640e-03
2.650531e+08 3.534317e-02 9.889603e-03 5.839844e-01 -7.904053e-01 6.114502e-01 -7.707520e-01 4.848862e-02 -3.490448e-03
2.652709e+08 3.526115e-02 9.605408e-03 5.840454e-01 -7.915649e-01 6.104126e-01 -7.716064e-01 4.851532e-02 -3.746033e-03
2.654888e+08 3.520203e-02 9.351730e-03 5.836792e-01 -7.919312e-01 6.098022e-01 -7.722168e-01 4.825592e-02 -4.032135e-03
2.657066e+08 3.506851e-02 9.202957e-03 5.826416e-01 -7.928467e-01 6.093140e-01 -7.719727e-01 4.824829e-02 -4.371643e-03
2.659244e+08 3.493881e-02 8.970261e-03 5.820923e-01 -7.931519e-01 6.088867e-01 -7.721558e-01 4.803467e-02 -4.695892e-03
2.661422e+08 3.491211e-02 8.779526e-03 5.812378e-01 -7.935791e-01 6.082153e-01 -7.731934e-01 4.801178e-02 -4.890442e-03
2.663600e+08 3.483391e-02 8.522034e-03 5.806885e-01 -7.933350e-01 6.077881e-01 -7.738647e-01 4.780960e-02 -4.947662e-03
2.665778e+08 3.473282e-02 8.321762e-03 5.814819e-01 -7.947388e-01 6.078491e-01 -7.742920e-01 4.771805e-02 -5.352020e-03
2.667956e+08 3.463936e-02 8.110046e-03 5.794678e-01 -7.948608e-01 6.063232e-01 -7.749634e-01 4.759598e-02 -5.504608e-03
2.670134e+08 3.453445e-02 7.925034e-03 5.791626e-01 -7.951050e-01 6.056519e-01 -7.755127e-01 4.750061e-02 -5.912781e-03
2.672312e+08 3.449059e-02 7.692337e-03 5.787964e-01 -7.964478e-01 6.056519e-01 -7.760010e-01 4.734802e-02 -6.114960e-03
2.674491e+08 3.435135e-02 7.471085e-03 5.784302e-01 -7.962036e-01 6.051025e-01 -7.759399e-01 4.721832e-02 -6.412506e-03
2.676669e+08 3.429604e-02 7.268906e-03 5.771484e-01 -7.968140e-01 6.044922e-01 -7.769775e-01 4.701614e-02 -6.732941e-03
2.678847e+08 3.413200e-02 7.051468e-03 5.770874e-01 -7.976074e-01 6.031494e-01 -7.766113e-01 4.687500e-02 -7.175446e-03
2.681025e+08 3.406143e-02 6.851196e-03 5.765381e-01 -7.980957e-01 6.036377e-01 -7.764282e-01 4.682159e-02 -7.194519e-03
2.683203e+08 3.395271e-02 6.610870e-03 5.754395e-01 -7.976074e-01 6.015625e-01 -7.771606e-01 4.668045e-02 -7.480621e-03
2.685381e+08 3.379250e-02 6.406784e-03 5.747681e-01 -7.991333e-01 6.026001e-01 -7.777100e-01 4.645538e-02 -7.740021e-03
2.687559e+08 3.377724e-02 6.196976e-03 5.745239e-01 -7.996826e-01 6.018677e-01 -7.787476e-01 4.651260e-02 -8.087158e-03
2.689738e+08 3.363228e-02 5.987167e-03 5.733643e-01 -7.990723e-01 6.010742e-01 -7.789917e-01 4.618073e-02 -8.186340e-03
2.691916e+08 3.350639e-02 5.769730e-03 5.729980e-01 -8.004761e-01 6.009521e-01 -7.798462e-01 4.622269e-02 -8.453369e-03
2.694094e+08 3.335190e-02 5.578995e-03 5.724487e-01 -8.007202e-01 6.000366e-01 -7.798462e-01 4.598999e-02 -8.846283e-03
2.696272e+08 3.327942e-02 5.334854e-03 5.717163e-01 -8.007812e-01 5.989380e-01 -7.804565e-01 4.579544e-02 -9.017944e-03
2.698450e+08 3.316498e-02 5.193710e-03 5.707397e-01 -8.015137e-01 5.988770e-01 -7.812500e-01 4.559708e-02 -9.357452e-03
2.700628e+08 3.301620e-02 5.012512e-03 5.704956e-01 -8.029785e-01 5.983276e-01 -7.817383e-01 4.543686e-02 -9.544373e-03
2.702806e+08 3.294754e-02 4.737854e-03 5.709839e-01 -8.024292e-01 5.973511e-01 -7.824707e-01 4.527283e-02 -9.807587e-03
2.704984e+08 3.277016e-02 4.547119e-03 5.697021e-01 -8.031616e-01 5.964355e-01 -7.823486e-01 4.507828e-02 -1.014328e-02
2.707162e+08 3.264618e-02 4.373550e-03 5.692749e-01 -8.041382e-01 5.960693e-01 -7.830811e-01 4.497910e-02 -1.034546e-02
2.709341e+08 3.260803e-02 4.104614e-03 5.684814e-01 -8.037720e-01 5.952759e-01 -7.836304e-01 4.482651e-02 -1.041031e-02
2.711519e+08 3.240776e-02 3.946304e-03 5.681152e-01 -8.043213e-01 5.950317e-01 -7.837524e-01 4.457283e-02 -1.088142e-02
2.713697e+08 3.227997e-02 3.734589e-03 5.678711e-01 -8.046875e-01 5.942383e-01 -7.839966e-01 4.443550e-02 -1.102829e-02
2.715875e+08 3.224564e-02 3.498077e-03 5.664062e-01 -8.048706e-01 5.945435e-01 -7.858276e-01 4.434204e-02 -1.128769e-02
2.718053e+08 3.201103e-02 3.353119e-03 5.659790e-01 -8.053589e-01 5.930176e-01 -7.847900e-01 4.428864e-02 -1.162720e-02
2.720231e+08 3.187180e-02 3.131866e-03 5.650024e-01 -8.067017e-01 5.923462e-01 -7.849731e-01 4.393387e-02 -1.171875e-02
2.722409e+08 3.175735e-02 2.925873e-03 5.654297e-01 -8.067017e-01 5.914917e-01 -7.857056e-01 4.378128e-02 -1.199341e-02
2.724588e+08 3.158379e-02 2.744675e-03 5.639038e-01 -8.074951e-01 5.916138e-01 -7.866211e-01 4.354858e-02 -1.224709e-02
2.726766e+08 3.152466e-02 2.548218e-03 5.633545e-01 -8.073120e-01 5.906372e-01 -7.877197e-01 4.344368e-02 -1.260567e-02
2.728944e+08 3.134346e-02 2.326965e-03 5.628052e-01 -8.077393e-01 5.898438e-01 -7.875366e-01 4.316902e-02 -1.281166e-02
2.731122e+08 3.118706e-02 2.174377e-03 5.614014e-01 -8.083496e-01 5.891724e-01 -7.886963e-01 4.296875e-02 -1.300240e-02
2.733300e+08 3.109360e-02 1.951218e-03 5.612183e-01 -8.090210e-01 5.886841e-01 -7.883301e-01 4.299545e-02 -1.332855e-02
2.735478e+08 3.090286e-02 1.762390e-03 5.610962e-01 -8.089600e-01 5.876465e-01 -7.892456e-01 4.289627e-02 -1.349449e-02
2.737656e+08 3.083611e-02 1.537323e-03 5.606079e-01 -8.096924e-01 5.875244e-01 -7.899170e-01 4.243469e-02 -1.346970e-02
2.739834e+08 3.059387e-02 1.377106e-03 5.601807e-01 -8.106689e-01 5.866699e-01 -7.892456e-01 4.226685e-02 -1.380348e-02
2.742012e+08 3.044701e-02 1.201630e-03 5.590210e-01 -8.111572e-01 5.861206e-01 -7.895508e-01 4.202652e-02 -1.403999e-02
2.744191e+08 3.027153e-02 1.035690e-03 5.586548e-01 -8.104858e-01 5.858765e-01 -7.898560e-01 4.190254e-02 -1.426315e-02
2.746369e+08 3.013611e-02 8.258820e-04 5.583496e-01 -8.114624e-01 5.859375e-01 -7.910767e-01 4.178619e-02 -1.442528e-02
2.748547e+08 3.006172e-02 6.275177e-04 5.576782e-01 -8.122559e-01 5.845337e-01 -7.915039e-01 4.158401e-02 -1.464844e-02
2.750725e+08 2.980614e-02 4.615784e-04 5.563965e-01 -8.125000e-01 5.842896e-01 -7.911987e-01 4.130363e-02 -1.476097e-02
2.752903e+08 2.966309e-02 2.880096e-04 5.552368e-01 -8.129883e-01 5.834961e-01 -7.921143e-01 4.113197e-02 -1.503372e-02
2.755081e+08 2.953148e-02 5.722046e-05 5.556030e-01 -8.140259e-01 5.829468e-01 -7.924805e-01 4.087448e-02 -1.553917e-02
2.757259e+08 2.938652e-02 -6.866455e-05 5.546265e-01 -8.145752e-01 5.830688e-01 -7.930908e-01 4.063225e-02 -1.554871e-02
2.759438e+08 2.921677e-02 -2.803802e-04 5.538330e-01 -8.146362e-01 5.817261e-01 -7.939453e-01 4.047203e-02 -1.561546e-02
2.761616e+08 2.900314e-02 -4.692078e-04 5.534668e-01 -8.150635e-01 5.810547e-01 -7.944946e-01 4.032516e-02 -1.601791e-02
2.763794e+08 2.886009e-02 -6.465912e-04 5.519409e-01 -8.155518e-01 5.804443e-01 -7.945557e-01 4.004288e-02 -1.614952e-02
2.765972e+08 2.871704e-02 -8.296967e-04 5.518188e-01 -8.163452e-01 5.804443e-01 -7.951050e-01 3.980827e-02 -1.643372e-02
2.768150e+08 2.853584e-02 -1.003265e-03 5.511475e-01 -8.165894e-01 5.791016e-01 -7.955933e-01 3.968811e-02 -1.682854e-02
2.770328e+08 2.836800e-02 -1.173019e-03 5.501099e-01 -8.169556e-01 5.781860e-01 -7.957153e-01 3.929710e-02 -1.669502e-02
2.772506e+08 2.822685e-02 -1.348495e-03 5.502930e-01 -8.165894e-01 5.781860e-01 -7.965698e-01 3.915787e-02 -1.696014e-02
2.774684e+08 2.801895e-02 -1.554489e-03 5.484619e-01 -8.182373e-01 5.776367e-01 -7.970581e-01 3.907776e-02 -1.737785e-02
2.776862e+08 2.787209e-02 -1.741409e-03 5.480957e-01 -8.182983e-01 5.767822e-01 -7.980347e-01 3.869820e-02 -1.738358e-02
2.779041e+08 2.766609e-02 -1.869202e-03 5.479126e-01 -8.189697e-01 5.759888e-01 -7.981567e-01 3.846550e-02 -1.771164e-02
2.781219e+08 2.748489e-02 -2.000809e-03 5.482178e-01 -8.185425e-01 5.758667e-01 -7.986450e-01 3.833199e-02 -1.777840e-02
2.783397e+08 2.728081e-02 -2.243042e-03 5.471191e-01 -8.197021e-01 5.748901e-01 -7.985840e-01 3.810120e-02 -1.809311e-02
2.785575e+08 2.709770e-02 -2.422333e-03 5.460815e-01 -8.194580e-01 5.740356e-01 -7.988281e-01 3.782845e-02 -1.812553e-02
2.787753e+08 2.696609e-02 -2.525330e-03 5.456543e-01 -8.206787e-01 5.730591e-01 -7.996826e-01 3.763199e-02 -1.835442e-02
2.789931e+08 2.677155e-02 -2.717972e-03 5.451050e-01 -8.204956e-01 5.730591e-01 -7.994995e-01 3.730965e-02 -1.854134e-02
2.792109e+08 2.654457e-02 -2.889633e-03 5.440674e-01 -8.212280e-01 5.715942e-01 -7.996216e-01 3.718758e-02 -1.868248e-02
2.794288e+08 2.641678e-02 -3.078461e-03 5.435791e-01 -8.218384e-01 5.714111e-01 -8.005371e-01 3.695297e-02 -1.886559e-02
2.796466e+08 2.627182e-02 -3.234863e-03 5.430908e-01 -8.229980e-01 5.704956e-01 -8.015137e-01 3.681755e-02 -1.909637e-02
2.798644e+08 2.607918e-02 -3.372192e-03 5.418701e-01 -8.222656e-01 5.703735e-01 -8.019409e-01 3.645706e-02 -1.916885e-02
2.800822e+08 2.585220e-02 -3.540039e-03 5.409546e-01 -8.227539e-01 5.702515e-01 -8.014526e-01 3.618813e-02 -1.948929e-02
2.803000e+08 2.566147e-02 -3.702164e-03 5.405884e-01 -8.230591e-01 5.689697e-01 -8.021851e-01 3.595924e-02 -1.969147e-02
2.805178e+08 2.547836e-02 -3.845215e-03 5.397949e-01 -8.237305e-01 5.687256e-01 -8.031006e-01 3.579330e-02 -1.972961e-02
2.807356e+08 2.530479e-02 -4.001617e-03 5.388184e-01 -8.243408e-01 5.684814e-01 -8.026733e-01 3.565598e-02 -2.013779e-02
2.809534e+08 2.507591e-02 -4.184723e-03 5.383301e-01 -8.247070e-01 5.671997e-01 -8.034058e-01 3.524399e-02 -2.028656e-02
2.811712e+08 2.488327e-02 -4.331589e-03 5.374756e-01 -8.249512e-01 5.667114e-01 -8.039551e-01 3.496552e-02 -2.021790e-02
2.813891e+08 2.472878e-02 -4.505157e-03 5.370483e-01 -8.253784e-01 5.659180e-01 -8.048096e-01 3.479004e-02 -2.056885e-02
2.816069e+08 2.458954e-02 -4.667282e-03 5.357056e-01 -8.261719e-01 5.657959e-01 -8.052368e-01 3.448486e-02 -2.061844e-02
2.818247e+08 2.435303e-02 -4.739761e-03 5.352783e-01 -8.261719e-01 5.653076e-01 -8.054810e-01 3.431320e-02 -2.080154e-02
2.820425e+08 2.412796e-02 -4.911423e-03 5.353394e-01 -8.258667e-01 5.646362e-01 -8.068237e-01 3.405380e-02 -2.107430e-02
2.822603e+08 2.396965e-02 -5.092621e-03 5.347290e-01 -8.265991e-01 5.639648e-01 -8.062134e-01 3.388023e-02 -2.120018e-02
2.824781e+08 2.375221e-02 -5.197525e-03 5.336304e-01 -8.268433e-01 5.627441e-01 -8.072510e-01 3.347015e-02 -2.123070e-02
2.826959e+08 2.354622e-02 -5.363464e-03 5.328369e-01 -8.280640e-01 5.620117e-01 -8.074341e-01 3.335190e-02 -2.134514e-02
2.829138e+08 2.336311e-02 -5.504608e-03 5.321655e-01 -8.284912e-01 5.622559e-01 -8.076782e-01 3.313255e-02 -2.165985e-02
2.831316e+08 2.310944e-02 -5.678177e-03 5.314941e-01 -8.286743e-01 5.604248e-01 -8.083496e-01 3.276062e-02 -2.178955e-02
2.833494e+08 2.296448e-02 -5.739212e-03 5.303955e-01 -8.287964e-01 5.610962e-01 -8.084717e-01 3.248024e-02 -2.184105e-02
2.835672e+08 2.271843e-02 -5.937576e-03 5.305176e-01 -8.294067e-01 5.593872e-01 -8.096313e-01 3.243065e-02 -2.213287e-02
2.837850e+08 2.251816e-02 -6.092072e-03 5.286255e-01 -8.301392e-01 5.583496e-01 -8.091431e-01 3.205872e-02 -2.219582e-02
2.840028e+08 2.232552e-02 -6.237030e-03 5.290527e-01 -8.303833e-01 5.587158e-01 -8.095093e-01 3.170013e-02 -2.220535e-02
2.842206e+08 2.208710e-02 -6.385803e-03 5.279541e-01 -8.303833e-01 5.572510e-01 -8.100586e-01 3.126717e-02 -2.232170e-02
2.844384e+08 2.191734e-02 -6.488800e-03 5.272217e-01 -8.309326e-01 5.565796e-01 -8.103027e-01 3.110313e-02 -2.271080e-02
2.846562e+08 2.172089e-02 -6.570816e-03 5.264282e-01 -8.314819e-01 5.559082e-01 -8.110962e-01 3.093910e-02 -2.265358e-02
2.848741e+08 2.146339e-02 -6.757736e-03 5.254517e-01 -8.317871e-01 5.557251e-01 -8.104858e-01 3.070831e-02 -2.271843e-02
2.850919e+08 2.127266e-02 -6.893158e-03 5.246582e-01 -8.322754e-01 5.551147e-01 -8.121338e-01 3.048897e-02 -2.307129e-02
2.853097e+08 2.105713e-02 -7.005692e-03 5.244751e-01 -8.340454e-01 5.541992e-01 -8.118286e-01 3.025436e-02 -2.321625e-02
2.855275e+08 2.081871e-02 -7.148743e-03 5.237427e-01 -8.325195e-01 5.527954e-01 -8.126221e-01 2.991867e-02 -2.317810e-02
2.857453e+08 2.061844e-02 -7.242203e-03 5.230103e-01 -8.332520e-01 5.533447e-01 -8.126221e-01 2.952576e-02 -2.340698e-02
2.859631e+08 2.046394e-02 -7.408142e-03 5.225830e-01 -8.339844e-01 5.524902e-01 -8.131104e-01 2.940369e-02 -2.342796e-02
2.861809e+08 2.028084e-02 -7.501602e-03 5.220947e-01 -8.342285e-01 5.521851e-01 -8.138428e-01 2.918434e-02 -2.363586e-02
2.863988e+08 2.001572e-02 -7.661819e-03 5.212402e-01 -8.343506e-01 5.514526e-01 -8.144531e-01 2.883911e-02 -2.378082e-02
2.866166e+08 1.983833e-02 -7.779121e-03 5.200195e-01 -8.348999e-01 5.511475e-01 -8.150635e-01 2.866936e-02 -2.389526e-02
2.868344e+08 1.957130e-02 -7.896423e-03 5.192871e-01 -8.358765e-01 5.500488e-01 -8.148193e-01 2.832031e-02 -2.384186e-02
2.870522e+08 1.938534e-02 -8.036613e-03 5.185547e-01 -8.356323e-01 5.492554e-01 -8.157959e-01 2.798462e-02 -2.416229e-02
2.872700e+08 1.918316e-02 -8.107185e-03 5.185547e-01 -8.366699e-01 5.484009e-01 -8.153687e-01 2.785110e-02 -2.412415e-02
2.874878e+08 1.891232e-02 -8.231163e-03 5.172119e-01 -8.366699e-01 5.482178e-01 -8.161011e-01 2.758408e-02 -2.433777e-02
2.877056e+08 1.869106e-02 -8.314133e-03 5.166016e-01 -8.370972e-01 5.474243e-01 -8.161621e-01 2.722931e-02 -2.457047e-02
2.879234e+08 1.850414e-02 -8.486748e-03 5.153198e-01 -8.374023e-01 5.466919e-01 -8.173828e-01 2.705193e-02 -2.449226e-02
2.881412e+08 1.828671e-02 -8.610725e-03 5.156860e-01 -8.370361e-01 5.462646e-01 -8.174438e-01 2.672958e-02 -2.458191e-02
2.883591e+08 1.800251e-02 -8.708000e-03 5.155640e-01 -8.378906e-01 5.454102e-01 -8.173828e-01 2.649498e-02 -2.463913e-02
2.885769e+08 1.784992e-02 -8.824348e-03 5.140381e-01 -8.383789e-01 5.440674e-01 -8.181152e-01 2.611351e-02 -2.475929e-02
2.887947e+08 1.762676e-02 -8.874893e-03 5.129395e-01 -8.384399e-01 5.440674e-01 -8.183594e-01 2.582169e-02 -2.492905e-02
2.890125e+08 1.742840e-02 -8.995056e-03 5.130005e-01 -8.386841e-01 5.429077e-01 -8.175049e-01 2.559853e-02 -2.496910e-02
2.892303e+08 1.718426e-02 -9.117126e-03 5.120239e-01 -8.392334e-01 5.430908e-01 -8.187256e-01 2.536774e-02 -2.518082e-02
2.894481e+08 1.696873e-02 -9.243011e-03 5.112305e-01 -8.398438e-01 5.420532e-01 -8.195190e-01 2.516747e-02 -2.514267e-02
2.896659e+08 1.671982e-02 -9.317398e-03 5.103760e-01 -8.402100e-01 5.411377e-01 -8.187866e-01 2.489090e-02 -2.533340e-02
2.898838e+08 1.655579e-02 -9.446144e-03 5.097046e-01 -8.405151e-01 5.407104e-01 -8.204346e-01 2.446365e-02 -2.537537e-02
2.901016e+08 1.627445e-02 -9.540558e-03 5.090942e-01 -8.413696e-01 5.394897e-01 -8.202515e-01 2.420235e-02 -2.544212e-02
2.903194e+08 1.609802e-02 -9.612083e-03 5.094604e-01 -8.410034e-01 5.390625e-01 -8.198242e-01 2.403641e-02 -2.552795e-02
2.905372e+08 1.581192e-02 -9.665489e-03 5.083008e-01 -8.416748e-01 5.388794e-01 -8.209839e-01 2.376747e-02 -2.562904e-02
2.907550e+08 1.560497e-02 -9.801865e-03 5.068359e-01 -8.424072e-01 5.378418e-01 -8.210449e-01 2.349091e-02 -2.573395e-02
2.909728e+08 1.538086e-02 -9.922981e-03 5.058594e-01 -8.422852e-01 5.372314e-01 -8.216553e-01 2.318764e-02 -2.574921e-02
2.911906e+08 1.517010e-02 -9.963036e-03 5.056152e-01 -8.427124e-01 5.364380e-01 -8.213501e-01 2.291489e-02 -2.587318e-02
2.914084e+08 1.492500e-02 -1.010895e-02 5.046997e-01 -8.428345e-01 5.366821e-01 -8.230591e-01 2.265739e-02 -2.590370e-02
2.916262e+08 1.471901e-02 -1.019096e-02 5.047607e-01 -8.431396e-01 5.354004e-01 -8.228760e-01 2.237511e-02 -2.600479e-02
2.918441e+08 1.451015e-02 -1.028061e-02 5.034790e-01 -8.442993e-01 5.356445e-01 -8.233032e-01 2.214050e-02 -2.607155e-02
2.920619e+08 1.427746e-02 -1.034641e-02 5.036621e-01 -8.439331e-01 5.345459e-01 -8.230591e-01 2.181053e-02 -2.610016e-02
2.922797e+08 1.407528e-02 -1.045895e-02 5.021362e-01 -8.447266e-01 5.336304e-01 -8.234863e-01 2.157211e-02 -2.620697e-02
2.924975e+08 1.381302e-02 -1.051998e-02 5.017700e-01 -8.441162e-01 5.333252e-01 -8.243408e-01 2.127266e-02 -2.621651e-02
2.927153e+08 1.357937e-02 -1.058483e-02 5.018311e-01 -8.449707e-01 5.327759e-01 -8.244019e-01 2.105713e-02 -2.631378e-02
2.929331e+08 1.337719e-02 -1.067448e-02 5.001831e-01 -8.461914e-01 5.324097e-01 -8.255615e-01 2.073669e-02 -2.642441e-02
2.931509e+08 1.312256e-02 -1.075268e-02 4.998779e-01 -8.461304e-01 5.314331e-01 -8.248901e-01 2.050018e-02 -2.645493e-02
2.933688e+08 1.287651e-02 -1.081276e-02 4.992676e-01 -8.457031e-01 5.308228e-01 -8.253174e-01 2.022171e-02 -2.651024e-02
2.935866e+08 1.263142e-02 -1.093674e-02 4.982300e-01 -8.466187e-01 5.296631e-01 -8.262939e-01 1.990509e-02 -2.656555e-02
2.938044e+08 1.245880e-02 -1.101112e-02 4.980469e-01 -8.467407e-01 5.300293e-01 -8.264771e-01 1.965714e-02 -2.659798e-02
2.940222e+08 1.223564e-02 -1.108265e-02 4.973755e-01 -8.466187e-01 5.287476e-01 -8.273315e-01 1.936913e-02 -2.660179e-02
2.942400e+08 1.194382e-02 -1.114845e-02 4.963989e-01 -8.469238e-01 5.283203e-01 -8.270874e-01 1.906967e-02 -2.667427e-02
2.944578e+08 1.175499e-02 -1.120853e-02 4.962158e-01 -8.470459e-01 5.273438e-01 -8.263550e-01 1.883316e-02 -2.675056e-02
2.946756e+08 1.151943e-02 -1.129818e-02 4.957886e-01 -8.475952e-01 5.263672e-01 -8.275757e-01 1.856041e-02 -2.678108e-02
2.948934e+08 1.126575e-02 -1.141453e-02 4.943237e-01 -8.480835e-01 5.259399e-01 -8.280640e-01 1.830101e-02 -2.688026e-02
2.951112e+08 1.107121e-02 -1.141453e-02 4.931641e-01 -8.490601e-01 5.255737e-01 -8.281860e-01 1.794815e-02 -2.685547e-02
2.953291e+08 1.084423e-02 -1.152134e-02 4.934692e-01 -8.489990e-01 5.244751e-01 -8.285522e-01 1.773834e-02 -2.694702e-02
2.955469e+08 1.059914e-02 -1.157379e-02 4.922485e-01 -8.494263e-01 5.249634e-01 -8.287964e-01 1.742172e-02 -2.696419e-02
2.957647e+08 1.040649e-02 -1.168442e-02 4.920654e-01 -8.499756e-01 5.238037e-01 -8.300171e-01 1.717377e-02 -2.699089e-02
2.959825e+08 1.014900e-02 -1.171303e-02 4.907227e-01 -8.502808e-01 5.226440e-01 -8.294678e-01 1.687241e-02 -2.697754e-02
2.962003e+08 9.896278e-03 -1.176167e-02 4.909668e-01 -8.493652e-01 5.227051e-01 -8.301392e-01 1.670837e-02 -2.709389e-02
2.964181e+08 9.714127e-03 -1.183510e-02 4.895020e-01 -8.500366e-01 5.217285e-01 -8.311157e-01 1.639557e-02 -2.709389e-02
2.966359e+08 9.476662e-03 -1.187706e-02 4.894409e-01 -8.499146e-01 5.222168e-01 -8.305664e-01 1.611519e-02 -2.714729e-02
2.968538e+08 9.187698e-03 -1.198292e-02 4.886475e-01 -8.507080e-01 5.207520e-01 -8.323975e-01 1.584244e-02 -2.715302e-02
2.970716e+08 9.003639e-03 -1.200390e-02 4.880981e-01 -8.500366e-01 5.201416e-01 -8.315430e-01 1.559067e-02 -2.719498e-02
2.972894e+08 8.790016e-03 -1.205540e-02 4.865112e-01 -8.515015e-01 5.190430e-01 -8.322754e-01 1.521683e-02 -2.720261e-02
2.975072e+08 8.523941e-03 -1.209927e-02 4.863892e-01 -8.521729e-01 5.184326e-01 -8.323975e-01 1.503563e-02 -2.733231e-02
2.977250e+08 8.324623e-03 -1.217651e-02 4.857788e-01 -8.524170e-01 5.179443e-01 -8.338623e-01 1.470184e-02 -2.728081e-02
2.979428e+08 8.068085e-03 -1.218224e-02 4.848633e-01 -8.530273e-01 5.178223e-01 -8.334961e-01 1.447105e-02 -2.725029e-02
2.981606e+08 7.836342e-03 -1.225662e-02 4.842529e-01 -8.529053e-01 5.162964e-01 -8.334351e-01 1.423836e-02 -2.733994e-02
2.983784e+08 7.653236e-03 -1.229954e-02 4.830933e-01 -8.532104e-01 5.158081e-01 -8.339233e-01 1.392937e-02 -2.730942e-02
2.985962e+08 7.400513e-03 -1.233196e-02 4.830933e-01 -8.535156e-01 5.146484e-01 -8.339233e-01 1.365089e-02 -2.735138e-02
2.988141e+08 7.173538e-03 -1.239967e-02 4.816895e-01 -8.541260e-01 5.144653e-01 -8.348999e-01 1.334381e-02 -2.732658e-02
2.990319e+08 6.913185e-03 -1.245689e-02 4.815063e-01 -8.539429e-01 5.147095e-01 -8.336792e-01 1.310158e-02 -2.731323e-02
2.992497e+08 6.751060e-03 -1.245975e-02 4.804688e-01 -8.549805e-01 5.142822e-01 -8.346558e-01 1.282120e-02 -2.735329e-02
2.994675e+08 6.502151e-03 -1.256371e-02 4.801025e-01 -8.538208e-01 5.139771e-01 -8.352051e-01 1.255798e-02 -2.733994e-02
2.996853e+08 6.236076e-03 -1.260662e-02 4.795532e-01 -8.551025e-01 5.126343e-01 -8.347168e-01 1.234245e-02 -2.737617e-02
2.999031e+08 6.008148e-03 -1.260471e-02 4.788818e-01 -8.544922e-01 5.121460e-01 -8.362427e-01 1.202202e-02 -2.733231e-02
3.001209e+08 5.814552e-03 -1.264668e-02 4.784546e-01 -8.551025e-01 5.117798e-01 -8.361816e-01 1.179314e-02 -2.736282e-02
3.003388e+08 5.564690e-03 -1.271534e-02 4.783325e-01 -8.563232e-01 5.112915e-01 -8.363647e-01 1.149750e-02 -2.736473e-02
3.005566e+08 5.350113e-03 -1.280499e-02 4.772339e-01 -8.562622e-01 5.098877e-01 -8.369751e-01 1.126289e-02 -2.735519e-02
3.007744e+08 5.098343e-03 -1.279545e-02 4.770508e-01 -8.560181e-01 5.101318e-01 -8.368530e-01 1.101494e-02 -2.731895e-02
3.009922e+08 4.927635e-03 -1.276875e-02 4.755859e-01 -8.573608e-01 5.091553e-01 -8.372803e-01 1.067734e-02 -2.737427e-02
3.012100e+08 4.709244e-03 -1.281929e-02 4.750366e-01 -8.568115e-01 5.083008e-01 -8.378906e-01 1.050758e-02 -2.736855e-02
3.014278e+08 4.457474e-03 -1.291370e-02 4.747314e-01 -8.568726e-01 5.075684e-01 -8.378296e-01 1.024628e-02 -2.725983e-02
3.016456e+08 4.231453e-03 -1.296902e-02 4.738159e-01 -8.579102e-01 5.072632e-01 -8.381348e-01 9.889603e-03 -2.735138e-02
3.018634e+08 3.942490e-03 -1.298523e-02 4.730225e-01 -8.579712e-01 5.061646e-01 -8.392334e-01 9.653091e-03 -2.733803e-02
3.020812e+08 3.751755e-03 -1.297092e-02 4.722900e-01 -8.583984e-01 5.057373e-01 -8.392944e-01 9.395599e-03 -2.731895e-02
3.022991e+08 3.565788e-03 -1.296043e-02 4.724731e-01 -8.593750e-01 5.048828e-01 -8.392334e-01 9.147644e-03 -2.729797e-02
3.025169e+08 3.306389e-03 -1.302242e-02 4.710693e-01 -8.580322e-01 5.046387e-01 -8.399048e-01 8.842468e-03 -2.728653e-02
3.027347e+08 3.096581e-03 -1.303577e-02 4.705200e-01 -8.594360e-01 5.044556e-01 -8.406372e-01 8.638382e-03 -2.732658e-02
3.029525e+08 2.900124e-03 -1.309776e-02 4.701538e-01 -8.593140e-01 5.032349e-01 -8.404541e-01 8.432388e-03 -2.725220e-02
3.031703e+08 2.678871e-03 -1.313972e-02 4.688721e-01 -8.601074e-01 5.027466e-01 -8.407593e-01 8.142471e-03 -2.721405e-02
3.033881e+08 2.401352e-03 -1.319695e-02 4.691162e-01 -8.596802e-01 5.020752e-01 -8.413696e-01 7.902145e-03 -2.720261e-02
3.036059e+08 2.153397e-03 -1.313019e-02 4.688721e-01 -8.607788e-01 5.014648e-01 -8.409424e-01 7.617950e-03 -2.719307e-02
3.038238e+08 1.976967e-03 -1.314068e-02 4.675903e-01 -8.607788e-01 5.012817e-01 -8.418579e-01 7.356644e-03 -2.713203e-02
3.040416e+08 1.732826e-03 -1.324177e-02 4.667358e-01 -8.605347e-01 5.004883e-01 -8.421631e-01 7.083893e-03 -2.712822e-02
3.042594e+08 1.583099e-03 -1.324749e-02 4.660034e-01 -8.618164e-01 5.005493e-01 -8.424683e-01 6.816864e-03 -2.710533e-02
3.044772e+08 1.299858e-03 -1.326466e-02 4.657593e-01 -8.617554e-01 4.992065e-01 -8.429565e-01 6.563187e-03 -2.707863e-02
3.046950e+08 1.129150e-03 -1.327705e-02 4.657593e-01 -8.619995e-01 4.995728e-01 -8.441162e-01 6.364822e-03 -2.706146e-02
3.049128e+08 8.935928e-04 -1.324844e-02 4.642334e-01 -8.628540e-01 4.990845e-01 -8.432007e-01 6.048203e-03 -2.700806e-02
3.051306e+08 6.122589e-04 -1.328850e-02 4.641113e-01 -8.612061e-01 4.979858e-01 -8.439331e-01 5.838394e-03 -2.696609e-02
3.053484e+08 3.862381e-04 -1.333714e-02 4.625854e-01 -8.627930e-01 4.974365e-01 -8.429565e-01 5.548477e-03 -2.690887e-02
3.055662e+08 2.222061e-04 -1.333046e-02 4.627075e-01 -8.633423e-01 4.967041e-01 -8.436279e-01 5.332947e-03 -2.689552e-02
3.057841e+08 -2.098083e-05 -1.336956e-02 4.620361e-01 -8.631592e-01 4.957886e-01 -8.454590e-01 5.010605e-03 -2.682686e-02
3.060019e+08 -2.746582e-04 -1.331520e-02 4.607544e-01 -8.640137e-01 4.954834e-01 -8.448486e-01 4.817963e-03 -2.686882e-02
3.062197e+08 -4.682541e-04 -1.335430e-02 4.601440e-01 -8.635254e-01 4.945679e-01 -8.455811e-01 4.529953e-03 -2.680016e-02
3.064375e+08 -6.484985e-04 -1.329994e-02 4.602051e-01 -8.643799e-01 4.945679e-01 -8.458252e-01 4.306793e-03 -2.678871e-02
3.066553e+08 -8.945465e-04 -1.336956e-02 4.590454e-01 -8.644409e-01 4.933472e-01 -8.460693e-01 4.058838e-03 -2.672005e-02
3.068731e+08 -1.140594e-03 -1.337910e-02 4.584351e-01 -8.650513e-01 4.927979e-01 -8.460693e-01 3.795624e-03 -2.669907e-02
3.070909e+08 -1.303673e-03 -1.341438e-02 4.582520e-01 -8.654785e-01 4.930420e-01 -8.464355e-01 3.589630e-03 -2.664948e-02
3.073088e+08 -1.594543e-03 -1.337051e-02 4.573975e-01 -8.659668e-01 4.912720e-01 -8.472900e-01 3.343582e-03 -2.663040e-02
3.075266e+08 -1.768112e-03 -1.341534e-02 4.562378e-01 -8.655396e-01 4.912109e-01 -8.463745e-01 3.055573e-03 -2.652740e-02
3.077444e+08 -2.007484e-03 -1.341343e-02 4.567871e-01 -8.657837e-01 4.901733e-01 -8.485107e-01 2.882004e-03 -2.645302e-02
3.079622e+08 -2.178192e-03 -1.342869e-02 4.552612e-01 -8.663940e-01 4.900513e-01 -8.480225e-01 2.557755e-03 -2.648735e-02
3.081800e+08 -2.433777e-03 -1.337242e-02 4.553223e-01 -8.670654e-01 4.891968e-01 -8.481445e-01 2.359390e-03 -2.643394e-02
3.083978e+08 -2.650261e-03 -1.341248e-02 4.544067e-01 -8.671265e-01 4.888306e-01 -8.483887e-01 2.080917e-03 -2.640343e-02
3.086156e+08 -2.829552e-03 -1.340103e-02 4.535522e-01 -8.676147e-01 4.886475e-01 -8.487549e-01 1.855850e-03 -2.634048e-02
3.088334e+08 -3.073692e-03 -1.337147e-02 4.532471e-01 -8.680420e-01 4.878540e-01 -8.500366e-01 1.592636e-03 -2.625847e-02
3.090512e+08 -3.266335e-03 -1.339626e-02 4.525757e-01 -8.671265e-01 4.868164e-01 -8.505249e-01 1.415253e-03 -2.621078e-02
3.092691e+08 -3.449440e-03 -1.338387e-02 4.518433e-01 -8.685913e-01 4.871216e-01 -8.496704e-01 1.152039e-03 -2.612686e-02
3.094869e+08 -3.685951e-03 -1.341534e-02 4.510498e-01 -8.685303e-01 4.857178e-01 -8.510742e-01 9.174347e-04 -2.610588e-02
3.097047e+08 -3.878593e-03 -1.337147e-02 4.500732e-01 -8.687134e-01 4.853516e-01 -8.509521e-01 7.171631e-04 -2.602768e-02
3.099225e+08 -4.083633e-03 -1.337814e-02 4.503174e-01 -8.692017e-01 4.844971e-01 -8.510132e-01 4.615784e-04 -2.599144e-02
3.101403e+08 -4.315376e-03 -1.337528e-02 4.483032e-01 -8.705444e-01 4.840698e-01 -8.517456e-01 2.098083e-04 -2.592468e-02
3.103581e+08 -4.518509e-03 -1.336479e-02 4.482422e-01 -8.706665e-01 4.832764e-01 -8.518677e-01 -4.005432e-05 -2.589035e-02
3.105759e+08 -4.684448e-03 -1.334953e-02 4.478149e-01 -8.703613e-01 4.830933e-01 -8.518677e-01 -2.593994e-04 -2.580643e-02
3.107938e+08 -4.954338e-03 -1.337433e-02 4.470215e-01 -8.704834e-01 4.824829e-01 -8.529663e-01 -4.787445e-04 -2.573013e-02
3.110116e+08 -5.140305e-03 -1.335526e-02 4.473877e-01 -8.702393e-01 4.815674e-01 -8.523560e-01 -7.171631e-04 -2.569008e-02
3.112294e+08 -5.387306e-03 -1.332569e-02 4.457397e-01 -8.717651e-01 4.807739e-01 -8.525391e-01 -9.670258e-04 -2.567101e-02
3.114472e+08 -5.591393e-03 -1.338196e-02 4.453735e-01 -8.718262e-01 4.804688e-01 -8.532104e-01 -1.184464e-03 -2.556038e-02
3.116650e+08 -5.774498e-03 -1.334763e-02 4.450073e-01 -8.718872e-01 4.800415e-01 -8.532715e-01 -1.365662e-03 -2.551842e-02
3.118828e+08 -6.011009e-03 -1.334381e-02 4.444580e-01 -8.723145e-01 4.790039e-01 -8.550415e-01 -1.609802e-03 -2.548027e-02
3.121006e+08 -6.190300e-03 -1.330853e-02 4.438477e-01 -8.724365e-01 4.785156e-01 -8.541870e-01 -1.831055e-03 -2.536011e-02
3.123184e+08 -6.411552e-03 -1.329422e-02 4.431152e-01 -8.733521e-01 4.783936e-01 -8.549194e-01 -2.088547e-03 -2.531242e-02
3.125362e+08 -6.616592e-03 -1.327705e-02 4.420776e-01 -8.734131e-01 4.771118e-01 -8.553467e-01 -2.279282e-03 -2.521324e-02
3.127541e+08 -6.800652e-03 -1.330566e-02 4.425659e-01 -8.735962e-01 4.766846e-01 -8.555298e-01 -2.502441e-03 -2.518463e-02
3.129719e+08 -7.024765e-03 -1.322842e-02 4.412231e-01 -8.745117e-01 4.765015e-01 -8.557129e-01 -2.769470e-03 -2.510452e-02
3.131897e+08 -7.229805e-03 -1.322174e-02 4.400024e-01 -8.745728e-01 4.760132e-01 -8.560791e-01 -3.004074e-03 -2.499771e-02
3.134075e+08 -7.386208e-03 -1.320457e-02 4.394531e-01 -8.750000e-01 4.757690e-01 -8.556519e-01 -3.208160e-03 -2.499962e-02
3.136253e+08 -7.568359e-03 -1.321411e-02 4.389038e-01 -8.750610e-01 4.743652e-01 -8.571167e-01 -3.389359e-03 -2.486038e-02
3.138431e+08 -7.843018e-03 -1.322460e-02 4.379883e-01 -8.759155e-01 4.746704e-01 -8.577271e-01 -3.625870e-03 -2.482033e-02
3.140609e+08 -8.019447e-03 -1.317978e-02 4.373779e-01 -8.753052e-01 4.736328e-01 -8.574219e-01 -3.839493e-03 -2.469254e-02
3.142788e+08 -8.259773e-03 -1.312160e-02 4.372559e-01 -8.756714e-01 4.729614e-01 -8.585205e-01 -4.076004e-03 -2.464867e-02
3.144966e+08 -8.401871e-03 -1.314163e-02 4.361572e-01 -8.758545e-01 4.720459e-01 -8.593750e-01 -4.278183e-03 -2.456284e-02
3.147144e+08 -8.647919e-03 -1.309872e-02 4.369507e-01 -8.764648e-01 4.711304e-01 -8.587646e-01 -4.497528e-03 -2.456856e-02
3.149322e+08 -8.833885e-03 -1.310158e-02 4.346924e-01 -8.767700e-01 4.714966e-01 -8.593140e-01 -4.781723e-03 -2.445030e-02
3.151500e+08 -9.069443e-03 -1.305485e-02 4.353638e-01 -8.769531e-01 4.696655e-01 -8.595581e-01 -4.953384e-03 -2.436829e-02
3.153678e+08 -9.222984e-03 -1.306248e-02 4.340820e-01 -8.769531e-01 4.694824e-01 -8.593750e-01 -5.176544e-03 -2.427292e-02
3.155856e+08 -9.427071e-03 -1.304150e-02 4.334717e-01 -8.786621e-01 4.692993e-01 -8.605347e-01 -5.392075e-03 -2.420616e-02
3.158034e+08 -9.619713e-03 -1.300430e-02 4.326172e-01 -8.786621e-01 4.689331e-01 -8.607178e-01 -5.580902e-03 -2.409172e-02
3.160212e+08 -9.782791e-03 -1.300335e-02 4.320679e-01 -8.783569e-01 4.669189e-01 -8.612671e-01 -5.784988e-03 -2.402496e-02
3.162391e+08 -1.001835e-02 -1.296043e-02 4.314575e-01 -8.786621e-01 4.674072e-01 -8.613281e-01 -5.964279e-03 -2.396584e-02
3.164569e+08 -1.020527e-02 -1.291561e-02 4.309692e-01 -8.790894e-01 4.660034e-01 -8.612061e-01 -6.181717e-03 -2.390671e-02
3.166747e+08 -1.039696e-02 -1.292419e-02 4.304810e-01 -8.795166e-01 4.653320e-01 -8.623657e-01 -6.376266e-03 -2.379799e-02
3.168925e+08 -1.061249e-02 -1.287270e-02 4.292603e-01 -8.798828e-01 4.649658e-01 -8.633423e-01 -6.633759e-03 -2.367401e-02
3.171103e+08 -1.082993e-02 -1.284313e-02 4.282837e-01 -8.802490e-01 4.648438e-01 -8.634644e-01 -6.771088e-03 -2.362251e-02
3.173281e+08 -1.093292e-02 -1.280499e-02 4.285278e-01 -8.802490e-01 4.641113e-01 -8.624268e-01 -6.977081e-03 -2.356339e-02
3.175459e+08 -1.123142e-02 -1.281548e-02 4.275513e-01 -8.810425e-01 4.637451e-01 -8.632202e-01 -7.228851e-03 -2.347374e-02
3.177638e+08 -1.137638e-02 -1.275635e-02 4.262085e-01 -8.807373e-01 4.629517e-01 -8.637695e-01 -7.377625e-03 -2.340317e-02
3.179816e+08 -1.161289e-02 -1.271629e-02 4.264526e-01 -8.808594e-01 4.617310e-01 -8.639526e-01 -7.595062e-03 -2.324867e-02
3.181994e+08 -1.180553e-02 -1.268578e-02 4.252930e-01 -8.812866e-01 4.614868e-01 -8.641357e-01 -7.791519e-03 -2.320290e-02
3.184172e+08 -1.198864e-02 -1.263046e-02 4.241943e-01 -8.817749e-01 4.609375e-01 -8.648682e-01 -8.012772e-03 -2.309990e-02
3.186350e+08 -1.212120e-02 -1.261234e-02 4.243774e-01 -8.826904e-01 4.602661e-01 -8.650513e-01 -8.153915e-03 -2.306366e-02
3.188528e+08 -1.229858e-02 -1.260853e-02 4.235229e-01 -8.828125e-01 4.600220e-01 -8.655396e-01 -8.377075e-03 -2.298546e-02
3.190706e+08 -1.251411e-02 -1.259804e-02 4.230957e-01 -8.825073e-01 4.599609e-01 -8.649902e-01 -8.577347e-03 -2.284813e-02
3.192884e+08 -1.273155e-02 -1.258659e-02 4.225464e-01 -8.842163e-01 4.583130e-01 -8.665161e-01 -8.811951e-03 -2.280235e-02
3.195062e+08 -1.296139e-02 -1.254082e-02 4.213257e-01 -8.833008e-01 4.581299e-01 -8.670044e-01 -8.981705e-03 -2.267265e-02
3.197241e+08 -1.307201e-02 -1.246738e-02 4.205322e-01 -8.840332e-01 4.578247e-01 -8.670044e-01 -9.140015e-03 -2.260208e-02
3.199419e+08 -1.329994e-02 -1.245308e-02 4.197388e-01 -8.843384e-01 4.563599e-01 -8.677979e-01 -9.370804e-03 -2.250099e-02
3.201597e+08 -1.345158e-02 -1.242924e-02 4.194336e-01 -8.851929e-01 4.558105e-01 -8.682861e-01 -9.525299e-03 -2.240562e-02
3.203775e+08 -1.362228e-02 -1.237202e-02 4.191284e-01 -8.852539e-01 4.547729e-01 -8.679199e-01 -9.715080e-03 -2.232933e-02
3.205953e+08 -1.382256e-02 -1.232815e-02 4.182739e-01 -8.844604e-01 4.547729e-01 -8.683472e-01 -9.928703e-03 -2.223492e-02
3.208131e+08 -1.399422e-02 -1.231670e-02 4.176636e-01 -8.852539e-01 4.542236e-01 -8.686523e-01 -1.017189e-02 -2.212524e-02
3.210309e+08 -1.419258e-02 -1.223755e-02 4.160767e-01 -8.867188e-01 4.534302e-01 -8.699951e-01 -1.034164e-02 -2.207470e-02
3.212488e+08 -1.439190e-02 -1.218700e-02 4.161377e-01 -8.869629e-01 4.525146e-01 -8.699341e-01 -1.051712e-02 -2.199936e-02
3.214666e+08 -1.459599e-02 -1.220894e-02 4.154053e-01 -8.869629e-01 4.520874e-01 -8.699341e-01 -1.068020e-02 -2.185726e-02
3.216844e+08 -1.472378e-02 -1.217651e-02 4.148560e-01 -8.864136e-01 4.516602e-01 -8.702393e-01 -1.083946e-02 -2.176666e-02
3.219022e+08 -1.491356e-02 -1.210594e-02 4.153442e-01 -8.876953e-01 4.507446e-01 -8.702393e-01 -1.100922e-02 -2.168655e-02
3.221200e+08 -1.512814e-02 -1.205921e-02 4.141846e-01 -8.879395e-01 4.498291e-01 -8.718872e-01 -1.125813e-02 -2.162838e-02
3.223378e+08 -1.524925e-02 -1.205063e-02 4.129028e-01 -8.890381e-01 4.495239e-01 -8.715820e-01 -1.145363e-02 -2.151680e-02
3.225556e+08 -1.545048e-02 -1.196098e-02 4.132690e-01 -8.881226e-01 4.487305e-01 -8.723755e-01 -1.161766e-02 -2.141571e-02
3.227734e+08 -1.569176e-02 -1.195812e-02 4.114990e-01 -8.889160e-01 4.481812e-01 -8.720703e-01 -1.179695e-02 -2.125740e-02
3.229912e+08 -1.581192e-02 -1.187801e-02 4.110718e-01 -8.890381e-01 4.472046e-01 -8.721924e-01 -1.197720e-02 -2.121544e-02
3.232091e+08 -1.599312e-02 -1.184559e-02 4.101562e-01 -8.888550e-01 4.472656e-01 -8.730469e-01 -1.211071e-02 -2.112770e-02
3.234269e+08 -1.618385e-02 -1.181793e-02 4.095459e-01 -8.891602e-01 4.465942e-01 -8.729858e-01 -1.230431e-02 -2.102089e-02
3.236447e+08 -1.631737e-02 -1.179600e-02 4.086914e-01 -8.897705e-01 4.459839e-01 -8.733521e-01 -1.247501e-02 -2.093506e-02
3.238625e+08 -1.647663e-02 -1.169872e-02 4.080811e-01 -8.903809e-01 4.445801e-01 -8.735962e-01 -1.262379e-02 -2.084064e-02
3.240803e+08 -1.669312e-02 -1.168919e-02 4.077759e-01 -8.914795e-01 4.446411e-01 -8.737183e-01 -1.279068e-02 -2.070999e-02
3.242981e+08 -1.685524e-02 -1.165867e-02 4.066162e-01 -8.910522e-01 4.432373e-01 -8.741455e-01 -1.301670e-02 -2.058983e-02
3.245159e+08 -1.703548e-02 -1.161385e-02 4.054565e-01 -8.911743e-01 4.435425e-01 -8.740845e-01 -1.317024e-02 -2.050686e-02
3.247338e+08 -1.724625e-02 -1.155376e-02 4.059448e-01 -8.912354e-01 4.425049e-01 -8.743286e-01 -1.331520e-02 -2.043438e-02
3.249516e+08 -1.736164e-02 -1.153469e-02 4.049683e-01 -8.912354e-01 4.418945e-01 -8.753052e-01 -1.350403e-02 -2.035141e-02
3.251694e+08 -1.756096e-02 -1.144791e-02 4.036255e-01 -8.916016e-01 4.412842e-01 -8.759155e-01 -1.367092e-02 -2.023792e-02
3.253872e+08 -1.772499e-02 -1.144981e-02 4.036255e-01 -8.925781e-01 4.409790e-01 -8.755493e-01 -1.386738e-02 -2.014446e-02
3.256050e+08 -1.790810e-02 -1.139450e-02 4.029541e-01 -8.931274e-01 4.396973e-01 -8.761597e-01 -1.404858e-02 -2.007961e-02
3.258228e+08 -1.803207e-02 -1.134968e-02 4.027710e-01 -8.937988e-01 4.395752e-01 -8.758545e-01 -1.417351e-02 -1.999187e-02
3.260406e+08 -1.826668e-02 -1.126480e-02 4.014282e-01 -8.936768e-01 4.385376e-01 -8.770142e-01 -1.434326e-02 -1.984882e-02
3.262584e+08 -1.842403e-02 -1.126575e-02 4.003906e-01 -8.935547e-01 4.377441e-01 -8.774414e-01 -1.450920e-02 -1.978588e-02
3.264762e+08 -1.858425e-02 -1.118946e-02 3.999634e-01 -8.944092e-01 4.370117e-01 -8.770752e-01 -1.463795e-02 -1.964855e-02
3.266941e+08 -1.879215e-02 -1.113796e-02 3.992310e-01 -8.944702e-01 4.366455e-01 -8.787842e-01 -1.481915e-02 -1.955605e-02
3.269119e+08 -1.886559e-02 -1.111698e-02 3.983154e-01 -8.950195e-01 4.353638e-01 -8.781128e-01 -1.501083e-02 -1.943588e-02
3.271297e+08 -1.904583e-02 -1.102543e-02 3.980103e-01 -8.944702e-01 4.348145e-01 -8.786621e-01 -1.511574e-02 -1.934719e-02
3.273475e+08 -1.929283e-02 -1.103592e-02 3.971558e-01 -8.953247e-01 4.345093e-01 -8.793945e-01 -1.528168e-02 -1.930904e-02
3.275653e+08 -1.939106e-02 -1.094437e-02 3.970337e-01 -8.953857e-01 4.341431e-01 -8.788452e-01 -1.540852e-02 -1.912880e-02
3.277831e+08 -1.954937e-02 -1.092529e-02 3.958130e-01 -8.964844e-01 4.331665e-01 -8.795166e-01 -1.567364e-02 -1.903629e-02
3.280009e+08 -1.976585e-02 -1.094246e-02 3.952637e-01 -8.967896e-01 4.333496e-01 -8.799438e-01 -1.585865e-02 -1.896286e-02
3.282188e+08 -1.985455e-02 -1.078892e-02 3.944702e-01 -8.966675e-01 4.326172e-01 -8.804321e-01 -1.591301e-02 -1.885605e-02
3.284366e+08 -2.006054e-02 -1.078415e-02 3.934326e-01 -8.972168e-01 4.316406e-01 -8.806763e-01 -1.606846e-02 -1.877689e-02
3.286544e+08 -2.024841e-02 -1.071167e-02 3.922729e-01 -8.972168e-01 4.305420e-01 -8.809204e-01 -1.629162e-02 -1.864433e-02
3.288722e+08 -2.039719e-02 -1.065445e-02 3.922729e-01 -8.972778e-01 4.295654e-01 -8.812256e-01 -1.641560e-02 -1.855755e-02
3.290900e+08 -2.055740e-02 -1.061249e-02 3.925171e-01 -8.974609e-01 4.291992e-01 -8.815308e-01 -1.653576e-02 -1.848698e-02
3.293078e+08 -2.070999e-02 -1.054573e-02 3.908691e-01 -8.983154e-01 4.288940e-01 -8.818359e-01 -1.672268e-02 -1.837921e-02
3.295256e+08 -2.083588e-02 -1.049995e-02 3.905640e-01 -8.985596e-01 4.282837e-01 -8.820190e-01 -1.683521e-02 -1.828671e-02
3.297434e+08 -2.101326e-02 -1.048088e-02 3.894653e-01 -8.992310e-01 4.272461e-01 -8.820190e-01 -1.704121e-02 -1.815701e-02
3.299612e+08 -2.121544e-02 -1.036835e-02 3.886108e-01 -8.989868e-01 4.262695e-01 -8.826294e-01 -1.714611e-02 -1.812077e-02
3.301791e+08 -2.132607e-02 -1.037788e-02 3.877563e-01 -8.993530e-01 4.266357e-01 -8.826904e-01 -1.725960e-02 -1.800919e-02
3.303969e+08 -2.150726e-02 -1.030731e-02 3.878784e-01 -8.995361e-01 4.257812e-01 -8.833008e-01 -1.747608e-02 -1.788139e-02
3.306147e+08 -2.167130e-02 -1.024818e-02 3.869019e-01 -8.994141e-01 4.249878e-01 -8.833618e-01 -1.759624e-02 -1.780891e-02
3.308325e+08 -2.182961e-02 -1.019096e-02 3.865356e-01 -8.996582e-01 4.242554e-01 -8.840942e-01 -1.770306e-02 -1.767349e-02
3.310503e+08 -2.194023e-02 -1.023674e-02 3.853760e-01 -9.003906e-01 4.240112e-01 -8.841553e-01 -1.783180e-02 -1.762295e-02
3.312681e+08 -2.215004e-02 -1.010132e-02 3.846436e-01 -9.008179e-01 4.225464e-01 -8.847046e-01 -1.803589e-02 -1.749420e-02
3.314859e+08 -2.225685e-02 -1.004601e-02 3.842163e-01 -9.011841e-01 4.225464e-01 -8.847046e-01 -1.813126e-02 -1.740837e-02
3.317038e+08 -2.241898e-02 -9.998322e-03 3.834229e-01 -9.013672e-01 4.208374e-01 -8.856812e-01 -1.830864e-02 -1.728821e-02
3.319216e+08 -2.261734e-02 -9.960175e-03 3.825073e-01 -9.018555e-01 4.201050e-01 -8.854980e-01 -1.840782e-02 -1.719475e-02
3.321394e+08 -2.270699e-02 -9.820938e-03 3.815918e-01 -9.018555e-01 4.197388e-01 -8.853149e-01 -1.860905e-02 -1.706982e-02
3.323572e+08 -2.290344e-02 -9.830475e-03 3.811035e-01 -9.027710e-01 4.191284e-01 -8.861694e-01 -1.873493e-02 -1.701832e-02
3.325750e+08 -2.310944e-02 -9.752274e-03 3.802490e-01 -9.022217e-01 4.190063e-01 -8.861084e-01 -1.887703e-02 -1.691151e-02
3.327928e+08 -2.326012e-02 -9.687424e-03 3.802490e-01 -9.028320e-01 4.177246e-01 -8.872070e-01 -1.900482e-02 -1.679420e-02
3.330106e+08 -2.335358e-02 -9.675980e-03 3.793945e-01 -9.020996e-01 4.171143e-01 -8.866577e-01 -1.913166e-02 -1.670456e-02
3.332284e+08 -2.352905e-02 -9.628296e-03 3.786011e-01 -9.039917e-01 4.164429e-01 -8.881836e-01 -1.929951e-02 -1.663876e-02
3.334462e+08 -2.362633e-02 -9.580612e-03 3.776855e-01 -9.039917e-01 4.160156e-01 -8.876953e-01 -1.944637e-02 -1.652718e-02
3.336641e+08 -2.385330e-02 -9.500504e-03 3.774414e-01 -9.037476e-01 4.160156e-01 -8.876953e-01 -1.953888e-02 -1.644897e-02
3.338819e+08 -2.393532e-02 -9.462357e-03 3.762207e-01 -9.049683e-01 4.147949e-01 -8.885498e-01 -1.967335e-02 -1.633835e-02
3.340997e+08 -2.414131e-02 -9.393692e-03 3.751221e-01 -9.045410e-01 4.144287e-01 -8.883667e-01 -1.981163e-02 -1.620674e-02
3.343175e+08 -2.432632e-02 -9.359360e-03 3.743896e-01 -9.053345e-01 4.135742e-01 -8.892822e-01 -1.995945e-02 -1.611900e-02
3.345353e+08 -2.439499e-02 -9.321213e-03 3.738403e-01 -9.047241e-01 4.130859e-01 -8.890381e-01 -2.010155e-02 -1.604271e-02
3.347531e+08 -2.452278e-02 -9.256363e-03 3.732910e-01 -9.053955e-01 4.121094e-01 -8.894043e-01 -2.022743e-02 -1.593304e-02
3.349709e+08 -2.470970e-02 -9.138107e-03 3.735962e-01 -9.048462e-01 4.108276e-01 -8.900146e-01 -2.031231e-02 -1.585960e-02
3.351888e+08 -2.485847e-02 -9.073257e-03 3.722534e-01 -9.057617e-01 4.101562e-01 -8.902588e-01 -2.046967e-02 -1.573372e-02
3.354066e+08 -2.493477e-02 -9.038925e-03 3.711548e-01 -9.064941e-01 4.100952e-01 -8.903198e-01 -2.059555e-02 -1.570511e-02
3.356244e+08 -2.513885e-02 -8.955002e-03 3.710327e-01 -9.063721e-01 4.093018e-01 -8.902588e-01 -2.075195e-02 -1.557446e-02
3.358422e+08 -2.528763e-02 -8.937836e-03 3.701782e-01 -9.070435e-01 4.076538e-01 -8.906860e-01 -2.087784e-02 -1.543522e-02
3.360600e+08 -2.541733e-02 -8.960724e-03 3.693848e-01 -9.067383e-01 4.089966e-01 -8.914795e-01 -2.103138e-02 -1.535225e-02
3.362778e+08 -2.564812e-02 -8.783340e-03 3.698120e-01 -9.069214e-01 4.073486e-01 -8.920898e-01 -2.113914e-02 -1.530266e-02
3.364956e+08 -2.572823e-02 -8.775711e-03 3.680420e-01 -9.074097e-01 4.066162e-01 -8.920898e-01 -2.127266e-02 -1.517582e-02
3.367134e+08 -2.586555e-02 -8.714676e-03 3.671875e-01 -9.076538e-01 4.056396e-01 -8.913574e-01 -2.140331e-02 -1.507950e-02
3.369312e+08 -2.598763e-02 -8.701324e-03 3.672485e-01 -9.083862e-01 4.054565e-01 -8.920288e-01 -2.153111e-02 -1.502991e-02
3.371491e+08 -2.609253e-02 -8.626938e-03 3.662109e-01 -9.086914e-01 4.044800e-01 -8.931885e-01 -2.164745e-02 -1.486969e-02
3.373669e+08 -2.629089e-02 -8.565903e-03 3.652954e-01 -9.080811e-01 4.038086e-01 -8.936768e-01 -2.172470e-02 -1.474476e-02
3.375847e+08 -2.646828e-02 -8.510590e-03 3.637695e-01 -9.092407e-01 4.031372e-01 -8.933716e-01 -2.190399e-02 -1.473808e-02
3.378025e+08 -2.660179e-02 -8.405685e-03 3.643188e-01 -9.086304e-01 4.032593e-01 -8.940430e-01 -2.198410e-02 -1.458836e-02
3.380203e+08 -2.671623e-02 -8.384705e-03 3.635864e-01 -9.090576e-01 4.026489e-01 -8.942871e-01 -2.211761e-02 -1.449299e-02
3.382381e+08 -2.687263e-02 -8.338928e-03 3.626709e-01 -9.091797e-01 4.017944e-01 -8.943481e-01 -2.226925e-02 -1.440144e-02
3.384559e+08 -2.702332e-02 -8.220673e-03 3.607788e-01 -9.099121e-01 4.000244e-01 -8.952637e-01 -2.235413e-02 -1.432610e-02
3.386738e+08 -2.714348e-02 -8.192062e-03 3.608398e-01 -9.104614e-01 4.004517e-01 -8.946533e-01 -2.251434e-02 -1.429749e-02
3.388916e+08 -2.733040e-02 -8.113861e-03 3.605957e-01 -9.102783e-01 3.989258e-01 -8.953247e-01 -2.259636e-02 -1.414680e-02
3.391094e+08 -2.738380e-02 -8.060455e-03 3.603516e-01 -9.104614e-01 3.984985e-01 -8.953247e-01 -2.272987e-02 -1.403999e-02
3.393272e+08 -2.758980e-02 -8.039474e-03 3.587646e-01 -9.111938e-01 3.984985e-01 -8.953247e-01 -2.280617e-02 -1.398659e-02
3.395450e+08 -2.769279e-02 -7.925034e-03 3.578491e-01 -9.114380e-01 3.969727e-01 -8.958130e-01 -2.293968e-02 -1.389694e-02
3.397628e+08 -2.784920e-02 -7.854462e-03 3.566284e-01 -9.118042e-01 3.964233e-01 -8.970337e-01 -2.304077e-02 -1.377869e-02
3.399806e+08 -2.800751e-02 -7.850647e-03 3.571777e-01 -9.119873e-01 3.961182e-01 -8.972778e-01 -2.318001e-02 -1.371956e-02
3.401984e+08 -2.809334e-02 -7.761002e-03 3.566895e-01 -9.116821e-01 3.949585e-01 -8.966675e-01 -2.327919e-02 -1.365662e-02
3.404162e+08 -2.824211e-02 -7.728577e-03 3.567505e-01 -9.121704e-01 3.953857e-01 -8.971558e-01 -2.339363e-02 -1.358032e-02
3.406341e+08 -2.849007e-02 -7.667542e-03 3.551636e-01 -9.121094e-01 3.944702e-01 -8.978271e-01 -2.348709e-02 -1.344681e-02
3.408519e+08 -2.855682e-02 -7.629395e-03 3.543091e-01 -9.125977e-01 3.931885e-01 -8.975220e-01 -2.363205e-02 -1.335144e-02
3.410697e+08 -2.865791e-02 -7.539749e-03 3.530884e-01 -9.127808e-01 3.937378e-01 -8.987427e-01 -2.382088e-02 -1.325226e-02
3.412875e+08 -2.883530e-02 -7.497787e-03 3.531494e-01 -9.138184e-01 3.921509e-01 -8.984375e-01 -2.391052e-02 -1.317787e-02
3.415053e+08 -2.891350e-02 -7.474899e-03 3.522339e-01 -9.138184e-01 3.916626e-01 -8.981323e-01 -2.400780e-02 -1.308632e-02
3.417231e+08 -2.904320e-02 -7.408142e-03 3.510742e-01 -9.138794e-01 3.906860e-01 -8.980713e-01 -2.411461e-02 -1.303673e-02
3.419409e+08 -2.919960e-02 -7.322311e-03 3.502808e-01 -9.136963e-01 3.894043e-01 -8.993530e-01 -2.422523e-02 -1.290321e-02
3.421588e+08 -2.934074e-02 -7.251740e-03 3.496094e-01 -9.152832e-01 3.895874e-01 -8.988037e-01 -2.439117e-02 -1.279640e-02
3.423766e+08 -2.944374e-02 -7.143021e-03 3.489380e-01 -9.151611e-01 3.894043e-01 -8.993530e-01 -2.446175e-02 -1.274109e-02
3.425944e+08 -2.960587e-02 -7.160187e-03 3.487549e-01 -9.143677e-01 3.881836e-01 -8.996582e-01 -2.453423e-02 -1.268959e-02
3.428122e+08 -2.969933e-02 -7.049561e-03 3.477173e-01 -9.144897e-01 3.874512e-01 -9.000244e-01 -2.459145e-02 -1.255417e-02
3.430300e+08 -2.986336e-02 -6.967545e-03 3.468628e-01 -9.154053e-01 3.863525e-01 -9.004517e-01 -2.478981e-02 -1.246643e-02
3.432478e+08 -2.999687e-02 -6.914139e-03 3.465576e-01 -9.154663e-01 3.862305e-01 -9.006348e-01 -2.485466e-02 -1.237869e-02
3.434656e+08 -3.010368e-02 -6.893158e-03 3.453369e-01 -9.155273e-01 3.854980e-01 -9.013672e-01 -2.497864e-02 -1.226234e-02
3.436834e+08 -3.028297e-02 -6.790161e-03 3.453979e-01 -9.154663e-01 3.846436e-01 -9.021606e-01 -2.508354e-02 -1.220322e-02
3.439012e+08 -3.038597e-02 -6.753922e-03 3.446045e-01 -9.164429e-01 3.837891e-01 -9.013672e-01 -2.520370e-02 -1.212502e-02
3.441191e+08 -3.046989e-02 -6.755829e-03 3.437500e-01 -9.163818e-01 3.834839e-01 -9.023438e-01 -2.532959e-02 -1.204872e-02
3.443369e+08 -3.065491e-02 -6.587982e-03 3.430786e-01 -9.163208e-01 3.824463e-01 -9.021606e-01 -2.543831e-02 -1.194572e-02
3.445547e+08 -3.076935e-02 -6.532669e-03 3.420410e-01 -9.179077e-01 3.816528e-01 -9.024658e-01 -2.556610e-02 -1.192474e-02
3.447725e+08 -3.084564e-02 -6.477356e-03 3.413696e-01 -9.166870e-01 3.818359e-01 -9.020386e-01 -2.565765e-02 -1.178932e-02
3.449903e+08 -3.100204e-02 -6.458282e-03 3.416138e-01 -9.176636e-01 3.806763e-01 -9.024658e-01 -2.575111e-02 -1.175499e-02
3.452081e+08 -3.112984e-02 -6.372452e-03 3.403320e-01 -9.179688e-01 3.804321e-01 -9.022217e-01 -2.585220e-02 -1.162720e-02
3.454259e+08 -3.126526e-02 -6.286621e-03 3.387451e-01 -9.182739e-01 3.793945e-01 -9.035645e-01 -2.595329e-02 -1.159859e-02
3.456438e+08 -3.138161e-02 -6.208420e-03 3.381348e-01 -9.181519e-01 3.776855e-01 -9.033203e-01 -2.601051e-02 -1.145172e-02
3.458616e+08 -3.150558e-02 -6.212234e-03 3.375854e-01 -9.180298e-01 3.777466e-01 -9.035034e-01 -2.614403e-02 -1.136971e-02
3.460794e+08 -3.166389e-02 -6.122589e-03 3.375854e-01 -9.188843e-01 3.771362e-01 -9.043579e-01 -2.622032e-02 -1.130867e-02
3.462972e+08 -3.174782e-02 -6.057739e-03 3.366699e-01 -9.201050e-01 3.767700e-01 -9.044189e-01 -2.636528e-02 -1.125145e-02
3.465150e+08 -3.193665e-02 -5.933762e-03 3.355713e-01 -9.192505e-01 3.750000e-01 -9.041748e-01 -2.649689e-02 -1.113319e-02
3.467328e+08 -3.197670e-02 -5.933762e-03 3.353271e-01 -9.195557e-01 3.757324e-01 -9.046021e-01 -2.656364e-02 -1.105690e-02
3.469506e+08 -3.214645e-02 -5.849838e-03 3.344727e-01 -9.201050e-01 3.742065e-01 -9.058228e-01 -2.667046e-02 -1.101303e-02
3.471684e+08 -3.229904e-02 -5.802155e-03 3.329468e-01 -9.206543e-01 3.740234e-01 -9.058228e-01 -2.682114e-02 -1.084137e-02
3.473862e+08 -3.239632e-02 -5.729675e-03 3.335571e-01 -9.212036e-01 3.728027e-01 -9.063110e-01 -2.693558e-02 -1.078415e-02
3.476041e+08 -3.253555e-02 -5.681992e-03 3.328857e-01 -9.202271e-01 3.729858e-01 -9.060059e-01 -2.697182e-02 -1.076126e-02
3.478219e+08 -3.262138e-02 -5.552292e-03 3.316650e-01 -9.203491e-01 3.721924e-01 -9.062500e-01 -2.712822e-02 -1.069069e-02
3.480397e+08 -3.275490e-02 -5.523682e-03 3.304443e-01 -9.208984e-01 3.710938e-01 -9.063721e-01 -2.716064e-02 -1.055908e-02
3.482575e+08 -3.288651e-02 -5.434036e-03 3.292847e-01 -9.218140e-01 3.704834e-01 -9.072266e-01 -2.728462e-02 -1.048470e-02
3.484753e+08 -3.300476e-02 -5.405426e-03 3.296509e-01 -9.215698e-01 3.706055e-01 -9.071045e-01 -2.739334e-02 -1.040459e-02
3.486931e+08 -3.317261e-02 -5.315781e-03 3.283691e-01 -9.219971e-01 3.691406e-01 -9.072266e-01 -2.750778e-02 -1.032448e-02
3.489109e+08 -3.328705e-02 -5.270004e-03 3.280640e-01 -9.221191e-01 3.688354e-01 -9.082642e-01 -2.757645e-02 -1.029968e-02
3.491288e+08 -3.338623e-02 -5.199432e-03 3.265991e-01 -9.226685e-01 3.677979e-01 -9.080200e-01 -2.765274e-02 -1.022911e-02
3.493466e+08 -3.353500e-02 -5.084991e-03 3.265991e-01 -9.232178e-01 3.668213e-01 -9.080200e-01 -2.778244e-02 -1.008606e-02
3.495644e+08 -3.364563e-02 -5.002975e-03 3.259277e-01 -9.228516e-01 3.663330e-01 -9.088135e-01 -2.788734e-02 -1.004601e-02
3.497822e+08 -3.372765e-02 -4.970551e-03 3.246460e-01 -9.234009e-01 3.660889e-01 -9.093018e-01 -2.796745e-02 -9.971619e-03
3.500000e+08 -3.387642e-02 -4.932404e-03 3.241577e-01 -9.233398e-01 3.646240e-01 -9.088135e-01 -2.808189e-02 -9.874344e-03
