# Hz S RI R 50
! RAW DATA - UNCALIBRATED
1.500000e+06 -1.010071e+00 1.989746e-02 2.961233e-05 1.975149e-05 -3.848225e-06 1.069857e-05 9.770508e-01 -2.148438e-02
1.717812e+06 -1.009949e+00 2.038574e-02 1.199171e-05 -3.548339e-06 9.122887e-07 -1.098495e-06 9.752808e-01 -1.953125e-02
1.935625e+06 -1.011536e+00 1.727295e-02 1.017191e-05 -1.799036e-05 -7.935800e-06 8.658506e-06 9.754639e-01 -1.940918e-02
2.153438e+06 -1.012512e+00 1.483154e-02 1.296494e-05 4.806556e-06 8.147210e-06 2.804678e-06 9.763184e-01 -1.562500e-02
2.371250e+06 -1.013367e+00 1.361084e-02 -1.722760e-05 -2.103113e-05 -4.954636e-07 2.846122e-06 9.757690e-01 -1.214600e-02
2.589062e+06 -1.013306e+00 1.031494e-02 5.872920e-06 2.138689e-05 -8.548610e-06 -4.616566e-06 9.763184e-01 -8.605957e-03
2.806875e+06 -1.015259e+00 7.751465e-03 2.011843e-05 -9.316951e-06 2.311775e-06 -4.715519e-06 9.766846e-01 -4.577637e-03
3.024688e+06 -1.016907e+00 5.065918e-03 -5.265690e-10 -2.748379e-10 2.289191e-06 -2.320972e-06 9.759521e-01 -8.544922e-04
3.242500e+06 -1.016846e+00 7.934570e-04 -5.262904e-06 -9.163283e-06 -4.464760e-06 9.584241e-06 9.763794e-01 3.784180e-03
3.460312e+06 -1.013855e+00 1.647949e-03 -6.393995e-06 -4.273839e-06 1.565088e-05 4.131347e-06 9.799805e-01 9.460449e-03
3.678125e+06 -1.015259e+00 2.624512e-03 -6.598420e-06 -7.188413e-06 -3.043097e-06 5.640090e-06 9.797974e-01 1.068115e-02
3.895938e+06 -1.015930e+00 3.479004e-03 1.380965e-05 -6.677583e-07 3.096648e-06 1.248065e-05 9.785767e-01 1.080322e-02
4.113750e+06 -1.014465e+00 5.493164e-03 4.459172e-06 6.325543e-06 -5.056383e-06 1.146924e-06 9.784546e-01 1.165771e-02
4.331562e+06 -1.015564e+00 6.103516e-03 -8.835923e-07 -3.360212e-06 5.646609e-06 1.158472e-05 9.796143e-01 1.110840e-02
4.549375e+06 -1.015442e+00 8.056641e-03 -3.263121e-06 1.218868e-06 -3.220513e-06 -2.768356e-07 9.786377e-01 1.373291e-02
4.767188e+06 -1.015015e+00 8.117676e-03 2.968684e-05 -3.091991e-06 -2.454035e-06 8.453149e-06 9.784546e-01 1.428223e-02
4.985000e+06 -1.015564e+00 9.155273e-03 2.978602e-06 -1.846347e-06 -1.361966e-05 -5.056150e-06 9.780273e-01 1.605225e-02
5.202812e+06 -1.014465e+00 9.277344e-03 -7.051975e-06 -2.106838e-05 -3.326219e-06 -9.933952e-06 9.780884e-01 1.745605e-02
5.420625e+06 -1.014221e+00 1.116943e-02 -1.730025e-05 -3.322028e-06 1.313537e-05 9.602867e-06 9.793091e-01 1.837158e-02
5.638438e+06 -1.014526e+00 1.171875e-02 2.115034e-05 -2.848357e-05 1.375750e-05 -7.689930e-06 9.795532e-01 1.989746e-02
5.856250e+06 -1.014465e+00 1.220703e-02 1.339428e-05 5.749054e-06 -5.834736e-06 1.257285e-07 9.790039e-01 2.111816e-02
6.074062e+06 -1.014221e+00 1.318359e-02 7.599592e-06 2.138503e-05 2.098270e-06 5.650800e-06 9.796143e-01 2.215576e-02
6.291875e+06 -1.014160e+00 1.306152e-02 2.692826e-05 -6.575137e-06 1.372769e-06 -7.762108e-06 9.804077e-01 2.319336e-02
6.509688e+06 -1.013245e+00 1.293945e-02 2.469867e-06 -6.664079e-06 5.010515e-07 -3.234949e-06 9.806519e-01 2.447510e-02
6.727500e+06 -1.013916e+00 1.397705e-02 -4.371628e-06 1.726206e-05 2.390472e-06 5.350681e-06 9.817505e-01 2.575684e-02
6.945312e+06 -1.012268e+00 1.574707e-02 2.103858e-06 -1.412816e-05 -7.632654e-06 4.393980e-06 9.824829e-01 2.746582e-02
7.163125e+06 -1.012451e+00 1.513672e-02 8.570030e-06 -2.818927e-05 1.706998e-06 2.391869e-06 9.830933e-01 2.929688e-02
7.380938e+06 -1.011780e+00 1.556396e-02 1.335703e-05 -2.211705e-05 -6.078742e-06 -2.496876e-06 9.849243e-01 3.002930e-02
7.598750e+06 -1.011230e+00 1.586914e-02 8.597970e-06 9.638723e-06 -8.689240e-07 7.308088e-06 9.848022e-01 3.161621e-02
7.816562e+06 -1.011414e+00 1.586914e-02 1.652166e-06 6.983057e-06 1.825974e-06 -2.310146e-06 9.862671e-01 3.204346e-02
8.034375e+06 -1.010559e+00 1.678467e-02 1.251232e-05 -7.930212e-06 -6.662682e-06 2.380274e-05 9.874878e-01 3.387451e-02
8.252188e+06 -1.009644e+00 1.568604e-02 3.766268e-06 -9.462237e-06 2.417248e-06 7.985160e-06 9.895020e-01 3.442383e-02
8.470000e+06 -1.009705e+00 1.690674e-02 -5.831851e-10 -1.755893e-10 2.984703e-05 1.273304e-05 9.902954e-01 3.527832e-02
8.687812e+06 -1.008911e+00 1.721191e-02 -1.790188e-05 -1.415610e-05 -8.549541e-07 1.214817e-05 9.912109e-01 3.491211e-02
8.905625e+06 -1.008667e+00 1.745605e-02 3.748760e-05 -3.421865e-05 4.461035e-06 1.319125e-05 9.924316e-01 3.576660e-02
9.123438e+06 -1.008911e+00 1.733398e-02 4.922040e-06 5.305279e-06 -7.874798e-06 -7.177703e-06 9.941406e-01 3.619385e-02
9.341250e+06 -1.007812e+00 1.672363e-02 -7.131137e-06 1.313165e-05 2.394430e-06 9.027775e-06 9.949951e-01 3.680420e-02
9.559062e+06 -1.006897e+00 1.770020e-02 1.367461e-05 6.013550e-06 -1.181010e-05 3.105029e-06 9.943848e-01 3.656006e-02
9.776875e+06 -1.006165e+00 1.751709e-02 2.425350e-05 1.594424e-05 7.744879e-06 -1.258589e-05 9.964600e-01 3.619385e-02
9.994688e+06 -1.005981e+00 1.739502e-02 2.606399e-05 -2.091751e-06 7.099472e-06 6.269664e-06 9.967651e-01 3.717041e-02
1.021250e+07 -1.005859e+00 1.757812e-02 -1.647137e-05 -7.584691e-06 -7.873867e-06 5.033799e-06 9.974365e-01 3.686523e-02
1.043031e+07 -1.005005e+00 1.782227e-02 -3.756024e-06 1.023058e-05 -4.667789e-06 1.403224e-05 9.988403e-01 3.710938e-02
1.064812e+07 -1.004944e+00 1.776123e-02 -2.094544e-05 -6.036833e-06 -9.114388e-06 -2.552290e-06 9.990845e-01 3.784180e-02
1.086594e+07 -1.003540e+00 1.818848e-02 3.691763e-06 -1.780596e-05 -3.784895e-06 1.194235e-05 1.000671e+00 3.784180e-02
1.108375e+07 -1.003296e+00 1.812744e-02 1.619011e-05 -1.267809e-05 1.752470e-05 2.996065e-06 9.998779e-01 3.839111e-02
1.130156e+07 -1.001831e+00 1.788330e-02 -7.419847e-06 3.337394e-06 8.551404e-06 6.492715e-06 1.001099e+00 3.771973e-02
1.151938e+07 -1.001831e+00 1.751709e-02 2.613291e-06 -2.921000e-05 -3.036112e-07 -1.152977e-05 1.000671e+00 3.894043e-02
1.173719e+07 -1.000854e+00 1.757812e-02 -1.619942e-05 -1.275167e-05 -2.927147e-06 1.360476e-05 1.003113e+00 3.814697e-02
1.195500e+07 -1.000854e+00 1.727295e-02 -4.379079e-06 -2.140366e-05 9.649433e-06 2.183020e-06 1.001709e+00 3.753662e-02
1.217281e+07 -9.994507e-01 1.599121e-02 6.992836e-06 -2.037268e-06 -1.343898e-06 9.802636e-06 1.001953e+00 3.723145e-02
1.239062e+07 -9.983521e-01 1.599121e-02 -1.206342e-05 -1.095235e-05 1.026876e-05 5.845446e-06 1.002930e+00 3.698730e-02
1.260844e+07 -9.990234e-01 1.593018e-02 -2.294593e-05 1.945347e-05 1.173560e-05 -4.327856e-06 1.002930e+00 3.753662e-02
1.282625e+07 -9.976196e-01 1.556396e-02 3.768597e-06 6.256159e-06 -5.224254e-06 5.976763e-06 1.003662e+00 3.845215e-02
1.304406e+07 -9.972534e-01 1.464844e-02 -4.292466e-06 -5.902257e-06 4.225876e-06 7.189345e-06 1.002869e+00 3.808594e-02
1.326188e+07 -9.963379e-01 1.397705e-02 1.324341e-06 -2.063438e-05 7.087365e-06 1.160614e-05 1.003479e+00 3.845215e-02
1.347969e+07 -9.953613e-01 1.446533e-02 4.999805e-06 -5.331822e-06 -5.681068e-07 8.828938e-06 1.003418e+00 3.692627e-02
1.369750e+07 -9.956665e-01 1.269531e-02 1.382083e-05 6.021932e-06 2.349168e-05 -3.658235e-06 1.003662e+00 3.918457e-02
1.391531e+07 -9.952393e-01 1.318359e-02 1.242850e-05 7.733703e-06 -1.083594e-06 3.114343e-06 1.003540e+00 3.894043e-02
1.413312e+07 -9.942627e-01 1.257324e-02 -1.323037e-05 -2.283789e-05 5.390495e-06 -2.802582e-06 1.003113e+00 3.839111e-02
1.435094e+07 -9.934692e-01 1.232910e-02 -5.088747e-06 1.374073e-05 3.756722e-06 1.811655e-06 1.003235e+00 3.936768e-02
1.456875e+07 -9.925537e-01 1.165771e-02 -9.837560e-06 8.841977e-06 -4.842877e-06 1.044618e-05 1.004333e+00 3.973389e-02
1.478656e+07 -9.926758e-01 1.019287e-02 2.332404e-05 1.821667e-05 6.828457e-06 2.790708e-06 1.003723e+00 4.010010e-02
1.500438e+07 -9.913940e-01 9.826660e-03 7.032882e-06 7.653143e-06 -5.244743e-06 7.708557e-06 1.002991e+00 4.162598e-02
1.522219e+07 -9.909058e-01 8.361816e-03 4.120295e-10 -4.654339e-10 5.247537e-06 -8.963980e-07 1.003235e+00 4.193115e-02
1.544000e+07 -9.903564e-01 7.568359e-03 -1.866370e-06 -1.087599e-05 -3.443565e-07 -4.160218e-06 1.003540e+00 4.138184e-02
1.565781e+07 -9.899292e-01 7.141113e-03 6.463379e-06 -1.725648e-05 1.633447e-05 1.276005e-05 1.003845e+00 4.229736e-02
1.587562e+07 -9.893799e-01 7.507324e-03 9.356998e-06 -1.588836e-05 3.896654e-06 5.338341e-06 1.003479e+00 4.309082e-02
1.609344e+07 -9.922485e-01 5.737305e-03 4.800782e-05 2.938509e-05 -6.935094e-06 5.757436e-06 1.003540e+00 4.724121e-02
1.631125e+07 -9.909668e-01 5.615234e-03 -1.109578e-05 -3.543496e-05 3.811345e-05 3.511086e-06 1.004089e+00 4.754639e-02
1.652906e+07 -9.908447e-01 5.859375e-03 4.037842e-05 4.021823e-05 -6.235391e-05 8.355826e-06 1.003662e+00 4.870605e-02
1.674688e+07 -9.902954e-01 6.469727e-03 -3.045425e-05 9.525567e-06 2.305396e-05 8.139759e-07 1.004395e+00 4.937744e-02
1.696469e+07 -9.898071e-01 4.333496e-03 -1.205876e-05 1.492538e-05 -4.931353e-06 -1.652632e-05 1.004150e+00 4.992676e-02
1.718250e+07 -9.891968e-01 5.554199e-03 -9.272248e-06 -4.734471e-05 6.097369e-06 3.774650e-06 1.003723e+00 5.004883e-02
1.740031e+07 -9.887695e-01 6.164551e-03 -7.187948e-06 -2.290122e-05 1.925975e-06 2.142694e-05 1.003967e+00 5.096436e-02
1.761812e+07 -9.887085e-01 5.920410e-03 2.957880e-05 -4.844368e-05 2.365746e-05 3.825128e-05 1.003967e+00 5.285645e-02
1.783594e+07 -9.880981e-01 5.615234e-03 6.700866e-06 3.501307e-06 2.673455e-05 -2.408586e-05 1.004517e+00 5.297852e-02
1.805375e+07 -9.875488e-01 5.249023e-03 2.765842e-05 1.655519e-05 1.474470e-05 6.660447e-05 1.005554e+00 5.377197e-02
1.827156e+07 -9.876099e-01 5.004883e-03 -1.608580e-05 -5.109236e-05 8.520205e-06 -8.295756e-06 1.004822e+00 5.358887e-02
1.848938e+07 -9.868774e-01 5.737305e-03 4.173070e-05 -1.034141e-05 2.749264e-06 -4.578382e-05 1.005798e+00 5.517578e-02
1.870719e+07 -9.856567e-01 5.310059e-03 7.361174e-05 -3.450736e-05 -6.440096e-06 -5.727634e-07 1.006897e+00 5.529785e-02
1.892500e+07 -9.863892e-01 5.126953e-03 4.099309e-05 4.061684e-05 1.516659e-06 -2.463581e-06 1.007019e+00 5.712891e-02
1.914281e+07 -9.860840e-01 4.333496e-03 -3.376603e-05 -1.754798e-05 -1.175329e-05 3.018230e-05 1.007019e+00 5.694580e-02
1.936062e+07 -9.851074e-01 4.150391e-03 -7.845461e-06 -4.271045e-05 3.351085e-05 -4.064105e-05 1.007874e+00 5.804443e-02
1.957844e+07 -9.855347e-01 4.577637e-03 8.655712e-06 -8.395873e-06 1.624320e-05 -7.049181e-06 1.008972e+00 5.859375e-02
1.979625e+07 -9.842529e-01 4.272461e-03 -3.194436e-05 2.428703e-05 2.409332e-05 7.979572e-06 1.009338e+00 5.908203e-02
2.001406e+07 -9.843140e-01 4.394531e-03 5.401671e-05 4.519522e-05 -9.352341e-06 -1.257658e-05 1.009460e+00 5.908203e-02
2.023188e+07 -9.837646e-01 3.784180e-03 -3.279746e-05 2.178177e-05 -1.044385e-05 -3.032945e-05 1.009827e+00 5.969238e-02
2.044969e+07 -9.833984e-01 3.295898e-03 3.398582e-05 1.761131e-05 -9.041280e-06 -4.663691e-05 1.010742e+00 6.048584e-02
2.066750e+07 -9.827271e-01 2.502441e-03 -1.902133e-05 1.173560e-05 5.490333e-05 1.651421e-05 1.011902e+00 6.097412e-02
2.088531e+07 -9.822998e-01 3.051758e-03 -6.225891e-06 1.621433e-05 2.326816e-05 3.483146e-05 1.012024e+00 6.140137e-02
2.110312e+07 -9.816895e-01 2.624512e-03 1.702830e-05 -5.394593e-05 -3.670156e-05 5.991757e-05 1.014099e+00 6.127930e-02
2.132094e+07 -9.813232e-01 2.563477e-03 1.366436e-05 7.047318e-06 1.999922e-05 1.222733e-05 1.014099e+00 6.170654e-02
2.153875e+07 -9.812012e-01 2.868652e-03 -3.693067e-05 -8.216128e-06 1.224224e-05 -2.003368e-05 1.015442e+00 6.231689e-02
2.175656e+07 -9.808960e-01 2.136230e-03 4.755706e-05 -1.232326e-05 -1.605228e-05 4.870445e-05 1.015686e+00 6.262207e-02
2.197438e+07 -9.801025e-01 1.892090e-03 4.075468e-05 -1.591444e-05 1.105480e-06 -1.311488e-05 1.016602e+00 6.201172e-02
2.219219e+07 -9.799805e-01 1.525879e-03 8.407980e-05 -2.404302e-05 -1.981109e-05 -4.659966e-05 1.017700e+00 6.274414e-02
2.241000e+07 -9.791260e-01 1.464844e-03 1.337752e-05 4.165992e-05 1.529232e-06 -3.360026e-05 1.018494e+00 6.201172e-02
2.262781e+07 -9.782715e-01 9.765625e-04 1.026317e-06 -1.470000e-05 1.649559e-05 -7.219613e-06 1.018982e+00 6.250000e-02
2.284562e+07 -9.775391e-01 2.441406e-04 2.338365e-05 1.119450e-06 -2.549961e-06 -3.268756e-05 1.020020e+00 6.298828e-02
2.306344e+07 -9.781494e-01 4.272461e-04 4.846603e-05 7.491559e-06 1.763273e-05 -2.042204e-05 1.020752e+00 6.347656e-02
2.328125e+07 -9.768677e-01 2.441406e-04 -3.680214e-05 2.913177e-05 -2.413429e-05 2.628192e-06 1.021912e+00 6.292725e-02
2.349906e+07 -9.768066e-01 -3.662109e-04 -1.510605e-06 -2.261624e-05 2.359971e-05 3.958121e-06 1.022705e+00 6.292725e-02
2.371688e+07 -9.762573e-01 -9.155273e-04 -2.178736e-05 4.136935e-06 3.525801e-05 -2.369843e-05 1.023132e+00 6.201172e-02
2.393469e+07 -9.757080e-01 -1.586914e-03 2.434105e-05 3.714114e-06 1.916662e-06 -2.316758e-05 1.024475e+00 6.237793e-02
2.415250e+07 -9.757080e-01 -1.159668e-03 9.485520e-06 1.142453e-05 1.360103e-05 2.910942e-05 1.025391e+00 6.170654e-02
2.437031e+07 -9.752197e-01 -1.770020e-03 2.525374e-05 6.346032e-06 1.353212e-05 -2.229586e-06 1.026184e+00 6.207275e-02
2.458812e+07 -9.750366e-01 -1.770020e-03 -1.592375e-05 2.257712e-05 -2.845749e-05 6.983802e-05 1.026245e+00 6.140137e-02
2.480594e+07 -9.744873e-01 -2.441406e-03 3.498234e-05 2.961606e-07 3.238022e-05 1.268461e-05 1.027710e+00 6.115723e-02
2.502375e+07 -9.740601e-01 -3.479004e-03 -1.267344e-05 5.062670e-05 1.475681e-05 1.592096e-05 1.027222e+00 6.085205e-02
2.524156e+07 -9.739990e-01 -3.662109e-03 4.927441e-05 -2.758205e-05 3.637746e-05 -2.374873e-06 1.028198e+00 6.121826e-02
2.545938e+07 -9.736938e-01 -3.540039e-03 1.153350e-05 -1.832563e-05 -1.541618e-05 8.135103e-06 1.029114e+00 5.975342e-02
2.567719e+07 -9.731445e-01 -3.906250e-03 5.006790e-05 -7.513911e-06 1.886114e-05 -3.406405e-05 1.030273e+00 6.005859e-02
2.589500e+07 -9.720459e-01 -3.845215e-03 1.299940e-05 2.202764e-05 -3.447011e-05 2.811290e-05 1.029846e+00 5.957031e-02
2.611281e+07 -9.725952e-01 -5.004883e-03 -2.040900e-05 2.711639e-05 6.468967e-06 -1.358800e-05 1.031433e+00 5.938721e-02
2.633062e+07 -9.716187e-01 -5.859375e-03 -1.253560e-05 3.334507e-05 -2.359971e-06 1.259334e-05 1.031616e+00 5.877686e-02
2.654844e+07 -9.711304e-01 -6.530762e-03 -7.021707e-06 -3.566034e-06 -5.947426e-06 6.932765e-06 1.032410e+00 5.816650e-02
2.676625e+07 -9.710083e-01 -6.347656e-03 -7.133000e-06 1.406018e-05 1.552631e-06 -2.572662e-06 1.033325e+00 5.767822e-02
2.698406e+07 -9.705200e-01 -7.629395e-03 -2.790615e-05 -4.960224e-05 -1.007831e-05 7.964671e-06 1.033447e+00 5.786133e-02
2.720188e+07 -9.705200e-01 -7.873535e-03 -1.363829e-05 6.611273e-05 1.346786e-05 -1.647882e-05 1.033386e+00 5.743408e-02
2.741969e+07 -9.697876e-01 -8.544922e-03 -4.131347e-06 -4.864112e-05 -4.601106e-05 4.544854e-07 1.034729e+00 5.645752e-02
2.763750e+07 -9.695435e-01 -8.911133e-03 -1.491047e-05 -2.750196e-05 -1.445040e-05 -2.279878e-05 1.035034e+00 5.560303e-02
2.785531e+07 -9.692383e-01 -9.460449e-03 1.779292e-05 -1.761690e-05 -2.044067e-05 -1.583528e-05 1.034851e+00 5.529785e-02
2.807312e+07 -9.692993e-01 -9.338379e-03 -2.576225e-05 1.142174e-05 2.904050e-05 -4.252233e-05 1.036133e+00 5.438232e-02
2.829094e+07 -9.694824e-01 -1.116943e-02 -2.829172e-05 -3.205985e-05 9.077601e-06 -1.219381e-05 1.037109e+00 5.316162e-02
2.850875e+07 -9.695435e-01 -1.171875e-02 -7.916242e-08 1.777895e-05 2.333708e-05 3.169477e-05 1.037842e+00 5.358887e-02
2.872656e+07 -9.694824e-01 -1.245117e-02 -3.812835e-05 -2.591126e-05 -2.680160e-05 1.221523e-05 1.037048e+00 5.218506e-02
2.894438e+07 -9.692993e-01 -1.312256e-02 -8.989125e-06 2.667494e-05 9.875745e-06 -4.008226e-05 1.037903e+00 5.285645e-02
2.916219e+07 -9.690552e-01 -1.257324e-02 5.287118e-06 1.605507e-05 1.668651e-05 1.354143e-05 1.037903e+00 5.200195e-02
2.938000e+07 -9.686890e-01 -1.361084e-02 -2.043135e-05 -2.592057e-05 7.290393e-06 -5.945191e-05 1.038696e+00 5.114746e-02
2.959781e+07 -9.685059e-01 -1.446533e-02 5.305745e-06 1.607928e-05 -9.412877e-06 1.567509e-05 1.038574e+00 5.047607e-02
2.981562e+07 -9.678345e-01 -1.495361e-02 5.714595e-05 1.085177e-05 -9.704381e-06 -3.422983e-05 1.039001e+00 4.992676e-02
3.003344e+07 -9.689941e-01 -1.538086e-02 2.408400e-05 1.881085e-05 9.930693e-06 -4.718080e-06 1.038269e+00 4.925537e-02
3.025125e+07 -9.688110e-01 -1.525879e-02 6.534904e-05 -1.865998e-05 1.884345e-05 -1.365133e-05 1.039490e+00 4.852295e-02
3.046906e+07 -9.676514e-01 -1.623535e-02 -3.592111e-06 7.162336e-06 -3.256649e-05 -2.301671e-05 1.040039e+00 4.748535e-02
3.068688e+07 -9.683838e-01 -1.733398e-02 2.780370e-05 -2.415478e-05 -8.059666e-06 3.437512e-05 1.039307e+00 4.718018e-02
3.090469e+07 -9.687500e-01 -1.849365e-02 1.977012e-05 -3.048405e-05 4.707370e-06 -7.893424e-06 1.040100e+00 4.711914e-02
3.112250e+07 -9.688721e-01 -1.928711e-02 -2.638064e-05 2.234988e-05 4.507601e-07 1.573656e-05 1.040466e+00 4.614258e-02
3.134031e+07 -9.696045e-01 -1.989746e-02 4.836358e-06 1.725089e-05 -1.061521e-05 2.213940e-05 1.040588e+00 4.559326e-02
3.155812e+07 -9.677734e-01 -2.099609e-02 3.835000e-05 1.375563e-05 3.587455e-05 2.440065e-07 1.040405e+00 4.577637e-02
3.177594e+07 -9.688110e-01 -2.136230e-02 -2.290308e-05 3.187172e-05 -1.803227e-05 2.644211e-05 1.041321e+00 4.565430e-02
3.199375e+07 -9.687500e-01 -2.319336e-02 -2.248399e-05 -2.358109e-06 3.558211e-05 1.893193e-05 1.040894e+00 4.498291e-02
3.221156e+07 -9.680786e-01 -2.478027e-02 1.410209e-05 -2.443232e-05 -1.054164e-05 1.597218e-05 1.041199e+00 4.443359e-02
3.242938e+07 -9.685669e-01 -2.465820e-02 -7.651746e-06 -4.701689e-05 -8.096918e-06 9.615906e-07 1.039917e+00 4.492188e-02
3.264719e+07 -9.690552e-01 -2.593994e-02 -5.389750e-05 2.767891e-06 -1.149997e-05 -1.563225e-05 1.040710e+00 4.412842e-02
3.286500e+07 -9.677734e-01 -2.612305e-02 -3.003515e-06 1.861062e-05 -1.652911e-05 2.069585e-05 1.040222e+00 4.406738e-02
3.308281e+07 -9.689331e-01 -2.777100e-02 -2.813712e-05 5.662441e-07 -3.037509e-06 5.465932e-06 1.040833e+00 4.321289e-02
3.330062e+07 -9.686279e-01 -2.832031e-02 -5.272031e-05 1.061335e-05 4.177541e-05 -3.279932e-05 1.040222e+00 4.321289e-02
3.351844e+07 -9.688110e-01 -2.984619e-02 -9.140465e-06 -6.577466e-06 3.384799e-05 2.788380e-06 1.039490e+00 4.254150e-02
3.373625e+07 -9.691772e-01 -3.051758e-02 2.675876e-05 4.005805e-05 -1.027342e-05 -2.761371e-06 1.040588e+00 4.168701e-02
3.395406e+07 -9.691162e-01 -3.100586e-02 1.830142e-05 1.318567e-05 2.046302e-05 1.179241e-05 1.039917e+00 4.180908e-02
3.417188e+07 -9.678955e-01 -3.253174e-02 -9.153038e-06 -6.598420e-06 -9.281561e-06 -1.824927e-05 1.039185e+00 4.217529e-02
3.438969e+07 -9.690552e-01 -3.295898e-02 1.550186e-05 -1.668371e-05 2.828427e-06 7.067807e-06 1.039856e+00 4.156494e-02
3.460750e+07 -9.689331e-01 -3.405762e-02 -1.476984e-05 -3.675930e-06 -1.661945e-05 2.076384e-05 1.039612e+00 4.150391e-02
3.482531e+07 -9.691772e-01 -3.540039e-02 2.624653e-05 1.194328e-05 -4.336983e-05 2.626702e-05 1.039795e+00 4.089355e-02
3.504312e+07 -9.698486e-01 -3.594971e-02 3.542937e-05 1.858175e-05 -3.638119e-05 5.980954e-06 1.039001e+00 4.113770e-02
3.526094e+07 -9.696655e-01 -3.680420e-02 3.041700e-06 -1.874100e-05 -5.667098e-06 -1.418218e-05 1.038513e+00 4.016113e-02
3.547875e+07 -9.692993e-01 -3.735352e-02 5.103648e-05 1.881272e-06 2.437830e-05 3.410503e-06 1.038879e+00 3.979492e-02
3.569656e+07 -9.697266e-01 -3.857422e-02 -3.583729e-06 -9.567011e-06 -2.679788e-05 5.444512e-06 1.038086e+00 3.924561e-02
3.591438e+07 -9.702759e-01 -4.003906e-02 4.138425e-05 -3.310293e-05 -3.963523e-05 -2.337247e-05 1.038330e+00 3.985596e-02
3.613219e+07 -9.699707e-01 -4.058838e-02 2.096221e-05 2.915040e-05 -2.691895e-05 -2.949499e-05 1.038452e+00 4.016113e-02
3.635000e+07 -9.698486e-01 -4.089355e-02 2.264977e-06 -6.137788e-05 -3.971159e-06 -2.644211e-05 1.037781e+00 3.942871e-02
3.656781e+07 -9.705811e-01 -4.254150e-02 -5.631242e-06 2.942979e-06 -1.603737e-05 2.422929e-05 1.037476e+00 3.918457e-02
3.678562e+07 -9.706421e-01 -4.321289e-02 3.848225e-06 2.381764e-05 2.222881e-05 -3.526919e-05 1.036865e+00 3.875732e-02
3.700344e+07 -9.713745e-01 -4.406738e-02 1.152139e-05 8.325092e-06 4.332140e-05 -7.387251e-06 1.036072e+00 3.826904e-02
3.722125e+07 -9.716187e-01 -4.547119e-02 -3.073364e-06 1.884438e-05 -2.557039e-05 1.214258e-05 1.036255e+00 3.796387e-02
3.743906e+07 -9.718018e-01 -4.577637e-02 -6.669201e-06 9.235926e-06 2.818182e-05 -3.373623e-05 1.035889e+00 3.753662e-02
3.765688e+07 -9.726562e-01 -4.669189e-02 8.982141e-06 -7.572118e-06 -1.436099e-05 -2.933666e-05 1.034912e+00 3.784180e-02
3.787469e+07 -9.719238e-01 -4.779053e-02 -1.568347e-05 1.681224e-05 -2.287095e-06 2.564630e-06 1.034790e+00 3.814697e-02
3.809250e+07 -9.724731e-01 -4.791260e-02 -1.516473e-05 -1.801457e-05 1.561455e-05 4.245155e-05 1.034851e+00 3.723145e-02
3.831031e+07 -9.727173e-01 -4.937744e-02 -1.312606e-05 3.277883e-05 -2.674758e-05 -7.238239e-06 1.034424e+00 3.686523e-02
3.852812e+07 -9.731445e-01 -4.943848e-02 9.010080e-06 -7.589348e-06 -2.083089e-05 -5.634502e-06 1.033691e+00 3.680420e-02
3.874594e+07 -9.735718e-01 -5.035400e-02 9.754673e-06 3.528781e-05 1.220964e-05 2.564676e-05 1.033203e+00 3.662109e-02
3.896375e+07 -9.749146e-01 -5.218506e-02 -2.573617e-05 -3.276393e-05 1.022220e-05 -2.599694e-05 1.033020e+00 3.631592e-02
3.918156e+07 -9.742432e-01 -5.218506e-02 2.758391e-05 5.835667e-06 2.327189e-05 -3.289431e-06 1.032349e+00 3.631592e-02
3.939938e+07 -9.747925e-01 -5.255127e-02 -2.605654e-05 1.649745e-05 3.494322e-06 -2.465211e-05 1.031372e+00 3.540039e-02
3.961719e+07 -9.751587e-01 -5.352783e-02 -5.207956e-06 3.159419e-05 -1.422595e-05 -6.454065e-07 1.030762e+00 3.631592e-02
3.983500e+07 -9.760742e-01 -5.535889e-02 -1.418218e-05 -2.442673e-05 1.746509e-05 -1.127832e-05 1.030762e+00 3.570557e-02
4.005281e+07 -9.762573e-01 -5.529785e-02 -4.886650e-06 -1.771376e-05 8.024275e-06 1.178775e-05 1.030273e+00 3.527832e-02
4.027062e+07 -9.766846e-01 -5.657959e-02 2.393499e-07 1.435447e-05 1.107343e-05 -2.905913e-05 1.029480e+00 3.509521e-02
4.048844e+07 -9.764404e-01 -5.682373e-02 4.348531e-05 -1.107529e-05 -4.483853e-06 -1.221430e-06 1.029114e+00 3.503418e-02
4.070625e+07 -9.776611e-01 -5.664062e-02 1.035724e-05 3.939494e-07 1.394749e-05 -5.721673e-05 1.028748e+00 3.405762e-02
4.092406e+07 -9.777832e-01 -5.792236e-02 1.223199e-05 -2.665631e-05 1.604017e-05 -1.172442e-05 1.028137e+00 3.497314e-02
4.114188e+07 -9.783325e-01 -5.883789e-02 2.110377e-06 -1.269113e-05 -2.310262e-06 2.586516e-06 1.026489e+00 3.601074e-02
4.135969e+07 -9.795532e-01 -5.841064e-02 9.330455e-06 6.762333e-06 4.886650e-06 -1.796801e-05 1.026794e+00 3.466797e-02
4.157750e+07 -9.784546e-01 -5.944824e-02 1.548231e-05 3.258698e-05 6.808434e-06 -1.368579e-06 1.025818e+00 3.515625e-02
4.179531e+07 -9.801636e-01 -6.048584e-02 -3.606081e-05 -1.905113e-05 -3.676862e-06 -3.968738e-05 1.025940e+00 3.527832e-02
4.201312e+07 -9.797363e-01 -6.146240e-02 4.066899e-05 -5.600601e-05 -3.176369e-05 4.259869e-06 1.024170e+00 3.497314e-02
4.223094e+07 -9.802246e-01 -6.201172e-02 1.356378e-05 -1.868419e-05 5.513430e-07 9.819400e-06 1.023865e+00 3.466797e-02
4.244875e+07 -9.812012e-01 -6.243896e-02 1.937896e-05 5.693361e-05 -1.952518e-05 -5.314127e-06 1.024170e+00 3.509521e-02
4.266656e+07 -9.825439e-01 -6.341553e-02 6.787479e-06 -9.348150e-06 1.120940e-05 6.292947e-06 1.022705e+00 3.491211e-02
4.288438e+07 -9.817505e-01 -6.414795e-02 -2.952665e-05 -4.292652e-05 -2.855249e-05 -7.793307e-06 1.021606e+00 3.570557e-02
4.310219e+07 -9.821777e-01 -6.414795e-02 4.244968e-06 -2.552941e-05 1.422409e-05 7.114373e-06 1.021484e+00 3.521729e-02
4.332000e+07 -9.832764e-01 -6.469727e-02 -2.362020e-05 -3.149360e-05 -2.161507e-05 -1.561921e-05 1.020447e+00 3.558350e-02
4.353781e+07 -9.830933e-01 -6.457520e-02 3.404450e-06 -4.689908e-06 6.845221e-06 -3.699772e-05 1.020325e+00 3.497314e-02
4.375562e+07 -9.846191e-01 -6.524658e-02 6.407499e-07 -3.538281e-05 2.603047e-06 2.014730e-05 1.019531e+00 3.588867e-02
4.397344e+07 -9.848633e-01 -6.671143e-02 -9.389129e-06 -6.829854e-06 1.510233e-05 3.977306e-05 1.019409e+00 3.527832e-02
4.419125e+07 -9.851685e-01 -6.658936e-02 4.161894e-05 -1.278520e-05 -2.565794e-05 -7.009134e-06 1.018250e+00 3.588867e-02
4.440906e+07 -9.862671e-01 -6.793213e-02 1.153443e-05 -5.972572e-06 -3.391504e-05 -1.249462e-05 1.017395e+00 3.613281e-02
4.462688e+07 -9.863892e-01 -6.707764e-02 -1.154747e-05 5.983748e-06 -1.085829e-05 1.003500e-05 1.017395e+00 3.570557e-02
4.484469e+07 -9.868774e-01 -6.878662e-02 1.860224e-05 -8.381903e-07 2.597645e-05 -4.163571e-05 1.015686e+00 3.619385e-02
4.506250e+07 -9.871826e-01 -6.909180e-02 6.855279e-05 -1.494214e-05 -3.246963e-05 -1.213513e-05 1.016541e+00 3.637695e-02
4.528031e+07 -9.882202e-01 -6.976318e-02 -3.434252e-06 4.710630e-06 -8.825213e-06 2.037920e-05 1.015503e+00 3.674316e-02
4.549812e+07 -9.893188e-01 -6.903076e-02 -8.639693e-05 -5.215406e-06 1.338217e-05 -1.915917e-05 1.014771e+00 3.631592e-02
4.571594e+07 -9.891357e-01 -6.988525e-02 -4.725531e-05 4.500523e-05 -1.339149e-05 1.915637e-05 1.013794e+00 3.692627e-02
4.593375e+07 -9.899902e-01 -7.073975e-02 -7.080380e-06 -5.161390e-06 2.349610e-06 -2.620509e-06 1.013367e+00 3.662109e-02
4.615156e+07 -9.904785e-01 -7.049561e-02 3.246590e-06 -1.931377e-05 2.000481e-06 4.627183e-05 1.012085e+00 3.717041e-02
4.636938e+07 -9.909668e-01 -7.049561e-02 3.609061e-05 -9.847805e-06 2.289191e-06 3.332086e-05 1.011353e+00 3.668213e-02
4.658719e+07 -9.919434e-01 -7.165527e-02 8.166768e-06 -1.278240e-06 -1.622364e-05 3.795698e-05 1.009949e+00 3.741455e-02
4.680500e+07 -9.923706e-01 -7.110596e-02 3.253110e-06 -1.935009e-05 -3.155321e-05 -3.444031e-06 1.009338e+00 3.784180e-02
4.702281e+07 -9.920654e-01 -7.250977e-02 4.909001e-06 1.809280e-05 -4.293770e-05 -1.606904e-05 1.009033e+00 3.839111e-02
4.724062e+07 -9.928589e-01 -7.287598e-02 1.272652e-05 -1.247134e-05 -1.547858e-05 3.095903e-05 1.008911e+00 3.808594e-02
4.745844e+07 -9.940186e-01 -7.287598e-02 -3.455207e-06 4.736241e-06 2.273172e-05 -3.874674e-05 1.007690e+00 3.796387e-02
4.767625e+07 -9.953003e-01 -7.293701e-02 5.114824e-06 3.278442e-05 3.515044e-06 3.851019e-07 1.006775e+00 3.845215e-02
4.789406e+07 -9.948120e-01 -7.379150e-02 -2.460554e-05 3.850088e-06 9.451993e-06 -1.808163e-06 1.006165e+00 3.845215e-02
4.811188e+07 -9.956055e-01 -7.409668e-02 1.281966e-06 8.211471e-06 -5.484559e-06 -1.484808e-05 1.006165e+00 3.912354e-02
4.832969e+07 -9.967041e-01 -7.427979e-02 -3.373437e-05 2.628006e-05 -1.563784e-05 1.253653e-05 1.004456e+00 3.973389e-02
4.854750e+07 -9.966431e-01 -7.397461e-02 2.009049e-05 7.381663e-06 1.837965e-05 -5.097128e-06 1.004639e+00 3.997803e-02
4.876531e+07 -9.976807e-01 -7.421875e-02 -3.473600e-06 4.753936e-06 -1.650071e-06 -4.462898e-06 1.004211e+00 4.119873e-02
4.898312e+07 -9.981079e-01 -7.470703e-02 8.228235e-06 -1.276378e-06 -1.332723e-05 -8.608215e-06 1.003174e+00 4.107666e-02
4.920094e+07 -9.992065e-01 -7.482910e-02 7.515773e-06 3.468990e-05 -4.496425e-06 -3.052503e-05 1.002747e+00 4.150391e-02
4.941875e+07 -9.997559e-01 -7.446289e-02 -1.043454e-05 1.426414e-05 2.330914e-05 -1.031719e-05 1.001221e+00 4.254150e-02
4.963656e+07 -9.996948e-01 -7.421875e-02 -4.706159e-05 9.439886e-06 -9.719282e-06 1.037028e-05 1.000977e+00 4.180908e-02
4.985438e+07 -1.000488e+00 -7.586670e-02 1.521222e-05 -1.080520e-05 1.966022e-06 1.453236e-05 1.000488e+00 4.266357e-02
5.007219e+07 -1.001038e+00 -7.562256e-02 2.397969e-05 3.217906e-05 3.167987e-05 3.072992e-05 9.989624e-01 4.351807e-02
5.029000e+07 -1.001038e+00 -7.507324e-02 -1.907628e-05 -1.396425e-05 1.889281e-05 2.357550e-05 9.991455e-01 4.400635e-02
5.050781e+07 -1.001770e+00 -7.543945e-02 -4.734471e-05 -5.323440e-06 7.936731e-06 1.234934e-05 9.982300e-01 4.376221e-02
5.072562e+07 -1.002502e+00 -7.543945e-02 5.283579e-05 -2.716854e-05 8.280948e-05 3.419816e-06 9.962158e-01 4.534912e-02
5.094344e+07 -1.003113e+00 -7.586670e-02 -2.461299e-05 1.860410e-05 2.356246e-07 -8.584931e-06 9.957275e-01 4.522705e-02
5.116125e+07 -1.003052e+00 -7.635498e-02 -4.152954e-05 -8.400530e-06 -1.795124e-05 6.608665e-06 9.959717e-01 4.583740e-02
5.137906e+07 -1.004395e+00 -7.592773e-02 -2.624281e-05 -1.925230e-05 -1.142733e-05 5.907379e-06 9.947510e-01 4.699707e-02
5.159688e+07 -1.004578e+00 -7.623291e-02 -1.672190e-05 -1.226179e-05 3.224425e-05 1.364946e-05 9.946899e-01 4.736328e-02
5.181469e+07 -1.004517e+00 -7.702637e-02 3.971159e-06 3.963709e-05 -2.318434e-05 1.709908e-06 9.934082e-01 4.772949e-02
5.203250e+07 -1.005554e+00 -7.702637e-02 -2.237968e-06 1.305994e-05 -2.625398e-05 -1.589023e-05 9.927368e-01 4.870605e-02
5.225031e+07 -1.006287e+00 -7.666016e-02 2.233312e-06 -1.306739e-05 1.286063e-05 7.196330e-06 9.920044e-01 4.895020e-02
5.246812e+07 -1.006714e+00 -7.611084e-02 -1.570210e-06 -3.793091e-05 1.737289e-05 -2.683699e-05 9.909058e-01 4.949951e-02
5.268594e+07 -1.007690e+00 -7.702637e-02 -3.080070e-05 6.845221e-06 2.819113e-05 1.179986e-05 9.909058e-01 5.023193e-02
5.290375e+07 -1.007874e+00 -7.647705e-02 4.784670e-06 3.513182e-06 6.255228e-06 -1.082709e-05 9.902344e-01 5.065918e-02
5.312156e+07 -1.007507e+00 -7.702637e-02 2.026372e-05 7.515773e-06 -1.883507e-05 1.372769e-05 9.894409e-01 5.120850e-02
5.333938e+07 -1.008362e+00 -7.647705e-02 1.271721e-06 8.306466e-06 1.097377e-05 1.131929e-05 9.892578e-01 5.187988e-02
5.355719e+07 -1.009644e+00 -7.537842e-02 -9.435229e-06 7.817522e-06 -3.364868e-05 1.067854e-05 9.879150e-01 5.291748e-02
5.377500e+07 -1.009827e+00 -7.617188e-02 -7.452443e-06 -3.503077e-05 -3.520772e-05 4.366785e-05 9.876709e-01 5.419922e-02
5.399281e+07 -1.010498e+00 -7.495117e-02 1.562573e-05 1.888163e-05 5.608425e-06 3.382936e-05 9.865723e-01 5.401611e-02
5.421062e+07 -1.009949e+00 -7.550049e-02 -1.676474e-05 -1.233350e-05 1.510512e-05 1.324061e-05 9.858398e-01 5.468750e-02
5.442844e+07 -1.010986e+00 -7.574463e-02 2.735294e-05 -2.067536e-06 1.555867e-05 -2.280436e-05 9.852295e-01 5.438232e-02
5.464625e+07 -1.010986e+00 -7.531738e-02 1.918990e-05 1.408439e-05 2.219528e-05 -4.723668e-06 9.846802e-01 5.541992e-02
5.486406e+07 -1.011780e+00 -7.580566e-02 3.674068e-06 1.008715e-05 4.552677e-05 -6.411225e-06 9.841309e-01 5.590820e-02
5.508188e+07 -1.013245e+00 -7.562256e-02 1.891889e-05 -1.566298e-05 -5.958602e-06 3.985316e-05 9.840088e-01 5.737305e-02
5.529969e+07 -1.012573e+00 -7.604980e-02 -2.726726e-05 1.693703e-05 -3.158674e-05 -2.160668e-06 9.832153e-01 5.853271e-02
5.551750e+07 -1.012817e+00 -7.562256e-02 -5.937181e-06 3.030989e-06 -2.114289e-05 7.720664e-06 9.824219e-01 5.895996e-02
5.573531e+07 -1.013367e+00 -7.476807e-02 -3.538094e-06 4.800037e-06 -4.563481e-08 -1.882669e-05 9.816895e-01 5.969238e-02
5.595312e+07 -1.013733e+00 -7.476807e-02 -4.805392e-06 -3.541820e-06 1.187064e-05 2.306700e-05 9.816895e-01 6.054688e-02
5.617094e+07 -1.013550e+00 -7.434082e-02 -1.389533e-06 -2.327934e-05 -3.768690e-05 -1.875497e-05 9.811401e-01 6.127930e-02
5.638875e+07 -1.013977e+00 -7.440186e-02 -3.790483e-06 -2.505444e-05 -3.847294e-05 7.214025e-06 9.802856e-01 6.195068e-02
5.660656e+07 -1.015259e+00 -7.452393e-02 1.531653e-05 -2.580136e-05 1.513492e-05 -5.531125e-06 9.794312e-01 6.298828e-02
5.682438e+07 -1.014893e+00 -7.464600e-02 4.164129e-05 -2.124161e-05 -1.703203e-05 2.851337e-05 9.786987e-01 6.335449e-02
5.704219e+07 -1.015137e+00 -7.421875e-02 -3.417954e-06 1.975521e-05 -1.367647e-06 5.644746e-06 9.782104e-01 6.365967e-02
5.726000e+07 -1.014526e+00 -7.379150e-02 1.291931e-05 -2.759323e-05 3.577210e-06 4.083849e-07 9.774170e-01 6.463623e-02
5.747781e+07 -1.015625e+00 -7.354736e-02 8.248724e-06 -1.619663e-05 -5.219132e-06 1.390930e-05 9.765625e-01 6.640625e-02
5.769562e+07 -1.016296e+00 -7.305908e-02 -1.559127e-05 -4.061498e-06 -7.694587e-06 1.655053e-05 9.770508e-01 6.628418e-02
5.791344e+07 -1.016235e+00 -7.208252e-02 -3.852323e-05 -2.845004e-05 6.871764e-06 -9.386800e-06 9.757690e-01 6.750488e-02
5.813125e+07 -1.016479e+00 -7.287598e-02 3.207475e-06 -4.969910e-05 -4.149973e-06 -2.081878e-05 9.748535e-01 6.774902e-02
5.834906e+07 -1.017578e+00 -7.293701e-02 1.915451e-05 -7.431954e-07 1.518428e-05 -5.528331e-06 9.750366e-01 6.878662e-02
5.856688e+07 -1.018005e+00 -7.177734e-02 3.006682e-05 1.475029e-05 1.906604e-05 5.080365e-06 9.748535e-01 6.976318e-02
5.878469e+07 -1.018005e+00 -7.159424e-02 -3.615580e-05 -2.672337e-05 1.765043e-05 -2.710335e-05 9.737549e-01 7.073975e-02
5.900250e+07 -1.017700e+00 -7.128906e-02 2.065115e-05 3.763475e-05 2.757460e-05 -5.652010e-05 9.732666e-01 7.141113e-02
5.922031e+07 -1.017883e+00 -7.025146e-02 4.428625e-05 -1.953542e-05 6.637536e-06 -6.966293e-07 9.736328e-01 7.177734e-02
5.943812e+07 -1.018433e+00 -7.000732e-02 -1.460873e-05 -2.569146e-05 -5.064160e-05 -1.602247e-05 9.724121e-01 7.208252e-02
5.965594e+07 -1.018677e+00 -7.006836e-02 1.668278e-05 -1.752470e-05 1.922250e-06 -2.312101e-05 9.714966e-01 7.385254e-02
5.987375e+07 -1.019226e+00 -7.012939e-02 1.348555e-06 2.342090e-05 3.075600e-05 -1.979992e-05 9.717407e-01 7.464600e-02
6.009156e+07 -1.019043e+00 -6.976318e-02 -1.353770e-05 -4.740804e-05 -1.191627e-05 -4.292466e-06 9.713745e-01 7.543945e-02
6.030938e+07 -1.019043e+00 -6.878662e-02 3.383309e-05 2.503954e-05 2.356619e-05 -2.066977e-05 9.707642e-01 7.641602e-02
6.052719e+07 -1.019470e+00 -6.884766e-02 5.111098e-06 4.871562e-05 -6.936025e-06 -9.574927e-06 9.702759e-01 7.739258e-02
6.074500e+07 -1.019897e+00 -6.756592e-02 2.166629e-05 1.067296e-06 -2.362393e-05 -3.635697e-05 9.696655e-01 7.843018e-02
6.096281e+07 -1.019592e+00 -6.884766e-02 3.678724e-06 1.021940e-05 5.274080e-06 5.005393e-06 9.702148e-01 7.885742e-02
6.118062e+07 -1.021301e+00 -6.884766e-02 5.962327e-06 -3.619865e-05 -2.137665e-05 1.588091e-05 9.684448e-01 8.099365e-02
6.139844e+07 -1.021545e+00 -6.719971e-02 1.298636e-05 -5.534664e-05 2.249330e-05 1.351908e-05 9.687500e-01 8.099365e-02
6.161625e+07 -1.021118e+00 -6.787109e-02 -1.489092e-05 -1.389440e-05 -4.170090e-05 -1.190603e-05 9.680176e-01 8.233643e-02
6.183406e+07 -1.021484e+00 -6.616211e-02 -6.807502e-06 -4.191417e-06 -3.256835e-05 2.078712e-05 9.676514e-01 8.203125e-02
6.205188e+07 -1.021057e+00 -6.567383e-02 -7.342547e-06 4.238263e-05 1.864694e-05 -4.136749e-05 9.666138e-01 8.264160e-02
6.226969e+07 -1.020935e+00 -6.463623e-02 2.006814e-05 -7.452816e-05 1.898780e-05 -4.820153e-05 9.667969e-01 8.380127e-02
6.248750e+07 -1.021973e+00 -6.622314e-02 -2.462231e-05 -5.768612e-06 -2.066419e-05 2.278946e-06 9.658813e-01 8.416748e-02
6.270531e+07 -1.020752e+00 -6.372070e-02 4.391000e-05 1.199543e-06 -7.188879e-06 6.454531e-06 9.661255e-01 8.551025e-02
6.292312e+07 -1.022034e+00 -6.323242e-02 -3.800355e-05 -3.750063e-05 4.575402e-05 -9.849668e-06 9.655151e-01 8.605957e-02
6.314094e+07 -1.021851e+00 -6.268311e-02 1.102593e-05 -2.616085e-06 8.381903e-06 -5.369261e-05 9.658203e-01 8.709717e-02
6.335875e+07 -1.021484e+00 -6.274414e-02 -1.653656e-05 3.936701e-06 -1.619942e-05 -2.968870e-05 9.652100e-01 8.728027e-02
6.357656e+07 -1.021973e+00 -6.262207e-02 -5.241483e-06 -2.205744e-05 4.909933e-05 5.461276e-06 9.654541e-01 8.880615e-02
6.379438e+07 -1.022400e+00 -6.134033e-02 -1.379289e-05 3.279187e-06 -2.643652e-05 3.153831e-05 9.653320e-01 8.905029e-02
6.401219e+07 -1.020325e+00 -6.060791e-02 -1.588836e-05 -5.453452e-05 -3.895536e-05 1.023151e-05 9.650269e-01 8.990479e-02
6.423000e+07 -1.021973e+00 -6.127930e-02 2.906844e-05 -1.274049e-05 3.087148e-05 -3.678352e-05 9.653320e-01 9.130859e-02
6.444781e+07 -1.020691e+00 -5.987549e-02 1.065619e-05 3.250875e-05 1.117215e-05 2.190284e-05 9.655151e-01 9.167480e-02
6.466562e+07 -1.021240e+00 -6.036377e-02 -1.177192e-06 -1.723785e-05 -3.899634e-05 3.360584e-05 9.647217e-01 9.240723e-02
6.488344e+07 -1.020874e+00 -5.865479e-02 -3.422983e-05 -2.107583e-05 -1.334213e-05 -7.601455e-06 9.648438e-01 9.320068e-02
6.510125e+07 -1.020691e+00 -5.804443e-02 2.751686e-05 5.137175e-06 2.365746e-05 -3.036670e-05 9.642944e-01 9.411621e-02
6.531906e+07 -1.020203e+00 -5.816650e-02 -2.909452e-06 1.237728e-05 3.967434e-06 2.841651e-05 9.638062e-01 9.588623e-02
6.553688e+07 -1.020264e+00 -5.761719e-02 -1.974404e-05 3.979728e-05 1.514237e-05 1.238659e-07 9.638672e-01 9.539795e-02
6.575469e+07 -1.020142e+00 -5.706787e-02 -4.224945e-06 6.855000e-06 -9.505544e-06 -2.577435e-06 9.642944e-01 9.698486e-02
6.597250e+07 -1.019897e+00 -5.651855e-02 -1.767650e-05 -2.506189e-05 -2.392754e-05 -1.645088e-05 9.639282e-01 9.735107e-02
6.619031e+07 -1.019531e+00 -5.548096e-02 1.266971e-05 -2.058223e-05 -1.884252e-05 -8.592382e-06 9.636841e-01 9.875488e-02
6.640812e+07 -1.019287e+00 -5.560303e-02 1.267903e-05 -2.058968e-05 8.216128e-06 2.664141e-05 9.636230e-01 9.930420e-02
6.662594e+07 -1.019470e+00 -5.450439e-02 2.904795e-06 -1.241732e-05 -2.874061e-06 2.812594e-05 9.639282e-01 1.004028e-01
6.684375e+07 -1.019470e+00 -5.456543e-02 2.933480e-05 -2.456829e-05 1.634285e-05 2.988242e-05 9.636230e-01 1.017456e-01
6.706156e+07 -1.019348e+00 -5.395508e-02 3.399700e-05 5.645305e-05 -2.946891e-05 -1.746975e-05 9.636841e-01 1.015015e-01
6.727938e+07 -1.019226e+00 -5.352783e-02 -2.908520e-06 1.243316e-05 -3.200490e-06 8.120667e-06 9.636230e-01 1.027832e-01
6.749719e+07 -1.019653e+00 -5.340576e-02 1.457520e-06 -6.219838e-06 -5.149841e-05 5.491078e-06 9.639893e-01 1.038208e-01
6.771500e+07 -1.017334e+00 -5.242920e-02 -3.717467e-05 -2.053566e-05 -5.070120e-06 4.255958e-05 9.638062e-01 1.044312e-01
6.793281e+07 -1.018311e+00 -5.236816e-02 -1.189113e-05 -5.005673e-05 -3.948994e-05 1.378171e-05 9.639282e-01 1.054688e-01
6.815062e+07 -1.017822e+00 -5.102539e-02 -2.237223e-05 1.706369e-05 1.594983e-05 -1.367927e-05 9.626465e-01 1.063843e-01
6.836844e+07 -1.016907e+00 -5.139160e-02 2.506934e-05 -5.945563e-06 3.789552e-05 -9.719282e-06 9.645996e-01 1.076660e-01
6.858625e+07 -1.017151e+00 -5.072021e-02 2.053753e-05 2.452917e-05 -3.435649e-05 -5.315989e-06 9.635620e-01 1.076660e-01
6.880406e+07 -1.016907e+00 -5.041504e-02 4.383735e-06 -1.870375e-05 9.678304e-06 2.614968e-05 9.636841e-01 1.084595e-01
6.902188e+07 -1.016479e+00 -4.968262e-02 1.790375e-05 1.341198e-05 1.708791e-05 -3.443472e-05 9.635010e-01 1.099854e-01
6.923969e+07 -1.015564e+00 -4.998779e-02 1.261290e-05 -8.893199e-06 3.152713e-05 6.550923e-06 9.639893e-01 1.101074e-01
6.945750e+07 -1.015503e+00 -4.870605e-02 -1.248159e-05 -2.926216e-06 2.099201e-05 4.826486e-05 9.638062e-01 1.113892e-01
6.967531e+07 -1.014893e+00 -4.827881e-02 -2.322532e-05 -3.577769e-05 3.520399e-06 1.197867e-05 9.644165e-01 1.124268e-01
6.989312e+07 -1.014526e+00 -4.821777e-02 -2.100132e-05 1.087599e-05 -1.149066e-05 -1.866464e-05 9.637451e-01 1.133423e-01
7.011094e+07 -1.014282e+00 -4.833984e-02 -3.672019e-05 4.410744e-05 -2.017058e-05 3.916770e-05 9.639893e-01 1.140747e-01
7.032875e+07 -1.013428e+00 -4.730225e-02 8.240342e-06 9.850599e-06 1.718476e-05 1.619011e-05 9.643555e-01 1.151733e-01
7.054656e+07 -1.013367e+00 -4.754639e-02 1.090206e-05 2.102181e-05 -1.045037e-05 -1.237355e-05 9.640503e-01 1.152954e-01
7.076438e+07 -1.013733e+00 -4.632568e-02 -2.606399e-05 -3.512949e-05 1.411512e-05 -2.985261e-05 9.639893e-01 1.163330e-01
7.098219e+07 -1.012817e+00 -4.620361e-02 -1.944136e-05 -7.191673e-06 -1.901109e-05 -8.663163e-06 9.645996e-01 1.172485e-01
7.120000e+07 -1.012390e+00 -4.589844e-02 4.008040e-05 3.181398e-05 -4.831702e-06 1.226552e-05 9.642944e-01 1.176147e-01
7.141781e+07 -1.011597e+00 -4.553223e-02 2.691895e-05 -3.600493e-05 -2.664863e-06 -2.229470e-06 9.650269e-01 1.188354e-01
7.163562e+07 -1.010925e+00 -4.443359e-02 6.727874e-05 -2.785400e-05 -3.231689e-07 -2.020225e-05 9.649658e-01 1.192627e-01
7.185344e+07 -1.010559e+00 -4.431152e-02 -1.386739e-05 -8.529052e-06 3.137626e-05 -1.365878e-05 9.649658e-01 1.194458e-01
7.207125e+07 -1.011047e+00 -4.492188e-02 -4.134141e-06 -4.936010e-06 -3.178790e-05 2.060272e-05 9.652100e-01 1.206055e-01
7.228906e+07 -1.009766e+00 -4.370117e-02 -4.139729e-06 -4.938338e-06 -4.570186e-05 -5.814433e-05 9.659424e-01 1.208496e-01
7.250688e+07 -1.009155e+00 -4.376221e-02 -2.242811e-05 5.347654e-06 5.010515e-07 1.675636e-05 9.656982e-01 1.217651e-01
7.272469e+07 -1.008606e+00 -4.370117e-02 5.321577e-06 2.242997e-05 -6.724149e-06 -3.104471e-05 9.653931e-01 1.232910e-01
7.294250e+07 -1.008545e+00 -4.254150e-02 6.945804e-06 4.272908e-06 -7.353723e-06 3.380328e-05 9.658203e-01 1.237793e-01
7.316031e+07 -1.008240e+00 -4.296875e-02 1.108646e-05 9.222887e-06 6.088056e-06 -9.453855e-06 9.659424e-01 1.251221e-01
7.337812e+07 -1.007385e+00 -4.248047e-02 3.129244e-05 -4.304945e-05 -9.639654e-06 -2.605841e-06 9.664307e-01 1.254272e-01
7.359594e+07 -1.007202e+00 -4.193115e-02 -4.153833e-10 -2.552554e-10 1.761131e-06 1.965836e-05 9.658813e-01 1.251831e-01
7.381375e+07 -1.006531e+00 -4.180908e-02 2.808124e-05 -6.699935e-06 -1.770444e-06 -1.967419e-05 9.664307e-01 1.264648e-01
7.403156e+07 -1.004944e+00 -4.168701e-02 -6.396323e-06 -5.191565e-05 -2.714433e-05 -1.540035e-05 9.665527e-01 1.278687e-01
7.424938e+07 -1.004822e+00 -4.205322e-02 -1.875684e-05 4.604086e-05 6.746501e-06 3.113411e-05 9.669800e-01 1.286011e-01
7.446719e+07 -1.004211e+00 -4.125977e-02 -4.289672e-06 6.961171e-06 3.326684e-05 5.921349e-06 9.671021e-01 1.294556e-01
7.468500e+07 -1.003052e+00 -4.064941e-02 1.525600e-05 1.420267e-05 1.612352e-06 -4.113419e-06 9.668579e-01 1.303101e-01
7.490281e+07 -1.003357e+00 -4.138184e-02 1.747161e-06 -3.017113e-05 -7.329509e-07 1.396984e-05 9.682007e-01 1.307983e-01
7.512062e+07 -1.002441e+00 -4.144287e-02 -3.876165e-06 -2.882630e-05 -2.470240e-05 -9.723008e-06 9.678345e-01 1.323853e-01
7.533844e+07 -1.001892e+00 -4.101562e-02 -1.030415e-05 4.414469e-05 2.133101e-05 -5.882233e-06 9.685059e-01 1.315918e-01
7.555625e+07 -1.000916e+00 -4.077148e-02 -3.957376e-05 2.134591e-05 -2.402440e-05 3.652647e-06 9.687500e-01 1.328125e-01
7.577406e+07 -1.000610e+00 -4.016113e-02 -2.375245e-05 -1.222268e-05 7.245690e-07 -1.398195e-05 9.690552e-01 1.338501e-01
7.599188e+07 -9.998779e-01 -4.052734e-02 -6.982591e-06 -4.289206e-06 -5.688146e-05 1.455471e-05 9.691772e-01 1.336670e-01
7.620969e+07 -9.992065e-01 -4.064941e-02 1.679081e-05 7.916242e-06 -4.320778e-05 -3.243797e-05 9.697876e-01 1.347656e-01
7.642750e+07 -9.981079e-01 -3.997803e-02 -7.241033e-06 1.962576e-05 -3.197417e-05 4.813075e-05 9.702148e-01 1.352539e-01
7.664531e+07 -9.984741e-01 -3.967285e-02 -2.546236e-06 -2.325140e-05 -2.999604e-05 9.689480e-06 9.702148e-01 1.366577e-01
7.686312e+07 -9.978027e-01 -4.058838e-02 4.170928e-06 4.974194e-06 7.189810e-06 -3.136229e-06 9.707031e-01 1.362305e-01
7.708094e+07 -9.972534e-01 -3.997803e-02 3.239699e-05 -1.769513e-06 -2.497993e-05 -6.226823e-06 9.703979e-01 1.365967e-01
7.729875e+07 -9.963989e-01 -3.961182e-02 -4.145876e-05 -7.374957e-05 1.132488e-05 -1.525506e-06 9.714355e-01 1.380615e-01
7.751656e+07 -9.959106e-01 -3.955078e-02 -6.864779e-06 -1.627579e-05 -1.208112e-05 4.297309e-05 9.708252e-01 1.385498e-01
7.773438e+07 -9.946289e-01 -3.942871e-02 -4.323572e-05 -4.346669e-05 3.086403e-06 -3.218465e-05 9.714966e-01 1.391602e-01
7.795219e+07 -9.948120e-01 -3.912354e-02 2.950989e-05 1.089275e-05 -1.836941e-05 2.861209e-05 9.722900e-01 1.394653e-01
7.817000e+07 -9.949951e-01 -4.028320e-02 5.583838e-05 5.843490e-05 4.833192e-05 -3.484637e-05 9.722290e-01 1.399536e-01
7.838781e+07 -9.932861e-01 -3.967285e-02 2.777204e-05 4.126132e-05 3.259815e-05 -3.946945e-06 9.727173e-01 1.414795e-01
7.860562e+07 -9.927368e-01 -4.058838e-02 2.710894e-05 -2.442673e-05 4.141824e-06 1.626788e-06 9.732056e-01 1.417847e-01
7.882344e+07 -9.918213e-01 -4.052734e-02 3.357790e-05 2.791733e-05 5.643442e-05 -2.806261e-05 9.725952e-01 1.427002e-01
7.904125e+07 -9.901733e-01 -4.003906e-02 1.957361e-05 1.928117e-05 -3.582612e-05 -1.525506e-05 9.733276e-01 1.428223e-01
7.925906e+07 -9.904175e-01 -4.028320e-02 2.960674e-06 -1.269579e-05 2.273545e-05 -5.803257e-05 9.739380e-01 1.437378e-01
7.947688e+07 -9.903564e-01 -3.961182e-02 -2.449378e-05 4.781783e-05 -5.041249e-06 1.596566e-05 9.737549e-01 1.434326e-01
7.969469e+07 -9.899292e-01 -3.967285e-02 -2.343208e-05 -6.031618e-05 -1.030322e-05 -1.958385e-05 9.744263e-01 1.438599e-01
7.991250e+07 -9.889526e-01 -4.083252e-02 1.418870e-05 -3.389083e-06 -2.161600e-06 -1.282059e-05 9.755859e-01 1.448364e-01
8.013031e+07 -9.874268e-01 -4.016113e-02 2.567843e-05 -1.813285e-05 1.822039e-05 2.986751e-05 9.758911e-01 1.456299e-01
8.034812e+07 -9.873047e-01 -4.058838e-02 2.460554e-06 3.542192e-05 2.728403e-05 -3.601797e-05 9.760742e-01 1.461792e-01
8.056594e+07 -9.871826e-01 -3.955078e-02 4.262105e-05 -1.018122e-05 3.163330e-05 1.715124e-05 9.770508e-01 1.467896e-01
8.078375e+07 -9.854126e-01 -4.095459e-02 1.024082e-05 -3.251247e-05 3.522821e-05 1.838431e-06 9.774780e-01 1.469116e-01
8.100156e+07 -9.860840e-01 -4.138184e-02 1.119450e-06 2.977811e-05 5.269051e-05 -3.331527e-05 9.771118e-01 1.475830e-01
8.121938e+07 -9.844360e-01 -4.101562e-02 -3.090687e-05 -2.868474e-05 -2.351217e-05 1.716986e-05 9.776611e-01 1.483765e-01
8.143719e+07 -9.845581e-01 -4.144287e-02 -3.660470e-05 -2.731569e-05 4.561618e-05 -6.131828e-06 9.779663e-01 1.485596e-01
8.165500e+07 -9.840088e-01 -4.095459e-02 3.660657e-05 2.735667e-05 -2.352986e-06 -9.328127e-06 9.780273e-01 1.494141e-01
8.187281e+07 -9.832764e-01 -4.089355e-02 1.409277e-05 8.667819e-06 1.739059e-05 -7.626601e-06 9.779663e-01 1.498413e-01
8.209062e+07 -9.826660e-01 -4.180908e-02 -6.482005e-05 -4.471838e-05 2.157688e-05 -5.987473e-06 9.785767e-01 1.502075e-01
8.230844e+07 -9.814453e-01 -4.156494e-02 7.934868e-07 -7.246807e-05 3.734417e-05 1.820922e-05 9.797974e-01 1.506348e-01
8.252625e+07 -9.809570e-01 -4.223633e-02 1.821294e-05 2.574921e-05 8.694828e-06 2.384558e-05 9.792480e-01 1.505737e-01
8.274406e+07 -9.802246e-01 -4.211426e-02 -1.760200e-06 3.055297e-05 -4.730746e-05 3.802031e-05 9.802246e-01 1.520996e-01
8.296188e+07 -9.797363e-01 -4.278564e-02 6.690621e-06 4.060939e-05 1.180638e-05 1.904555e-05 9.807739e-01 1.518555e-01
8.317969e+07 -9.788818e-01 -4.321289e-02 -3.097765e-05 -2.876297e-05 -1.743063e-05 3.529526e-05 9.803467e-01 1.524658e-01
8.339750e+07 -9.778442e-01 -4.290771e-02 -5.588867e-06 -1.072325e-05 4.646927e-05 3.499165e-05 9.812012e-01 1.520386e-01
8.361531e+07 -9.785156e-01 -4.333496e-02 -2.123602e-05 -1.302920e-05 1.964532e-05 3.297627e-05 9.819946e-01 1.533813e-01
8.383312e+07 -9.764404e-01 -4.370117e-02 -1.689047e-05 -2.011470e-05 -1.655892e-06 -2.351217e-05 9.826050e-01 1.535034e-01
8.405094e+07 -9.766235e-01 -4.412842e-02 2.147816e-05 -1.119822e-05 -2.217852e-05 -1.107901e-05 9.832153e-01 1.535034e-01
8.426875e+07 -9.761353e-01 -4.449463e-02 -8.460134e-06 -1.006667e-05 2.309680e-05 -6.636605e-06 9.840698e-01 1.543579e-01
8.448656e+07 -9.745483e-01 -4.388428e-02 -2.112240e-05 -2.518296e-05 -7.627066e-06 1.027808e-05 9.838867e-01 1.553345e-01
8.470438e+07 -9.732666e-01 -4.449463e-02 -1.304597e-05 2.127141e-05 -1.400150e-05 -4.261732e-06 9.844360e-01 1.548462e-01
8.492219e+07 -9.747314e-01 -4.553223e-02 -1.418404e-05 -8.703209e-06 1.275912e-05 -2.642162e-05 9.845581e-01 1.557007e-01
8.514000e+07 -9.738159e-01 -4.510498e-02 5.016103e-05 -1.809746e-05 -7.644296e-06 1.030276e-05 9.855957e-01 1.555786e-01
8.535781e+07 -9.727173e-01 -4.602051e-02 1.730956e-05 -1.624227e-05 -8.004718e-06 1.739711e-05 9.855347e-01 1.567383e-01
8.557562e+07 -9.723511e-01 -4.644775e-02 -2.141669e-05 -9.220093e-07 1.185387e-05 1.914147e-05 9.856567e-01 1.561279e-01
8.579344e+07 -9.713745e-01 -4.608154e-02 2.156571e-05 -1.122057e-05 8.004718e-06 -1.741853e-05 9.869385e-01 1.573486e-01
8.601125e+07 -9.716187e-01 -4.718018e-02 -1.857895e-05 -1.608394e-06 1.696311e-05 -2.483465e-05 9.870605e-01 1.567383e-01
8.622906e+07 -9.703979e-01 -4.766846e-02 -5.618669e-06 -1.079403e-05 1.313165e-05 -5.749986e-06 9.879761e-01 1.574707e-01
8.644688e+07 -9.693604e-01 -4.766846e-02 4.873797e-05 -1.165643e-05 -7.654540e-06 1.031114e-05 9.867554e-01 1.577759e-01
8.666469e+07 -9.695435e-01 -4.797363e-02 4.169345e-05 -1.604855e-05 -1.168437e-05 5.126931e-06 9.880981e-01 1.583252e-01
8.688250e+07 -9.683838e-01 -4.882812e-02 1.446344e-05 -1.561362e-05 -1.804437e-07 3.560679e-06 9.880371e-01 1.577148e-01
8.710031e+07 -9.677124e-01 -4.968262e-02 -2.633780e-06 -2.366304e-05 -2.574734e-05 8.270144e-07 9.885864e-01 1.584473e-01
8.731812e+07 -9.676514e-01 -4.956055e-02 -1.023337e-05 2.067722e-05 -1.351722e-05 1.289416e-05 9.888916e-01 1.582642e-01
8.753594e+07 -9.664307e-01 -4.962158e-02 1.598895e-05 -2.207421e-05 6.736256e-06 -2.038106e-05 9.896240e-01 1.586304e-01
8.775375e+07 -9.664307e-01 -5.090332e-02 5.057454e-05 -4.253536e-05 6.604940e-06 3.894977e-05 9.896851e-01 1.588745e-01
8.797156e+07 -9.660645e-01 -5.108643e-02 -1.301151e-05 9.211712e-06 3.661402e-05 1.187064e-05 9.909668e-01 1.587524e-01
8.818938e+07 -9.658813e-01 -5.151367e-02 -1.262315e-05 -2.743118e-05 -2.637506e-05 -1.637079e-05 9.907227e-01 1.612549e-01
8.840719e+07 -9.657593e-01 -5.212402e-02 2.040714e-05 -2.926961e-05 -1.355540e-05 1.291931e-05 9.918213e-01 1.604004e-01
8.862500e+07 -9.646606e-01 -5.230713e-02 3.766268e-06 5.392730e-05 6.949529e-06 -2.400205e-05 9.915771e-01 1.605835e-01
8.884281e+07 -9.646606e-01 -5.267334e-02 -5.886890e-06 1.360942e-05 1.998525e-05 1.727603e-06 9.925537e-01 1.608276e-01
8.906062e+07 -9.635620e-01 -5.340576e-02 1.328625e-05 -3.369525e-05 -2.751127e-06 2.566352e-05 9.931030e-01 1.608887e-01
8.927844e+07 -9.629517e-01 -5.377197e-02 2.898648e-05 -1.915544e-05 -1.430418e-05 -7.255003e-07 9.935303e-01 1.613159e-01
8.949625e+07 -9.627686e-01 -5.401611e-02 -1.685694e-05 -4.480779e-05 2.583489e-05 -2.882257e-05 9.935303e-01 1.608887e-01
8.971406e+07 -9.620361e-01 -5.438232e-02 1.016632e-05 -8.552335e-06 -1.373608e-05 1.653004e-05 9.942627e-01 1.610107e-01
8.993188e+07 -9.622803e-01 -5.560303e-02 2.888963e-06 -6.938353e-07 1.836754e-05 5.952083e-06 9.944458e-01 1.610718e-01
9.014969e+07 -9.616089e-01 -5.615234e-02 5.489960e-05 -1.315027e-05 -2.369098e-05 1.389906e-05 9.943848e-01 1.618652e-01
9.036750e+07 -9.609375e-01 -5.609131e-02 -7.171649e-06 -4.396774e-06 -2.160668e-07 -2.444535e-05 9.953003e-01 1.618042e-01
9.058531e+07 -9.612427e-01 -5.676270e-02 -4.400499e-06 7.172115e-06 -4.823506e-05 -1.388788e-05 9.954224e-01 1.619263e-01
9.080312e+07 -9.600830e-01 -5.682373e-02 2.892222e-06 -6.947666e-07 -3.824010e-06 1.922064e-05 9.952393e-01 1.616211e-01
9.102094e+07 -9.598999e-01 -5.816650e-02 -1.741573e-06 3.103912e-05 1.765229e-05 -7.755123e-06 9.962769e-01 1.621704e-01
9.123875e+07 -9.595947e-01 -5.883789e-02 -3.623404e-05 1.484528e-05 9.898096e-06 -5.349517e-05 9.961548e-01 1.616211e-01
9.145656e+07 -9.588013e-01 -5.932617e-02 -2.318621e-05 5.567446e-06 4.595611e-06 -5.526934e-06 9.970093e-01 1.620483e-01
9.167438e+07 -9.586182e-01 -5.981445e-02 7.187482e-06 4.407018e-06 1.145527e-06 3.461726e-05 9.970093e-01 1.622314e-01
9.189219e+07 -9.585571e-01 -6.030273e-02 2.898043e-06 -6.940681e-07 2.120994e-05 8.270144e-06 9.968872e-01 1.620483e-01
9.211000e+07 -9.573364e-01 -6.018066e-02 1.289416e-05 1.529511e-05 1.981482e-05 6.509945e-05 9.978027e-01 1.613159e-01
9.232781e+07 -9.572754e-01 -6.140137e-02 9.873882e-06 2.833456e-05 -2.894178e-05 2.158806e-06 9.985352e-01 1.624146e-01
9.254562e+07 -9.572754e-01 -6.182861e-02 -8.833595e-06 1.439918e-05 1.620501e-05 -3.525428e-05 9.987793e-01 1.628418e-01
9.276344e+07 -9.569092e-01 -6.243896e-02 2.765842e-05 -1.278892e-05 -2.017245e-06 1.144130e-05 9.992676e-01 1.628418e-01
9.298125e+07 -9.567871e-01 -6.341553e-02 1.579989e-05 1.463201e-05 9.592623e-06 -1.829304e-05 9.986572e-01 1.622314e-01
9.319906e+07 -9.563599e-01 -6.298828e-02 2.161600e-05 1.324713e-05 1.440663e-05 7.059425e-07 9.988403e-01 1.628418e-01
9.341688e+07 -9.559937e-01 -6.414795e-02 5.817506e-06 -1.394656e-06 2.544373e-06 -2.225861e-05 9.997559e-01 1.629639e-01
9.363469e+07 -9.559937e-01 -6.445312e-02 -3.618188e-05 -9.730458e-06 -4.377216e-06 3.013760e-05 9.996338e-01 1.621704e-01
9.385250e+07 -9.552612e-01 -6.536865e-02 3.049895e-05 -1.169741e-06 1.115724e-05 3.739260e-05 1.000305e+00 1.628418e-01
9.407031e+07 -9.557495e-01 -6.579590e-02 4.419591e-06 -7.221941e-06 2.373941e-06 -1.868792e-05 1.000427e+00 1.625977e-01
9.428812e+07 -9.547729e-01 -6.665039e-02 -3.073923e-05 2.588518e-05 4.794449e-05 2.478808e-05 1.000793e+00 1.625977e-01
9.450594e+07 -9.549561e-01 -6.787109e-02 -1.876242e-05 -1.398753e-05 -9.965152e-06 2.555922e-05 1.000793e+00 1.633911e-01
9.472375e+07 -9.542236e-01 -6.799316e-02 6.990507e-06 2.915598e-05 -1.760758e-05 -2.403930e-05 1.001465e+00 1.635742e-01
9.494156e+07 -9.537354e-01 -6.921387e-02 1.198426e-05 -3.989786e-05 -7.819384e-06 -4.600361e-05 1.001343e+00 1.628418e-01
9.515938e+07 -9.533691e-01 -6.933594e-02 -1.576729e-05 -2.706610e-05 1.686718e-05 1.025666e-05 1.001770e+00 1.629639e-01
9.537719e+07 -9.535522e-01 -6.976318e-02 -2.918579e-05 7.003546e-06 1.710095e-05 3.491156e-05 1.001587e+00 1.636963e-01
9.559500e+07 -9.532471e-01 -7.110596e-02 2.628379e-05 -6.297603e-06 1.744553e-05 2.769940e-05 1.002136e+00 1.639404e-01
9.581281e+07 -9.526367e-01 -7.080078e-02 -1.215190e-05 5.238503e-05 -4.230253e-05 -2.384558e-05 1.003418e+00 1.635132e-01
9.603062e+07 -9.526978e-01 -7.165527e-02 2.223626e-05 -3.621727e-05 -2.880208e-05 -3.334135e-05 1.002747e+00 1.643677e-01
9.624844e+07 -9.530640e-01 -7.293701e-02 -3.037974e-06 1.310091e-05 -2.032146e-06 1.151301e-05 1.003174e+00 1.628418e-01
9.646625e+07 -9.522705e-01 -7.293701e-02 -1.580641e-05 -2.710894e-05 -5.756970e-06 -1.013279e-06 1.002563e+00 1.625366e-01
9.668406e+07 -9.526978e-01 -7.354736e-02 2.331659e-05 6.765127e-06 -7.421710e-06 3.264751e-06 1.004211e+00 1.629028e-01
9.690188e+07 -9.521484e-01 -7.440186e-02 2.013519e-05 3.230572e-05 3.491342e-05 -1.156703e-06 1.003235e+00 1.635132e-01
9.711969e+07 -9.514771e-01 -7.464600e-02 -8.562580e-06 -2.271682e-05 2.433546e-06 9.558629e-06 1.003662e+00 1.630249e-01
9.733750e+07 -9.514771e-01 -7.489014e-02 -1.160335e-05 -9.595416e-06 1.745950e-05 -6.016344e-07 1.003479e+00 1.628418e-01
9.755531e+07 -9.509277e-01 -7.537842e-02 3.515370e-05 -8.439645e-06 -4.614890e-05 -3.639236e-05 1.003723e+00 1.636353e-01
9.777312e+07 -9.506836e-01 -7.635498e-02 3.904104e-06 5.486608e-05 -9.324402e-06 -1.716986e-05 1.003479e+00 1.627197e-01
9.799094e+07 -9.505005e-01 -7.659912e-02 3.142282e-06 -2.559088e-05 1.236424e-05 -4.445016e-05 1.004395e+00 1.629639e-01
9.820875e+07 -9.510498e-01 -7.769775e-02 -1.430511e-05 -3.380142e-05 -4.386529e-05 3.344938e-05 1.003601e+00 1.637573e-01
9.842656e+07 -9.510498e-01 -7.794189e-02 3.837422e-05 -3.406219e-05 1.870655e-05 3.438257e-05 1.004150e+00 1.630249e-01
9.864438e+07 -9.503784e-01 -7.891846e-02 -5.765818e-06 -1.103804e-05 3.457256e-05 -2.232008e-05 1.004456e+00 1.629028e-01
9.886219e+07 -9.517822e-01 -7.971191e-02 1.186226e-05 -1.528114e-05 5.725771e-06 -2.741627e-05 1.004333e+00 1.631470e-01
9.908000e+07 -9.503784e-01 -8.001709e-02 5.897135e-05 -3.903359e-05 4.465925e-06 -1.966720e-06 1.004089e+00 1.633301e-01
9.929781e+07 -9.506836e-01 -8.081055e-02 -2.110749e-05 6.723031e-05 -5.122274e-06 -4.397333e-05 1.003967e+00 1.631470e-01
9.951562e+07 -9.506226e-01 -8.215332e-02 1.174957e-05 -2.836809e-06 7.813331e-06 -1.054863e-05 1.003967e+00 1.622314e-01
9.973344e+07 -9.500732e-01 -8.203125e-02 -1.414213e-06 -5.882699e-06 7.691793e-06 2.151914e-05 1.004395e+00 1.634521e-01
9.995125e+07 -9.502563e-01 -8.227539e-02 1.643971e-05 -3.509782e-05 -2.877787e-06 -3.076717e-05 1.005310e+00 1.622314e-01
1.001691e+08 -9.501343e-01 -8.349609e-02 -8.933246e-06 1.459662e-05 1.395680e-05 -1.682248e-05 1.004456e+00 1.630249e-01
1.003869e+08 -9.499512e-01 -8.380127e-02 -5.891547e-06 1.417007e-06 -1.884624e-05 -2.378598e-06 1.005859e+00 1.628418e-01
1.006047e+08 -9.508057e-01 -8.502197e-02 1.603179e-05 1.483504e-05 1.492444e-06 -6.570481e-07 1.005188e+00 1.633301e-01
1.008225e+08 -9.489136e-01 -8.496094e-02 -2.628006e-05 -1.861714e-05 -2.937019e-05 3.430620e-05 1.004761e+00 1.637573e-01
1.010403e+08 -9.501343e-01 -8.477783e-02 4.368369e-06 5.177688e-06 -1.956988e-05 1.220312e-05 1.004761e+00 1.624146e-01
1.012581e+08 -9.498291e-01 -8.587646e-02 -2.641790e-05 -6.116927e-06 -1.421571e-05 -8.001924e-06 1.004639e+00 1.629028e-01
1.014759e+08 -9.500732e-01 -8.666992e-02 -1.015142e-07 1.249742e-05 -1.905579e-05 1.262873e-06 1.004333e+00 1.621094e-01
1.016938e+08 -9.495850e-01 -8.734131e-02 -1.189671e-05 1.535378e-05 1.229998e-05 -1.254678e-05 1.004700e+00 1.627197e-01
1.019116e+08 -9.502563e-01 -8.776855e-02 1.321919e-05 3.056601e-06 -2.299249e-05 -6.838143e-05 1.004456e+00 1.627197e-01
1.021294e+08 -9.499512e-01 -8.856201e-02 1.007877e-05 2.877787e-05 2.828054e-05 1.965277e-05 1.004333e+00 1.618042e-01
1.023472e+08 -9.503784e-01 -8.874512e-02 4.276633e-06 1.770630e-05 -1.117773e-05 1.920946e-05 1.004517e+00 1.621094e-01
1.025650e+08 -9.494019e-01 -8.966064e-02 4.375353e-06 5.192589e-06 -1.757313e-05 6.016344e-07 1.003967e+00 1.624146e-01
1.027828e+08 -9.501343e-01 -9.014893e-02 3.208593e-05 4.225969e-05 1.139008e-06 6.639399e-06 1.004578e+00 1.622925e-01
1.030006e+08 -9.503784e-01 -9.143066e-02 3.085658e-05 1.128018e-05 1.795869e-05 -7.904135e-06 1.004028e+00 1.618042e-01
1.032184e+08 -9.497070e-01 -9.216309e-02 -2.745539e-06 -2.437644e-05 7.024407e-05 2.981350e-05 1.005066e+00 1.627197e-01
1.034362e+08 -9.500732e-01 -9.283447e-02 -1.080334e-07 1.254119e-05 -3.627501e-07 7.306226e-06 1.004456e+00 1.628418e-01
1.036541e+08 -9.503784e-01 -9.277344e-02 -2.222322e-05 1.160987e-05 -1.318753e-05 -2.993643e-05 1.003723e+00 1.626587e-01
1.038719e+08 -9.502563e-01 -9.375000e-02 4.483853e-06 -7.343944e-06 -9.316951e-06 -4.951283e-05 1.004272e+00 1.616821e-01
1.040897e+08 -9.503174e-01 -9.442139e-02 2.213940e-05 9.164214e-07 1.743250e-05 3.049150e-06 1.004333e+00 1.621094e-01
1.043075e+08 -9.503174e-01 -9.484863e-02 2.948381e-05 5.414709e-06 1.682155e-05 -1.456589e-05 1.003784e+00 1.626587e-01
1.045253e+08 -9.495850e-01 -9.552002e-02 -2.797507e-05 -1.206063e-05 -7.734634e-06 -2.163183e-05 1.004150e+00 1.627808e-01
1.047431e+08 -9.494629e-01 -9.521484e-02 -1.428183e-06 -5.920883e-06 -1.392141e-05 -1.532398e-05 1.003723e+00 1.621094e-01
1.049609e+08 -9.503784e-01 -9.661865e-02 1.814216e-06 -4.432723e-05 7.315073e-06 3.552996e-07 1.003540e+00 1.622925e-01
1.051788e+08 -9.504395e-01 -9.686279e-02 -1.289696e-05 -5.332008e-05 -1.788884e-05 -2.434291e-05 1.003418e+00 1.619263e-01
1.053966e+08 -9.508057e-01 -9.741211e-02 3.697723e-05 -2.663583e-06 2.946332e-05 -2.229586e-06 1.002625e+00 1.624756e-01
1.056144e+08 -9.500122e-01 -9.759521e-02 3.086030e-05 2.390146e-05 -1.606159e-05 2.855435e-05 1.002502e+00 1.626587e-01
1.058322e+08 -9.503784e-01 -9.802246e-02 3.529899e-05 2.911687e-05 -3.043376e-05 -8.076429e-06 1.002930e+00 1.622314e-01
1.060500e+08 -9.503784e-01 -9.869385e-02 8.706003e-06 2.299622e-05 -6.968156e-06 -7.672235e-06 1.001953e+00 1.618652e-01
1.062678e+08 -9.505615e-01 -9.906006e-02 -6.148592e-06 2.659112e-05 2.346374e-05 3.986061e-07 1.002075e+00 1.630249e-01
1.064856e+08 -9.509277e-01 -9.973145e-02 -7.366762e-06 -4.496425e-06 -5.744398e-06 2.763420e-05 1.001709e+00 1.624146e-01
1.067034e+08 -9.508057e-01 -1.000977e-01 1.431908e-06 5.932990e-06 1.827441e-05 1.704227e-05 1.001221e+00 1.626587e-01
1.069212e+08 -9.506836e-01 -1.008911e-01 2.068840e-05 7.553026e-06 4.233792e-06 -2.697110e-05 1.001709e+00 1.616821e-01
1.071391e+08 -9.517212e-01 -1.018066e-01 -3.543124e-05 -1.657009e-05 2.597831e-05 1.007505e-05 1.001099e+00 1.629639e-01
1.073569e+08 -9.512939e-01 -1.018066e-01 -6.034039e-06 1.404248e-05 -1.889281e-05 2.629682e-05 1.001038e+00 1.621704e-01
1.075747e+08 -9.521484e-01 -1.022949e-01 4.170835e-05 -2.264977e-05 9.537674e-06 -1.499150e-05 1.000610e+00 1.632080e-01
1.077925e+08 -9.522095e-01 -1.027832e-01 4.300848e-06 1.782831e-05 1.239777e-05 4.841015e-05 9.996948e-01 1.632690e-01
1.080103e+08 -9.513550e-01 -1.028442e-01 -1.016445e-05 -2.901442e-05 1.784693e-05 -4.301779e-06 1.000488e+00 1.628418e-01
1.082281e+08 -9.520264e-01 -1.040039e-01 -1.443550e-06 -5.952548e-06 -3.280677e-05 -2.144650e-05 1.001343e+00 1.627197e-01
1.084459e+08 -9.520874e-01 -1.044922e-01 -5.949754e-06 1.429580e-06 2.351776e-05 3.930181e-07 9.995728e-01 1.639404e-01
1.086638e+08 -9.524536e-01 -1.049805e-01 -8.824281e-06 -1.045689e-05 3.228895e-05 -2.863258e-05 9.990234e-01 1.628418e-01
1.088816e+08 -9.534302e-01 -1.058350e-01 -2.352335e-05 -3.212318e-05 2.275780e-05 4.749745e-05 9.995728e-01 1.635132e-01
1.090994e+08 -9.533691e-01 -1.065674e-01 1.328997e-06 1.858454e-05 -1.655612e-05 7.298775e-06 9.991455e-01 1.644287e-01
1.093172e+08 -9.536743e-01 -1.061401e-01 3.120489e-05 -1.283363e-06 -1.018494e-05 -2.697576e-06 9.986572e-01 1.630249e-01
1.095350e+08 -9.535522e-01 -1.056519e-01 6.560609e-05 -2.850220e-05 -1.707394e-05 1.835078e-05 9.985962e-01 1.640625e-01
1.097528e+08 -9.530640e-01 -1.076660e-01 2.527423e-05 1.899898e-07 -8.866191e-07 1.836941e-05 9.983521e-01 1.641846e-01
1.099706e+08 -9.536133e-01 -1.074829e-01 -2.699904e-05 3.177859e-05 -1.975056e-05 1.231208e-05 9.979248e-01 1.640625e-01
1.101884e+08 -9.543457e-01 -1.079712e-01 1.862645e-06 -5.723536e-05 2.799183e-05 -3.036298e-05 9.974365e-01 1.636353e-01
1.104062e+08 -9.547119e-01 -1.077881e-01 5.873851e-06 1.119729e-05 -4.235655e-06 2.708100e-05 9.976196e-01 1.640625e-01
1.106241e+08 -9.548950e-01 -1.091309e-01 1.634751e-05 2.341345e-06 2.358109e-05 4.116446e-07 9.968872e-01 1.643677e-01
1.108419e+08 -9.551392e-01 -1.090088e-01 -5.866401e-06 -1.121033e-05 -1.159962e-06 -6.691553e-06 9.964600e-01 1.650391e-01
1.110597e+08 -9.551392e-01 -1.093140e-01 -4.429836e-06 -5.246606e-06 -1.930818e-05 -5.992502e-05 9.967041e-01 1.646729e-01
1.112775e+08 -9.552612e-01 -1.102295e-01 -1.337845e-05 -3.070571e-06 -3.721565e-06 1.605228e-05 9.956665e-01 1.648560e-01
1.114953e+08 -9.555054e-01 -1.105347e-01 -1.210906e-05 2.821162e-05 5.677342e-06 4.696194e-06 9.955444e-01 1.646118e-01
1.117131e+08 -9.549561e-01 -1.105957e-01 -1.925696e-05 -1.428463e-05 1.443550e-05 -2.438761e-05 9.946289e-01 1.654053e-01
1.119309e+08 -9.567871e-01 -1.116943e-01 2.686866e-05 -6.509945e-06 -1.189765e-05 1.646578e-06 9.948120e-01 1.660767e-01
1.121488e+08 -9.563599e-01 -1.116943e-01 3.286824e-05 -7.918105e-06 -7.644296e-06 -2.546981e-05 9.949341e-01 1.669922e-01
1.123666e+08 -9.567261e-01 -1.116943e-01 -1.501851e-05 1.628976e-05 -1.972169e-05 -2.013799e-05 9.943848e-01 1.655884e-01
1.125844e+08 -9.572144e-01 -1.121826e-01 -2.081133e-05 -7.616356e-06 5.646050e-05 -6.932765e-06 9.939575e-01 1.666870e-01
1.128022e+08 -9.575195e-01 -1.129761e-01 1.185853e-05 9.786338e-06 5.945563e-06 -3.149360e-05 9.939575e-01 1.669312e-01
1.130200e+08 -9.577637e-01 -1.129761e-01 5.783513e-06 2.391078e-05 1.228228e-05 5.232543e-05 9.934692e-01 1.668091e-01
1.132378e+08 -9.578247e-01 -1.133423e-01 5.591661e-06 4.931539e-05 -5.080923e-05 1.162663e-05 9.935913e-01 1.677246e-01
1.134556e+08 -9.584351e-01 -1.138306e-01 -3.287755e-05 7.990748e-06 -9.816140e-07 -1.039868e-05 9.924927e-01 1.669312e-01
1.136734e+08 -9.588623e-01 -1.137695e-01 -1.042616e-05 -3.808178e-06 2.473593e-05 3.964268e-05 9.925537e-01 1.683350e-01
1.138912e+08 -9.591675e-01 -1.143188e-01 -2.240017e-05 -8.996576e-07 5.798787e-05 2.497435e-05 9.923096e-01 1.682129e-01
1.141091e+08 -9.586792e-01 -1.146240e-01 4.023686e-05 9.234995e-06 1.379102e-05 5.169213e-05 9.913330e-01 1.683350e-01
1.143269e+08 -9.589844e-01 -1.146240e-01 1.034420e-05 1.649372e-05 -5.343929e-06 -1.208950e-05 9.910889e-01 1.685791e-01
1.145447e+08 -9.592896e-01 -1.154175e-01 7.733703e-06 -3.355928e-05 2.098363e-05 -5.655922e-06 9.910278e-01 1.699829e-01
1.147625e+08 -9.597168e-01 -1.156616e-01 -4.789606e-05 1.163036e-05 -1.041405e-05 9.834766e-07 9.904785e-01 1.691284e-01
1.149803e+08 -9.599609e-01 -1.152954e-01 1.942739e-05 1.621433e-06 2.481043e-05 3.966130e-05 9.907837e-01 1.696167e-01
1.151981e+08 -9.605713e-01 -1.157837e-01 2.053753e-05 5.845726e-05 6.745569e-06 -1.746602e-05 9.901733e-01 1.702271e-01
1.154159e+08 -9.607544e-01 -1.163940e-01 2.533197e-05 1.288950e-05 9.149313e-06 -3.662519e-05 9.895630e-01 1.705322e-01
1.156338e+08 -9.611206e-01 -1.170654e-01 -1.616403e-05 -4.049763e-05 -2.573989e-05 1.137331e-05 9.888916e-01 1.712646e-01
1.158516e+08 -9.619751e-01 -1.174927e-01 -1.636334e-06 1.944602e-05 -3.014691e-05 9.691343e-06 9.890137e-01 1.711426e-01
1.160694e+08 -9.613037e-01 -1.170654e-01 -1.217797e-05 2.835691e-05 -1.303852e-05 -3.768876e-05 9.891357e-01 1.710815e-01
1.162872e+08 -9.620361e-01 -1.163940e-01 1.816824e-05 -2.982281e-05 2.302974e-05 1.516566e-05 9.886475e-01 1.721191e-01
1.165050e+08 -9.622803e-01 -1.173706e-01 8.909963e-06 1.053885e-05 3.030989e-06 -1.340173e-06 9.877319e-01 1.718750e-01
1.167228e+08 -9.632568e-01 -1.178589e-01 -5.925074e-06 -1.126621e-05 2.783723e-05 -2.319552e-05 9.875488e-01 1.714478e-01
1.169406e+08 -9.632568e-01 -1.183472e-01 1.192279e-05 9.818003e-06 -1.809746e-05 3.701635e-05 9.875488e-01 1.724243e-01
1.171584e+08 -9.628296e-01 -1.180420e-01 4.628673e-06 -2.020970e-05 -3.202632e-05 1.778640e-05 9.868774e-01 1.735229e-01
1.173762e+08 -9.632568e-01 -1.181641e-01 -3.899261e-05 -3.257766e-06 3.307499e-05 -4.002452e-05 9.872437e-01 1.741333e-01
1.175941e+08 -9.643555e-01 -1.191406e-01 -2.846122e-06 -2.476759e-05 1.804810e-05 -4.342757e-06 9.862671e-01 1.740112e-01
1.178119e+08 -9.647217e-01 -1.179199e-01 -4.637986e-06 2.023391e-05 -2.979860e-05 -3.037602e-05 9.865112e-01 1.750488e-01
1.180297e+08 -9.644165e-01 -1.182251e-01 2.395734e-05 6.904826e-06 -7.715076e-06 -2.563372e-05 9.851685e-01 1.752930e-01
1.182475e+08 -9.642944e-01 -1.181641e-01 3.477931e-05 -4.031509e-05 -4.380476e-06 -1.691049e-06 9.853516e-01 1.756592e-01
1.184653e+08 -9.651489e-01 -1.187134e-01 3.146939e-05 1.146644e-05 2.210960e-06 -1.551025e-05 9.852905e-01 1.764526e-01
1.186831e+08 -9.651489e-01 -1.190186e-01 3.886223e-05 2.875924e-05 1.232792e-05 -9.090640e-06 9.843140e-01 1.765137e-01
1.189009e+08 -9.658813e-01 -1.185913e-01 -1.057237e-05 8.941628e-06 8.463860e-06 -2.193637e-05 9.838867e-01 1.770630e-01
1.191188e+08 -9.654541e-01 -1.192017e-01 2.700463e-05 6.198883e-06 -2.916902e-05 -1.254864e-05 9.838257e-01 1.781616e-01
1.193366e+08 -9.661865e-01 -1.192627e-01 -7.322058e-06 -3.012456e-05 1.573935e-05 -1.787581e-05 9.840088e-01 1.782837e-01
1.195544e+08 -9.664917e-01 -1.196899e-01 -2.426282e-05 3.141537e-05 1.871958e-06 -8.103438e-06 9.832153e-01 1.790771e-01
1.197722e+08 -9.675903e-01 -1.198730e-01 -7.497147e-06 -4.559755e-06 4.610792e-05 3.423542e-05 9.834595e-01 1.793823e-01
1.199900e+08 -9.673462e-01 -1.196899e-01 -1.059286e-05 8.965842e-06 -3.514253e-05 -1.359358e-05 9.833374e-01 1.798096e-01
1.202078e+08 -9.677124e-01 -1.193848e-01 -1.467764e-06 -6.029848e-06 9.175390e-06 -3.686547e-05 9.829712e-01 1.799316e-01
1.204256e+08 -9.675293e-01 -1.200562e-01 -2.390705e-05 -3.251433e-05 2.977066e-05 1.413748e-06 9.830322e-01 1.802368e-01
1.206434e+08 -9.682007e-01 -1.196899e-01 -9.048730e-06 2.203044e-06 4.749279e-06 -5.746726e-06 9.822998e-01 1.807251e-01
1.208612e+08 -9.678345e-01 -1.200562e-01 5.279109e-05 -6.455928e-06 1.353957e-05 -2.344139e-06 9.823608e-01 1.813354e-01
1.210791e+08 -9.694824e-01 -1.206055e-01 -1.247972e-06 4.436076e-05 4.046597e-05 -4.164875e-06 9.806519e-01 1.826172e-01
1.212969e+08 -9.702759e-01 -1.207886e-01 -2.439879e-05 -2.636202e-05 2.069026e-05 -4.581362e-05 9.793091e-01 1.825562e-01
1.215147e+08 -9.707642e-01 -1.207275e-01 3.875792e-05 4.546717e-06 2.445281e-05 -2.093241e-05 9.800415e-01 1.843872e-01
1.217325e+08 -9.707031e-01 -1.203003e-01 -3.068335e-05 -6.195158e-06 9.486917e-06 4.436821e-06 9.791260e-01 1.840820e-01
1.219503e+08 -9.710693e-01 -1.207886e-01 4.810943e-10 -1.004707e-10 -3.716163e-05 1.345761e-05 9.789429e-01 1.849365e-01
1.221681e+08 -9.703979e-01 -1.207275e-01 -6.280839e-05 1.101941e-05 -9.247102e-06 4.925299e-06 9.786377e-01 1.850586e-01
1.223859e+08 -9.708252e-01 -1.195679e-01 4.685484e-06 -1.777522e-05 2.935529e-05 4.608184e-05 9.776001e-01 1.857300e-01
1.226038e+08 -9.713135e-01 -1.203613e-01 -2.899952e-05 1.862645e-06 4.032813e-05 -1.200289e-05 9.770508e-01 1.867676e-01
1.228216e+08 -9.714966e-01 -1.202393e-01 -1.292862e-05 -1.509674e-06 -1.567230e-05 -1.151115e-06 9.782104e-01 1.879883e-01
1.230394e+08 -9.716187e-01 -1.201172e-01 -3.243610e-05 -1.425855e-05 -8.800998e-06 2.212450e-05 9.785767e-01 1.878052e-01
1.232572e+08 -9.713745e-01 -1.210327e-01 -7.875264e-06 2.266094e-05 -9.656418e-06 -1.069484e-05 9.769287e-01 1.883545e-01
1.234750e+08 -9.711914e-01 -1.203003e-01 1.795404e-05 2.569333e-05 -2.103858e-05 3.181957e-05 9.766846e-01 1.893311e-01
1.236928e+08 -9.727173e-01 -1.204834e-01 1.810864e-05 4.667789e-05 2.888590e-05 2.742000e-05 9.763794e-01 1.900635e-01
1.239106e+08 -9.726562e-01 -1.204834e-01 -6.388873e-06 9.738375e-06 -9.305775e-06 3.370456e-06 9.758911e-01 1.912842e-01
1.241284e+08 -9.724731e-01 -1.202393e-01 2.250262e-05 -1.309253e-05 -3.095903e-05 1.332536e-05 9.752808e-01 1.917114e-01
1.243462e+08 -9.724731e-01 -1.208496e-01 1.772679e-05 -5.809590e-06 3.504381e-05 2.258644e-05 9.758911e-01 1.917114e-01
1.245641e+08 -9.732056e-01 -1.199341e-01 2.924167e-05 1.914427e-05 -2.809986e-05 3.868714e-06 9.750977e-01 1.928101e-01
1.247819e+08 -9.731445e-01 -1.210327e-01 2.445653e-05 2.645887e-05 8.754432e-07 3.445894e-05 9.754639e-01 1.931152e-01
1.249997e+08 -9.730225e-01 -1.200562e-01 -3.523007e-05 4.310161e-05 3.721565e-05 -1.505390e-05 9.751587e-01 1.946411e-01
1.252175e+08 -9.731445e-01 -1.201782e-01 2.101436e-05 -1.695007e-07 3.750622e-05 -4.099682e-06 9.750366e-01 1.948853e-01
1.254353e+08 -9.732056e-01 -1.207275e-01 2.739951e-05 -9.903684e-06 2.917089e-05 3.845617e-05 9.743042e-01 1.955566e-01
1.256531e+08 -9.738770e-01 -1.198120e-01 1.479499e-05 3.059953e-05 2.970919e-06 -6.351154e-06 9.739990e-01 1.965332e-01
1.258709e+08 -9.734497e-01 -1.211548e-01 -1.143944e-05 -1.446437e-05 -6.427057e-06 -6.113667e-06 9.739990e-01 1.969604e-01
1.260888e+08 -9.732666e-01 -1.203613e-01 -3.888272e-05 -4.585832e-06 -4.721060e-05 -6.642193e-06 9.744873e-01 1.989746e-01
1.263066e+08 -9.738159e-01 -1.198120e-01 2.286024e-05 2.898835e-05 -1.213606e-05 1.599919e-05 9.745483e-01 1.997070e-01
1.265244e+08 -9.739990e-01 -1.206055e-01 1.640618e-05 2.820604e-05 -1.568906e-05 3.958121e-07 9.742432e-01 1.998291e-01
1.267422e+08 -9.732666e-01 -1.203613e-01 1.640618e-05 2.821162e-05 -4.395843e-05 -4.954636e-07 9.738159e-01 2.006226e-01
1.269600e+08 -9.739990e-01 -1.206055e-01 -2.105534e-05 1.527369e-07 3.525801e-05 2.898090e-05 9.737549e-01 2.019653e-01
1.271778e+08 -9.732056e-01 -1.198120e-01 -1.945067e-05 -2.271496e-06 1.612213e-05 1.686532e-05 9.733887e-01 2.015381e-01
1.273956e+08 -9.735718e-01 -1.200562e-01 8.079223e-06 -1.680572e-06 -4.080310e-05 1.005828e-06 9.727173e-01 2.024536e-01
1.276134e+08 -9.747314e-01 -1.201172e-01 5.044043e-06 2.426282e-05 2.212077e-05 4.166737e-06 9.732666e-01 2.036743e-01
1.278312e+08 -9.746094e-01 -1.201782e-01 1.442432e-05 -2.198108e-05 6.244518e-06 -1.722481e-06 9.730225e-01 2.048950e-01
1.280491e+08 -9.742432e-01 -1.194458e-01 -2.265908e-05 2.589077e-06 2.575852e-05 2.451241e-05 9.723511e-01 2.055664e-01
1.282669e+08 -9.745483e-01 -1.203613e-01 -8.195639e-08 -1.053512e-05 -1.875032e-05 5.174428e-06 9.729004e-01 2.058105e-01
1.284847e+08 -9.740601e-01 -1.196289e-01 3.075041e-05 -4.267320e-06 1.276564e-05 7.544644e-06 9.720459e-01 2.066040e-01
1.287025e+08 -9.732666e-01 -1.194458e-01 -1.765974e-05 2.685748e-05 9.310432e-06 -4.949514e-06 9.724121e-01 2.077637e-01
1.289203e+08 -9.735107e-01 -1.191406e-01 2.757274e-05 6.239861e-07 5.933642e-05 -1.720712e-05 9.725342e-01 2.088013e-01
1.291381e+08 -9.728394e-01 -1.190186e-01 -2.911501e-05 1.236238e-05 1.488812e-05 -3.338791e-05 9.725342e-01 2.090454e-01
1.293559e+08 -9.741821e-01 -1.191406e-01 3.060326e-06 -2.598576e-05 -1.946650e-05 -2.313592e-05 9.722290e-01 2.101440e-01
1.295738e+08 -9.744263e-01 -1.192627e-01 6.793812e-05 -2.884120e-05 -3.143959e-05 2.332032e-06 9.719238e-01 2.107544e-01
1.297916e+08 -9.740601e-01 -1.193848e-01 2.269633e-05 -2.579764e-06 -2.546236e-06 2.525933e-05 9.719238e-01 2.116699e-01
1.300094e+08 -9.736328e-01 -1.184692e-01 1.606531e-05 -2.445839e-05 9.246636e-06 -8.102506e-06 9.724121e-01 2.123413e-01
1.302272e+08 -9.741211e-01 -1.189575e-01 -9.417534e-06 4.631281e-05 -3.451481e-06 -1.252070e-05 9.721680e-01 2.132568e-01
1.304450e+08 -9.744263e-01 -1.189575e-01 -9.484589e-06 3.579073e-05 7.208437e-06 3.767572e-05 9.726562e-01 2.135010e-01
1.306628e+08 -9.736328e-01 -1.181030e-01 -3.088452e-05 -6.288290e-06 -2.655201e-06 2.054777e-05 9.716797e-01 2.146606e-01
1.308806e+08 -9.729614e-01 -1.190186e-01 6.353483e-06 -2.034381e-05 1.855660e-05 -1.464505e-05 9.724121e-01 2.152100e-01
1.310984e+08 -9.729614e-01 -1.190186e-01 2.271868e-05 -2.581626e-06 1.294725e-05 1.388695e-05 9.718018e-01 2.163086e-01
1.313162e+08 -9.731445e-01 -1.182251e-01 6.431714e-06 -9.794720e-06 -1.707673e-05 -5.478412e-05 9.721069e-01 2.166138e-01
1.315341e+08 -9.733276e-01 -1.174927e-01 -9.585172e-06 2.525188e-05 -1.165830e-05 3.816001e-05 9.720459e-01 2.175293e-01
1.317519e+08 -9.732056e-01 -1.185913e-01 -1.455192e-05 1.146644e-05 5.072355e-05 9.838492e-06 9.718628e-01 2.186279e-01
1.319697e+08 -9.735718e-01 -1.176147e-01 3.287103e-06 5.668029e-06 1.258496e-05 -1.889654e-06 9.719238e-01 2.196655e-01
1.321875e+08 -9.727173e-01 -1.177979e-01 -3.376603e-05 6.201863e-05 2.448447e-05 -3.217347e-05 9.724731e-01 2.201538e-01
1.324053e+08 -9.735718e-01 -1.175537e-01 1.229346e-07 2.112612e-05 -2.164952e-05 1.949165e-05 9.719238e-01 2.213135e-01
1.326231e+08 -9.723511e-01 -1.179199e-01 -1.653656e-05 -3.890879e-05 6.370246e-07 2.683327e-05 9.729004e-01 2.210693e-01
1.328409e+08 -9.720459e-01 -1.176147e-01 -1.492351e-05 -5.196780e-05 1.715869e-05 5.800277e-05 9.723511e-01 2.239380e-01
1.330588e+08 -9.721680e-01 -1.167603e-01 -1.679640e-06 -8.125789e-06 -2.537854e-05 -4.118308e-06 9.728394e-01 2.242432e-01
1.332766e+08 -9.719849e-01 -1.175537e-01 3.224704e-06 -4.899688e-06 3.798492e-05 2.255663e-06 9.724121e-01 2.250977e-01
1.334944e+08 -9.716797e-01 -1.170654e-01 1.453422e-05 -2.206862e-05 -2.778135e-06 1.587439e-05 9.734497e-01 2.259521e-01
1.337122e+08 -9.710083e-01 -1.172485e-01 4.701316e-05 -3.933534e-05 -1.305155e-05 -1.707487e-05 9.731445e-01 2.269897e-01
1.339300e+08 -9.713745e-01 -1.174316e-01 -3.254227e-05 6.709248e-06 3.398210e-05 -3.401004e-05 9.737549e-01 2.268677e-01
1.341478e+08 -9.707031e-01 -1.169434e-01 -1.960713e-05 -1.291651e-05 2.841651e-05 -2.253801e-06 9.730835e-01 2.282104e-01
1.343656e+08 -9.702759e-01 -1.167603e-01 -1.778454e-05 2.696924e-05 2.299249e-05 3.582798e-05 9.736938e-01 2.288818e-01
1.345834e+08 -9.713745e-01 -1.168213e-01 1.291744e-05 -1.961738e-05 9.194016e-06 -1.288112e-05 9.734497e-01 2.288818e-01
1.348012e+08 -9.707031e-01 -1.164551e-01 1.316145e-05 2.274103e-05 -1.581758e-05 3.706664e-07 9.736328e-01 2.304688e-01
1.350191e+08 -9.709473e-01 -1.160889e-01 2.280809e-05 -2.564862e-06 3.580935e-06 1.733471e-05 9.743042e-01 2.319336e-01
1.352369e+08 -9.694824e-01 -1.162109e-01 3.915094e-05 4.662201e-06 -2.558157e-05 -1.046993e-05 9.742432e-01 2.320557e-01
1.354547e+08 -9.697266e-01 -1.165161e-01 -1.311395e-05 -1.214910e-05 5.995855e-06 -1.440104e-05 9.746704e-01 2.325439e-01
1.356725e+08 -9.690552e-01 -1.156006e-01 5.031005e-06 2.442300e-05 -2.228096e-05 -4.237518e-06 9.743652e-01 2.335205e-01
1.358903e+08 -9.694214e-01 -1.157837e-01 2.313033e-05 5.044788e-05 6.413087e-06 3.020279e-06 9.755249e-01 2.342529e-01
1.361081e+08 -9.689941e-01 -1.160889e-01 6.645918e-06 2.198666e-05 2.875924e-06 -1.275167e-05 9.755249e-01 2.342529e-01
1.363259e+08 -9.679565e-01 -1.163940e-01 -2.774224e-05 -7.022172e-07 1.328811e-05 2.663583e-05 9.755249e-01 2.366333e-01
1.365438e+08 -9.679565e-01 -1.161499e-01 -3.755838e-05 -7.173046e-06 3.613532e-07 1.584459e-05 9.749146e-01 2.369995e-01
1.367616e+08 -9.685059e-01 -1.153564e-01 -2.937019e-05 1.765788e-06 1.918338e-05 5.890615e-06 9.756470e-01 2.376099e-01
1.369794e+08 -9.678345e-01 -1.156616e-01 1.721084e-06 1.876894e-05 -3.987923e-06 -3.480911e-05 9.761963e-01 2.386475e-01
1.371972e+08 -9.674072e-01 -1.156006e-01 -2.137944e-05 -3.171898e-05 -3.819168e-05 -3.874302e-06 9.758911e-01 2.388916e-01
1.374150e+08 -9.663086e-01 -1.159668e-01 -8.208212e-06 -8.939765e-06 9.881333e-06 1.565088e-05 9.768066e-01 2.398071e-01
1.376328e+08 -9.652710e-01 -1.157227e-01 -2.276525e-05 2.381019e-05 2.903864e-05 2.156012e-05 9.780273e-01 2.408447e-01
1.378506e+08 -9.656982e-01 -1.152954e-01 2.452172e-05 5.608425e-06 9.033829e-07 3.965944e-05 9.772949e-01 2.416382e-01
1.380684e+08 -9.650879e-01 -1.153564e-01 -1.155771e-05 -2.522953e-05 -9.802170e-06 -1.247227e-05 9.768066e-01 2.410889e-01
1.382862e+08 -9.653320e-01 -1.157227e-01 2.935715e-05 -1.241080e-05 1.963973e-05 2.495199e-05 9.783325e-01 2.429810e-01
1.385041e+08 -9.648438e-01 -1.157227e-01 3.088266e-05 -4.671142e-05 -7.217750e-08 -3.176276e-06 9.782715e-01 2.440796e-01
1.387219e+08 -9.648438e-01 -1.158447e-01 4.236400e-05 -3.205240e-05 -1.303852e-05 -1.400989e-05 9.784546e-01 2.446899e-01
1.389397e+08 -9.641724e-01 -1.152954e-01 -2.432615e-05 4.754961e-05 -4.784390e-05 -6.839633e-06 9.794922e-01 2.448120e-01
1.391575e+08 -9.641113e-01 -1.159668e-01 3.114343e-05 1.703389e-05 -9.754207e-06 -9.323005e-06 9.794312e-01 2.455444e-01
1.393753e+08 -9.638672e-01 -1.152954e-01 3.603101e-05 9.628013e-06 -3.678724e-08 -1.590350e-06 9.799194e-01 2.457275e-01
1.395931e+08 -9.628906e-01 -1.154785e-01 -6.508082e-06 9.842217e-06 3.538094e-05 1.667999e-05 9.802856e-01 2.474976e-01
1.398109e+08 -9.626465e-01 -1.151733e-01 4.923902e-06 3.250781e-06 -2.263486e-05 -1.539290e-05 9.807739e-01 2.479858e-01
1.400288e+08 -9.625854e-01 -1.154175e-01 -1.477636e-05 -9.744428e-06 3.327616e-06 6.292015e-06 9.814453e-01 2.486572e-01
1.402466e+08 -9.616699e-01 -1.146851e-01 3.600493e-05 -9.797513e-07 -2.145581e-05 3.551319e-05 9.816895e-01 2.493286e-01
1.404644e+08 -9.613037e-01 -1.152954e-01 -2.950244e-05 -8.894131e-06 4.089810e-05 -2.163090e-05 9.819946e-01 2.505493e-01
1.406822e+08 -9.617920e-01 -1.157837e-01 2.793968e-05 2.196431e-05 3.505498e-06 1.426414e-05 9.826050e-01 2.503662e-01
1.409000e+08 -9.606323e-01 -1.155396e-01 -1.645088e-05 -1.793634e-05 7.072836e-05 2.703816e-05 9.827881e-01 2.515869e-01
1.411178e+08 -9.603271e-01 -1.155396e-01 -1.959596e-05 1.890864e-05 -3.133155e-05 2.301112e-05 9.833374e-01 2.521362e-01
1.413356e+08 -9.594727e-01 -1.166992e-01 -6.554648e-05 2.704561e-06 -2.554059e-05 -2.626330e-06 9.843140e-01 2.529907e-01
1.415534e+08 -9.589233e-01 -1.169434e-01 1.478475e-05 9.781681e-06 -1.287833e-05 -6.090850e-06 9.844971e-01 2.536011e-01
1.417712e+08 -9.588623e-01 -1.158447e-01 6.228685e-06 -9.507686e-05 2.636947e-05 3.765337e-05 9.848633e-01 2.543945e-01
1.419891e+08 -9.587402e-01 -1.162109e-01 -8.344650e-06 -4.096329e-05 -1.282431e-05 -2.902932e-06 9.852295e-01 2.550049e-01
1.422069e+08 -9.578857e-01 -1.160278e-01 -1.805276e-05 -4.854985e-06 -1.021288e-05 -2.848543e-05 9.853516e-01 2.556152e-01
1.424247e+08 -9.570312e-01 -1.166382e-01 1.960713e-05 -1.893006e-05 -1.583435e-05 5.138107e-06 9.856567e-01 2.559204e-01
1.426425e+08 -9.568481e-01 -1.163940e-01 -1.643412e-05 -7.309020e-06 -6.743707e-06 -1.579896e-05 9.871826e-01 2.559814e-01
1.428603e+08 -9.565430e-01 -1.166992e-01 1.156889e-05 2.538413e-05 -3.866851e-06 -3.022887e-05 9.871826e-01 2.577515e-01
1.430781e+08 -9.568481e-01 -1.165771e-01 1.460314e-06 -4.513189e-05 3.508292e-05 -2.380461e-06 9.879761e-01 2.573242e-01
1.432959e+08 -9.559937e-01 -1.168213e-01 -1.747161e-06 -2.953410e-05 -7.178634e-06 -3.496744e-05 9.885864e-01 2.584839e-01
1.435138e+08 -9.550171e-01 -1.171875e-01 1.629069e-05 -3.532879e-05 -3.836676e-05 -2.332032e-06 9.887695e-01 2.585449e-01
1.437316e+08 -9.550171e-01 -1.173706e-01 1.309533e-05 -9.072945e-06 3.527384e-08 1.596403e-06 9.888306e-01 2.592163e-01
1.439494e+08 -9.536133e-01 -1.178589e-01 -2.801418e-05 -2.207048e-05 1.926254e-05 4.364178e-06 9.902344e-01 2.594604e-01
1.441672e+08 -9.530640e-01 -1.173096e-01 -3.276207e-05 2.804212e-05 -1.233630e-05 1.944043e-05 9.907227e-01 2.602539e-01
1.443850e+08 -9.524536e-01 -1.178589e-01 -2.458505e-05 1.568347e-05 2.333522e-05 4.424155e-05 9.910278e-01 2.606812e-01
1.446028e+08 -9.533081e-01 -1.184082e-01 3.789738e-05 2.868846e-05 -6.020069e-06 1.771934e-05 9.925537e-01 2.623291e-01
1.448206e+08 -9.521484e-01 -1.184082e-01 -1.155958e-05 -1.476146e-05 2.992805e-06 -9.654090e-06 9.928589e-01 2.620850e-01
1.450384e+08 -9.517212e-01 -1.181030e-01 -3.268942e-06 4.938804e-06 -9.488314e-06 5.003531e-06 9.928589e-01 2.621460e-01
1.452562e+08 -9.514160e-01 -1.184082e-01 6.578490e-05 1.870841e-05 1.640897e-05 1.884159e-05 9.934082e-01 2.627563e-01
1.454741e+08 -9.511108e-01 -1.184692e-01 -1.148414e-05 6.609596e-06 3.160350e-05 -1.828559e-05 9.942017e-01 2.633667e-01
1.456919e+08 -9.499512e-01 -1.179199e-01 6.254390e-05 2.363697e-05 1.534447e-05 -2.912246e-05 9.942627e-01 2.642822e-01
1.459097e+08 -9.489746e-01 -1.198120e-01 3.612041e-05 -2.228096e-05 -5.543604e-05 -4.838780e-05 9.946899e-01 2.643433e-01
1.461275e+08 -9.483032e-01 -1.195679e-01 -2.953410e-05 2.310984e-05 3.937632e-06 3.509782e-05 9.954834e-01 2.645264e-01
1.463453e+08 -9.476318e-01 -1.196899e-01 3.118813e-05 -2.558343e-05 1.373701e-07 6.393995e-06 9.963989e-01 2.650757e-01
1.465631e+08 -9.483032e-01 -1.195679e-01 5.764887e-05 3.108382e-05 4.093908e-05 -3.131852e-05 9.968262e-01 2.658691e-01
1.467809e+08 -9.471436e-01 -1.199341e-01 -3.343448e-06 -2.716109e-05 2.576411e-05 7.448718e-06 9.979248e-01 2.669678e-01
1.469988e+08 -9.464722e-01 -1.207275e-01 1.642387e-05 -1.404155e-05 -3.256463e-05 -2.652965e-05 9.987183e-01 2.661743e-01
1.472166e+08 -9.462891e-01 -1.206665e-01 -9.937212e-06 -2.794154e-05 -2.551265e-05 5.347654e-06 9.982300e-01 2.669678e-01
1.474344e+08 -9.464111e-01 -1.213379e-01 1.639826e-06 -2.475455e-06 1.983531e-05 2.843142e-05 9.995728e-01 2.672729e-01
1.476522e+08 -9.457397e-01 -1.216431e-01 1.143105e-05 -3.871880e-05 -6.340910e-06 3.337394e-06 1.000000e+00 2.681274e-01
1.478700e+08 -9.450684e-01 -1.214600e-01 -1.615845e-06 1.317821e-05 3.850088e-05 2.400950e-06 1.000793e+00 2.683105e-01
1.480878e+08 -9.455566e-01 -1.221924e-01 -1.813099e-05 -4.894100e-06 3.834441e-05 -7.228926e-06 1.001404e+00 2.681885e-01
1.483056e+08 -9.429932e-01 -1.229248e-01 2.637319e-05 3.220513e-06 -3.509037e-05 7.137656e-06 1.002441e+00 2.684326e-01
1.485234e+08 -9.428711e-01 -1.224976e-01 -1.146272e-05 2.804771e-05 -1.543760e-05 2.757646e-05 1.003113e+00 2.686157e-01
1.487412e+08 -9.431152e-01 -1.226807e-01 2.139434e-05 -2.148747e-05 -1.069158e-06 -4.969165e-05 1.004395e+00 2.692261e-01
1.489591e+08 -9.425659e-01 -1.234741e-01 3.632717e-05 3.124774e-05 -3.138091e-06 3.274530e-06 1.004150e+00 2.695312e-01
1.491769e+08 -9.420166e-01 -1.233521e-01 -6.332994e-08 -3.213622e-05 -6.794930e-06 -1.750048e-05 1.004700e+00 2.695312e-01
1.493947e+08 -9.411621e-01 -1.244507e-01 6.657094e-06 3.295578e-05 9.778887e-08 4.808186e-06 1.004761e+00 2.701416e-01
1.496125e+08 -9.404297e-01 -1.242676e-01 -2.311170e-05 -8.203089e-06 -1.299381e-05 -7.739291e-06 1.005920e+00 2.702637e-01
1.498303e+08 -9.398804e-01 -1.242676e-01 2.328306e-08 1.071952e-05 -3.444962e-06 -1.115259e-05 1.006165e+00 2.704468e-01
1.500481e+08 -9.394531e-01 -1.253662e-01 1.158006e-05 1.483411e-05 2.875179e-05 -5.396083e-06 1.007385e+00 2.709961e-01
1.502659e+08 -9.396362e-01 -1.256714e-01 1.645647e-06 -2.477085e-06 1.296401e-05 6.151386e-06 1.007629e+00 2.713623e-01
1.504838e+08 -9.390259e-01 -1.258545e-01 1.491234e-05 3.129803e-05 -1.329929e-05 -2.220273e-05 1.007935e+00 2.705688e-01
1.507016e+08 -9.383545e-01 -1.261597e-01 -6.647781e-06 -3.301166e-05 -6.452668e-06 -1.469161e-06 1.009521e+00 2.719727e-01
1.509194e+08 -9.378662e-01 -1.270142e-01 -4.292279e-05 9.313226e-08 -2.622418e-05 -2.514943e-05 1.010376e+00 2.708130e-01
1.511372e+08 -9.375000e-01 -1.276855e-01 4.976988e-06 1.401827e-05 6.289687e-06 -6.551854e-06 1.009827e+00 2.710571e-01
1.513550e+08 -9.365845e-01 -1.275635e-01 1.601875e-06 -2.395175e-05 -6.616116e-06 -9.491108e-06 1.011169e+00 2.713623e-01
1.515728e+08 -9.363403e-01 -1.282959e-01 -1.676381e-06 -1.898967e-05 -1.906324e-05 1.003034e-05 1.011536e+00 2.717896e-01
1.517906e+08 -9.362183e-01 -1.286011e-01 5.117804e-05 -1.246482e-05 1.986884e-05 2.849475e-05 1.012085e+00 2.717896e-01
1.520084e+08 -9.353638e-01 -1.287842e-01 -3.298745e-06 4.961155e-06 2.581626e-05 5.887821e-06 1.013062e+00 2.720337e-01
1.522262e+08 -9.351807e-01 -1.293945e-01 1.653098e-05 7.408671e-06 3.209151e-05 -2.272427e-06 1.013489e+00 2.719116e-01
1.524441e+08 -9.351807e-01 -1.300049e-01 9.873882e-06 -2.562627e-05 -9.774696e-06 -6.227288e-06 1.013916e+00 2.715454e-01
1.526619e+08 -9.340210e-01 -1.308594e-01 -3.802776e-05 -1.811050e-05 -9.608455e-06 1.797918e-06 1.014832e+00 2.717285e-01
1.528797e+08 -9.335938e-01 -1.313477e-01 3.315043e-06 5.779322e-06 -1.918152e-05 5.199574e-06 1.015198e+00 2.714844e-01
1.530975e+08 -9.326172e-01 -1.320801e-01 -2.482347e-05 -1.650117e-05 -1.235679e-05 2.594851e-05 1.016052e+00 2.720947e-01
1.533153e+08 -9.317017e-01 -1.318970e-01 -1.324806e-05 -1.239218e-05 -3.167987e-05 2.153404e-05 1.017334e+00 2.730103e-01
1.535331e+08 -9.324951e-01 -1.330566e-01 3.307126e-06 5.785376e-06 -2.632290e-05 -3.004260e-05 1.016846e+00 2.731934e-01
1.537509e+08 -9.317627e-01 -1.328735e-01 -8.236617e-06 2.315640e-05 -6.174669e-06 1.298636e-05 1.017761e+00 2.717896e-01
1.539688e+08 -9.302979e-01 -1.342773e-01 -4.136935e-05 -1.316145e-05 -6.549526e-06 -6.301329e-06 1.018372e+00 2.716675e-01
1.541866e+08 -9.301147e-01 -1.340942e-01 -2.482161e-05 -5.781651e-06 -3.563240e-06 -1.761410e-05 1.019165e+00 2.726440e-01
1.544044e+08 -9.306030e-01 -1.342773e-01 3.645197e-05 6.368384e-05 -6.036833e-06 1.941901e-05 1.020020e+00 2.720337e-01
1.546222e+08 -9.301758e-01 -1.353149e-01 3.265217e-06 -2.648309e-05 -6.275717e-06 8.164905e-06 1.020569e+00 2.714844e-01
1.548400e+08 -9.285889e-01 -1.365356e-01 -2.814829e-05 -1.154840e-05 -2.238341e-05 6.847084e-06 1.020508e+00 2.719116e-01
1.550578e+08 -9.287109e-01 -1.359253e-01 1.491327e-05 9.912997e-06 3.237464e-05 1.062639e-05 1.021301e+00 2.713623e-01
1.552756e+08 -9.277954e-01 -1.375122e-01 -2.979673e-05 1.693144e-06 5.122274e-05 -1.223013e-05 1.022217e+00 2.711182e-01
1.554934e+08 -9.284058e-01 -1.371460e-01 -8.289702e-06 -9.100419e-06 -3.569759e-06 -1.763832e-05 1.022827e+00 2.717896e-01
1.557112e+08 -9.273071e-01 -1.382446e-01 3.315508e-06 5.790964e-06 -9.033829e-06 3.233925e-05 1.022888e+00 2.711182e-01
1.559291e+08 -9.269409e-01 -1.389771e-01 -2.979860e-05 2.318621e-05 -1.965277e-05 -1.732074e-05 1.023438e+00 2.711182e-01
1.561469e+08 -9.265137e-01 -1.392822e-01 1.325272e-05 2.317876e-05 -1.570303e-05 1.960993e-05 1.023926e+00 2.707520e-01
1.563647e+08 -9.266357e-01 -1.403809e-01 -3.809482e-05 1.410209e-05 -6.254762e-06 9.777024e-06 1.024963e+00 2.705688e-01
1.565825e+08 -9.258423e-01 -1.399536e-01 -1.987070e-05 4.060939e-05 -4.090369e-05 4.746765e-05 1.025085e+00 2.705688e-01
1.568003e+08 -9.257202e-01 -1.418457e-01 9.942800e-06 -1.492817e-05 -9.024516e-06 3.397651e-05 1.026001e+00 2.702637e-01
1.570181e+08 -9.249878e-01 -1.416626e-01 1.990609e-05 2.400018e-05 -2.328120e-05 -3.818236e-05 1.025696e+00 2.692261e-01
1.572359e+08 -9.247437e-01 -1.424561e-01 -1.992472e-05 -1.326390e-05 1.329929e-05 2.228469e-05 1.027771e+00 2.698364e-01
1.574538e+08 -9.242554e-01 -1.427002e-01 -6.645918e-06 -5.469844e-05 9.593088e-06 -3.405381e-06 1.026794e+00 2.698364e-01
1.576716e+08 -9.240112e-01 -1.437378e-01 -6.627291e-06 9.953976e-06 6.436836e-06 -1.224689e-07 1.027588e+00 2.691040e-01
1.578894e+08 -9.238281e-01 -1.443481e-01 -2.323650e-05 -8.281320e-06 3.370456e-06 7.986091e-06 1.028931e+00 2.690430e-01
1.581072e+08 -9.238281e-01 -1.451416e-01 -3.312714e-06 4.977454e-06 -3.578328e-05 -1.864880e-05 1.028931e+00 2.680664e-01
1.583250e+08 -9.234009e-01 -1.458130e-01 -3.319979e-05 6.645918e-06 -9.354204e-06 1.628697e-05 1.029724e+00 2.689209e-01
1.585428e+08 -9.224854e-01 -1.464844e-01 -6.635673e-06 -8.302741e-07 -4.540011e-05 -1.686439e-05 1.029480e+00 2.683716e-01
1.587606e+08 -9.216309e-01 -1.469727e-01 3.816746e-05 1.825951e-05 -9.313226e-08 -4.827045e-06 1.029968e+00 2.679443e-01
1.589784e+08 -9.217529e-01 -1.481934e-01 2.490170e-05 5.800277e-06 2.566539e-05 -5.321577e-06 1.030945e+00 2.667236e-01
1.591962e+08 -9.217529e-01 -1.490479e-01 -2.656505e-05 1.826137e-05 -9.461306e-06 1.145806e-05 1.031067e+00 2.672119e-01
1.594141e+08 -9.209595e-01 -1.494141e-01 8.292496e-06 3.073923e-05 -2.552196e-05 1.335517e-05 1.031860e+00 2.669067e-01
1.596319e+08 -9.212646e-01 -1.496582e-01 -1.672655e-06 2.408214e-05 -4.160963e-05 1.528487e-05 1.031799e+00 2.666016e-01
1.598497e+08 -9.202271e-01 -1.504517e-01 -1.663715e-05 -5.069375e-05 2.608635e-05 1.722015e-05 1.032898e+00 2.656860e-01
1.600675e+08 -9.205933e-01 -1.505127e-01 -2.489053e-05 2.657622e-05 6.506685e-06 3.095716e-06 1.032104e+00 2.650757e-01
1.602853e+08 -9.202271e-01 -1.516724e-01 1.491793e-05 -2.242252e-05 3.461726e-06 1.282617e-05 1.032349e+00 2.646484e-01
1.605031e+08 -9.205933e-01 -1.532593e-01 1.329090e-05 1.664273e-06 2.859719e-05 -2.308749e-05 1.033264e+00 2.651367e-01
1.607209e+08 -9.193115e-01 -1.539917e-01 2.822839e-05 2.243929e-05 9.985641e-06 1.753401e-05 1.033203e+00 2.652588e-01
1.609388e+08 -9.192505e-01 -1.543579e-01 -3.306195e-06 -2.742745e-05 -1.279451e-05 5.075708e-06 1.034058e+00 2.640381e-01
1.611566e+08 -9.186401e-01 -1.547241e-01 -5.991012e-05 -7.502735e-06 4.479289e-05 -1.532584e-05 1.035889e+00 2.636719e-01
1.613744e+08 -9.188232e-01 -1.550903e-01 -1.663342e-06 2.493383e-06 3.958121e-07 2.093893e-05 1.034729e+00 2.629395e-01
1.615922e+08 -9.177246e-01 -1.570435e-01 2.326258e-05 1.913309e-05 -9.943731e-06 -1.593214e-05 1.034729e+00 2.630615e-01
1.618100e+08 -9.184570e-01 -1.575317e-01 2.660789e-05 -7.467344e-06 -1.001265e-05 -1.916755e-05 1.035095e+00 2.624512e-01
1.620278e+08 -9.179688e-01 -1.572876e-01 -3.324822e-06 -5.819835e-06 4.801527e-05 -1.859665e-05 1.034851e+00 2.615967e-01
1.622456e+08 -9.175415e-01 -1.593018e-01 4.656613e-09 -1.081266e-05 -1.945905e-05 -6.124377e-06 1.035217e+00 2.613525e-01
1.624634e+08 -9.178467e-01 -1.590576e-01 5.156547e-05 -1.639128e-06 -3.403053e-06 -9.615440e-06 1.035400e+00 2.608643e-01
1.626812e+08 -9.179077e-01 -1.602173e-01 -4.971525e-10 9.930545e-11 -9.190291e-06 2.756901e-05 1.036133e+00 2.608032e-01
1.628991e+08 -9.177246e-01 -1.605225e-01 -1.663901e-05 3.318302e-06 3.660098e-07 2.095476e-05 1.036255e+00 2.598877e-01
1.631169e+08 -9.176025e-01 -1.614990e-01 2.496131e-05 5.835667e-06 -3.213994e-05 7.012859e-06 1.036499e+00 2.594604e-01
1.633347e+08 -9.166870e-01 -1.631470e-01 9.993091e-06 -2.579950e-05 5.949289e-06 -2.912246e-05 1.036987e+00 2.587280e-01
1.635525e+08 -9.161377e-01 -1.639404e-01 -1.661014e-06 -8.327421e-06 -1.305528e-05 -9.451993e-06 1.037415e+00 2.581787e-01
1.637703e+08 -9.167480e-01 -1.647339e-01 3.826246e-05 1.832843e-05 -2.888031e-05 1.016445e-05 1.035950e+00 2.578125e-01
1.639881e+08 -9.160767e-01 -1.654663e-01 -2.332218e-05 1.330674e-05 6.231479e-06 -1.301058e-05 1.036987e+00 2.570190e-01
1.642059e+08 -9.172363e-01 -1.652222e-01 -1.164433e-05 -4.164875e-06 -1.956616e-05 -1.095422e-05 1.035828e+00 2.563477e-01
1.644238e+08 -9.163208e-01 -1.661987e-01 2.003834e-05 -4.080683e-05 3.225170e-05 -5.643815e-07 1.037354e+00 2.567749e-01
1.646416e+08 -9.163208e-01 -1.670532e-01 -6.647781e-06 -3.332272e-05 -1.938269e-05 -1.267530e-06 1.036865e+00 2.554932e-01
1.648594e+08 -9.168701e-01 -1.679077e-01 -4.167855e-05 8.296221e-06 3.241748e-05 7.515773e-06 1.037537e+00 2.550049e-01
1.650772e+08 -9.160767e-01 -1.682739e-01 1.831166e-05 2.668053e-05 6.337184e-06 -6.563496e-06 1.037354e+00 2.546997e-01
1.652950e+08 -9.161987e-01 -1.691895e-01 -1.668371e-05 3.328547e-06 2.691522e-06 -3.070943e-05 1.038330e+00 2.540894e-01
1.655128e+08 -9.166870e-01 -1.702271e-01 -1.832284e-05 -2.668053e-05 2.587959e-05 2.782792e-06 1.037964e+00 2.531738e-01
1.657306e+08 -9.160156e-01 -1.710815e-01 -4.978347e-10 9.981704e-11 -1.339801e-05 -2.721138e-05 1.037292e+00 2.515869e-01
1.659484e+08 -9.155884e-01 -1.723022e-01 -1.661479e-05 -4.000589e-05 3.413297e-06 1.123734e-05 1.036560e+00 2.523804e-01
1.661662e+08 -9.149170e-01 -1.725464e-01 -1.337379e-05 1.999363e-05 -2.896599e-05 3.702939e-06 1.037170e+00 2.521362e-01
1.663841e+08 -9.163208e-01 -1.734619e-01 6.645918e-06 2.251379e-05 1.255702e-05 -2.121367e-05 1.036926e+00 2.512817e-01
1.666019e+08 -9.153442e-01 -1.742554e-01 4.993752e-06 2.502836e-05 2.916716e-05 7.573515e-06 1.037964e+00 2.503662e-01
1.668197e+08 -9.150391e-01 -1.751709e-01 3.669597e-05 1.005828e-05 -8.102506e-08 -4.837522e-06 1.037781e+00 2.509155e-01
1.670375e+08 -9.161377e-01 -1.759033e-01 -9.994954e-06 -1.752377e-05 6.014481e-06 -2.594851e-05 1.037048e+00 2.495117e-01
1.672553e+08 -9.154663e-01 -1.763916e-01 3.350899e-06 -1.585390e-05 -2.609566e-05 -1.569465e-05 1.037537e+00 2.490234e-01
1.674731e+08 -9.163208e-01 -1.773071e-01 1.000892e-05 6.685033e-06 2.600439e-05 9.251758e-06 1.036682e+00 2.487183e-01
1.676909e+08 -9.159546e-01 -1.780396e-01 -2.172031e-05 -3.254414e-05 1.643226e-05 1.748651e-05 1.037109e+00 2.468262e-01
1.679088e+08 -9.155884e-01 -1.790161e-01 6.690621e-06 -2.085790e-05 2.229773e-05 -1.813099e-05 1.036560e+00 2.477417e-01
1.681266e+08 -9.154663e-01 -1.791382e-01 3.173947e-05 -4.142523e-06 6.125309e-06 -1.947209e-05 1.037109e+00 2.474365e-01
1.683444e+08 -9.154053e-01 -1.802979e-01 -3.341027e-05 6.629154e-06 -6.563496e-06 -6.346963e-06 1.036560e+00 2.467041e-01
1.685622e+08 -9.154053e-01 -1.807251e-01 4.842505e-05 -7.446855e-06 6.594229e-06 7.957220e-06 1.035950e+00 2.461548e-01
1.687800e+08 -9.152222e-01 -1.822510e-01 3.336743e-05 1.508184e-05 3.870204e-05 -2.264977e-06 1.035583e+00 2.457886e-01
1.689978e+08 -9.151611e-01 -1.828003e-01 1.672562e-05 -1.417473e-05 1.918059e-05 -1.161825e-05 1.035706e+00 2.447510e-01
1.692156e+08 -9.152222e-01 -1.837158e-01 -8.373521e-06 1.252163e-05 -9.093434e-06 3.566779e-05 1.035461e+00 2.443848e-01
1.694334e+08 -9.161987e-01 -1.842651e-01 2.172403e-05 2.980232e-08 1.661852e-05 2.878904e-05 1.035156e+00 2.440796e-01
1.696512e+08 -9.157715e-01 -1.853638e-01 -2.674945e-05 7.474795e-06 -2.593733e-05 -6.036833e-06 1.034302e+00 2.435303e-01
1.698691e+08 -9.160156e-01 -1.856689e-01 -6.686430e-06 -8.465722e-07 1.947582e-05 6.135553e-06 1.034546e+00 2.431030e-01
1.700869e+08 -9.157104e-01 -1.865845e-01 -2.169609e-05 -2.177246e-05 1.245178e-05 -2.765283e-05 1.034302e+00 2.424927e-01
1.703047e+08 -9.157715e-01 -1.871338e-01 6.699935e-06 -1.002289e-05 9.343028e-05 -1.443923e-05 1.033752e+00 2.413940e-01
1.705225e+08 -9.163208e-01 -1.878662e-01 1.508184e-05 -2.254546e-05 1.617614e-05 1.343898e-06 1.033936e+00 2.411499e-01
1.707403e+08 -9.166260e-01 -1.890869e-01 -4.681200e-05 -5.941838e-06 6.307848e-06 -9.798910e-06 1.033203e+00 2.406616e-01
1.709581e+08 -9.165039e-01 -1.907349e-01 -1.677545e-06 2.505956e-06 1.991913e-05 3.524125e-05 1.033264e+00 2.398682e-01
1.711759e+08 -9.166870e-01 -1.906738e-01 1.674145e-05 -3.311783e-06 2.738088e-06 -3.074482e-05 1.032898e+00 2.402344e-01
1.713938e+08 -9.170532e-01 -1.916504e-01 -3.506802e-05 -3.435276e-05 4.206412e-05 2.577901e-06 1.031677e+00 2.388306e-01
1.716116e+08 -9.171143e-01 -1.919556e-01 3.174692e-05 1.764484e-05 2.593175e-05 4.431233e-06 1.031372e+00 2.391357e-01
1.718294e+08 -9.175415e-01 -1.921997e-01 -3.179908e-05 -6.733462e-06 -1.634192e-05 -1.104921e-05 1.031494e+00 2.374878e-01
1.720472e+08 -9.174194e-01 -1.935425e-01 -2.171285e-05 -3.268011e-05 5.811453e-07 3.716163e-05 1.031067e+00 2.374268e-01
1.722650e+08 -9.174194e-01 -1.943970e-01 2.345629e-05 -2.477318e-06 2.559088e-05 -1.818314e-05 1.031250e+00 2.369385e-01
1.724828e+08 -9.176636e-01 -1.953735e-01 -3.267080e-06 -3.855117e-05 -3.258232e-06 -1.566717e-06 1.030640e+00 2.369385e-01
1.727006e+08 -9.183350e-01 -1.958618e-01 -1.341663e-05 9.194948e-06 4.230998e-05 1.714192e-05 1.030273e+00 2.354126e-01
1.729184e+08 -9.180908e-01 -1.965332e-01 -1.007225e-05 1.506601e-05 3.133435e-06 -6.515067e-06 1.028931e+00 2.353516e-01
1.731362e+08 -9.185181e-01 -1.967163e-01 -1.171883e-05 -4.200265e-06 2.586469e-05 -4.190952e-07 1.028625e+00 2.343750e-01
1.733541e+08 -9.187012e-01 -1.981812e-01 -2.682023e-05 7.472932e-06 -9.500422e-06 1.308415e-05 1.027893e+00 2.346191e-01
1.735719e+08 -9.196777e-01 -1.987915e-01 -2.679788e-05 -1.429766e-05 -9.584241e-06 8.238479e-06 1.028503e+00 2.347412e-01
1.737897e+08 -9.197998e-01 -1.994019e-01 -1.004338e-05 -6.717630e-06 4.206784e-05 -6.649643e-07 1.027100e+00 2.334595e-01
1.740075e+08 -9.187622e-01 -2.006226e-01 2.850220e-05 -9.993091e-06 -3.233319e-06 4.819594e-08 1.026428e+00 2.332764e-01
1.742253e+08 -9.194336e-01 -2.020264e-01 1.172815e-05 4.223548e-06 -1.284480e-05 6.653368e-06 1.026489e+00 2.336426e-01
1.744431e+08 -9.194336e-01 -2.022095e-01 -2.854317e-05 1.000240e-05 1.610257e-05 -5.087815e-06 1.026184e+00 2.329102e-01
1.746609e+08 -9.199219e-01 -2.023926e-01 -1.673214e-05 -1.848582e-05 6.735325e-06 1.769327e-05 1.024780e+00 2.325439e-01
1.748788e+08 -9.207764e-01 -2.041016e-01 6.366894e-05 1.355633e-05 1.932867e-05 -6.754883e-06 1.023499e+00 2.319946e-01
1.750966e+08 -9.207764e-01 -2.044678e-01 -8.400995e-06 1.656357e-06 -1.280755e-05 9.892508e-06 1.024475e+00 2.323608e-01
1.753144e+08 -9.221191e-01 -2.040405e-01 2.018735e-05 -1.926161e-05 5.999580e-06 -3.086403e-05 1.023315e+00 2.317505e-01
1.755322e+08 -9.221802e-01 -2.054443e-01 -2.182275e-05 -5.774200e-08 2.775341e-06 -3.083237e-05 1.023254e+00 2.313232e-01
1.757500e+08 -9.221191e-01 -2.068481e-01 -2.683885e-05 -1.433305e-05 6.570015e-06 6.383751e-06 1.022583e+00 2.307129e-01
1.759678e+08 -9.224243e-01 -2.074585e-01 -1.686392e-06 2.514338e-06 3.866665e-05 -1.349300e-05 1.021973e+00 2.305298e-01
1.761856e+08 -9.227295e-01 -2.076416e-01 4.193187e-05 1.354888e-05 2.899393e-05 -1.013465e-05 1.020996e+00 2.301025e-01
1.764034e+08 -9.232178e-01 -2.082520e-01 -2.685003e-05 -3.429130e-06 2.123415e-07 1.457147e-05 1.019958e+00 2.297363e-01
1.766212e+08 -9.232178e-01 -2.089844e-01 6.715767e-06 8.610077e-07 -3.539957e-06 -2.100505e-05 1.019226e+00 2.299194e-01
1.768391e+08 -9.232788e-01 -2.094727e-01 5.032867e-06 3.369525e-06 -1.593679e-05 1.805183e-05 1.018860e+00 2.284546e-01
1.770569e+08 -9.245605e-01 -2.100830e-01 -2.528355e-05 2.683140e-05 3.528967e-05 -2.643652e-05 1.018372e+00 2.288208e-01
1.772747e+08 -9.244385e-01 -2.108154e-01 1.512934e-05 -7.916242e-07 3.576279e-05 7.584691e-06 1.017517e+00 2.288208e-01
1.774925e+08 -9.251709e-01 -2.112427e-01 -3.350433e-06 -5.894806e-06 1.924392e-05 -1.487602e-05 1.017456e+00 2.276001e-01
1.777103e+08 -9.261475e-01 -2.116699e-01 -2.698041e-05 2.931617e-05 1.266506e-05 -2.126861e-05 1.015259e+00 2.283936e-01
1.779281e+08 -9.256592e-01 -2.126465e-01 -2.695248e-05 7.474795e-06 2.945773e-06 -2.111122e-05 1.015930e+00 2.290039e-01
1.781459e+08 -9.255981e-01 -2.135620e-01 -3.556907e-05 -4.212186e-05 1.773611e-05 3.990531e-05 1.013916e+00 2.266846e-01
1.783638e+08 -9.271851e-01 -2.136841e-01 2.068095e-05 -2.655014e-05 -1.823343e-05 -3.018230e-05 1.013550e+00 2.268677e-01
1.785816e+08 -9.266968e-01 -2.144165e-01 -3.144145e-06 2.579391e-05 -6.825663e-06 2.120528e-05 1.013550e+00 2.264404e-01
1.787994e+08 -9.279175e-01 -2.153320e-01 3.391877e-05 -3.950670e-05 -1.569930e-05 -1.001451e-05 1.012634e+00 2.267456e-01
1.790172e+08 -9.284668e-01 -2.160645e-01 -3.580190e-05 7.281080e-06 2.131611e-05 -3.819354e-05 1.011963e+00 2.261353e-01
1.792350e+08 -9.282837e-01 -2.156982e-01 -8.890405e-06 2.511404e-05 1.276284e-05 -1.166295e-05 1.011536e+00 2.264404e-01
1.794528e+08 -9.287109e-01 -2.167358e-01 2.071261e-05 -2.657808e-05 1.738686e-05 1.596846e-05 1.010620e+00 2.262573e-01
1.796706e+08 -9.291382e-01 -2.171021e-01 4.377216e-05 2.280995e-05 1.738314e-05 1.596287e-05 1.009521e+00 2.263794e-01
1.798884e+08 -9.290771e-01 -2.175903e-01 -7.851049e-06 1.651328e-05 1.237728e-06 1.571421e-05 1.009338e+00 2.264404e-01
1.801062e+08 -9.297485e-01 -2.184448e-01 8.551404e-06 -2.224743e-05 -8.966774e-06 2.503954e-05 1.008240e+00 2.260742e-01
1.803241e+08 -9.308472e-01 -2.189941e-01 -4.988536e-05 -2.066791e-05 -2.036616e-05 -1.512561e-05 1.007324e+00 2.255249e-01
1.805419e+08 -9.314575e-01 -2.198486e-01 2.563000e-06 2.653897e-05 4.219823e-06 1.489557e-05 1.006470e+00 2.259521e-01
1.807597e+08 -9.320679e-01 -2.200317e-01 -1.103058e-05 4.236028e-05 -4.470348e-08 2.253614e-05 1.005859e+00 2.255249e-01
1.809775e+08 -9.317017e-01 -2.211304e-01 1.763925e-06 -1.435541e-05 1.572538e-05 -1.236796e-06 1.004883e+00 2.258301e-01
1.811953e+08 -9.329224e-01 -2.212524e-01 2.718344e-05 -3.161840e-05 -8.093193e-06 5.511567e-06 1.003601e+00 2.254028e-01
1.814131e+08 -9.333496e-01 -2.220459e-01 1.113396e-05 4.282221e-06 -4.694797e-06 6.155577e-06 1.003418e+00 2.252808e-01
1.816309e+08 -9.342041e-01 -2.218628e-01 -4.237518e-06 3.447942e-05 2.428889e-05 -1.653843e-05 1.002808e+00 2.254639e-01
1.818488e+08 -9.345703e-01 -2.227783e-01 -4.414096e-05 2.664328e-05 -8.996576e-07 1.957174e-05 1.002441e+00 2.264404e-01
1.820666e+08 -9.356689e-01 -2.225952e-01 -6.563962e-06 -4.163012e-05 -1.233257e-05 -9.396113e-06 1.001282e+00 2.254028e-01
1.822844e+08 -9.348145e-01 -2.235718e-01 9.620562e-06 -3.091618e-05 4.472584e-05 -2.387911e-05 1.000854e+00 2.256470e-01
1.825022e+08 -9.358521e-01 -2.239990e-01 4.597008e-06 -3.736466e-05 3.230944e-05 1.179613e-05 9.995728e-01 2.256470e-01
1.827200e+08 -9.372559e-01 -2.241211e-01 1.583435e-05 1.362059e-05 4.698522e-06 -6.166287e-06 9.992065e-01 2.259521e-01
1.829378e+08 -9.371338e-01 -2.249756e-01 2.007559e-05 -2.088211e-05 -1.014769e-05 -2.451427e-05 9.981689e-01 2.259521e-01
1.831556e+08 -9.387207e-01 -2.243042e-01 2.698973e-05 1.789816e-05 -3.110431e-05 -7.284805e-06 9.971313e-01 2.253418e-01
1.833734e+08 -9.385986e-01 -2.252197e-01 2.908520e-05 6.556511e-07 5.096663e-06 6.615650e-06 9.959106e-01 2.256470e-01
1.835912e+08 -9.390259e-01 -2.257080e-01 -1.371279e-05 -3.088266e-05 -1.148880e-05 -6.419607e-06 9.956055e-01 2.260132e-01
1.838091e+08 -9.397583e-01 -2.261963e-01 -2.090819e-05 -2.007559e-05 5.580485e-06 -1.447555e-05 9.954834e-01 2.253418e-01
1.840269e+08 -9.400024e-01 -2.263184e-01 -6.460585e-06 5.044974e-06 1.833215e-05 -3.581867e-06 9.942627e-01 2.258911e-01
1.842447e+08 -9.402466e-01 -2.275391e-01 5.818903e-06 4.745275e-05 -2.317876e-05 5.489960e-05 9.935303e-01 2.258301e-01
1.844625e+08 -9.411011e-01 -2.280884e-01 -1.903437e-05 1.226459e-05 1.201034e-05 -2.597645e-05 9.927368e-01 2.255249e-01
1.846803e+08 -9.417725e-01 -2.282104e-01 -7.068738e-07 5.756970e-06 -3.406219e-05 -1.779199e-05 9.921265e-01 2.255859e-01
1.848981e+08 -9.425659e-01 -2.283936e-01 3.418885e-05 7.148832e-06 -2.957880e-06 -1.045316e-05 9.913940e-01 2.265625e-01
1.851159e+08 -9.434814e-01 -2.286377e-01 1.142547e-05 -4.537404e-05 1.370907e-05 -2.000760e-05 9.907837e-01 2.266846e-01
1.853338e+08 -9.439697e-01 -2.287598e-01 -1.116376e-05 -4.299916e-06 5.617738e-06 -2.579018e-05 9.895630e-01 2.266235e-01
1.855516e+08 -9.440918e-01 -2.288208e-01 1.258217e-05 -7.211231e-06 -1.359731e-06 2.941862e-05 9.884033e-01 2.269287e-01
1.857694e+08 -9.448853e-01 -2.297974e-01 3.602356e-05 3.947690e-05 2.859347e-05 -1.614913e-06 9.865723e-01 2.266235e-01
1.859872e+08 -9.443359e-01 -2.301636e-01 -2.700463e-05 -1.794286e-05 1.872052e-05 9.225681e-06 9.859619e-01 2.269287e-01
1.862050e+08 -9.460449e-01 -2.303467e-01 2.560206e-05 2.947636e-05 1.139939e-06 3.840774e-05 9.858398e-01 2.274780e-01
1.864228e+08 -9.468384e-01 -2.301025e-01 -7.282943e-06 -3.598630e-05 2.350286e-05 -8.257106e-06 9.852295e-01 2.269897e-01
1.866406e+08 -9.470825e-01 -2.304688e-01 1.003593e-05 -3.387220e-05 4.611909e-05 -8.180737e-06 9.845581e-01 2.279663e-01
1.868584e+08 -9.479980e-01 -2.305908e-01 -4.034117e-05 -4.965812e-06 -2.262741e-05 -7.078052e-08 9.834595e-01 2.277832e-01
1.870762e+08 -9.486084e-01 -2.313232e-01 -6.206334e-06 -4.462898e-05 8.028001e-06 2.842583e-05 9.824829e-01 2.274780e-01
1.872941e+08 -9.491577e-01 -2.313843e-01 8.265488e-06 -1.945533e-05 -2.184138e-05 1.423620e-05 9.818115e-01 2.296143e-01
1.875119e+08 -9.502563e-01 -2.313232e-01 -4.434213e-05 -2.011657e-05 9.721145e-06 3.444031e-05 9.814453e-01 2.291260e-01
1.877297e+08 -9.510498e-01 -2.314453e-01 -4.939362e-05 -2.656877e-05 4.996732e-05 1.663342e-05 9.801636e-01 2.294922e-01
1.879475e+08 -9.515991e-01 -2.321777e-01 7.499009e-05 9.257346e-06 2.223998e-05 -1.419336e-06 9.801025e-01 2.299194e-01
1.881653e+08 -9.515991e-01 -2.319946e-01 1.693517e-05 5.029142e-06 2.857298e-06 4.446879e-05 9.788208e-01 2.299194e-01
1.883831e+08 -9.534912e-01 -2.316284e-01 -3.205612e-06 2.595223e-05 2.578646e-05 -4.616007e-05 9.784546e-01 2.299194e-01
1.886009e+08 -9.522705e-01 -2.321777e-01 1.407228e-05 2.807938e-05 1.888908e-05 -2.472475e-05 9.767456e-01 2.304077e-01
1.888188e+08 -9.536133e-01 -2.321777e-01 2.704561e-05 1.797639e-05 3.814697e-06 1.347996e-05 9.762573e-01 2.306519e-01
1.890366e+08 -9.543457e-01 -2.332153e-01 -2.235919e-05 -8.642673e-06 -9.802170e-06 -1.180451e-05 9.757690e-01 2.318115e-01
1.892544e+08 -9.545288e-01 -2.327271e-01 1.125038e-06 3.821775e-05 -1.361035e-05 -2.528355e-05 9.752808e-01 2.313843e-01
1.894722e+08 -9.552612e-01 -2.331543e-01 2.988800e-05 -5.079433e-06 3.513135e-05 -1.314655e-05 9.736328e-01 2.314453e-01
1.896900e+08 -9.564819e-01 -2.327271e-01 3.576279e-07 -2.884306e-06 4.246086e-05 -2.172589e-05 9.732056e-01 2.319336e-01
1.899078e+08 -9.567871e-01 -2.333984e-01 2.092682e-05 2.016500e-05 1.330953e-05 -1.023337e-05 9.724121e-01 2.325439e-01
1.901256e+08 -9.569092e-01 -2.327881e-01 1.111627e-05 -4.255399e-05 2.698041e-05 -7.616356e-06 9.717407e-01 2.326660e-01
1.903434e+08 -9.582520e-01 -2.327271e-01 5.729496e-06 -4.617497e-05 1.695938e-06 5.998649e-06 9.712524e-01 2.335205e-01
1.905612e+08 -9.583130e-01 -2.329102e-01 3.709272e-05 -1.589395e-05 1.118146e-05 -1.772679e-05 9.694214e-01 2.331543e-01
1.907791e+08 -9.586792e-01 -2.340088e-01 2.630986e-05 -2.310239e-05 2.246350e-06 -2.654269e-05 9.696045e-01 2.346191e-01
1.909969e+08 -9.591675e-01 -2.335205e-01 -2.557598e-05 1.732819e-05 -4.533306e-05 -2.283975e-05 9.678345e-01 2.347412e-01
1.912147e+08 -9.604492e-01 -2.330933e-01 9.754673e-06 1.587532e-05 5.120877e-06 6.658025e-06 9.682617e-01 2.356567e-01
1.914325e+08 -9.611206e-01 -2.335815e-01 -2.416968e-05 5.777925e-06 1.353212e-06 -1.821201e-05 9.667969e-01 2.360840e-01
1.916503e+08 -9.611206e-01 -2.333374e-01 5.416106e-06 3.606081e-06 -4.694099e-06 -5.159294e-06 9.666138e-01 2.360840e-01
1.918681e+08 -9.629517e-01 -2.338867e-01 -3.314950e-05 3.107265e-05 -1.102872e-05 -3.909133e-05 9.655151e-01 2.360840e-01
1.920859e+08 -9.622803e-01 -2.337646e-01 3.286451e-05 1.874194e-05 -1.582969e-05 -1.012441e-05 9.652100e-01 2.367554e-01
1.923038e+08 -9.624023e-01 -2.333984e-01 1.948606e-05 -1.516938e-05 -3.348477e-05 1.919083e-05 9.642334e-01 2.373657e-01
1.925216e+08 -9.633179e-01 -2.341919e-01 -1.805276e-05 3.617257e-06 -1.032418e-05 9.395648e-06 9.636230e-01 2.377930e-01
1.927394e+08 -9.647217e-01 -2.333984e-01 -1.011603e-05 -1.299474e-05 1.206528e-05 -1.477264e-05 9.630127e-01 2.385864e-01
1.929572e+08 -9.657593e-01 -2.338867e-01 2.203695e-05 1.155399e-05 1.338962e-05 -2.164673e-05 9.627075e-01 2.391968e-01
1.931750e+08 -9.649658e-01 -2.337646e-01 5.160645e-05 9.346753e-06 8.597970e-06 -4.044268e-06 9.611206e-01 2.389526e-01
1.933928e+08 -9.657593e-01 -2.335205e-01 -3.471226e-05 -5.128235e-05 -3.041886e-05 -1.578405e-05 9.612427e-01 2.401733e-01
1.936106e+08 -9.666138e-01 -2.335815e-01 9.752810e-06 1.587812e-05 3.950857e-05 1.871958e-06 9.598389e-01 2.407837e-01
1.938284e+08 -9.671021e-01 -2.335205e-01 -3.613532e-06 -1.805276e-05 2.836064e-05 -3.121793e-06 9.593506e-01 2.416992e-01
1.940462e+08 -9.674683e-01 -2.326050e-01 -2.785027e-05 -1.225993e-05 4.666857e-06 1.655146e-05 9.599609e-01 2.413940e-01
1.942641e+08 -9.678345e-01 -2.337036e-01 2.704561e-05 -2.888590e-05 -1.034839e-05 9.409618e-06 9.574585e-01 2.423096e-01
1.944819e+08 -9.685059e-01 -2.331543e-01 -1.010858e-05 3.395975e-05 -1.811143e-05 1.647882e-05 9.575806e-01 2.431030e-01
1.946997e+08 -9.688110e-01 -2.330933e-01 -3.722496e-05 1.595542e-05 -9.455718e-06 1.037959e-06 9.580688e-01 2.431641e-01
1.949175e+08 -9.687500e-01 -2.329712e-01 2.023019e-05 -2.097711e-05 2.848357e-05 -3.726967e-05 9.568481e-01 2.440186e-01
1.951353e+08 -9.702759e-01 -2.338867e-01 -4.336238e-06 3.469735e-05 3.748573e-05 -1.704507e-05 9.561157e-01 2.452393e-01
1.953531e+08 -9.714966e-01 -2.326050e-01 -1.372769e-05 1.590233e-05 1.243595e-05 9.509735e-06 9.553223e-01 2.451172e-01
1.955709e+08 -9.706421e-01 -2.319946e-01 1.230463e-05 4.263222e-05 8.990522e-06 8.843374e-06 9.544678e-01 2.459717e-01
1.957888e+08 -9.710693e-01 -2.332153e-01 -1.736172e-05 -2.158806e-06 1.191348e-05 3.079325e-05 9.548340e-01 2.462769e-01
1.960066e+08 -9.714966e-01 -2.328491e-01 -4.736707e-05 2.879649e-06 3.533438e-06 -2.213381e-05 9.536133e-01 2.473755e-01
1.962244e+08 -9.720459e-01 -2.325439e-01 -9.763986e-06 3.106333e-05 -1.478381e-05 3.992952e-05 9.520264e-01 2.477417e-01
1.964422e+08 -9.722900e-01 -2.321777e-01 -1.737475e-05 4.482269e-05 3.183447e-05 -2.471730e-06 9.519653e-01 2.484131e-01
1.966600e+08 -9.730225e-01 -2.322998e-01 -2.063438e-05 2.384931e-05 8.950941e-06 2.025999e-05 9.512939e-01 2.495728e-01
1.968778e+08 -9.725952e-01 -2.315674e-01 -1.954101e-05 -3.185682e-05 3.142282e-06 -3.502518e-05 9.517212e-01 2.498169e-01
1.970956e+08 -9.742432e-01 -2.312012e-01 1.086388e-06 -8.679926e-06 -1.376588e-05 -2.630055e-06 9.502563e-01 2.503662e-01
1.973134e+08 -9.745483e-01 -2.313232e-01 2.026930e-05 -2.098083e-05 1.070835e-05 1.489371e-05 9.500732e-01 2.513428e-01
1.975312e+08 -9.757080e-01 -2.311401e-01 -3.582612e-05 4.345551e-06 -8.922070e-07 8.398201e-06 9.497070e-01 2.512817e-01
1.977491e+08 -9.750977e-01 -2.319946e-01 1.986325e-05 2.894737e-05 -1.726020e-05 8.103438e-06 9.481812e-01 2.523804e-01
1.979669e+08 -9.761963e-01 -2.307739e-01 1.193583e-05 4.559383e-05 6.848015e-06 1.273211e-05 9.485474e-01 2.525635e-01
1.981847e+08 -9.758911e-01 -2.305298e-01 -4.886091e-05 1.442432e-05 -3.133342e-05 -3.026053e-05 9.475098e-01 2.537231e-01
1.984025e+08 -9.760742e-01 -2.312012e-01 1.266785e-05 -7.230788e-06 -2.023857e-05 -2.455898e-06 9.473267e-01 2.537842e-01
1.986203e+08 -9.767456e-01 -2.310791e-01 1.448207e-06 -1.158286e-05 1.855195e-05 -3.582798e-06 9.468994e-01 2.548218e-01
1.988381e+08 -9.765625e-01 -2.296753e-01 -1.520105e-05 2.750009e-05 1.428928e-05 -1.870282e-05 9.459839e-01 2.550659e-01
1.990559e+08 -9.775391e-01 -2.288208e-01 4.591048e-05 8.709729e-06 1.204945e-05 8.014962e-06 9.454346e-01 2.565918e-01
1.992738e+08 -9.769897e-01 -2.299805e-01 3.632158e-07 -2.895016e-06 2.369471e-05 3.127381e-06 9.456177e-01 2.574463e-01
1.994916e+08 -9.777832e-01 -2.291870e-01 7.241033e-06 -1.085829e-05 -2.210587e-05 2.580136e-05 9.453125e-01 2.580566e-01
1.997094e+08 -9.774780e-01 -2.293701e-01 1.591351e-05 1.374353e-05 -1.680851e-05 -1.792796e-06 9.441528e-01 2.581787e-01
1.999272e+08 -9.783325e-01 -2.294922e-01 1.336634e-05 3.402680e-05 2.421439e-07 4.724786e-05 9.442139e-01 2.589722e-01
2.001450e+08 -9.783325e-01 -2.294312e-01 1.194328e-05 -1.437031e-06 1.341943e-05 -1.029763e-05 9.436035e-01 2.595825e-01
2.003628e+08 -9.785767e-01 -2.294312e-01 2.461672e-05 -8.653849e-06 -1.252256e-05 1.883134e-06 9.427490e-01 2.605591e-01
2.005806e+08 -9.792480e-01 -2.282104e-01 2.060458e-05 2.316758e-05 1.286529e-05 2.249144e-05 9.424438e-01 2.612305e-01
2.007984e+08 -9.791260e-01 -2.287598e-01 3.842078e-05 -2.454966e-05 2.117455e-05 -5.942769e-06 9.421997e-01 2.626953e-01
2.010162e+08 -9.790039e-01 -2.285767e-01 -6.522983e-06 5.061273e-06 -1.167227e-05 4.905276e-06 9.419556e-01 2.628784e-01
2.012341e+08 -9.801025e-01 -2.281494e-01 -2.280436e-05 -5.804002e-06 -9.132549e-06 1.399219e-05 9.415283e-01 2.631836e-01
2.014519e+08 -9.796753e-01 -2.279053e-01 -1.231395e-05 4.324131e-06 2.313592e-05 3.592111e-05 9.406128e-01 2.643433e-01
2.016697e+08 -9.799805e-01 -2.275391e-01 1.843274e-05 4.056841e-05 7.750001e-06 4.352536e-06 9.402466e-01 2.647095e-01
2.018875e+08 -9.805298e-01 -2.282104e-01 -3.221072e-05 -2.467632e-05 -1.815148e-06 1.683552e-05 9.400024e-01 2.658691e-01
2.021053e+08 -9.811401e-01 -2.274780e-01 2.608821e-05 -2.025254e-05 -4.049391e-06 3.216602e-05 9.392090e-01 2.665405e-01
2.023231e+08 -9.812012e-01 -2.267456e-01 1.629349e-05 1.088902e-05 1.556706e-05 -2.741814e-06 9.393921e-01 2.677002e-01
2.025409e+08 -9.807739e-01 -2.266235e-01 -2.243742e-05 -8.719042e-06 3.841147e-05 8.817762e-06 9.382935e-01 2.678833e-01
2.027588e+08 -9.811401e-01 -2.252197e-01 2.499670e-05 -1.157634e-05 7.227063e-07 3.736839e-05 9.382935e-01 2.677002e-01
2.029766e+08 -9.817505e-01 -2.261963e-01 4.313886e-05 -1.516193e-05 -1.420453e-05 -1.562852e-05 9.382324e-01 2.690430e-01
2.031944e+08 -9.826660e-01 -2.254639e-01 -5.035847e-05 -2.105162e-05 -2.345070e-05 2.133287e-05 9.379883e-01 2.694092e-01
2.034122e+08 -9.815674e-01 -2.257690e-01 3.953651e-05 1.380965e-05 6.859191e-06 1.278426e-05 9.384766e-01 2.704468e-01
2.036300e+08 -9.815674e-01 -2.254028e-01 1.233071e-05 -4.339963e-06 2.593175e-05 -7.487833e-07 9.376831e-01 2.709961e-01
2.038478e+08 -9.823608e-01 -2.258301e-01 -7.272698e-06 1.086202e-05 1.356006e-05 -3.324635e-05 9.370117e-01 2.722168e-01
2.040656e+08 -9.818726e-01 -2.243652e-01 8.007511e-06 -1.665764e-05 -4.270114e-06 -1.515076e-05 9.363403e-01 2.730713e-01
2.042834e+08 -9.826660e-01 -2.255859e-01 3.667083e-07 -2.899440e-06 2.724864e-05 3.805384e-06 9.361572e-01 2.732544e-01
2.045012e+08 -9.822998e-01 -2.243042e-01 3.478862e-05 4.414469e-06 3.419630e-05 -6.357208e-06 9.356079e-01 2.743530e-01
2.047191e+08 -9.827881e-01 -2.253418e-01 -9.039417e-06 -2.176128e-05 -1.936965e-05 -2.240390e-05 9.359741e-01 2.745361e-01
2.049369e+08 -9.822388e-01 -2.238770e-01 2.501160e-05 -1.155958e-05 2.846681e-05 1.982413e-05 9.346924e-01 2.754517e-01
2.051547e+08 -9.833984e-01 -2.234497e-01 -2.826564e-05 -9.475276e-06 1.740921e-05 -1.963787e-05 9.349365e-01 2.765503e-01
2.053725e+08 -9.826660e-01 -2.236938e-01 5.059410e-06 6.535556e-06 -4.712492e-05 -1.623854e-05 9.343262e-01 2.778931e-01
2.055903e+08 -9.836426e-01 -2.230225e-01 1.203641e-05 -4.861131e-05 1.053885e-05 -3.245100e-05 9.353027e-01 2.777710e-01
2.058081e+08 -9.830933e-01 -2.230835e-01 1.922995e-05 -1.229439e-05 4.128180e-05 -2.796203e-05 9.338989e-01 2.786865e-01
2.060259e+08 -9.833374e-01 -2.229004e-01 2.328679e-05 -4.425645e-05 -8.516945e-07 -3.037043e-06 9.348755e-01 2.794189e-01
2.062438e+08 -9.835205e-01 -2.218018e-01 7.267110e-06 -1.086202e-05 2.903119e-05 -1.605600e-06 9.334106e-01 2.800903e-01
2.064616e+08 -9.829712e-01 -2.222290e-01 -2.246164e-05 -8.748844e-06 -1.166016e-05 -6.551854e-06 9.332886e-01 2.812500e-01
2.066794e+08 -9.832153e-01 -2.218018e-01 -1.529045e-05 2.755970e-05 1.874007e-05 -2.656132e-05 9.338989e-01 2.817383e-01
2.068972e+08 -9.831543e-01 -2.215576e-01 9.409152e-06 1.890026e-05 -1.006387e-05 2.248026e-05 9.337158e-01 2.825928e-01
2.071150e+08 -9.836426e-01 -2.213135e-01 3.959052e-06 1.524761e-05 -2.915785e-05 2.458319e-05 9.328003e-01 2.833862e-01
2.073328e+08 -9.831543e-01 -2.210693e-01 -1.014397e-05 -1.308881e-05 2.653711e-05 -2.220273e-05 9.329224e-01 2.837524e-01
2.075506e+08 -9.835205e-01 -2.218628e-01 -2.211332e-05 -1.165457e-05 -2.207235e-05 -8.566305e-06 9.321289e-01 2.847900e-01
2.077684e+08 -9.833984e-01 -2.211914e-01 4.569069e-05 1.171976e-05 -1.978129e-06 -4.206970e-05 9.317627e-01 2.852173e-01
2.079862e+08 -9.831543e-01 -2.213745e-01 5.919859e-05 -1.300126e-06 8.693431e-06 -4.076399e-06 9.322510e-01 2.866821e-01
2.082041e+08 -9.827881e-01 -2.214355e-01 1.852401e-06 -1.453049e-05 2.206862e-05 8.573756e-06 9.328003e-01 2.874756e-01
2.084219e+08 -9.827881e-01 -2.204590e-01 2.175197e-05 1.456775e-05 -3.433600e-05 1.784973e-05 9.316406e-01 2.873535e-01
2.086397e+08 -9.833374e-01 -2.207031e-01 -4.137307e-05 6.183982e-07 4.266622e-07 1.520501e-06 9.309692e-01 2.880859e-01
2.088575e+08 -9.830322e-01 -2.205200e-01 3.313646e-06 -2.614595e-05 -7.841736e-06 7.119030e-06 9.317627e-01 2.883911e-01
2.090753e+08 -9.832764e-01 -2.202148e-01 7.394701e-07 -5.809125e-06 -5.715527e-06 1.472514e-05 9.312744e-01 2.890625e-01
2.092931e+08 -9.834595e-01 -2.199097e-01 2.508983e-05 -1.157075e-05 3.735907e-05 -7.215887e-06 9.313354e-01 2.898560e-01
2.095109e+08 -9.828491e-01 -2.197266e-01 3.228337e-05 2.476573e-05 2.870336e-05 -1.461618e-05 9.311523e-01 2.904663e-01
2.097288e+08 -9.827881e-01 -2.195435e-01 -2.213567e-05 -1.167506e-05 -1.606718e-05 1.231208e-06 9.309692e-01 2.913208e-01
2.099466e+08 -9.835815e-01 -2.189331e-01 -3.017299e-05 4.997477e-06 1.922064e-05 -2.511591e-05 9.307251e-01 2.927246e-01
2.101644e+08 -9.831543e-01 -2.196045e-01 -1.410767e-05 -2.837554e-05 -7.797033e-06 -4.383735e-06 9.309692e-01 2.924194e-01
2.103822e+08 -9.829102e-01 -2.188110e-01 -2.400391e-05 2.851710e-06 1.308694e-05 -1.187995e-05 9.312744e-01 2.935791e-01
2.106000e+08 -9.824829e-01 -2.196045e-01 1.477078e-06 -1.162291e-05 7.925555e-06 -1.863576e-05 9.303589e-01 2.944336e-01
2.108178e+08 -9.824219e-01 -2.188721e-01 -3.165007e-05 1.664832e-05 3.270991e-05 -2.393872e-05 9.304810e-01 2.949219e-01
2.110356e+08 -9.831543e-01 -2.189941e-01 -4.463270e-05 -2.048537e-05 2.522953e-05 -3.773719e-06 9.300537e-01 2.961426e-01
2.112534e+08 -9.824219e-01 -2.187500e-01 1.364574e-05 -6.026775e-05 2.449937e-05 -2.984144e-05 9.296265e-01 2.971802e-01
2.114712e+08 -9.818115e-01 -2.183838e-01 -7.297844e-06 1.088902e-05 3.801286e-05 4.188716e-05 9.302979e-01 2.974854e-01
2.116891e+08 -9.821777e-01 -2.193604e-01 -1.275819e-05 7.238239e-06 -7.440336e-06 8.647796e-06 9.311523e-01 2.984009e-01
2.119069e+08 -9.823608e-01 -2.187500e-01 5.015358e-05 2.417713e-05 1.481175e-05 -5.793758e-06 9.311523e-01 2.989502e-01
2.121247e+08 -9.821777e-01 -2.194824e-01 5.073380e-06 6.568152e-06 2.909452e-06 2.219528e-05 9.304199e-01 3.000488e-01
2.123425e+08 -9.825439e-01 -2.178345e-01 1.485460e-06 -1.163874e-05 4.000217e-05 1.927838e-06 9.299927e-01 2.997437e-01
2.125603e+08 -9.826660e-01 -2.186279e-01 -3.813207e-05 -2.560765e-05 1.579523e-06 2.916157e-05 9.300537e-01 3.008423e-01
2.127781e+08 -9.822388e-01 -2.183838e-01 1.537055e-05 -2.761744e-05 4.026107e-06 -2.086069e-05 9.302368e-01 3.012695e-01
2.129959e+08 -9.815674e-01 -2.180176e-01 4.731119e-05 1.490116e-07 2.495944e-06 2.067536e-05 9.297485e-01 3.018188e-01
2.132138e+08 -9.816895e-01 -2.187500e-01 -1.993403e-05 -2.917461e-05 -2.916157e-05 1.570210e-06 9.296875e-01 3.023071e-01
2.134316e+08 -9.813843e-01 -2.186890e-01 -3.528781e-05 -1.581386e-06 2.318621e-05 -2.292544e-05 9.291382e-01 3.035889e-01
2.136494e+08 -9.808960e-01 -2.179565e-01 2.140738e-05 1.752563e-05 1.092069e-05 -7.987022e-06 9.291382e-01 3.035278e-01
2.138672e+08 -9.816284e-01 -2.181396e-01 -9.056181e-06 -2.190098e-05 1.086760e-05 3.542751e-06 9.312134e-01 3.041382e-01
2.140850e+08 -9.818115e-01 -2.185059e-01 2.516806e-05 -1.158752e-05 2.828427e-05 6.912276e-06 9.304199e-01 3.045654e-01
2.143028e+08 -9.806519e-01 -2.175903e-01 1.598988e-05 1.388695e-05 2.959929e-05 -6.891787e-08 9.302368e-01 3.052979e-01
2.145206e+08 -9.806519e-01 -2.179565e-01 -4.807860e-05 5.684793e-06 -8.547679e-06 -3.052317e-05 9.294434e-01 3.057861e-01
2.147384e+08 -9.810181e-01 -2.186279e-01 2.951175e-05 8.177012e-07 -8.602627e-06 -1.900457e-05 9.301758e-01 3.065796e-01
2.149562e+08 -9.806519e-01 -2.187500e-01 3.725290e-06 -2.915785e-05 -1.548976e-05 -3.189966e-05 9.306641e-01 3.072510e-01
2.151741e+08 -9.802246e-01 -2.179565e-01 -6.463379e-06 -4.232302e-05 1.789257e-05 -6.652437e-06 9.311523e-01 3.072510e-01
2.153919e+08 -9.801025e-01 -2.192993e-01 1.823436e-05 -3.590249e-06 2.366491e-05 -2.141297e-05 9.301758e-01 3.076782e-01
2.156097e+08 -9.797974e-01 -2.189941e-01 -2.406538e-05 2.847984e-06 1.142826e-05 -1.801830e-05 9.301758e-01 3.081665e-01
2.158275e+08 -9.800415e-01 -2.180786e-01 -3.067777e-05 7.919967e-06 5.535781e-05 -2.302229e-06 9.308472e-01 3.097534e-01
2.160453e+08 -9.799805e-01 -2.189331e-01 -1.869164e-06 1.458172e-05 -2.053659e-05 9.022653e-06 9.304199e-01 3.096924e-01
2.162631e+08 -9.801025e-01 -2.182007e-01 2.846122e-06 2.409704e-05 2.040528e-05 1.407508e-05 9.313354e-01 3.106689e-01
2.164809e+08 -9.793091e-01 -2.191772e-01 -8.836389e-06 2.259202e-05 2.403185e-05 -8.329749e-06 9.307861e-01 3.112183e-01
2.166988e+08 -9.790039e-01 -2.183228e-01 1.032464e-05 -3.425777e-05 3.681704e-05 -3.334694e-05 9.306641e-01 3.115845e-01
2.169166e+08 -9.790039e-01 -2.188110e-01 4.820898e-05 -5.695969e-06 -1.110323e-05 3.109686e-05 9.314575e-01 3.118896e-01
2.171344e+08 -9.789429e-01 -2.185059e-01 -4.710630e-06 -9.503681e-06 2.061669e-05 -2.058316e-05 9.305420e-01 3.129272e-01
2.173522e+08 -9.788818e-01 -2.185669e-01 -4.447624e-05 -2.349541e-05 -1.536496e-05 1.581945e-05 9.307861e-01 3.130493e-01
2.175700e+08 -9.786987e-01 -2.185059e-01 1.130719e-05 4.424714e-06 7.465947e-06 -8.681323e-06 9.309692e-01 3.142090e-01
2.177878e+08 -9.779053e-01 -2.190552e-01 -5.465467e-06 -3.668945e-06 1.664087e-05 -1.122244e-05 9.306641e-01 3.141479e-01
2.180056e+08 -9.779053e-01 -2.197266e-01 -3.603101e-05 -4.320219e-05 -2.803467e-05 1.768768e-05 9.307861e-01 3.142090e-01
2.182234e+08 -9.773560e-01 -2.191772e-01 -3.447011e-05 3.714114e-05 1.173373e-05 6.620772e-06 9.306641e-01 3.153076e-01
2.184412e+08 -9.777832e-01 -2.194214e-01 -9.598210e-06 2.845004e-05 6.342679e-05 -2.098456e-05 9.306641e-01 3.157959e-01
2.186591e+08 -9.777832e-01 -2.197266e-01 -4.451349e-05 -2.354011e-05 -1.252163e-05 -2.126116e-05 9.314575e-01 3.159180e-01
2.188769e+08 -9.766846e-01 -2.200317e-01 3.357232e-05 1.619197e-05 -4.174188e-06 -2.685748e-05 9.312744e-01 3.166504e-01
2.190947e+08 -9.768066e-01 -2.197266e-01 3.373623e-05 -3.135391e-05 1.445133e-05 -7.327646e-06 9.316406e-01 3.167114e-01
2.193125e+08 -9.774170e-01 -2.197266e-01 -1.941714e-05 1.235399e-05 4.073046e-05 -1.963787e-05 9.308472e-01 3.179321e-01
2.195303e+08 -9.771118e-01 -2.202759e-01 4.001707e-05 -3.347918e-05 1.744553e-05 3.389083e-06 9.315796e-01 3.185425e-01
2.197481e+08 -9.773560e-01 -2.201538e-01 -3.789179e-05 -2.867356e-05 -2.379715e-05 3.306009e-05 9.313354e-01 3.184204e-01
2.199659e+08 -9.763794e-01 -2.213135e-01 -2.093427e-05 2.406724e-05 -1.012255e-05 1.106225e-05 9.318237e-01 3.185425e-01
2.201838e+08 -9.758301e-01 -2.205200e-01 -2.964772e-05 -8.605421e-07 1.915079e-05 9.507872e-06 9.324951e-01 3.198242e-01
2.204016e+08 -9.766846e-01 -2.213745e-01 1.038797e-05 -3.435463e-05 4.197657e-05 -3.416091e-06 9.320068e-01 3.199463e-01
2.206194e+08 -9.761353e-01 -2.214966e-01 -1.867022e-05 6.516464e-06 1.474191e-05 1.735706e-05 9.316406e-01 3.192749e-01
2.208372e+08 -9.762573e-01 -2.211304e-01 -1.510605e-06 1.170766e-05 1.994707e-05 2.416968e-05 9.324341e-01 3.206787e-01
2.210550e+08 -9.758301e-01 -2.213745e-01 3.433786e-05 1.037680e-05 -4.073232e-05 -5.139038e-05 9.317627e-01 3.206177e-01
2.212728e+08 -9.758301e-01 -2.218018e-01 3.836304e-05 2.577528e-05 -1.745112e-05 -3.401190e-06 9.329224e-01 3.210449e-01
2.214906e+08 -9.760132e-01 -2.223511e-01 3.266707e-05 -2.256781e-05 3.841892e-05 7.478520e-06 9.321899e-01 3.215332e-01
2.217084e+08 -9.755249e-01 -2.219238e-01 -2.305396e-05 -5.945563e-06 1.675077e-05 -2.283230e-05 9.326782e-01 3.215332e-01
2.219262e+08 -9.752197e-01 -2.226562e-01 1.833215e-05 -3.590249e-06 2.238341e-05 -1.448393e-05 9.328003e-01 3.222046e-01
2.221441e+08 -9.757690e-01 -2.223511e-01 3.345683e-05 -2.847426e-05 9.806827e-06 3.528036e-05 9.334717e-01 3.227539e-01
2.223619e+08 -9.754028e-01 -2.231445e-01 5.677342e-06 4.839152e-05 1.789536e-05 4.946254e-06 9.328003e-01 3.233032e-01
2.225797e+08 -9.750366e-01 -2.234497e-01 1.437776e-05 -1.900736e-05 -4.687533e-05 9.689480e-06 9.326782e-01 3.238525e-01
2.227975e+08 -9.753418e-01 -2.232666e-01 8.886680e-06 -2.267770e-05 -9.551644e-06 -1.056353e-05 9.318848e-01 3.240356e-01
2.230153e+08 -9.750366e-01 -2.232666e-01 1.570955e-05 1.692679e-05 1.525786e-05 7.330440e-06 9.332886e-01 3.239136e-01
2.232331e+08 -9.751587e-01 -2.241211e-01 2.931803e-05 3.773719e-06 -2.745911e-05 4.398078e-05 9.328613e-01 3.242188e-01
2.234509e+08 -9.739380e-01 -2.251587e-01 1.249090e-05 -4.353002e-06 -4.233606e-05 -9.739771e-06 9.332275e-01 3.244629e-01
2.236688e+08 -9.746704e-01 -2.246704e-01 1.058914e-05 1.031626e-05 -8.444302e-06 1.722015e-05 9.328003e-01 3.250122e-01
2.238866e+08 -9.747925e-01 -2.249756e-01 -1.147762e-05 -4.923344e-05 2.551824e-07 -3.479235e-05 9.329834e-01 3.258667e-01
2.241044e+08 -9.743042e-01 -2.258911e-01 8.530915e-06 -1.978315e-05 6.705523e-07 2.626702e-05 9.331055e-01 3.257446e-01
2.243222e+08 -9.752197e-01 -2.256470e-01 -2.309494e-05 -5.969778e-06 -3.072247e-05 8.545816e-06 9.329834e-01 3.258057e-01
2.245400e+08 -9.752197e-01 -2.255859e-01 -3.127567e-05 1.087785e-05 3.217347e-05 3.241189e-05 9.338989e-01 3.262939e-01
2.247578e+08 -9.739380e-01 -2.261963e-01 1.799781e-05 -6.463379e-07 4.927814e-05 2.269819e-05 9.334717e-01 3.269653e-01
2.249756e+08 -9.743652e-01 -2.261353e-01 2.783164e-05 1.554936e-05 -1.271069e-05 1.876615e-06 9.329224e-01 3.265991e-01
2.251934e+08 -9.741211e-01 -2.271118e-01 -7.014722e-06 8.052681e-06 3.161840e-06 -1.245551e-05 9.334106e-01 3.269043e-01
2.254112e+08 -9.744873e-01 -2.268677e-01 8.905306e-06 -2.274476e-05 -3.157184e-06 1.245458e-05 9.335938e-01 3.267212e-01
2.256291e+08 -9.738159e-01 -2.274170e-01 2.504326e-05 -8.702278e-06 2.894551e-06 2.234429e-05 9.338989e-01 3.275757e-01
2.258469e+08 -9.741211e-01 -2.276611e-01 5.270913e-05 -3.799796e-05 -6.910414e-06 -1.297053e-05 9.334717e-01 3.272705e-01
2.260647e+08 -9.744263e-01 -2.279053e-01 -2.732128e-05 2.632663e-05 -8.708797e-06 -7.511117e-06 9.331055e-01 3.278809e-01
2.262825e+08 -9.733887e-01 -2.280273e-01 4.359521e-06 1.251511e-05 1.824927e-05 1.808349e-05 9.335938e-01 3.274536e-01
2.265003e+08 -9.751587e-01 -2.287598e-01 -2.275780e-05 -8.925796e-06 1.041312e-05 1.366436e-05 9.334106e-01 3.279419e-01
2.267181e+08 -9.741211e-01 -2.286987e-01 -5.731732e-05 -1.936033e-05 1.254678e-05 -3.822520e-05 9.338379e-01 3.280029e-01
2.269359e+08 -9.747925e-01 -2.295532e-01 -7.946044e-06 -3.094040e-05 8.466654e-06 -1.724344e-05 9.334106e-01 3.284912e-01
2.271538e+08 -9.742432e-01 -2.299194e-01 -1.932867e-05 -3.540888e-05 1.621991e-05 -1.193956e-06 9.333496e-01 3.286133e-01
2.273716e+08 -9.740601e-01 -2.306519e-01 -3.415905e-05 -1.342036e-05 -4.396588e-05 2.045557e-05 9.335938e-01 3.286133e-01
2.275894e+08 -9.744873e-01 -2.308960e-01 -2.905726e-05 -6.768852e-06 1.716707e-05 -9.723939e-06 9.339600e-01 3.287964e-01
2.278072e+08 -9.742432e-01 -2.310791e-01 -5.125999e-06 -6.651040e-06 6.572343e-06 -1.690350e-07 9.341431e-01 3.291626e-01
2.280250e+08 -9.746704e-01 -2.315063e-01 -4.595891e-05 -1.494214e-05 -3.607944e-05 1.330115e-05 9.332886e-01 3.296509e-01
2.282428e+08 -9.738159e-01 -2.324219e-01 7.037073e-06 -8.068513e-06 -1.803041e-05 6.635673e-06 9.332275e-01 3.298340e-01
2.284606e+08 -9.742432e-01 -2.318115e-01 -2.717413e-05 -2.148561e-05 3.301725e-05 3.555417e-05 9.336548e-01 3.294678e-01
2.286784e+08 -9.747925e-01 -2.325439e-01 -1.870096e-06 -7.820502e-05 -1.624133e-05 1.179986e-06 9.345093e-01 3.297729e-01
2.288962e+08 -9.751587e-01 -2.332153e-01 1.922250e-05 -9.483658e-06 3.263168e-05 3.405847e-05 9.334106e-01 3.309326e-01
2.291141e+08 -9.747314e-01 -2.325439e-01 1.706555e-05 5.317479e-05 -2.580136e-05 -9.408221e-06 9.335938e-01 3.302612e-01
2.293319e+08 -9.745483e-01 -2.332153e-01 -3.386661e-05 -1.641549e-05 -2.101623e-05 -4.105270e-06 9.337158e-01 3.311157e-01
2.295497e+08 -9.742432e-01 -2.344971e-01 -2.836809e-06 -2.437271e-05 1.591630e-05 -1.433399e-05 9.338379e-01 3.306274e-01
2.297675e+08 -9.746094e-01 -2.347412e-01 -2.245419e-05 -1.191720e-05 3.332086e-05 7.301569e-07 9.334106e-01 3.309326e-01
2.299853e+08 -9.751587e-01 -2.346802e-01 2.168678e-05 1.782924e-05 -2.623536e-05 -1.097843e-05 9.335938e-01 3.312988e-01
2.302031e+08 -9.746704e-01 -2.351685e-01 -4.358590e-06 -1.256354e-05 -9.333715e-06 1.417566e-05 9.324951e-01 3.309937e-01
2.304209e+08 -9.747925e-01 -2.351074e-01 -1.770165e-05 -2.308749e-06 -1.424924e-06 -4.101731e-05 9.329834e-01 3.315430e-01
2.306388e+08 -9.746094e-01 -2.360840e-01 -4.494563e-05 -2.388284e-05 -4.779547e-06 -5.303882e-06 9.335938e-01 3.317261e-01
2.308566e+08 -9.746704e-01 -2.363892e-01 4.371628e-06 1.257472e-05 -6.811693e-06 -2.461672e-05 9.330444e-01 3.308716e-01
2.310744e+08 -9.750366e-01 -2.364502e-01 -4.442036e-05 1.822785e-05 5.316734e-05 -1.140684e-05 9.327393e-01 3.314819e-01
2.312922e+08 -9.749146e-01 -2.368774e-01 -3.749877e-05 -3.491156e-05 -1.083594e-05 -1.522433e-05 9.327393e-01 3.310547e-01
2.315100e+08 -9.760132e-01 -2.377930e-01 -5.525071e-06 -3.721099e-06 2.378598e-05 -9.896234e-06 9.329224e-01 3.309326e-01
2.317278e+08 -9.751587e-01 -2.383423e-01 6.297603e-06 -2.185348e-06 1.593120e-05 3.369525e-05 9.330444e-01 3.317261e-01
2.319456e+08 -9.758301e-01 -2.382202e-01 -9.760261e-06 2.878904e-05 2.718531e-05 2.432615e-06 9.329834e-01 3.317261e-01
2.321634e+08 -9.758301e-01 -2.379761e-01 3.854185e-05 -1.902506e-05 -1.571607e-05 -8.906238e-06 9.323730e-01 3.316650e-01
2.323812e+08 -9.768066e-01 -2.389526e-01 3.299862e-05 -2.275966e-05 6.160699e-06 -1.704320e-06 9.318848e-01 3.307495e-01
2.325991e+08 -9.767456e-01 -2.399292e-01 3.601424e-06 1.852307e-05 6.695278e-06 -1.179148e-05 9.324341e-01 3.317261e-01
2.328169e+08 -9.768066e-01 -2.395630e-01 -3.819168e-05 1.608953e-05 -1.189485e-05 4.943460e-06 9.321289e-01 3.318481e-01
2.330347e+08 -9.771118e-01 -2.402954e-01 -3.512390e-05 -7.597730e-06 1.275446e-06 4.621688e-06 9.321899e-01 3.324585e-01
2.332525e+08 -9.769287e-01 -2.402954e-01 2.599321e-05 -1.468696e-05 1.541898e-05 4.380569e-05 9.320068e-01 3.320312e-01
2.334703e+08 -9.768677e-01 -2.412720e-01 2.729893e-05 2.160668e-05 2.909265e-05 3.340282e-05 9.315186e-01 3.321533e-01
2.336881e+08 -9.772339e-01 -2.417603e-01 -2.443418e-05 2.842396e-06 1.093838e-05 3.622845e-06 9.303589e-01 3.322144e-01
2.339059e+08 -9.780273e-01 -2.415161e-01 -1.107156e-05 -7.467344e-06 2.402812e-05 1.493096e-05 9.308472e-01 3.333740e-01
2.341238e+08 -9.779053e-01 -2.421875e-01 -8.239411e-06 1.698639e-05 4.018098e-05 -2.267957e-05 9.302368e-01 3.329468e-01
2.343416e+08 -9.785767e-01 -2.423706e-01 3.116392e-05 -7.979572e-06 4.783506e-06 5.318085e-06 9.304199e-01 3.333130e-01
2.345594e+08 -9.788818e-01 -2.423096e-01 4.385598e-06 1.262594e-05 -6.166287e-06 1.701992e-06 9.309082e-01 3.330688e-01
2.347772e+08 -9.797974e-01 -2.433472e-01 -2.409145e-05 -1.117587e-07 1.810025e-06 -5.480368e-06 9.302979e-01 3.327026e-01
2.349950e+08 -9.788818e-01 -2.437134e-01 5.541835e-06 3.736466e-06 -8.610077e-06 -1.918711e-05 9.298706e-01 3.329468e-01
2.352128e+08 -9.792480e-01 -2.442627e-01 1.932681e-05 -9.535812e-06 -1.689978e-05 -2.520718e-05 9.296265e-01 3.328247e-01
2.354306e+08 -9.793091e-01 -2.444458e-01 -3.906712e-05 2.204813e-05 2.614968e-05 -2.545677e-05 9.296265e-01 3.331909e-01
2.356484e+08 -9.802246e-01 -2.442627e-01 -1.623854e-05 -1.418125e-05 -2.638064e-05 6.500632e-07 9.289551e-01 3.331909e-01
2.358662e+08 -9.815674e-01 -2.451782e-01 8.246861e-06 -1.701619e-05 -1.447927e-05 -4.318543e-06 9.287109e-01 3.327637e-01
2.360841e+08 -9.804688e-01 -2.456055e-01 1.572818e-05 -2.810732e-05 1.679733e-05 3.685802e-05 9.283447e-01 3.329468e-01
2.363019e+08 -9.815674e-01 -2.460938e-01 -2.101064e-05 -2.386980e-05 -2.107210e-05 -4.159287e-06 9.279785e-01 3.336792e-01
2.365197e+08 -9.816895e-01 -2.459106e-01 2.311543e-06 -1.780968e-05 -3.129244e-05 -4.119426e-05 9.284668e-01 3.332520e-01
2.367375e+08 -9.822998e-01 -2.460327e-01 1.109857e-05 7.485971e-06 -2.491660e-05 -1.804531e-05 9.279785e-01 3.336792e-01
2.369553e+08 -9.821777e-01 -2.463379e-01 -1.975335e-05 1.252629e-05 8.188188e-06 1.765694e-05 9.278564e-01 3.333740e-01
2.371731e+08 -9.824829e-01 -2.465820e-01 3.494322e-06 -2.671778e-05 3.213435e-05 -3.870577e-06 9.270630e-01 3.339233e-01
2.373909e+08 -9.830322e-01 -2.471313e-01 -6.399676e-05 2.789497e-05 -2.372637e-05 -1.763925e-06 9.266357e-01 3.330078e-01
2.376088e+08 -9.841919e-01 -2.476807e-01 -2.106465e-05 -2.388470e-05 -3.179535e-06 -3.568083e-05 9.268188e-01 3.335571e-01
2.378266e+08 -9.825439e-01 -2.479858e-01 -1.667812e-05 -1.123268e-05 -2.697483e-05 5.885214e-05 9.270630e-01 3.334961e-01
2.380444e+08 -9.839478e-01 -2.479248e-01 1.226924e-05 -1.423992e-06 -1.164153e-06 -1.628883e-05 9.257202e-01 3.338013e-01
2.382622e+08 -9.847412e-01 -2.478027e-01 1.461059e-05 -1.924485e-05 -3.202818e-06 1.251325e-05 9.253540e-01 3.342896e-01
2.384800e+08 -9.845581e-01 -2.485352e-01 1.498871e-05 -2.222694e-05 -3.482401e-05 6.258488e-06 9.248047e-01 3.341064e-01
2.386978e+08 -9.850464e-01 -2.488403e-01 -1.072977e-05 -1.047552e-05 -1.810305e-05 6.648712e-06 9.246216e-01 3.342285e-01
2.389156e+08 -9.855347e-01 -2.494507e-01 -3.687292e-05 4.252419e-06 1.320988e-05 -3.147870e-07 9.245605e-01 3.346558e-01
2.391334e+08 -9.859009e-01 -2.493286e-01 1.745205e-05 5.309470e-06 -1.192745e-05 4.947186e-06 9.237671e-01 3.342896e-01
2.393512e+08 -9.863892e-01 -2.501221e-01 -3.490038e-05 -1.060590e-05 2.248026e-05 -2.861023e-06 9.230347e-01 3.345337e-01
2.395691e+08 -9.869995e-01 -2.503052e-01 -2.495758e-05 5.805865e-06 2.982840e-05 1.175143e-05 9.227295e-01 3.348389e-01
2.397869e+08 -9.881592e-01 -2.504883e-01 -6.835908e-06 -4.023686e-05 3.871322e-05 7.664785e-06 9.224243e-01 3.349609e-01
2.400047e+08 -9.878540e-01 -2.507935e-01 2.301857e-05 9.058043e-06 -4.037842e-05 -1.386367e-05 9.220581e-01 3.344727e-01
2.402225e+08 -9.882812e-01 -2.512207e-01 4.800782e-05 3.248453e-06 -2.855435e-06 -2.249889e-05 9.218750e-01 3.351440e-01
2.404403e+08 -9.883423e-01 -2.517700e-01 -5.627051e-05 1.383200e-05 -1.819804e-06 5.486421e-06 9.213867e-01 3.347168e-01
2.406581e+08 -9.887695e-01 -2.513428e-01 7.610768e-06 3.425963e-05 2.430752e-05 -8.337200e-06 9.201050e-01 3.348389e-01
2.408759e+08 -9.895020e-01 -2.508545e-01 -2.340600e-05 -6.079674e-06 1.600012e-05 -1.438614e-05 9.198608e-01 3.348389e-01
2.410938e+08 -9.895630e-01 -2.513428e-01 2.497807e-05 -5.820766e-06 -1.084991e-06 2.024882e-05 9.202881e-01 3.352661e-01
2.413116e+08 -9.903564e-01 -2.522583e-01 -2.838671e-06 -2.459064e-05 -1.826417e-05 1.831632e-05 9.194946e-01 3.358154e-01
2.415294e+08 -9.910278e-01 -2.523193e-01 1.947396e-06 -1.487974e-05 8.314382e-06 6.033573e-06 9.185791e-01 3.358154e-01
2.417472e+08 -9.911499e-01 -2.523804e-01 -2.019852e-05 1.552142e-05 -1.207087e-05 1.661852e-05 9.180908e-01 3.358765e-01
2.419650e+08 -9.915161e-01 -2.531128e-01 6.279722e-05 2.945215e-05 1.317821e-05 -3.687106e-05 9.182739e-01 3.369751e-01
2.421828e+08 -9.928589e-01 -2.526245e-01 -3.235415e-06 -2.163276e-05 1.237541e-05 -3.397465e-06 9.179688e-01 3.363647e-01
2.424006e+08 -9.930420e-01 -2.526245e-01 -2.732687e-05 2.367981e-05 5.749986e-05 -2.077594e-05 9.168701e-01 3.361206e-01
2.426184e+08 -9.935913e-01 -2.531128e-01 -1.346972e-05 1.035724e-05 3.717467e-05 2.640672e-05 9.164429e-01 3.361206e-01
2.428362e+08 -9.941406e-01 -2.535400e-01 -3.173575e-05 1.098774e-05 -6.736256e-06 1.183245e-05 9.156494e-01 3.364868e-01
2.430541e+08 -9.942017e-01 -2.542114e-01 3.537536e-05 7.677823e-06 5.599111e-06 -2.815202e-05 9.158325e-01 3.371582e-01
2.432719e+08 -9.962158e-01 -2.534790e-01 9.099022e-06 -2.306700e-05 -7.472932e-06 -2.942048e-06 9.155273e-01 3.374634e-01
2.434897e+08 -9.959106e-01 -2.537231e-01 -1.906976e-05 6.596558e-06 -3.644265e-06 1.098402e-05 9.149170e-01 3.375244e-01
2.437075e+08 -9.949951e-01 -2.551270e-01 3.148429e-05 3.744848e-05 -3.094785e-05 8.454546e-06 9.135742e-01 3.367920e-01
2.439253e+08 -9.968262e-01 -2.540894e-01 2.903491e-05 9.890646e-06 3.083982e-05 3.186986e-06 9.132690e-01 3.380127e-01
2.441431e+08 -9.975586e-01 -2.540894e-01 -2.178922e-05 2.747774e-05 4.809722e-05 -4.316494e-05 9.124756e-01 3.372192e-01
2.443609e+08 -9.985962e-01 -2.547607e-01 -1.309719e-05 7.373281e-06 1.604110e-05 -1.440197e-05 9.115601e-01 3.377686e-01
2.445788e+08 -9.981689e-01 -2.546997e-01 -6.746035e-06 5.178154e-06 8.868985e-06 -4.094094e-06 9.112549e-01 3.381348e-01
2.447966e+08 -9.990845e-01 -2.545166e-01 1.171604e-06 -8.945353e-06 2.337806e-05 2.551824e-07 9.105835e-01 3.382568e-01
2.450144e+08 -9.995117e-01 -2.541504e-01 -6.353948e-06 2.199318e-06 1.603924e-05 -1.438893e-05 9.100342e-01 3.388062e-01
2.452322e+08 -9.998169e-01 -2.548218e-01 -7.505715e-05 1.743436e-05 -2.929568e-05 1.467764e-05 9.089966e-01 3.388062e-01
2.454500e+08 -1.001343e+00 -2.549438e-01 -1.594704e-05 -1.727045e-05 3.594719e-05 -1.484901e-05 9.093018e-01 3.394165e-01
2.456678e+08 -1.001648e+00 -2.547607e-01 1.869258e-05 -3.610738e-06 -3.117882e-05 -1.647696e-05 9.086914e-01 3.402710e-01
2.458856e+08 -1.001526e+00 -2.542114e-01 1.966953e-06 -1.493562e-05 -1.999922e-05 1.213327e-05 9.087524e-01 3.408813e-01
2.461034e+08 -1.002747e+00 -2.551880e-01 -3.127381e-06 2.385117e-05 -7.050112e-06 -1.408160e-06 9.066162e-01 3.397827e-01
2.463212e+08 -1.003601e+00 -2.545776e-01 4.413538e-06 1.273584e-05 1.084618e-05 -2.131332e-05 9.079590e-01 3.403931e-01
2.465391e+08 -1.004395e+00 -2.542725e-01 -1.154840e-05 -4.544854e-06 -1.016119e-05 -5.550683e-07 9.059448e-01 3.402710e-01
2.467569e+08 -1.004028e+00 -2.558594e-01 7.087365e-05 1.537800e-05 -3.455766e-05 7.754192e-06 9.059448e-01 3.408813e-01
2.469747e+08 -1.004639e+00 -2.540894e-01 -4.339591e-05 6.459653e-06 5.053356e-06 -1.805089e-05 9.056396e-01 3.412476e-01
2.471925e+08 -1.005676e+00 -2.548828e-01 -1.988560e-05 1.257285e-05 8.912757e-06 3.258698e-05 9.045410e-01 3.416138e-01
2.474103e+08 -1.005920e+00 -2.548828e-01 -1.155026e-05 -4.557893e-06 -1.466367e-05 7.336028e-06 9.037476e-01 3.417358e-01
2.476281e+08 -1.006287e+00 -2.551880e-01 3.025681e-05 9.555370e-07 2.862513e-05 7.199124e-06 9.030151e-01 3.424072e-01
2.478459e+08 -1.006897e+00 -2.547607e-01 4.788395e-06 9.746756e-06 -1.592934e-05 3.934838e-05 9.024048e-01 3.426514e-01
2.480638e+08 -1.008179e+00 -2.545166e-01 2.903305e-05 -3.564730e-05 2.355687e-05 -1.144223e-05 9.017334e-01 3.432617e-01
2.482816e+08 -1.008484e+00 -2.542725e-01 8.732080e-06 -2.013706e-05 -1.368765e-05 -1.263805e-06 9.017334e-01 3.435059e-01
2.484994e+08 -1.009033e+00 -2.535400e-01 -1.640990e-05 -5.992875e-05 6.630551e-06 -1.499429e-07 9.009399e-01 3.437500e-01
2.487172e+08 -1.009460e+00 -2.543945e-01 -1.753867e-05 -5.342066e-06 -3.382564e-06 2.426654e-05 9.003906e-01 3.437500e-01
2.489350e+08 -1.010193e+00 -2.538452e-01 -3.153458e-06 2.391636e-05 -1.351594e-10 2.367955e-10 8.994751e-01 3.445435e-01
2.491528e+08 -1.011047e+00 -2.537231e-01 7.161871e-06 -8.180272e-06 2.470240e-05 4.926696e-06 8.988647e-01 3.449707e-01
2.493706e+08 -1.011963e+00 -2.539062e-01 2.832711e-05 1.589023e-05 2.259389e-05 -2.836809e-06 8.982544e-01 3.452759e-01
2.495884e+08 -1.011047e+00 -2.531128e-01 7.156283e-06 -8.177478e-06 3.285892e-05 -1.397543e-05 8.970337e-01 3.452759e-01
2.498062e+08 -1.012573e+00 -2.526855e-01 3.066659e-05 -2.011657e-06 5.546026e-07 -1.016352e-05 8.958130e-01 3.464966e-01
2.500241e+08 -1.014038e+00 -2.528687e-01 5.497783e-05 -1.870096e-06 -1.115724e-05 8.062460e-06 8.958130e-01 3.464355e-01
2.502419e+08 -1.013550e+00 -2.527466e-01 1.202524e-05 4.719570e-05 -4.252233e-05 -3.343634e-05 8.951416e-01 3.468018e-01
2.504597e+08 -1.013733e+00 -2.525635e-01 -3.225170e-05 1.397356e-05 -8.755829e-06 -7.617287e-06 8.939819e-01 3.473511e-01
2.506775e+08 -1.015686e+00 -2.520752e-01 3.661588e-05 -4.684925e-05 7.069204e-06 1.405831e-06 8.938599e-01 3.475342e-01
2.508953e+08 -1.015381e+00 -2.515259e-01 2.869219e-05 1.291558e-05 -2.004299e-05 1.216773e-05 8.929443e-01 3.478394e-01
2.511131e+08 -1.015808e+00 -2.520142e-01 -1.116376e-05 -7.559545e-06 2.005696e-05 -1.216307e-05 8.924561e-01 3.486328e-01
2.513309e+08 -1.016174e+00 -2.516479e-01 2.910011e-05 9.920448e-06 1.201034e-05 -4.952773e-06 8.917847e-01 3.488159e-01
2.515488e+08 -1.017273e+00 -2.506714e-01 -7.934868e-07 5.979557e-06 -1.473911e-05 -2.939440e-05 8.912354e-01 3.502197e-01
2.517666e+08 -1.017517e+00 -2.512817e-01 -1.953356e-05 9.585172e-06 -1.201686e-05 4.949048e-06 8.908081e-01 3.502808e-01
2.519844e+08 -1.018433e+00 -2.507324e-01 3.747083e-05 -7.189810e-06 1.273677e-05 4.666299e-05 8.897095e-01 3.513184e-01
2.522022e+08 -1.019226e+00 -2.514038e-01 -1.585111e-06 1.196843e-05 -5.263090e-05 2.773851e-05 8.895874e-01 3.513184e-01
2.524200e+08 -1.019592e+00 -2.498779e-01 -4.189089e-05 -5.554408e-06 1.611095e-05 -1.444016e-05 8.890991e-01 3.519287e-01
2.526378e+08 -1.019348e+00 -2.493896e-01 -7.564202e-06 1.118984e-05 1.130905e-05 1.695380e-05 8.894043e-01 3.519897e-01
2.528556e+08 -1.020691e+00 -2.500000e-01 9.988435e-06 1.656171e-05 6.994233e-07 1.484994e-05 8.884888e-01 3.535767e-01
2.530734e+08 -1.021240e+00 -2.494507e-01 4.008412e-06 1.574215e-05 2.574548e-05 -3.678724e-06 8.868408e-01 3.526611e-01
2.532912e+08 -1.021851e+00 -2.493896e-01 -3.715232e-05 -4.148111e-05 -3.921613e-05 5.247444e-05 8.868408e-01 3.543091e-01
2.535091e+08 -1.022339e+00 -2.482300e-01 -6.066263e-05 -1.963228e-06 -4.947186e-06 4.315935e-05 8.860474e-01 3.547974e-01
2.537269e+08 -1.022095e+00 -2.484741e-01 -1.395214e-05 1.336448e-05 -8.784235e-06 2.912991e-05 8.845825e-01 3.551025e-01
2.539447e+08 -1.023315e+00 -2.474976e-01 7.963739e-06 -1.416914e-05 3.835745e-05 -1.882389e-05 8.842773e-01 3.555298e-01
2.541625e+08 -1.023315e+00 -2.463379e-01 -1.637544e-05 -1.436379e-05 -1.355431e-10 2.374065e-10 8.842773e-01 3.562622e-01
2.543803e+08 -1.023743e+00 -2.477417e-01 8.389354e-06 2.852269e-05 1.357589e-05 1.302734e-05 8.826904e-01 3.570557e-01
2.545981e+08 -1.024536e+00 -2.459106e-01 2.078339e-05 2.715364e-05 1.753028e-05 -2.152566e-05 8.830566e-01 3.575439e-01
2.548159e+08 -1.025085e+00 -2.462158e-01 -3.830716e-05 1.316331e-05 -1.598708e-05 3.950857e-05 8.811646e-01 3.583374e-01
2.550338e+08 -1.025635e+00 -2.455444e-01 1.675636e-05 -3.429130e-05 5.535781e-05 -3.017858e-05 8.798218e-01 3.585815e-01
2.552516e+08 -1.026611e+00 -2.448120e-01 1.587905e-06 -1.196936e-05 1.489371e-05 1.769606e-05 8.798828e-01 3.587646e-01
2.554694e+08 -1.026733e+00 -2.442017e-01 -8.372590e-06 1.716614e-05 -3.968133e-06 -2.264045e-06 8.796387e-01 3.595581e-01
2.556872e+08 -1.026611e+00 -2.437744e-01 3.965106e-07 -2.993504e-06 -2.422929e-05 -1.514703e-05 8.787231e-01 3.596802e-01
2.559050e+08 -1.027649e+00 -2.431030e-01 2.475083e-05 -2.799556e-06 3.643148e-05 3.525428e-05 8.784790e-01 3.609619e-01
2.561228e+08 -1.028198e+00 -2.426758e-01 1.157261e-05 4.591420e-06 -5.110167e-06 -1.870375e-05 8.775024e-01 3.617554e-01
2.563406e+08 -1.027832e+00 -2.427979e-01 -6.386545e-06 2.198387e-06 -3.004260e-05 2.492778e-05 8.775024e-01 3.620605e-01
2.565584e+08 -1.029419e+00 -2.414551e-01 2.799556e-06 2.476573e-05 2.410077e-05 -9.942800e-06 8.769531e-01 3.634644e-01
2.567762e+08 -1.029419e+00 -2.411499e-01 -3.988389e-07 2.994668e-06 2.607889e-05 -2.724119e-05 8.757935e-01 3.640747e-01
2.569941e+08 -1.029358e+00 -2.408447e-01 2.556294e-05 -8.789822e-06 -8.934643e-06 4.111324e-06 8.757324e-01 3.648682e-01
2.572119e+08 -1.031250e+00 -2.404785e-01 4.097819e-07 4.271790e-05 3.082119e-05 -1.007877e-05 8.746338e-01 3.649902e-01
2.574297e+08 -1.030518e+00 -2.396240e-01 -2.395920e-05 -3.173947e-06 3.403984e-06 1.249462e-05 8.742676e-01 3.656006e-01
2.576475e+08 -1.030518e+00 -2.391968e-01 -1.239032e-05 -4.431605e-05 2.213754e-05 7.389113e-06 8.735352e-01 3.666992e-01
2.578653e+08 -1.031250e+00 -2.388306e-01 1.957640e-05 3.612041e-05 1.079030e-05 -9.644777e-06 8.729248e-01 3.668213e-01
2.580831e+08 -1.030212e+00 -2.377319e-01 1.238286e-05 -1.395121e-06 1.744647e-05 -9.774230e-06 8.723145e-01 3.684082e-01
2.583009e+08 -1.032043e+00 -2.374268e-01 -1.039263e-05 -1.358427e-05 -1.998618e-06 1.732074e-05 8.723145e-01 3.688354e-01
2.585188e+08 -1.031921e+00 -2.376099e-01 3.597699e-06 1.877360e-05 -3.097579e-05 2.183393e-05 8.715210e-01 3.692627e-01
2.587366e+08 -1.032776e+00 -2.356567e-01 7.594936e-06 -1.117680e-05 6.247312e-06 -1.707114e-06 8.701782e-01 3.704834e-01
2.589544e+08 -1.031799e+00 -2.356567e-01 1.078472e-05 1.059286e-05 -2.638251e-05 -2.300367e-05 8.703003e-01 3.707886e-01
2.591722e+08 -1.032959e+00 -2.354736e-01 -1.158286e-05 -4.606321e-06 9.099953e-06 -1.590326e-05 8.694458e-01 3.723145e-01
2.593900e+08 -1.033264e+00 -2.336426e-01 7.271394e-05 -4.212186e-05 4.548579e-06 2.897717e-05 8.688965e-01 3.723755e-01
2.596078e+08 -1.032959e+00 -2.330322e-01 9.573996e-06 -2.617389e-05 2.782419e-05 1.591444e-05 8.684692e-01 3.724976e-01
2.598256e+08 -1.033813e+00 -2.333984e-01 -7.975847e-06 -3.156066e-05 5.227327e-05 1.937523e-05 8.674927e-01 3.738403e-01
2.600434e+08 -1.032898e+00 -2.323608e-01 -4.059189e-10 3.102230e-10 1.689699e-05 4.312024e-07 8.666992e-01 3.746338e-01
2.602612e+08 -1.033936e+00 -2.319336e-01 2.996624e-05 4.012138e-06 -7.106457e-06 -1.427718e-06 8.662109e-01 3.757935e-01
2.604791e+08 -1.034119e+00 -2.301025e-01 -1.198892e-05 -1.596287e-06 -7.823110e-06 -1.634285e-05 8.660278e-01 3.755493e-01
2.606969e+08 -1.035095e+00 -2.299805e-01 -7.962808e-06 -3.158301e-05 -1.749396e-05 9.815209e-06 8.652954e-01 3.775635e-01
2.609147e+08 -1.035278e+00 -2.287598e-01 4.317984e-05 -3.386289e-06 -7.258728e-06 -2.659485e-05 8.652344e-01 3.778687e-01
2.611325e+08 -1.035095e+00 -2.283936e-01 -3.222376e-06 2.395920e-05 -2.403744e-05 -1.857057e-06 8.637695e-01 3.790283e-01
2.613503e+08 -1.035339e+00 -2.280273e-01 6.434321e-05 2.077222e-05 5.833339e-06 -3.273599e-06 8.640747e-01 3.792725e-01
2.615681e+08 -1.035583e+00 -2.269897e-01 1.154467e-05 5.031377e-05 3.970042e-05 -2.410263e-06 8.627319e-01 3.799438e-01
2.617859e+08 -1.036072e+00 -2.265625e-01 6.392132e-06 -2.196990e-06 -4.685670e-05 9.872019e-07 8.631592e-01 3.807373e-01
2.620038e+08 -1.035828e+00 -2.254639e-01 -1.437962e-05 -2.936646e-05 3.900565e-05 -1.737289e-05 8.625488e-01 3.815918e-01
2.622216e+08 -1.036377e+00 -2.249146e-01 2.115592e-05 2.418458e-05 -1.054071e-05 2.307259e-05 8.613892e-01 3.833618e-01
2.624394e+08 -1.035339e+00 -2.246704e-01 2.877228e-05 1.301058e-05 -3.851950e-06 2.291054e-05 8.617554e-01 3.840942e-01
2.626572e+08 -1.036499e+00 -2.238770e-01 -9.214506e-06 2.317689e-05 1.566671e-05 3.278255e-05 8.614502e-01 3.848267e-01
2.628750e+08 -1.035706e+00 -2.222290e-01 -1.960713e-05 9.578653e-06 2.007745e-05 -3.743172e-05 8.613281e-01 3.861084e-01
2.630928e+08 -1.036377e+00 -2.217407e-01 3.676862e-05 -1.179054e-06 3.119558e-05 3.281981e-06 8.604126e-01 3.862305e-01
2.633106e+08 -1.035889e+00 -2.207642e-01 -3.974885e-06 -1.580361e-05 1.238380e-05 8.409843e-06 8.599243e-01 3.880005e-01
2.635284e+08 -1.036255e+00 -2.209473e-01 1.197588e-05 1.611188e-06 6.727502e-05 -2.500787e-05 8.580933e-01 3.880615e-01
2.637462e+08 -1.036560e+00 -2.196045e-01 6.396789e-06 -2.189539e-06 6.422400e-06 -1.353677e-05 8.582153e-01 3.889771e-01
2.639641e+08 -1.036194e+00 -2.191772e-01 -2.841465e-05 2.976321e-05 2.133660e-05 4.135631e-05 8.582764e-01 3.898926e-01
2.641819e+08 -1.036560e+00 -2.177734e-01 -1.122802e-05 3.815070e-05 -7.133931e-07 2.210215e-05 8.574829e-01 3.908081e-01
2.643997e+08 -1.036377e+00 -2.178955e-01 5.675852e-05 3.205240e-05 5.885959e-06 -4.034676e-05 8.577881e-01 3.916626e-01
2.646175e+08 -1.036255e+00 -2.163086e-01 1.600198e-05 -2.836622e-05 8.414034e-06 6.130431e-06 8.568115e-01 3.920288e-01
2.648353e+08 -1.036316e+00 -2.164307e-01 -1.754984e-05 -5.121529e-05 9.418465e-06 -2.561137e-06 8.560791e-01 3.937378e-01
2.650531e+08 -1.037048e+00 -2.150879e-01 -1.611188e-06 1.199357e-05 -3.425591e-05 -1.429580e-05 8.560181e-01 3.941040e-01
2.652709e+08 -1.036011e+00 -2.147827e-01 6.398652e-06 -2.194196e-06 3.868341e-05 -1.894683e-05 8.558960e-01 3.948975e-01
2.654888e+08 -1.036377e+00 -2.139893e-01 -2.762489e-05 2.373382e-05 2.412125e-05 1.875684e-06 8.544312e-01 3.965454e-01
2.657066e+08 -1.036438e+00 -2.130127e-01 -4.922599e-05 2.540648e-06 -1.013372e-05 -1.243223e-05 8.553467e-01 3.975830e-01
2.659244e+08 -1.035583e+00 -2.118530e-01 -2.042763e-05 1.557171e-05 5.394593e-05 1.228973e-05 8.543701e-01 3.983154e-01
2.661422e+08 -1.035278e+00 -2.124634e-01 -2.683513e-05 1.773424e-05 -3.098696e-05 1.009926e-05 8.534546e-01 3.997803e-01
2.663600e+08 -1.035522e+00 -2.106323e-01 -2.443790e-06 1.800060e-05 -1.139939e-06 -1.656916e-05 8.537598e-01 4.006348e-01
2.665778e+08 -1.035889e+00 -2.105713e-01 -2.959371e-05 -7.053837e-06 1.257844e-05 -3.421679e-06 8.535156e-01 4.007568e-01
2.667956e+08 -1.035034e+00 -2.095947e-01 -1.880527e-05 3.562309e-06 3.570691e-06 7.166527e-07 8.527832e-01 4.016113e-01
2.670134e+08 -1.035278e+00 -2.080688e-01 1.559593e-05 2.043881e-05 2.602302e-05 3.342889e-05 8.536987e-01 4.023438e-01
2.672312e+08 -1.034851e+00 -2.070312e-01 3.123470e-05 -4.913658e-06 -9.861309e-06 1.001172e-06 8.525391e-01 4.041138e-01
2.674491e+08 -1.034607e+00 -2.067261e-01 1.767278e-05 -4.039332e-05 -1.300871e-05 1.855195e-06 8.521729e-01 4.044800e-01
2.676669e+08 -1.034790e+00 -2.054443e-01 -4.790258e-06 -9.810552e-06 1.944881e-05 -1.544226e-05 8.521118e-01 4.050293e-01
2.678847e+08 -1.034729e+00 -2.056885e-01 -1.961272e-05 9.586103e-06 4.505366e-05 1.647323e-05 8.516235e-01 4.056396e-01
2.681025e+08 -1.033569e+00 -2.055664e-01 7.616356e-06 -1.118332e-05 1.428928e-05 2.879649e-06 8.505249e-01 4.074707e-01
2.683203e+08 -1.032959e+00 -2.040405e-01 6.404705e-06 -2.188142e-06 -1.443736e-05 8.990988e-06 8.505859e-01 4.087524e-01
2.685381e+08 -1.033142e+00 -2.027588e-01 3.915653e-05 2.665818e-05 4.580710e-06 -8.006115e-06 8.502808e-01 4.092407e-01
2.687559e+08 -1.032837e+00 -2.021484e-01 -7.632188e-06 1.118518e-05 2.688915e-05 -5.438924e-07 8.498535e-01 4.110718e-01
2.689738e+08 -1.033203e+00 -2.017212e-01 -9.960495e-06 -1.661479e-05 3.317371e-05 3.495254e-05 8.491821e-01 4.113159e-01
2.691916e+08 -1.032288e+00 -2.012329e-01 -2.399646e-05 -3.257766e-06 1.858175e-05 1.862273e-05 8.491211e-01 4.124756e-01
2.694094e+08 -1.031555e+00 -2.006226e-01 2.432615e-06 -1.799408e-05 1.574401e-05 -4.266389e-06 8.486938e-01 4.129028e-01
2.696272e+08 -1.031372e+00 -1.997070e-01 1.363922e-05 -1.038425e-05 -2.963096e-05 2.969056e-06 8.496704e-01 4.148560e-01
2.698450e+08 -1.031616e+00 -1.989136e-01 -8.034520e-06 1.418870e-05 1.668930e-06 4.351884e-05 8.486938e-01 4.154663e-01
2.700628e+08 -1.031189e+00 -1.983643e-01 -4.078820e-05 -1.467764e-05 1.602806e-05 9.175390e-06 8.478394e-01 4.159546e-01
2.702806e+08 -1.030396e+00 -1.987305e-01 5.045533e-05 -1.147017e-05 1.575798e-05 -4.273839e-06 8.479004e-01 4.173584e-01
2.704984e+08 -1.029358e+00 -1.970825e-01 4.323944e-05 -3.308058e-06 4.894659e-05 -6.526709e-06 8.480225e-01 4.177246e-01
2.707162e+08 -1.029602e+00 -1.967163e-01 -1.037866e-05 -1.365133e-05 -3.553554e-05 6.267801e-06 8.481445e-01 4.196777e-01
2.709341e+08 -1.028931e+00 -1.955566e-01 1.802295e-05 2.442859e-06 1.374632e-05 1.318939e-05 8.482056e-01 4.201660e-01
2.711519e+08 -1.028625e+00 -1.948242e-01 3.574230e-05 -3.791600e-05 1.552515e-06 1.819432e-05 8.468018e-01 4.212646e-01
2.713697e+08 -1.028381e+00 -1.937256e-01 -1.630746e-06 1.201499e-05 1.777429e-05 -2.177432e-05 8.477173e-01 4.221191e-01
2.715875e+08 -1.027710e+00 -1.935425e-01 3.685430e-05 -1.130626e-06 -3.297254e-05 1.573563e-05 8.474121e-01 4.228516e-01
2.718053e+08 -1.025940e+00 -1.929321e-01 -7.223804e-06 8.190516e-06 -4.863366e-06 -5.445443e-06 8.466187e-01 4.237061e-01
2.720231e+08 -1.026733e+00 -1.921387e-01 2.644770e-05 -1.474470e-05 -3.469735e-05 9.434298e-06 8.463135e-01 4.245605e-01
2.722409e+08 -1.025635e+00 -1.915283e-01 8.856878e-06 -2.019852e-05 -1.071766e-05 -3.941357e-05 8.464966e-01 4.257202e-01
2.724588e+08 -1.025940e+00 -1.901245e-01 -2.961233e-05 -7.089227e-06 -1.047272e-05 1.132488e-05 8.462524e-01 4.266968e-01
2.726766e+08 -1.025757e+00 -1.906128e-01 -4.803762e-05 -6.526709e-06 -1.734495e-05 -1.393352e-05 8.460083e-01 4.273682e-01
2.728944e+08 -1.024353e+00 -1.894531e-01 4.819036e-05 -3.935397e-05 1.691189e-05 1.234096e-05 8.464966e-01 4.288940e-01
2.731122e+08 -1.023926e+00 -1.895752e-01 1.201499e-05 1.628883e-06 -6.975606e-07 -1.506228e-05 8.463745e-01 4.293823e-01
2.733300e+08 -1.023071e+00 -1.880493e-01 -3.687292e-05 1.104549e-06 -1.130812e-05 -2.910756e-05 8.463745e-01 4.305420e-01
2.735478e+08 -1.022339e+00 -1.874390e-01 -3.482215e-05 -1.389161e-05 -2.092123e-05 -1.464039e-05 8.460083e-01 4.309692e-01
2.737656e+08 -1.022217e+00 -1.871338e-01 4.955754e-05 4.038215e-05 -1.991168e-05 -2.340041e-05 8.455811e-01 4.326782e-01
2.739834e+08 -1.021667e+00 -1.869507e-01 -2.240017e-05 -1.527742e-05 3.101863e-05 -3.555231e-05 8.458862e-01 4.335327e-01
2.742012e+08 -1.020996e+00 -1.871338e-01 5.054474e-05 -1.148880e-05 -2.157874e-05 3.295764e-05 8.462524e-01 4.348145e-01
2.744191e+08 -1.020020e+00 -1.857910e-01 -2.566725e-05 8.741394e-06 -1.620501e-07 1.190696e-05 8.456421e-01 4.359131e-01
2.746369e+08 -1.019775e+00 -1.859131e-01 -9.296462e-06 2.321973e-05 -8.460134e-06 -6.187242e-06 8.461914e-01 4.370728e-01
2.748547e+08 -1.018555e+00 -1.851196e-01 1.284201e-05 -4.367903e-06 9.636395e-06 -1.447741e-05 8.458252e-01 4.380493e-01
2.750725e+08 -1.017944e+00 -1.849976e-01 2.322160e-05 9.303913e-06 1.725089e-05 -1.145061e-05 8.459473e-01 4.391479e-01
2.752903e+08 -1.017700e+00 -1.833496e-01 2.048537e-05 -1.556799e-05 -2.145302e-06 -7.899478e-06 8.448486e-01 4.398193e-01
2.755081e+08 -1.016235e+00 -1.838989e-01 -1.161546e-05 -4.637055e-06 7.857569e-06 1.651887e-05 8.457031e-01 4.400024e-01
2.757259e+08 -1.016174e+00 -1.829224e-01 2.567470e-05 -8.743256e-06 -2.836809e-06 -2.297759e-05 8.450928e-01 4.414062e-01
2.759438e+08 -1.015564e+00 -1.827393e-01 2.738088e-06 2.484769e-05 -8.300878e-06 -1.810677e-05 8.449097e-01 4.420166e-01
2.761616e+08 -1.015320e+00 -1.825562e-01 2.859160e-06 -2.104044e-05 2.121739e-05 2.819858e-05 8.452759e-01 4.428101e-01
2.763794e+08 -1.014099e+00 -1.819458e-01 1.516007e-05 2.347864e-05 7.870607e-06 1.653377e-05 8.449707e-01 4.437256e-01
2.765972e+08 -1.013428e+00 -1.803589e-01 -7.227995e-06 8.200761e-06 -2.599508e-05 -8.208677e-06 8.452759e-01 4.443359e-01
2.768150e+08 -1.011719e+00 -1.816406e-01 -2.116524e-05 -2.431497e-05 3.904849e-05 6.416813e-06 8.444824e-01 4.461670e-01
2.770328e+08 -1.010681e+00 -1.801758e-01 1.120940e-05 7.652678e-06 1.247972e-05 8.488074e-06 8.457031e-01 4.468994e-01
2.772506e+08 -1.010437e+00 -1.798096e-01 3.877468e-05 2.976507e-05 -1.017749e-05 -1.251698e-05 8.446045e-01 4.476318e-01
2.774684e+08 -1.009888e+00 -1.789551e-01 -7.239170e-06 8.193776e-06 -1.811422e-05 8.310191e-06 8.449097e-01 4.486084e-01
2.776862e+08 -1.009033e+00 -1.788330e-01 2.934970e-05 -3.579445e-05 -5.904585e-07 1.034234e-05 8.449097e-01 4.492188e-01
2.779041e+08 -1.008972e+00 -1.791382e-01 1.721177e-05 8.480623e-06 -1.641549e-05 1.463946e-05 8.450317e-01 4.511108e-01
2.781219e+08 -1.007629e+00 -1.779175e-01 3.129616e-05 -4.896894e-06 7.413328e-06 5.231798e-05 8.453369e-01 4.515991e-01
2.783397e+08 -1.006531e+00 -1.787109e-01 3.811717e-05 -1.010112e-05 -5.342439e-05 -9.320676e-06 8.452148e-01 4.519653e-01
2.785575e+08 -1.004700e+00 -1.776733e-01 -1.038052e-05 -1.366995e-05 1.173839e-05 -6.929785e-05 8.454590e-01 4.536133e-01
2.787753e+08 -1.004211e+00 -1.784058e-01 1.927745e-05 -6.547198e-06 -3.525987e-06 2.468191e-05 8.452759e-01 4.545288e-01
2.789931e+08 -1.004700e+00 -1.778564e-01 1.639314e-05 1.450721e-05 -1.830515e-05 2.021901e-05 8.458862e-01 4.555054e-01
2.792109e+08 -1.003174e+00 -1.769409e-01 5.193520e-06 6.834976e-06 1.828093e-05 -2.021622e-05 8.461914e-01 4.556885e-01
2.794288e+08 -1.002808e+00 -1.777344e-01 1.491513e-05 -1.940690e-05 3.043003e-05 1.215935e-05 8.460083e-01 4.570312e-01
2.796466e+08 -1.001343e+00 -1.776123e-01 2.050214e-05 -1.559965e-05 1.776218e-05 1.556985e-05 8.466187e-01 4.572754e-01
2.798644e+08 -1.001160e+00 -1.768188e-01 -1.054816e-05 3.225915e-05 -8.464791e-06 -6.203540e-06 8.461304e-01 4.592896e-01
2.800822e+08 -1.000427e+00 -1.763306e-01 -3.225729e-05 5.688891e-05 -1.137704e-05 8.169562e-06 8.466187e-01 4.598389e-01
2.803000e+08 -1.000122e+00 -1.765137e-01 5.182996e-05 -2.048165e-05 -7.551163e-06 2.242438e-05 8.464966e-01 4.608154e-01
2.805178e+08 -9.993286e-01 -1.754150e-01 1.491886e-05 -1.941156e-05 1.557544e-05 -1.780875e-05 8.461304e-01 4.622192e-01
2.807356e+08 -9.981079e-01 -1.748657e-01 -3.276393e-06 2.407096e-05 1.470558e-05 -2.096500e-05 8.467407e-01 4.623413e-01
2.809534e+08 -9.965820e-01 -1.759644e-01 2.463348e-06 -1.805928e-05 -3.945455e-05 1.741759e-05 8.468018e-01 4.636841e-01
2.811712e+08 -9.963379e-01 -1.751099e-01 -9.564683e-06 -1.969375e-05 6.256625e-06 -2.715923e-05 8.466187e-01 4.641724e-01
2.813891e+08 -9.948730e-01 -1.751099e-01 -2.078712e-05 -2.733618e-05 -4.773960e-05 -7.115304e-07 8.466187e-01 4.643555e-01
2.816069e+08 -9.943848e-01 -1.747437e-01 -4.787929e-06 -9.851530e-06 -1.052767e-05 1.133513e-05 8.474121e-01 4.659424e-01
2.818247e+08 -9.946899e-01 -1.746826e-01 -3.445335e-05 -1.698919e-05 -5.001202e-05 2.880394e-05 8.472290e-01 4.675293e-01
2.820425e+08 -9.933472e-01 -1.741943e-01 2.531894e-05 -5.709007e-06 3.005192e-05 1.055747e-05 8.477173e-01 4.682617e-01
2.822603e+08 -9.916992e-01 -1.752319e-01 -8.333474e-06 -2.874061e-05 1.473259e-05 -2.094824e-05 8.484497e-01 4.685059e-01
2.824781e+08 -9.902344e-01 -1.751709e-01 5.429983e-05 -3.854930e-05 1.430511e-05 -2.252311e-05 8.480225e-01 4.689941e-01
2.826959e+08 -9.907227e-01 -1.748657e-01 -2.843700e-05 -1.617149e-05 -3.843568e-06 -1.425575e-05 8.482056e-01 4.700928e-01
2.829138e+08 -9.898682e-01 -1.744995e-01 2.034381e-05 3.037974e-05 3.691763e-06 -3.668480e-05 8.480225e-01 4.707642e-01
2.831316e+08 -9.887085e-01 -1.737671e-01 -6.621331e-05 -9.093434e-06 1.258217e-05 -2.888218e-05 8.484497e-01 4.719849e-01
2.833494e+08 -9.879150e-01 -1.742554e-01 -2.240390e-05 -1.534820e-05 -1.200009e-05 1.852587e-05 8.483276e-01 4.726562e-01
2.835672e+08 -9.863281e-01 -1.746826e-01 8.916482e-06 -2.024695e-05 4.176795e-05 -2.143905e-05 8.493042e-01 4.736328e-01
2.837850e+08 -9.861450e-01 -1.739502e-01 -1.599081e-05 -1.751445e-05 2.291612e-05 3.456138e-05 8.488159e-01 4.736328e-01
2.840028e+08 -9.852905e-01 -1.741333e-01 5.193986e-06 6.851275e-06 -5.067140e-05 1.367927e-05 8.498535e-01 4.753418e-01
2.842206e+08 -9.841309e-01 -1.744385e-01 -8.907169e-06 2.026558e-05 3.276207e-05 8.158386e-06 8.508301e-01 4.753418e-01
2.844384e+08 -9.836426e-01 -1.740723e-01 6.846618e-06 -5.194917e-06 1.462456e-05 1.643971e-05 8.500977e-01 4.763794e-01
2.846562e+08 -9.822388e-01 -1.744385e-01 -2.036802e-05 -3.042445e-05 3.878400e-05 -3.249757e-05 8.505249e-01 4.771729e-01
2.848741e+08 -9.815063e-01 -1.738892e-01 -4.774332e-05 -9.629875e-06 1.230557e-05 2.045184e-05 8.499756e-01 4.777222e-01
2.850919e+08 -9.808960e-01 -1.741943e-01 -2.452731e-05 -3.017485e-07 -1.301244e-05 2.728403e-05 8.514404e-01 4.790649e-01
2.853097e+08 -9.805298e-01 -1.743164e-01 -4.052371e-05 -1.783669e-05 -2.491660e-05 8.419156e-06 8.511353e-01 4.800415e-01
2.855275e+08 -9.796753e-01 -1.743774e-01 8.251518e-07 -6.020535e-06 -2.210774e-05 3.143959e-05 8.508301e-01 4.799194e-01
2.857453e+08 -9.777222e-01 -1.752319e-01 1.743808e-05 -3.750063e-05 1.984462e-05 -1.943670e-06 8.515015e-01 4.818115e-01
2.859631e+08 -9.779053e-01 -1.753540e-01 -3.425963e-05 2.598949e-05 2.559088e-05 6.709248e-06 8.515015e-01 4.817505e-01
2.861809e+08 -9.766846e-01 -1.755371e-01 4.146714e-07 -3.015157e-06 -2.974458e-05 2.837554e-05 8.526611e-01 4.827881e-01
2.863988e+08 -9.760742e-01 -1.755981e-01 4.142057e-07 -3.012596e-06 6.631017e-07 1.510885e-05 8.519897e-01 4.830933e-01
2.866166e+08 -9.758911e-01 -1.758423e-01 7.085502e-06 3.783777e-05 5.488284e-06 -4.874542e-06 8.532104e-01 4.842529e-01
2.868344e+08 -9.741211e-01 -1.754150e-01 -1.373235e-05 1.039822e-05 -3.540888e-06 2.472103e-05 8.533325e-01 4.855347e-01
2.870522e+08 -9.735107e-01 -1.755371e-01 -5.610287e-06 -3.848225e-06 -2.772734e-05 -1.461990e-05 8.528442e-01 4.859009e-01
2.872700e+08 -9.728394e-01 -1.752930e-01 1.080986e-05 1.070183e-05 -5.370006e-06 -3.253855e-05 8.533325e-01 4.860229e-01
2.874878e+08 -9.719238e-01 -1.760864e-01 -7.277820e-06 8.219853e-06 -6.118789e-07 1.035864e-05 8.542480e-01 4.869385e-01
2.877056e+08 -9.708252e-01 -1.760864e-01 5.198177e-06 6.863382e-06 1.309626e-05 -1.828186e-06 8.541260e-01 4.877319e-01
2.879234e+08 -9.704590e-01 -1.767578e-01 -4.304200e-05 2.235174e-07 -4.300848e-06 -4.132092e-05 8.542480e-01 4.879150e-01
2.881412e+08 -9.700317e-01 -1.763916e-01 5.759299e-05 -1.664832e-05 -1.334399e-05 -1.170207e-05 8.546753e-01 4.887695e-01
2.883591e+08 -9.688110e-01 -1.771851e-01 -2.933852e-05 -1.020543e-05 6.338116e-06 -1.702458e-06 8.551636e-01 4.898071e-01
2.885769e+08 -9.688110e-01 -1.772461e-01 5.310029e-05 1.649931e-05 1.127273e-05 2.925657e-05 8.563843e-01 4.898071e-01
2.887947e+08 -9.678345e-01 -1.777344e-01 -3.326684e-06 2.413243e-05 4.056655e-05 -2.617575e-05 8.558350e-01 4.907837e-01
2.890125e+08 -9.666748e-01 -1.778564e-01 -6.040093e-06 -8.321367e-07 -2.318993e-07 -1.352374e-05 8.569946e-01 4.918823e-01
2.892303e+08 -9.661865e-01 -1.781006e-01 2.142414e-05 -2.166443e-05 2.319459e-06 -4.019821e-06 8.571777e-01 4.916382e-01
2.894481e+08 -9.640503e-01 -1.780396e-01 1.373980e-05 -1.041498e-05 -9.303913e-06 -9.380281e-06 8.572998e-01 4.927368e-01
2.896659e+08 -9.644165e-01 -1.792603e-01 -3.131106e-06 -2.196059e-05 4.439801e-05 1.357496e-05 8.572998e-01 4.929199e-01
2.898838e+08 -9.637451e-01 -1.789551e-01 1.271814e-05 -4.744157e-05 5.720649e-06 8.658040e-06 8.569946e-01 4.938354e-01
2.901016e+08 -9.625244e-01 -1.794434e-01 -5.458668e-05 3.861636e-05 5.057082e-06 -6.454531e-06 8.582153e-01 4.943237e-01
2.903194e+08 -9.617920e-01 -1.790771e-01 -5.440786e-06 3.927946e-05 -7.797964e-06 8.889008e-06 8.588257e-01 4.954834e-01
2.905372e+08 -9.609375e-01 -1.810303e-01 -1.603272e-05 -1.759548e-05 -6.116927e-06 1.521688e-05 8.585815e-01 4.949951e-01
2.907550e+08 -9.603271e-01 -1.797485e-01 4.782341e-06 9.896234e-06 -5.111098e-06 -1.899991e-05 8.585815e-01 4.964600e-01
2.909728e+08 -9.594116e-01 -1.803589e-01 -5.124137e-05 1.445040e-05 -5.401671e-08 -2.545677e-05 8.592529e-01 4.967651e-01
2.911906e+08 -9.596558e-01 -1.809082e-01 -4.174653e-07 3.020978e-06 -8.065253e-07 2.230331e-05 8.591919e-01 4.973755e-01
2.914084e+08 -9.576416e-01 -1.815186e-01 3.396161e-05 -2.301671e-05 -1.077540e-05 -2.202578e-06 8.596802e-01 4.978027e-01
2.916262e+08 -9.573364e-01 -1.811523e-01 1.938362e-05 -6.557442e-06 2.576038e-05 -5.220994e-06 8.600464e-01 4.987183e-01
2.918441e+08 -9.569702e-01 -1.818848e-01 -6.045215e-06 -8.363277e-07 1.457240e-05 -9.009615e-06 8.602295e-01 4.991455e-01
2.920619e+08 -9.559326e-01 -1.823730e-01 1.478754e-05 2.669729e-05 -2.136268e-05 -1.634192e-05 8.610229e-01 4.998169e-01
2.922797e+08 -9.554443e-01 -1.835938e-01 -4.923716e-05 -6.668270e-07 -1.661479e-06 4.459545e-05 8.615723e-01 5.008545e-01
2.924975e+08 -9.552002e-01 -1.830444e-01 1.730677e-05 8.548610e-06 -1.016911e-05 -1.256540e-05 8.619385e-01 5.003662e-01
2.927153e+08 -9.547119e-01 -1.835938e-01 1.813285e-05 2.508983e-06 -4.906207e-06 -3.097765e-05 8.615112e-01 5.009155e-01
2.929331e+08 -9.533691e-01 -1.843262e-01 -6.613135e-05 -1.224875e-05 -5.269423e-06 1.839083e-05 8.622437e-01 5.018921e-01
2.931509e+08 -9.528809e-01 -1.840210e-01 -2.292916e-06 -2.804957e-05 5.008280e-05 -3.248453e-06 8.625488e-01 5.015259e-01
2.933688e+08 -9.514771e-01 -1.850586e-01 -2.942234e-05 -1.022220e-05 -2.726912e-06 2.788752e-05 8.631592e-01 5.020752e-01
2.935866e+08 -9.516602e-01 -1.862793e-01 2.379157e-05 6.364658e-06 -3.213249e-05 6.906688e-06 8.637695e-01 5.024414e-01
2.938044e+08 -9.512939e-01 -1.858521e-01 1.438893e-05 2.975762e-05 -1.268182e-05 3.402121e-06 8.642578e-01 5.032959e-01
2.940222e+08 -9.497681e-01 -1.866455e-01 3.591552e-05 8.057803e-06 -4.670583e-06 -1.743063e-05 8.646851e-01 5.037231e-01
2.942400e+08 -9.501343e-01 -1.870117e-01 9.400770e-06 -2.337992e-05 -2.719462e-06 2.790801e-05 8.648071e-01 5.039062e-01
2.944578e+08 -9.489746e-01 -1.878662e-01 -5.196407e-05 -2.572685e-05 1.818500e-05 1.720712e-05 8.649292e-01 5.045166e-01
2.946756e+08 -9.476929e-01 -1.879883e-01 -7.487833e-06 -3.497303e-05 2.725236e-05 1.307018e-05 8.650513e-01 5.047607e-01
2.948934e+08 -9.467163e-01 -1.886597e-01 -1.546368e-05 2.254732e-05 -1.773052e-05 9.827316e-06 8.656006e-01 5.048218e-01
2.951112e+08 -9.472656e-01 -1.890259e-01 -3.957190e-06 -1.599267e-05 -2.111122e-05 2.263300e-05 8.665161e-01 5.058594e-01
2.953291e+08 -9.470825e-01 -1.891479e-01 -9.186566e-06 -2.289191e-05 -1.896173e-06 5.605631e-06 8.668823e-01 5.059814e-01
2.955469e+08 -9.454956e-01 -1.896362e-01 5.228072e-05 -2.055615e-05 -2.545305e-06 -9.501353e-06 8.672485e-01 5.066528e-01
2.957647e+08 -9.442139e-01 -1.902466e-01 -1.211837e-05 -1.678243e-06 1.095235e-06 4.211999e-05 8.671265e-01 5.066528e-01
2.959825e+08 -9.447632e-01 -1.906738e-01 -2.384000e-05 -6.388873e-06 -6.337184e-06 1.697335e-06 8.681030e-01 5.071411e-01
2.962003e+08 -9.419556e-01 -1.919556e-01 -1.762807e-05 -3.702566e-05 2.839789e-05 -2.258644e-05 8.696289e-01 5.092773e-01
2.964181e+08 -9.416504e-01 -1.914673e-01 2.834946e-05 -4.530698e-05 -4.606321e-06 -1.165457e-05 8.699951e-01 5.092773e-01
2.966359e+08 -9.407959e-01 -1.931763e-01 -1.986697e-05 -6.544590e-05 3.123656e-05 -2.058409e-05 8.698730e-01 5.089722e-01
2.968538e+08 -9.407349e-01 -1.931763e-01 1.318753e-06 -2.107210e-05 -2.267584e-05 2.655573e-05 8.703613e-01 5.104370e-01
2.970716e+08 -9.398804e-01 -1.928101e-01 -2.795085e-05 -2.527609e-05 2.504513e-05 4.507601e-07 8.707886e-01 5.099487e-01
2.972894e+08 -9.390869e-01 -1.942139e-01 -2.510473e-05 1.878664e-05 7.259194e-06 -6.800052e-06 8.709106e-01 5.104980e-01
2.975072e+08 -9.389038e-01 -1.943359e-01 -4.019216e-05 -8.076429e-06 3.081001e-05 -3.952533e-05 8.713989e-01 5.103149e-01
2.977250e+08 -9.375610e-01 -1.954346e-01 -2.223067e-05 1.058541e-05 -1.777336e-05 -7.282011e-06 8.714600e-01 5.115967e-01
2.979428e+08 -9.379272e-01 -1.949463e-01 8.102506e-06 -4.021823e-05 2.209097e-06 -1.537893e-05 8.713379e-01 5.116577e-01
2.981606e+08 -9.375610e-01 -1.966553e-01 -6.861985e-06 7.145107e-05 2.245232e-05 -2.501905e-05 8.718872e-01 5.119019e-01
2.983784e+08 -9.362793e-01 -1.972656e-01 -4.755333e-06 -3.859028e-05 -2.192706e-05 -2.200529e-05 8.709106e-01 5.118408e-01
2.985962e+08 -9.362183e-01 -1.972656e-01 -2.618879e-06 4.215911e-05 -1.977757e-05 6.573275e-06 8.723145e-01 5.117798e-01
2.988141e+08 -9.365845e-01 -1.979370e-01 -1.544505e-05 -8.553267e-06 -2.986565e-05 -3.256276e-05 8.726196e-01 5.124512e-01
2.990319e+08 -9.354858e-01 -1.986084e-01 -5.085021e-05 -3.027916e-05 5.797297e-05 1.153722e-05 8.729248e-01 5.116577e-01
2.992497e+08 -9.357910e-01 -1.994629e-01 2.452917e-05 -3.441051e-05 3.584847e-05 -8.940697e-06 8.726196e-01 5.137329e-01
2.994675e+08 -9.345703e-01 -2.002563e-01 1.705997e-05 2.144277e-05 -1.354143e-05 -3.650412e-05 8.740845e-01 5.131226e-01
2.996853e+08 -9.338989e-01 -2.004395e-01 7.065944e-06 1.483038e-05 6.687641e-05 -4.996732e-05 8.740845e-01 5.137939e-01
2.999031e+08 -9.337158e-01 -2.009277e-01 -1.129042e-05 1.448859e-05 2.419762e-05 -1.533143e-05 8.747559e-01 5.132446e-01
3.001209e+08 -9.334717e-01 -2.013550e-01 -4.837289e-05 3.213435e-05 1.468137e-05 2.881140e-05 8.742676e-01 5.136719e-01
3.003388e+08 -9.334106e-01 -2.020874e-01 -9.626150e-06 -2.501719e-05 -1.741573e-07 -2.044812e-05 8.754272e-01 5.148926e-01
3.005566e+08 -9.321289e-01 -2.017212e-01 -2.633780e-06 4.222244e-05 -1.423247e-05 -3.186800e-05 8.753052e-01 5.148926e-01
3.007744e+08 -9.315796e-01 -2.031250e-01 1.350418e-05 1.402851e-05 3.844872e-05 -5.410984e-06 8.744507e-01 5.147095e-01
3.009922e+08 -9.316406e-01 -2.030640e-01 1.129508e-05 -1.448207e-05 4.612654e-05 6.657094e-06 8.750610e-01 5.147095e-01
3.012100e+08 -9.313965e-01 -2.048950e-01 -2.094731e-05 -1.050718e-05 5.258247e-06 7.046852e-06 8.759766e-01 5.151978e-01
3.014278e+08 -9.312134e-01 -2.051392e-01 -1.873448e-05 1.802761e-05 -1.225807e-05 -2.376363e-05 8.762817e-01 5.158081e-01
3.016456e+08 -9.303589e-01 -2.054443e-01 -4.900992e-05 1.652166e-05 -4.365109e-06 -1.319405e-05 8.756714e-01 5.151978e-01
3.018634e+08 -9.303589e-01 -2.061157e-01 -2.608635e-05 -3.082491e-05 3.623031e-05 9.963289e-06 8.762817e-01 5.157471e-01
3.020812e+08 -9.298096e-01 -2.073364e-01 1.104921e-05 -4.854426e-05 3.057532e-05 -1.597218e-05 8.771362e-01 5.164185e-01
3.022991e+08 -9.292603e-01 -2.080688e-01 2.812408e-05 -2.704747e-05 8.331612e-06 7.492024e-06 8.768921e-01 5.164795e-01
3.025169e+08 -9.287720e-01 -2.086792e-01 -3.159046e-05 -3.280677e-05 4.143454e-06 1.473352e-05 8.777466e-01 5.162964e-01
3.027347e+08 -9.287109e-01 -2.089233e-01 2.386235e-05 2.285466e-06 -4.373118e-05 -1.631677e-06 8.774414e-01 5.162964e-01
3.029525e+08 -9.281616e-01 -2.094116e-01 -1.599081e-06 -1.290720e-05 7.096678e-06 -2.722442e-05 8.777466e-01 5.161743e-01
3.031703e+08 -9.282837e-01 -2.102051e-01 3.620982e-06 -4.500896e-05 1.431536e-05 -1.205597e-05 8.777466e-01 5.166016e-01
3.033881e+08 -9.272461e-01 -2.112427e-01 -1.321174e-05 -3.246032e-05 -1.732353e-05 -1.037493e-05 8.784180e-01 5.163574e-01
3.036059e+08 -9.275513e-01 -2.114258e-01 -1.803227e-05 -1.873076e-05 -2.629496e-05 -3.523380e-05 8.770142e-01 5.160522e-01
3.038238e+08 -9.278564e-01 -2.113647e-01 3.268942e-06 -2.662838e-05 4.860573e-06 -1.186226e-05 8.779297e-01 5.170898e-01
3.040416e+08 -9.265137e-01 -2.124634e-01 2.680160e-05 -5.932525e-06 7.301569e-07 -2.658553e-05 8.781738e-01 5.167236e-01
3.042594e+08 -9.268799e-01 -2.135620e-01 9.027775e-06 9.381678e-06 1.246668e-05 2.224557e-05 8.783569e-01 5.177002e-01
3.044772e+08 -9.267578e-01 -2.138062e-01 -1.691282e-06 3.955886e-05 -3.425591e-05 -2.384372e-05 8.785400e-01 5.176392e-01
3.046950e+08 -9.264526e-01 -2.143555e-01 -3.875233e-05 4.794449e-06 -1.891609e-05 3.864989e-07 8.784180e-01 5.170288e-01
3.049128e+08 -9.259644e-01 -2.149048e-01 1.230743e-05 -1.725368e-05 2.987683e-05 1.063012e-05 8.784180e-01 5.177612e-01
3.051306e+08 -9.259033e-01 -2.152710e-01 -9.386335e-06 9.036623e-06 -4.580244e-06 -1.166761e-05 8.796387e-01 5.175781e-01
3.053484e+08 -9.257202e-01 -2.158813e-01 2.878904e-05 -1.142733e-05 -4.530698e-05 9.100884e-06 8.796387e-01 5.185547e-01
3.055662e+08 -9.250488e-01 -2.169189e-01 5.837530e-06 -1.646485e-05 5.693361e-05 -2.652407e-06 8.788452e-01 5.181274e-01
3.057841e+08 -9.249878e-01 -2.180786e-01 1.293235e-05 -1.592562e-06 9.745359e-06 -2.371334e-05 8.796997e-01 5.187378e-01
3.060019e+08 -9.245605e-01 -2.177124e-01 -4.157424e-06 -2.311356e-05 -6.090850e-07 -1.736823e-05 8.793335e-01 5.184326e-01
3.062197e+08 -9.254150e-01 -2.185059e-01 5.602837e-06 -5.062297e-05 -2.379715e-05 1.225248e-05 8.802490e-01 5.193481e-01
3.064375e+08 -9.242554e-01 -2.192993e-01 -2.842955e-05 -6.999820e-06 4.210137e-05 3.443472e-05 8.796387e-01 5.185547e-01
3.066553e+08 -9.241943e-01 -2.203979e-01 -5.821511e-05 7.145107e-06 -4.429836e-06 8.782838e-06 8.795166e-01 5.192871e-01
3.068731e+08 -9.243774e-01 -2.205200e-01 3.810786e-05 3.210641e-05 1.246668e-05 2.226047e-05 8.800659e-01 5.195312e-01
3.070909e+08 -9.235840e-01 -2.212524e-01 1.844112e-05 3.660098e-07 1.020171e-05 -2.679043e-05 8.804932e-01 5.191650e-01
3.073088e+08 -9.230957e-01 -2.209473e-01 -4.495680e-05 -1.286343e-05 -5.212054e-05 1.281500e-05 8.807373e-01 5.190430e-01
3.075266e+08 -9.230347e-01 -2.221069e-01 2.551451e-05 1.527183e-05 -2.475828e-05 -2.404489e-05 8.800659e-01 5.192261e-01
3.077444e+08 -9.233398e-01 -2.225952e-01 3.532507e-05 -1.221523e-05 3.783405e-05 -7.692724e-07 8.811035e-01 5.199585e-01
3.079622e+08 -9.233398e-01 -2.235107e-01 3.334880e-05 -6.729737e-06 2.417155e-05 6.685033e-06 8.807983e-01 5.194092e-01
3.081800e+08 -9.230957e-01 -2.235107e-01 -2.492219e-05 4.302710e-07 2.440065e-05 5.137175e-06 8.804932e-01 5.194702e-01
3.083978e+08 -9.227295e-01 -2.246094e-01 -3.972277e-05 -4.508719e-05 4.337728e-05 -1.723506e-05 8.807983e-01 5.197144e-01
3.086156e+08 -9.234009e-01 -2.246704e-01 -1.706183e-06 3.966317e-05 3.153458e-06 -2.156477e-05 8.812256e-01 5.196533e-01
3.088334e+08 -9.226685e-01 -2.256470e-01 -3.715977e-07 1.845323e-05 4.966184e-05 -3.832579e-05 8.807373e-01 5.198975e-01
3.090512e+08 -9.230347e-01 -2.255859e-01 1.136493e-05 -1.453888e-05 3.139861e-05 2.189726e-05 8.803711e-01 5.202026e-01
3.092691e+08 -9.226074e-01 -2.269287e-01 7.811934e-06 -2.200156e-05 -6.838236e-06 3.719237e-06 8.806152e-01 5.197754e-01
3.094869e+08 -9.229736e-01 -2.272339e-01 7.099472e-06 1.491513e-05 1.263339e-05 -2.175942e-05 8.811035e-01 5.199585e-01
3.097047e+08 -9.230347e-01 -2.276611e-01 -1.490675e-05 7.092953e-06 2.689660e-05 5.273893e-05 8.800049e-01 5.196533e-01
3.099225e+08 -9.224854e-01 -2.288818e-01 -3.265962e-05 -3.017671e-05 1.654401e-05 -5.434267e-06 8.803101e-01 5.198364e-01
3.101403e+08 -9.218140e-01 -2.290649e-01 1.339242e-06 -2.120994e-05 2.993271e-06 2.246536e-05 8.800049e-01 5.199585e-01
3.103581e+08 -9.215698e-01 -2.299805e-01 2.594851e-05 -3.183261e-06 2.712570e-05 -1.331605e-05 8.807983e-01 5.214233e-01
3.105759e+08 -9.226685e-01 -2.296143e-01 -1.787860e-05 1.534354e-05 1.458637e-05 -1.360755e-05 8.802490e-01 5.217896e-01
3.107938e+08 -9.213257e-01 -2.310181e-01 -6.044284e-07 -1.572631e-05 1.358800e-05 1.459010e-05 8.810425e-01 5.205688e-01
3.110116e+08 -9.222412e-01 -2.306519e-01 3.122538e-05 -3.545173e-05 -7.730722e-05 -9.719282e-06 8.812866e-01 5.211792e-01
3.112294e+08 -9.223022e-01 -2.316284e-01 2.361834e-05 2.081692e-05 -2.598763e-05 4.813820e-05 8.806763e-01 5.216064e-01
3.114472e+08 -9.223022e-01 -2.315674e-01 -9.054318e-06 -9.430107e-06 -7.673167e-06 -1.214724e-05 8.805542e-01 5.211792e-01
3.116650e+08 -9.218750e-01 -2.330322e-01 2.497062e-05 -4.190952e-07 2.657436e-05 -3.073364e-05 8.804321e-01 5.214844e-01
3.118828e+08 -9.219360e-01 -2.332764e-01 -2.082624e-05 2.360344e-05 -1.985580e-05 6.518327e-06 8.801880e-01 5.214233e-01
3.121006e+08 -9.223022e-01 -2.330322e-01 -4.190579e-05 1.301616e-05 5.383044e-07 -2.511963e-05 8.805542e-01 5.220947e-01
3.123184e+08 -9.219971e-01 -2.341919e-01 -3.048964e-05 -1.538545e-06 4.762411e-05 -2.425164e-06 8.804932e-01 5.214233e-01
3.125362e+08 -9.208374e-01 -2.341919e-01 3.544614e-06 7.466413e-06 1.300126e-05 -2.810732e-06 8.796387e-01 5.212402e-01
3.127541e+08 -9.219971e-01 -2.344971e-01 2.851523e-05 7.061288e-06 6.843731e-05 2.736971e-05 8.798218e-01 5.217285e-01
3.129719e+08 -9.212036e-01 -2.351685e-01 -2.853386e-05 -7.068738e-06 -3.848597e-05 -1.666881e-05 8.798828e-01 5.225220e-01
3.131897e+08 -9.212036e-01 -2.362671e-01 -7.692724e-06 -3.070198e-05 4.020706e-05 2.639741e-05 8.802490e-01 5.227051e-01
3.134075e+08 -9.214478e-01 -2.361450e-01 1.162663e-05 1.966767e-05 -2.346560e-05 -3.338978e-05 8.802490e-01 5.219727e-01
3.136253e+08 -9.221191e-01 -2.366333e-01 -3.603660e-05 -3.512949e-06 2.686679e-05 1.024641e-05 8.805542e-01 5.226440e-01
3.138431e+08 -9.214478e-01 -2.373047e-01 3.169663e-05 3.305264e-05 1.448579e-05 -3.410503e-05 8.795166e-01 5.225220e-01
3.140609e+08 -9.215698e-01 -2.378540e-01 -3.922731e-06 1.102593e-05 2.204999e-05 9.872019e-08 8.798828e-01 5.221558e-01
3.142788e+08 -9.223022e-01 -2.378540e-01 -4.018098e-05 -2.672151e-05 -1.520943e-05 -3.813766e-06 8.796387e-01 5.222168e-01
3.144966e+08 -9.212646e-01 -2.391357e-01 6.484799e-06 -7.883646e-07 -5.486421e-06 -5.541369e-06 8.779907e-01 5.216064e-01
3.147144e+08 -9.212646e-01 -2.387695e-01 2.945773e-06 -8.267816e-06 1.197495e-05 -1.716055e-05 8.793335e-01 5.221558e-01
3.149322e+08 -9.220581e-01 -2.396240e-01 -5.124137e-06 -2.046488e-05 -2.070423e-05 -9.356998e-06 8.787842e-01 5.225220e-01
3.151500e+08 -9.217529e-01 -2.398682e-01 2.475828e-05 -3.467314e-05 -6.858259e-06 3.723428e-06 8.792114e-01 5.227051e-01
3.153678e+08 -9.210815e-01 -2.401733e-01 -9.216368e-06 4.333258e-05 -1.608208e-05 4.492328e-05 8.796997e-01 5.228271e-01
3.155856e+08 -9.222412e-01 -2.405396e-01 2.935156e-05 5.710497e-05 1.688860e-05 -2.907589e-05 8.784790e-01 5.240479e-01
3.158034e+08 -9.223022e-01 -2.415771e-01 2.480298e-05 -3.465638e-05 2.986193e-05 -9.799376e-06 8.776855e-01 5.241089e-01
3.160212e+08 -9.213257e-01 -2.415771e-01 -7.488299e-06 3.546476e-06 2.093054e-05 7.813796e-06 8.784180e-01 5.248413e-01
3.162391e+08 -9.219971e-01 -2.417603e-01 -8.674338e-06 -2.795644e-05 -2.269633e-06 1.544971e-05 8.775635e-01 5.239868e-01
3.164569e+08 -9.212646e-01 -2.426147e-01 -4.784763e-05 2.957880e-05 1.267530e-06 1.280569e-05 8.779297e-01 5.241089e-01
3.166747e+08 -9.223633e-01 -2.424927e-01 -3.683381e-05 3.346801e-05 3.158674e-05 -1.005828e-07 8.773804e-01 5.244141e-01
3.168925e+08 -9.221191e-01 -2.437134e-01 7.487833e-07 -3.702752e-05 -1.234934e-06 2.983212e-05 8.776245e-01 5.240479e-01
3.171103e+08 -9.224243e-01 -2.438354e-01 -1.868047e-05 -3.466941e-05 -3.241934e-05 -1.583435e-05 8.761597e-01 5.251465e-01
3.173281e+08 -9.222412e-01 -2.442017e-01 -3.447570e-05 9.465963e-06 2.825074e-05 -4.163943e-05 8.768921e-01 5.250244e-01
3.175459e+08 -9.216309e-01 -2.441406e-01 -4.570186e-05 -2.874061e-05 1.819804e-05 2.634898e-05 8.767700e-01 5.243530e-01
3.177638e+08 -9.214478e-01 -2.447510e-01 2.423488e-05 3.662519e-05 -3.637746e-06 2.470799e-05 8.765869e-01 5.250244e-01
3.179816e+08 -9.218140e-01 -2.450562e-01 -2.350658e-06 2.405047e-05 4.231464e-06 -7.266644e-06 8.770142e-01 5.256958e-01
3.181994e+08 -9.223633e-01 -2.456665e-01 5.327165e-06 -3.231689e-05 -1.545995e-05 -2.283603e-06 8.761597e-01 5.260620e-01
3.184172e+08 -9.221191e-01 -2.452393e-01 1.852401e-05 3.976747e-07 -4.136935e-06 -1.482200e-05 8.762817e-01 5.255737e-01
3.186350e+08 -9.221191e-01 -2.460327e-01 -2.049655e-05 5.111098e-06 -1.477636e-05 -6.927177e-06 8.759766e-01 5.258789e-01
3.188528e+08 -9.217529e-01 -2.470093e-01 -1.284666e-05 3.586896e-05 -5.429611e-05 2.512336e-05 8.757935e-01 5.267944e-01
3.190706e+08 -9.224243e-01 -2.472534e-01 -4.509091e-05 -1.302361e-05 -1.879595e-05 -1.203269e-06 8.748779e-01 5.262451e-01
3.192884e+08 -9.226685e-01 -2.467651e-01 -1.571700e-05 -4.298240e-05 2.337992e-05 1.294911e-05 8.748779e-01 5.270996e-01
3.195062e+08 -9.226685e-01 -2.471313e-01 5.514361e-06 1.969282e-06 5.489588e-05 3.499165e-05 8.748779e-01 5.258179e-01
3.197241e+08 -9.226074e-01 -2.471924e-01 7.487368e-06 -3.546942e-06 4.089251e-05 -4.138798e-05 8.748779e-01 5.265503e-01
3.199419e+08 -9.222412e-01 -2.479858e-01 -2.701394e-05 5.908310e-06 -1.832843e-06 -3.031828e-05 8.750610e-01 5.272827e-01
3.201597e+08 -9.223633e-01 -2.472534e-01 -7.696450e-06 -3.076158e-05 3.472529e-05 3.520399e-07 8.751831e-01 5.277100e-01
3.203775e+08 -9.219971e-01 -2.487183e-01 1.635589e-05 -2.838299e-05 3.575720e-05 1.477264e-05 8.742065e-01 5.274048e-01
3.205953e+08 -9.225464e-01 -2.487793e-01 -4.123896e-06 -2.326071e-05 -1.525413e-05 -3.830530e-06 8.738403e-01 5.286865e-01
3.208131e+08 -9.216309e-01 -2.499390e-01 -5.351380e-06 3.231317e-05 -1.892168e-05 -2.177339e-05 8.732910e-01 5.288086e-01
3.210309e+08 -9.226685e-01 -2.498169e-01 -6.103888e-06 -1.775473e-05 2.135523e-05 2.688542e-05 8.741455e-01 5.289307e-01
3.212488e+08 -9.224243e-01 -2.487793e-01 -2.543628e-05 1.891702e-05 -9.060837e-06 -2.912711e-06 8.736572e-01 5.285645e-01
3.214666e+08 -9.224854e-01 -2.498169e-01 -4.190952e-07 1.852214e-05 -1.066364e-05 7.922295e-06 8.719482e-01 5.296021e-01
3.216844e+08 -9.221802e-01 -2.498779e-01 -1.946837e-05 -8.478761e-05 1.948699e-05 -3.452413e-06 8.730469e-01 5.291138e-01
3.219022e+08 -9.224243e-01 -2.506714e-01 -1.301058e-05 1.562759e-06 8.026138e-06 -1.147296e-05 8.720703e-01 5.297852e-01
3.221200e+08 -9.229126e-01 -2.507935e-01 -1.145620e-05 1.458731e-05 3.409199e-05 5.031005e-06 8.726196e-01 5.305176e-01
3.223378e+08 -9.226074e-01 -2.509155e-01 1.156703e-06 3.153086e-05 -3.901683e-05 6.901100e-06 8.715210e-01 5.299072e-01
3.225556e+08 -9.231567e-01 -2.512817e-01 1.772121e-05 3.749877e-05 -9.868294e-06 2.389587e-05 8.719482e-01 5.308838e-01
3.227734e+08 -9.231567e-01 -2.510986e-01 -3.038347e-05 3.269315e-05 -9.532552e-06 1.778826e-07 8.709717e-01 5.307617e-01
3.229912e+08 -9.229736e-01 -2.517700e-01 -2.249889e-05 1.061149e-05 3.293902e-05 -2.998859e-05 8.709717e-01 5.318604e-01
3.232091e+08 -9.234009e-01 -2.515869e-01 9.062700e-06 9.475276e-06 5.161390e-05 1.555681e-05 8.712769e-01 5.314331e-01
3.234269e+08 -9.233398e-01 -2.522583e-01 4.942529e-06 -1.379661e-05 4.023779e-06 -5.743001e-06 8.707886e-01 5.316772e-01
3.236447e+08 -9.227295e-01 -2.514648e-01 1.061149e-05 2.248958e-05 -4.236773e-05 7.992610e-06 8.701782e-01 5.322266e-01
3.238625e+08 -9.229736e-01 -2.525024e-01 -4.713237e-05 -7.543713e-06 2.987683e-06 2.263486e-05 8.706055e-01 5.322266e-01
3.240803e+08 -9.228516e-01 -2.523193e-01 3.410690e-05 9.108335e-06 1.149159e-05 8.033589e-06 8.699951e-01 5.329590e-01
3.242981e+08 -9.226074e-01 -2.528076e-01 -1.527369e-07 -3.433414e-05 6.054342e-05 -2.156943e-06 8.703003e-01 5.333862e-01
3.245159e+08 -9.218750e-01 -2.529907e-01 -3.411062e-05 -9.108335e-06 1.216866e-05 3.389083e-06 8.693848e-01 5.333862e-01
3.247338e+08 -9.226685e-01 -2.539673e-01 -8.251518e-07 3.703497e-05 1.123175e-06 3.505684e-05 8.682861e-01 5.330811e-01
3.249516e+08 -9.229736e-01 -2.534180e-01 -2.815574e-05 -2.565421e-05 -8.166768e-06 -9.143259e-06 8.685913e-01 5.338745e-01
3.251694e+08 -9.223022e-01 -2.532349e-01 1.752935e-05 3.167428e-06 -5.722791e-05 1.057982e-06 8.682861e-01 5.339966e-01
3.253872e+08 -9.233398e-01 -2.535400e-01 5.019084e-05 3.359467e-05 4.866347e-05 3.575534e-05 8.678589e-01 5.350952e-01
3.256050e+08 -9.217529e-01 -2.534180e-01 -1.754053e-05 -3.177673e-06 3.893860e-05 1.526251e-05 8.681641e-01 5.350952e-01
3.258228e+08 -9.229736e-01 -2.545776e-01 -8.203089e-06 -4.654750e-05 -1.426786e-05 1.057796e-05 8.681641e-01 5.355225e-01
3.260406e+08 -9.225464e-01 -2.542114e-01 -2.064928e-05 -2.921559e-05 2.135607e-10 -1.586358e-10 8.677368e-01 5.360718e-01
3.262584e+08 -9.225464e-01 -2.539673e-01 -3.658235e-06 -4.180148e-05 -7.586554e-06 8.400064e-06 8.672485e-01 5.364990e-01
3.264762e+08 -9.226685e-01 -2.539673e-01 9.897631e-07 -2.757413e-06 1.002848e-05 3.957190e-05 8.670044e-01 5.363770e-01
3.266941e+08 -9.226685e-01 -2.540894e-01 -9.044074e-06 -9.475742e-06 -4.149973e-06 -1.489744e-05 8.665161e-01 5.369263e-01
3.269119e+08 -9.221191e-01 -2.547607e-01 2.092123e-05 -2.363138e-05 7.820316e-06 -9.952579e-06 8.672485e-01 5.371704e-01
3.271297e+08 -9.224243e-01 -2.547607e-01 -7.372350e-06 3.783591e-05 1.041219e-06 -2.843700e-05 8.663940e-01 5.378418e-01
3.273475e+08 -9.218140e-01 -2.548828e-01 4.553422e-05 -5.431473e-06 -3.680587e-06 2.484955e-05 8.657227e-01 5.382080e-01
3.275653e+08 -9.221802e-01 -2.557373e-01 1.343526e-05 -2.008490e-05 4.363060e-05 7.002801e-05 8.659058e-01 5.380859e-01
3.277831e+08 -9.224243e-01 -2.559814e-01 3.863685e-05 1.385622e-05 5.114079e-05 -1.955777e-06 8.661499e-01 5.390015e-01
3.280009e+08 -9.220581e-01 -2.553711e-01 -9.182841e-06 -4.378706e-05 4.249439e-05 -8.020550e-06 8.653564e-01 5.393677e-01
3.282188e+08 -9.216309e-01 -2.553101e-01 -9.601936e-06 -2.526119e-05 3.776141e-05 2.423301e-06 8.649902e-01 5.404663e-01
3.284366e+08 -9.226685e-01 -2.556152e-01 -1.089461e-05 3.032014e-05 -1.614448e-05 -1.988374e-05 8.645020e-01 5.399780e-01
3.286544e+08 -9.216309e-01 -2.561646e-01 -5.515758e-06 -1.983251e-06 2.696551e-05 -1.030043e-05 8.646851e-01 5.408936e-01
3.288722e+08 -9.219360e-01 -2.561035e-01 -3.761612e-05 -1.664087e-05 5.403534e-06 2.783723e-05 8.643799e-01 5.416260e-01
3.290900e+08 -9.214478e-01 -2.561035e-01 -1.301430e-05 1.551583e-06 -3.572553e-06 2.650311e-06 8.646851e-01 5.413208e-01
3.293078e+08 -9.212036e-01 -2.564087e-01 -3.001094e-05 1.411326e-05 6.004050e-05 2.551824e-06 8.644409e-01 5.421143e-01
3.295256e+08 -9.212646e-01 -2.565918e-01 -8.051284e-06 -1.223944e-05 -7.115304e-06 -3.764965e-05 8.638916e-01 5.422974e-01
3.297434e+08 -9.212036e-01 -2.565918e-01 4.241616e-05 -3.140047e-05 2.535246e-05 5.960464e-07 8.627930e-01 5.425415e-01
3.299612e+08 -9.209595e-01 -2.559204e-01 -1.411699e-05 -3.001839e-05 4.102476e-05 2.356246e-05 8.641968e-01 5.443726e-01
3.301791e+08 -9.217529e-01 -2.565918e-01 3.970228e-06 -1.103431e-05 -1.338124e-05 4.381873e-06 8.640137e-01 5.443726e-01
3.303969e+08 -9.218140e-01 -2.569580e-01 -1.416355e-05 9.144098e-05 7.934868e-06 5.370751e-05 8.637695e-01 5.441895e-01
3.306147e+08 -9.210815e-01 -2.578735e-01 -5.654991e-05 1.434237e-06 -1.531094e-06 3.160536e-05 8.629761e-01 5.448608e-01
3.308325e+08 -9.206543e-01 -2.567139e-01 -3.109872e-05 -1.743250e-05 3.551319e-05 1.799501e-05 8.627930e-01 5.460205e-01
3.310503e+08 -9.205322e-01 -2.567139e-01 4.698336e-05 -2.670288e-05 4.877895e-05 -5.006045e-05 8.632202e-01 5.462036e-01
3.312681e+08 -9.201660e-01 -2.573853e-01 1.983717e-06 -5.515758e-06 3.195554e-05 -2.230518e-05 8.631592e-01 5.463257e-01
3.314859e+08 -9.203491e-01 -2.574463e-01 1.653284e-05 5.962327e-06 -2.875924e-06 -4.500523e-05 8.622437e-01 5.474243e-01
3.317038e+08 -9.193726e-01 -2.575684e-01 -2.539717e-06 -1.024920e-05 2.592988e-05 1.818314e-05 8.622437e-01 5.469360e-01
3.319216e+08 -9.202271e-01 -2.573853e-01 1.554750e-05 8.702278e-06 -1.939945e-05 -4.109740e-05 8.623047e-01 5.477295e-01
3.321394e+08 -9.198608e-01 -2.581787e-01 1.739152e-05 -3.108382e-05 -8.550473e-06 1.465995e-05 8.619385e-01 5.477295e-01
3.323572e+08 -9.194946e-01 -2.573242e-01 -2.941862e-05 2.986751e-05 2.284348e-05 -2.528727e-05 8.616943e-01 5.487671e-01
3.325750e+08 -9.196777e-01 -2.576904e-01 3.175065e-05 6.748363e-05 -1.547113e-05 -2.458878e-05 8.618774e-01 5.491333e-01
3.327928e+08 -9.193115e-01 -2.582397e-01 -4.756078e-05 -2.340600e-05 -1.027714e-05 4.850794e-06 8.605957e-01 5.495605e-01
3.330106e+08 -9.185181e-01 -2.587280e-01 3.814138e-05 3.243424e-05 -3.513321e-05 2.184324e-05 8.618774e-01 5.502319e-01
3.332284e+08 -9.186401e-01 -2.583008e-01 1.112185e-05 3.826618e-05 -1.350325e-05 -1.635309e-05 8.618164e-01 5.507812e-01
3.334462e+08 -9.190063e-01 -2.584839e-01 -4.554912e-05 5.401671e-06 -1.248252e-05 -1.863576e-06 8.615723e-01 5.507812e-01
3.336641e+08 -9.188843e-01 -2.581787e-01 2.855621e-05 7.178634e-06 4.718080e-05 -1.691654e-05 8.610229e-01 5.520630e-01
3.338819e+08 -9.185181e-01 -2.584839e-01 4.310533e-05 1.867115e-05 -3.917143e-06 -1.653656e-05 8.610840e-01 5.526733e-01
3.340997e+08 -9.180908e-01 -2.589111e-01 -9.932555e-07 2.753921e-06 2.088025e-06 -1.404807e-05 8.602295e-01 5.523071e-01
3.343175e+08 -9.177246e-01 -2.584229e-01 2.854690e-05 7.180497e-06 -3.213808e-05 1.616776e-06 8.605347e-01 5.532837e-01
3.345353e+08 -9.179077e-01 -2.584229e-01 3.351644e-05 -6.606802e-06 4.630536e-06 -3.121421e-05 8.608398e-01 5.535278e-01
3.347531e+08 -9.169922e-01 -2.595215e-01 -4.663691e-05 -2.615899e-05 -4.670583e-07 3.120629e-06 8.606567e-01 5.546265e-01
3.349709e+08 -9.174194e-01 -2.593994e-01 -8.102506e-06 -4.653633e-05 1.029857e-05 -4.854519e-06 8.601685e-01 5.559692e-01
3.351888e+08 -9.166870e-01 -2.593384e-01 3.911182e-05 2.969429e-05 2.311356e-05 1.620315e-05 8.602905e-01 5.562744e-01
3.354066e+08 -9.168091e-01 -2.595215e-01 1.540408e-06 1.301616e-05 -3.135949e-05 1.767278e-05 8.612061e-01 5.563354e-01
3.356244e+08 -9.158936e-01 -2.596436e-01 -1.201686e-05 -1.214445e-06 -2.560206e-06 1.716241e-05 8.607178e-01 5.562744e-01
3.358422e+08 -9.163208e-01 -2.593994e-01 -2.069399e-06 -2.877042e-05 5.551148e-06 5.612150e-06 8.600464e-01 5.574951e-01
3.360600e+08 -9.155273e-01 -2.595825e-01 -2.303906e-05 -5.189329e-06 -1.192372e-05 1.577567e-05 8.602295e-01 5.579834e-01
3.362778e+08 -9.154663e-01 -2.603760e-01 -1.560897e-05 -4.303455e-05 -9.135343e-06 -2.963934e-06 8.605347e-01 5.587158e-01
3.364956e+08 -9.142456e-01 -2.601318e-01 4.259124e-05 3.717467e-05 -1.397356e-05 -1.324620e-05 8.598022e-01 5.588379e-01
3.367134e+08 -9.149170e-01 -2.599487e-01 4.975125e-06 -1.376309e-05 4.385598e-06 1.342222e-05 8.594360e-01 5.597534e-01
3.369312e+08 -9.143066e-01 -2.607422e-01 7.493887e-06 -3.522262e-06 2.372824e-05 -9.229407e-06 8.602295e-01 5.595093e-01
3.371491e+08 -9.147339e-01 -2.605591e-01 4.824251e-07 -1.851190e-05 1.729000e-06 9.843614e-06 8.591309e-01 5.614624e-01
3.373669e+08 -9.141235e-01 -2.604980e-01 -5.971640e-06 1.652259e-05 1.945160e-05 -1.898035e-06 8.597412e-01 5.613403e-01
3.375847e+08 -9.139404e-01 -2.610474e-01 -7.498544e-06 3.523659e-06 4.524738e-05 1.795217e-05 8.604736e-01 5.614014e-01
3.378025e+08 -9.133301e-01 -2.609863e-01 -1.996569e-05 2.081692e-05 -9.064563e-06 1.781527e-05 8.602295e-01 5.617676e-01
3.380203e+08 -9.134521e-01 -2.604980e-01 -2.898835e-05 1.131184e-05 -4.859176e-06 -1.031160e-05 8.598022e-01 5.622559e-01
3.382381e+08 -9.129639e-01 -2.613525e-01 -5.995855e-05 2.818555e-05 -1.619291e-05 -1.999829e-05 8.603516e-01 5.625000e-01
3.384559e+08 -9.121704e-01 -2.608032e-01 -8.495990e-06 6.268732e-06 -5.095080e-05 -1.233071e-06 8.599854e-01 5.639648e-01
3.386738e+08 -9.121704e-01 -2.617188e-01 -2.610683e-05 -3.121980e-05 3.973395e-05 1.231022e-05 8.608398e-01 5.641479e-01
3.388916e+08 -9.120483e-01 -2.612915e-01 1.209229e-05 3.548712e-05 9.851065e-06 -1.729000e-06 8.602295e-01 5.646973e-01
3.391094e+08 -9.113159e-01 -2.614746e-01 1.707487e-05 2.171285e-05 2.179015e-05 -1.753122e-05 8.608398e-01 5.645752e-01
3.393272e+08 -9.112549e-01 -2.625122e-01 1.043081e-05 -4.608557e-05 5.233102e-06 -1.361128e-05 8.600464e-01 5.664062e-01
3.395450e+08 -9.111938e-01 -2.622070e-01 -3.458932e-06 2.678670e-05 -4.665926e-07 3.129942e-06 8.599854e-01 5.668945e-01
3.397628e+08 -9.102783e-01 -2.630005e-01 2.357736e-05 2.098270e-05 1.093745e-05 -3.035180e-05 8.604126e-01 5.683594e-01
3.399806e+08 -9.104004e-01 -2.617798e-01 -6.146729e-08 -3.429502e-05 6.701797e-06 4.097819e-05 8.607788e-01 5.681152e-01
3.401984e+08 -9.096680e-01 -2.631226e-01 -5.013496e-05 -3.367662e-05 3.441609e-05 5.150214e-06 8.607788e-01 5.684814e-01
3.404162e+08 -9.092407e-01 -2.634277e-01 -4.905090e-05 -2.183020e-06 1.760665e-05 1.063664e-05 8.604126e-01 5.689697e-01
3.406341e+08 -9.088135e-01 -2.633667e-01 4.056841e-05 8.456409e-06 3.301911e-05 1.453981e-05 8.605957e-01 5.699463e-01
3.408519e+08 -9.090576e-01 -2.632446e-01 -2.051890e-05 5.032867e-06 1.509860e-05 -1.534726e-05 8.605957e-01 5.704956e-01
3.410697e+08 -9.085083e-01 -2.634888e-01 4.030764e-06 2.327748e-05 1.258217e-06 1.299381e-05 8.607178e-01 5.709839e-01
3.412875e+08 -9.074707e-01 -2.644043e-01 -1.465902e-06 2.126582e-05 1.313724e-05 4.038401e-05 8.604126e-01 5.708618e-01
3.415053e+08 -9.070435e-01 -2.637939e-01 1.799967e-05 -1.529232e-05 1.564249e-05 2.336688e-06 8.607788e-01 5.718994e-01
3.417231e+08 -9.074097e-01 -2.636719e-01 1.998432e-05 -2.080761e-05 4.068390e-05 6.072223e-06 8.611450e-01 5.720215e-01
3.419409e+08 -9.064331e-01 -2.648315e-01 2.855062e-05 7.206574e-06 1.134258e-05 9.700656e-06 8.615723e-01 5.725098e-01
3.421588e+08 -9.064941e-01 -2.651978e-01 4.507229e-05 1.319498e-05 -3.266148e-05 -3.851950e-05 8.616333e-01 5.732422e-01
3.423766e+08 -9.061890e-01 -2.653809e-01 -1.463294e-05 -4.580989e-05 -1.674518e-05 2.630427e-05 8.629761e-01 5.733032e-01
3.425944e+08 -9.052734e-01 -2.655640e-01 -2.058223e-06 -2.879463e-05 3.780797e-05 4.086643e-06 8.625488e-01 5.739136e-01
3.428122e+08 -9.055176e-01 -2.653809e-01 1.590699e-06 4.728138e-05 -1.785532e-05 -9.084120e-06 8.619385e-01 5.739746e-01
3.430300e+08 -9.046631e-01 -2.659912e-01 -1.995824e-06 5.512964e-06 -1.646578e-06 1.096725e-05 8.625488e-01 5.748291e-01
3.432478e+08 -9.047241e-01 -2.659302e-01 -2.589077e-06 -4.458427e-05 1.790002e-06 3.070384e-05 8.630981e-01 5.752563e-01
3.434656e+08 -9.033203e-01 -2.663574e-01 7.579103e-06 3.078580e-05 -1.844019e-05 -4.760176e-05 8.634033e-01 5.755005e-01
3.436834e+08 -9.037476e-01 -2.664795e-01 -3.447384e-05 4.361942e-05 4.770607e-05 2.346933e-06 8.631592e-01 5.760498e-01
3.439012e+08 -9.036865e-01 -2.670288e-01 5.938113e-06 -5.084276e-05 -4.388392e-06 -1.348369e-05 8.634644e-01 5.766602e-01
3.441191e+08 -9.032593e-01 -2.673340e-01 -5.251914e-05 2.463534e-05 1.685694e-05 -5.482696e-06 8.635254e-01 5.764160e-01
3.443369e+08 -9.019165e-01 -2.677612e-01 -6.978400e-06 1.929514e-05 2.452545e-05 -1.391023e-05 8.641357e-01 5.770874e-01
3.445547e+08 -9.025269e-01 -2.672119e-01 4.103035e-05 -1.009554e-05 -1.090020e-05 -1.285877e-05 8.637695e-01 5.774536e-01
3.447725e+08 -9.019165e-01 -2.680054e-01 2.804957e-05 -8.555129e-06 -1.284946e-05 -2.117455e-05 8.643188e-01 5.794067e-01
3.449903e+08 -9.017944e-01 -2.689819e-01 -3.806502e-05 1.821667e-06 9.937212e-06 1.914799e-05 8.646240e-01 5.789185e-01
3.452081e+08 -9.010010e-01 -2.687988e-01 3.860705e-05 1.396798e-05 1.324806e-05 -2.814457e-06 8.643799e-01 5.795898e-01
3.454259e+08 -9.008179e-01 -2.684326e-01 1.501851e-05 -7.037073e-06 -2.015568e-05 2.744235e-05 8.644409e-01 5.801392e-01
3.456438e+08 -9.000854e-01 -2.693481e-01 5.187467e-07 1.578219e-05 -1.314655e-05 -4.047155e-05 8.649292e-01 5.806885e-01
3.458616e+08 -8.994751e-01 -2.702026e-01 2.517365e-06 1.027528e-05 2.349727e-05 3.561564e-05 8.652954e-01 5.819092e-01
3.460794e+08 -8.991699e-01 -2.702637e-01 1.351349e-05 -2.007745e-05 -3.177114e-05 1.927651e-05 8.659058e-01 5.818481e-01
3.462972e+08 -8.985596e-01 -2.707520e-01 -2.505444e-05 2.793968e-07 1.955777e-06 8.311588e-06 8.653564e-01 5.819702e-01
3.465150e+08 -8.983765e-01 -2.708130e-01 1.654867e-05 5.992129e-06 3.976561e-05 -8.430332e-06 8.660889e-01 5.824585e-01
3.467328e+08 -8.981323e-01 -2.708740e-01 2.506562e-05 -2.756715e-07 -2.887473e-05 2.131425e-05 8.659668e-01 5.827637e-01
3.469506e+08 -8.972778e-01 -2.714233e-01 -4.519476e-06 -4.755333e-06 1.817383e-05 2.838857e-05 8.663330e-01 5.828857e-01
3.471684e+08 -8.970947e-01 -2.718506e-01 1.859479e-05 3.482960e-05 -4.415587e-05 -5.047768e-06 8.669434e-01 5.835571e-01
3.473862e+08 -8.973389e-01 -2.723999e-01 -1.697987e-05 4.691631e-05 -1.825392e-05 3.577583e-05 8.677368e-01 5.831909e-01
3.476041e+08 -8.965454e-01 -2.728271e-01 1.655798e-05 6.007031e-06 -3.186427e-05 -1.605600e-06 8.677368e-01 5.845947e-01
3.478219e+08 -8.961792e-01 -2.738037e-01 -8.046627e-06 -1.228228e-05 -4.339032e-05 3.194436e-05 8.686523e-01 5.846558e-01
3.480397e+08 -8.959351e-01 -2.733154e-01 1.495704e-06 -2.133846e-05 4.089437e-06 -5.803537e-06 8.685303e-01 5.856323e-01
3.482575e+08 -8.949585e-01 -2.733154e-01 -6.478652e-05 -4.537776e-05 4.273094e-05 1.445785e-05 8.689575e-01 5.856323e-01
3.484753e+08 -8.950195e-01 -2.738647e-01 2.520159e-06 1.027342e-05 2.392568e-05 1.163594e-05 8.686523e-01 5.845337e-01
3.486931e+08 -8.942261e-01 -2.738647e-01 -6.037764e-06 -1.780502e-05 -1.357868e-06 3.027916e-05 8.691406e-01 5.858154e-01
3.489109e+08 -8.937988e-01 -2.739868e-01 1.355447e-05 1.429301e-05 -1.379382e-05 -1.492165e-05 8.691406e-01 5.864258e-01
3.491288e+08 -8.928223e-01 -2.750854e-01 6.000511e-06 -1.657009e-05 2.552383e-05 -2.019666e-05 8.702393e-01 5.861206e-01
3.493466e+08 -8.932495e-01 -2.758179e-01 1.504831e-05 -7.042661e-06 -4.447624e-05 -2.440065e-05 8.701782e-01 5.866699e-01
3.495644e+08 -8.928223e-01 -2.770996e-01 2.108887e-05 1.076795e-05 -4.572794e-06 8.938834e-06 8.707886e-01 5.866089e-01
3.497822e+08 -8.919678e-01 -2.772827e-01 -1.052395e-05 1.179986e-05 -2.749078e-05 1.187064e-05 8.707275e-01 5.874634e-01
3.500000e+08 -8.912354e-01 -2.772827e-01 4.521012e-05 -2.113357e-05 2.153218e-05 2.733245e-05 8.718262e-01 5.888672e-01
