# Hz S RI R 50
! RAW DATA - UNCALIBRATED
1.500000e+06 9.786987e-01 -1.538086e-02 -7.704832e-06 1.523271e-05 2.568122e-06 -9.833369e-06 9.762573e-01 -2.191162e-02
1.717812e+06 9.781494e-01 -1.635742e-02 5.539041e-06 5.334150e-06 -1.210161e-05 -1.684111e-05 9.730835e-01 -2.081299e-02
1.935625e+06 9.778442e-01 -1.446533e-02 6.128103e-07 7.679686e-06 1.145620e-05 2.671033e-06 9.752808e-01 -1.995850e-02
2.153438e+06 9.779053e-01 -1.361084e-02 -3.699213e-06 -1.504831e-05 3.711786e-06 7.233582e-06 9.754028e-01 -1.525879e-02
2.371250e+06 9.783325e-01 -1.043701e-02 7.570721e-06 1.898501e-06 1.251791e-05 -5.388632e-06 9.758911e-01 -1.275635e-02
2.589062e+06 9.787598e-01 -7.812500e-03 -8.258969e-06 -2.604350e-05 -1.731236e-05 -6.008893e-06 9.758911e-01 -9.399414e-03
2.806875e+06 9.782715e-01 -4.333496e-03 -4.593283e-06 -2.486818e-05 1.394935e-05 -5.118549e-06 9.760742e-01 -5.981445e-03
3.024688e+06 9.790039e-01 -1.770020e-03 -1.594890e-05 7.330440e-06 1.096725e-05 -3.971159e-06 9.762573e-01 -2.685547e-03
3.242500e+06 9.788208e-01 2.502441e-03 -7.051043e-06 5.867332e-08 -1.472421e-06 -7.753726e-06 9.768677e-01 2.197266e-03
3.460312e+06 9.751587e-01 2.441406e-03 5.334616e-06 5.541369e-06 1.653936e-05 -5.392358e-06 9.800415e-01 8.544922e-03
3.678125e+06 9.746094e-01 2.075195e-03 1.012161e-05 -1.164991e-05 2.793036e-06 1.518242e-05 9.797363e-01 8.666992e-03
3.895938e+06 9.750977e-01 1.220703e-03 2.575852e-05 1.447275e-05 -2.243929e-05 -7.897615e-07 9.789429e-01 9.155273e-03
4.113750e+06 9.735718e-01 6.713867e-04 -3.186427e-05 1.223572e-05 -5.017733e-06 -3.142981e-06 9.788208e-01 8.789062e-03
4.331562e+06 9.723511e-01 1.464844e-03 6.640330e-07 1.387857e-05 -7.465947e-06 8.765608e-06 9.791260e-01 1.110840e-02
4.549375e+06 9.721069e-01 1.098633e-03 1.137145e-05 5.335547e-06 -1.018215e-05 -2.091657e-05 9.788818e-01 1.147461e-02
4.767188e+06 9.728394e-01 1.281738e-03 -9.374227e-06 -8.431263e-06 -6.577466e-06 3.012363e-06 9.791260e-01 1.226807e-02
4.985000e+06 9.713135e-01 1.281738e-03 2.933666e-06 2.876483e-05 -3.399327e-06 -1.409743e-05 9.785156e-01 1.434326e-02
5.202812e+06 9.701538e-01 1.708984e-03 -7.846393e-06 -1.825392e-07 -2.490357e-06 -1.605321e-05 9.771729e-01 1.513672e-02
5.420625e+06 9.693604e-01 2.136230e-03 -1.482852e-05 -3.216602e-05 1.232885e-05 -1.738779e-06 9.789429e-01 1.617432e-02
5.638438e+06 9.691772e-01 2.563477e-03 -1.523644e-05 1.511630e-05 3.965804e-06 3.445894e-06 9.784546e-01 1.800537e-02
5.856250e+06 9.688110e-01 2.990723e-03 -1.137238e-05 1.928024e-05 2.761604e-06 4.478730e-06 9.794312e-01 1.867676e-02
6.074062e+06 9.678955e-01 3.234863e-03 -5.383044e-06 -1.491420e-05 2.558809e-06 -6.017741e-06 9.797363e-01 2.032471e-02
6.291875e+06 9.675903e-01 4.394531e-03 5.850568e-06 2.710894e-05 -1.710374e-06 7.693190e-06 9.802856e-01 2.142334e-02
6.509688e+06 9.675903e-01 4.394531e-03 -7.683411e-07 7.927418e-06 -2.168003e-06 -2.453802e-06 9.817505e-01 2.209473e-02
6.727500e+06 9.669189e-01 5.310059e-03 2.238899e-05 1.907721e-05 -8.109026e-06 -4.725531e-06 9.825439e-01 2.288818e-02
6.945312e+06 9.656372e-01 7.629395e-03 7.450581e-07 -2.257153e-05 6.528571e-06 -6.612390e-06 9.827881e-01 2.459717e-02
7.163125e+06 9.658813e-01 8.483887e-03 -5.132053e-06 -8.713454e-06 7.998198e-06 7.105060e-06 9.840088e-01 2.563477e-02
7.380938e+06 9.658813e-01 1.000977e-02 -2.707914e-05 1.010858e-05 2.955858e-11 -2.475815e-10 9.855347e-01 2.764893e-02
7.598750e+06 9.655151e-01 1.037598e-02 1.030974e-06 -1.430791e-05 -1.720153e-06 -1.461338e-05 9.856567e-01 2.844238e-02
7.816562e+06 9.660034e-01 1.239014e-02 -2.140179e-05 7.636845e-06 5.816109e-06 -6.658025e-06 9.868774e-01 2.893066e-02
8.034375e+06 9.646606e-01 1.354980e-02 -1.775660e-05 3.458560e-05 4.559755e-06 -1.128297e-05 9.875488e-01 2.947998e-02
8.252188e+06 9.654541e-01 1.513672e-02 7.059891e-06 -1.436099e-06 1.820177e-05 4.123896e-06 9.896851e-01 3.082275e-02
8.470000e+06 9.660034e-01 1.623535e-02 -1.870748e-05 1.302175e-05 2.408400e-06 -2.511777e-05 9.904785e-01 3.125000e-02
8.687812e+06 9.653931e-01 1.708984e-02 -5.269423e-06 -1.344550e-05 9.858049e-06 -9.969808e-07 9.911499e-01 3.143311e-02
8.905625e+06 9.658203e-01 1.885986e-02 9.857118e-06 -2.905726e-05 5.478971e-06 7.716473e-06 9.922485e-01 3.234863e-02
9.123438e+06 9.669800e-01 1.989746e-02 1.491047e-05 -1.738593e-05 -1.507346e-05 -1.303852e-08 9.942017e-01 3.295898e-02
9.341250e+06 9.675903e-01 2.130127e-02 6.327406e-06 8.838717e-06 1.356378e-05 -1.402572e-06 9.946899e-01 3.314209e-02
9.559062e+06 9.673462e-01 2.227783e-02 -1.022313e-05 -8.819625e-07 -5.579554e-06 -9.095762e-06 9.954224e-01 3.326416e-02
9.776875e+06 9.684448e-01 2.410889e-02 7.783063e-06 -1.278985e-05 7.260591e-06 -3.266614e-06 9.963379e-01 3.277588e-02
9.994688e+06 9.681396e-01 2.514648e-02 -7.852912e-06 -2.030283e-06 1.013279e-05 -1.465995e-05 9.968262e-01 3.277588e-02
1.021250e+07 9.686279e-01 2.636719e-02 -4.338101e-06 5.823560e-06 4.061032e-06 5.213544e-06 9.981079e-01 3.314209e-02
1.043031e+07 9.696045e-01 2.728271e-02 1.076609e-05 2.388656e-05 -1.056772e-05 6.075948e-06 9.986572e-01 3.350830e-02
1.064812e+07 9.713135e-01 2.880859e-02 -1.264364e-05 -1.492258e-05 -2.034940e-06 -5.554408e-06 9.987793e-01 3.295898e-02
1.086594e+07 9.707031e-01 2.947998e-02 -4.293397e-06 1.003221e-05 -1.841690e-06 -4.030298e-06 1.000305e+00 3.363037e-02
1.108375e+07 9.722290e-01 3.057861e-02 3.442168e-06 1.177425e-06 9.333715e-06 1.524575e-06 1.000549e+00 3.320312e-02
1.130156e+07 9.727783e-01 3.222656e-02 6.243587e-06 -2.465397e-05 -4.087109e-06 4.500384e-06 1.000549e+00 3.228760e-02
1.151938e+07 9.732056e-01 3.259277e-02 -1.071766e-05 -4.608184e-05 -1.550652e-06 -1.384225e-05 1.001282e+00 3.326416e-02
1.173719e+07 9.743652e-01 3.460693e-02 -1.583248e-05 1.319125e-05 5.322043e-06 -2.959743e-06 1.002686e+00 3.332520e-02
1.195500e+07 9.755249e-01 3.466797e-02 1.107715e-05 -1.445320e-05 -1.886860e-05 -1.179986e-06 1.002502e+00 3.259277e-02
1.217281e+07 9.763184e-01 3.601074e-02 1.258403e-05 -2.652779e-05 6.482005e-06 1.266133e-06 1.002502e+00 3.314209e-02
1.239062e+07 9.768677e-01 3.625488e-02 -1.917873e-05 -4.229136e-06 9.853393e-06 1.023524e-06 1.003418e+00 3.192139e-02
1.260844e+07 9.777222e-01 3.686523e-02 -8.878764e-06 -5.273148e-06 9.104144e-06 8.064322e-06 1.003723e+00 3.210449e-02
1.282625e+07 9.785156e-01 3.845215e-02 -1.303107e-05 -2.638623e-05 4.326226e-06 4.975358e-06 1.003052e+00 3.271484e-02
1.304406e+07 9.792480e-01 3.887939e-02 5.804002e-06 -2.265349e-05 8.768402e-07 -2.818881e-06 1.002991e+00 3.332520e-02
1.326188e+07 9.809570e-01 3.936768e-02 -2.626702e-05 -1.916662e-06 -8.654781e-06 -1.873821e-06 1.003113e+00 3.375244e-02
1.347969e+07 9.816895e-01 3.991699e-02 1.375843e-05 -1.859851e-05 8.794013e-06 1.039356e-06 1.003418e+00 3.253174e-02
1.369750e+07 9.827271e-01 4.132080e-02 -1.115911e-05 9.467825e-06 -1.420267e-07 7.369556e-06 1.003845e+00 3.381348e-02
1.391531e+07 9.826050e-01 4.071045e-02 -4.786998e-07 -2.071261e-05 -4.890841e-06 -5.516689e-06 1.004456e+00 3.356934e-02
1.413312e+07 9.837036e-01 4.113770e-02 -3.738329e-06 -3.083423e-05 1.523644e-06 -7.798895e-06 1.002625e+00 3.326416e-02
1.435094e+07 9.848022e-01 4.235840e-02 -8.524396e-06 -1.400895e-05 -6.189104e-06 -1.048017e-05 1.003662e+00 3.332520e-02
1.456875e+07 9.857178e-01 4.241943e-02 1.982130e-10 5.868515e-10 -2.251938e-06 -5.447771e-06 1.003845e+00 3.326416e-02
1.478656e+07 9.860840e-01 4.284668e-02 -2.497248e-05 -1.709722e-05 1.097564e-06 -7.298775e-06 1.003540e+00 3.448486e-02
1.500438e+07 9.871826e-01 4.364014e-02 3.645197e-06 -1.422968e-05 6.545335e-06 -8.814968e-07 1.003052e+00 3.521729e-02
1.522219e+07 9.875488e-01 4.522705e-02 3.639143e-06 5.357433e-07 -4.386529e-07 -7.371418e-06 1.003235e+00 3.582764e-02
1.544000e+07 9.888916e-01 4.461670e-02 7.595867e-06 -7.121358e-06 6.320886e-06 1.914334e-06 1.003784e+00 3.631592e-02
1.565781e+07 9.897461e-01 4.425049e-02 -5.338341e-06 -2.176501e-05 -9.468757e-06 -7.078052e-06 1.003540e+00 3.680420e-02
1.587562e+07 9.904175e-01 4.547119e-02 -6.877817e-07 -3.624475e-06 -1.744833e-05 3.553927e-06 1.004089e+00 3.710938e-02
1.609344e+07 9.940186e-01 4.473877e-02 1.199543e-06 2.647936e-05 -2.950057e-05 -1.309812e-05 1.005249e+00 4.107666e-02
1.631125e+07 9.943848e-01 4.467773e-02 2.638251e-05 -3.863126e-06 -4.645437e-05 2.622604e-06 1.004578e+00 4.113770e-02
1.652906e+07 9.941406e-01 4.370117e-02 -3.099628e-05 2.002344e-05 3.181770e-05 7.047504e-05 1.004517e+00 4.187012e-02
1.674688e+07 9.946899e-01 4.388428e-02 1.483038e-05 -2.464652e-05 -6.251037e-06 1.161918e-05 1.004578e+00 4.260254e-02
1.696469e+07 9.959717e-01 4.394531e-02 -2.685376e-05 -4.079193e-06 5.161390e-06 1.335423e-05 1.005066e+00 4.302979e-02
1.718250e+07 9.960327e-01 4.223633e-02 -2.600998e-05 1.454167e-05 -2.270564e-05 -1.891330e-05 1.004272e+00 4.443359e-02
1.740031e+07 9.973145e-01 4.241943e-02 2.308935e-05 3.632344e-05 3.729016e-05 5.638972e-05 1.004822e+00 4.406738e-02
1.761812e+07 9.967041e-01 4.138184e-02 4.259869e-05 -4.686415e-06 5.388260e-05 3.156811e-05 1.005493e+00 4.528809e-02
1.783594e+07 9.981689e-01 4.138184e-02 -6.350130e-05 1.636520e-05 -3.116392e-05 -1.264177e-05 1.005371e+00 4.614258e-02
1.805375e+07 9.973145e-01 4.119873e-02 1.044199e-05 -5.858019e-06 -4.478730e-06 -7.544644e-06 1.005737e+00 4.614258e-02
1.827156e+07 9.982910e-01 4.040527e-02 -2.268143e-05 -2.576411e-05 -1.973473e-05 1.696125e-05 1.005859e+00 4.687500e-02
1.848938e+07 9.982910e-01 3.955078e-02 -1.812354e-05 -4.207343e-05 2.918392e-05 7.234514e-06 1.005676e+00 4.791260e-02
1.870719e+07 9.989014e-01 3.961182e-02 -8.959323e-07 -1.877919e-05 -8.682255e-06 9.578653e-06 1.007019e+00 4.840088e-02
1.892500e+07 9.991455e-01 3.820801e-02 4.177541e-05 -2.620742e-05 1.528859e-05 -2.457574e-05 1.006470e+00 4.919434e-02
1.914281e+07 9.993286e-01 3.900146e-02 2.268702e-05 2.313778e-05 1.715869e-05 6.799400e-05 1.007874e+00 4.931641e-02
1.936062e+07 9.989624e-01 3.759766e-02 -1.497753e-05 2.498925e-05 -1.341663e-05 -3.835745e-05 1.007996e+00 5.059814e-02
1.957844e+07 9.996338e-01 3.741455e-02 -7.536262e-06 -4.279986e-05 -1.669675e-05 -2.836809e-06 1.008362e+00 4.913330e-02
1.979625e+07 9.996948e-01 3.704834e-02 -5.448237e-07 -1.077820e-05 1.328625e-05 2.600066e-05 1.009033e+00 5.017090e-02
2.001406e+07 9.995117e-01 3.698730e-02 1.304969e-05 4.531071e-05 1.570955e-05 2.822839e-05 1.009216e+00 5.157471e-02
2.023188e+07 9.987183e-01 3.631592e-02 3.202446e-05 -9.737909e-06 1.305528e-05 2.931617e-05 1.011047e+00 5.206299e-02
2.044969e+07 9.993896e-01 3.552246e-02 -2.232566e-05 -1.243874e-05 -1.176260e-06 1.299195e-05 1.011963e+00 5.181885e-02
2.066750e+07 9.999390e-01 3.594971e-02 1.970679e-06 -6.800145e-05 3.298558e-05 1.215376e-05 1.012939e+00 5.212402e-02
2.088531e+07 9.991455e-01 3.527832e-02 3.335439e-05 1.459755e-05 3.353879e-05 2.138317e-05 1.012634e+00 5.261230e-02
2.110312e+07 9.997559e-01 3.515625e-02 -9.758398e-06 2.226979e-05 -2.385303e-05 -1.266226e-05 1.014404e+00 5.346680e-02
2.132094e+07 9.991455e-01 3.533936e-02 -1.201406e-05 -2.120249e-05 1.081079e-05 1.150649e-05 1.016541e+00 5.291748e-02
2.153875e+07 9.991455e-01 3.466797e-02 -2.204254e-05 -4.313886e-06 7.146969e-06 3.820285e-05 1.015503e+00 5.316162e-02
2.175656e+07 9.988403e-01 3.442383e-02 -2.666004e-05 1.228973e-05 -9.768642e-06 -8.784700e-06 1.016052e+00 5.395508e-02
2.197438e+07 9.989014e-01 3.521729e-02 1.147762e-05 1.033023e-05 -4.673377e-05 -5.431473e-05 1.017456e+00 5.352783e-02
2.219219e+07 9.995117e-01 3.424072e-02 1.149438e-05 1.034606e-05 4.498288e-06 -2.076011e-05 1.018860e+00 5.352783e-02
2.241000e+07 9.984741e-01 3.454590e-02 -1.711864e-05 -1.279358e-05 -2.268329e-05 4.697591e-05 1.019531e+00 5.346680e-02
2.262781e+07 9.982910e-01 3.381348e-02 3.427826e-05 2.560206e-05 5.202135e-06 1.122011e-06 1.020203e+00 5.352783e-02
2.284562e+07 9.985962e-01 3.479004e-02 8.745119e-07 1.642387e-05 3.492460e-07 -1.919735e-05 1.020508e+00 5.346680e-02
2.306344e+07 9.981689e-01 3.399658e-02 3.807060e-05 -7.521361e-06 1.573190e-05 4.782528e-05 1.022034e+00 5.316162e-02
2.328125e+07 9.974365e-01 3.411865e-02 -2.268702e-05 -1.254119e-05 1.434237e-06 -1.649372e-05 1.022949e+00 5.316162e-02
2.349906e+07 9.991455e-01 3.350830e-02 -5.996227e-05 1.150370e-05 4.597008e-06 2.369098e-05 1.023499e+00 5.322266e-02
2.371688e+07 9.980469e-01 3.417969e-02 7.823110e-06 -5.827472e-05 -1.436472e-05 1.207460e-05 1.023499e+00 5.200195e-02
2.393469e+07 9.980469e-01 3.479004e-02 -6.016344e-07 -1.100264e-05 -6.727874e-06 3.143586e-05 1.025208e+00 5.242920e-02
2.415250e+07 9.980469e-01 3.472900e-02 -2.128072e-05 1.495518e-05 -2.961606e-06 6.512180e-05 1.025696e+00 5.236816e-02
2.437031e+07 9.977417e-01 3.521729e-02 -3.305078e-05 1.829118e-06 -1.281127e-05 2.428144e-05 1.025879e+00 5.133057e-02
2.458812e+07 9.981689e-01 3.521729e-02 6.604940e-05 -6.414950e-06 -2.340414e-05 -3.877655e-05 1.026794e+00 5.133057e-02
2.480594e+07 9.980469e-01 3.460693e-02 1.765229e-05 1.841318e-05 3.382191e-05 -1.985021e-05 1.028442e+00 5.120850e-02
2.502375e+07 9.984131e-01 3.485107e-02 5.992595e-06 7.985160e-06 1.270324e-06 4.767999e-05 1.028931e+00 5.053711e-02
2.524156e+07 9.979858e-01 3.601074e-02 4.914589e-06 -1.137052e-05 -1.523457e-05 -1.002196e-05 1.028748e+00 5.053711e-02
2.545938e+07 9.981079e-01 3.564453e-02 -1.646206e-05 3.712252e-06 2.004951e-05 -3.049523e-05 1.030151e+00 4.962158e-02
2.567719e+07 9.986572e-01 3.619385e-02 1.805089e-05 2.400763e-05 -3.691390e-05 -2.392381e-05 1.031250e+00 4.974365e-02
2.589500e+07 9.977417e-01 3.619385e-02 -5.706400e-05 -2.453104e-05 -1.585297e-05 -3.362074e-06 1.031433e+00 4.864502e-02
2.611281e+07 9.990845e-01 3.686523e-02 1.110323e-05 -6.426126e-07 -3.896281e-05 1.557171e-05 1.031799e+00 4.846191e-02
2.633062e+07 9.986572e-01 3.619385e-02 9.039417e-06 -3.678724e-05 -5.237758e-05 1.445413e-05 1.033081e+00 4.797363e-02
2.654844e+07 9.989624e-01 3.649902e-02 1.806021e-05 -7.358193e-05 -2.508424e-05 -3.849342e-05 1.032837e+00 4.718018e-02
2.676625e+07 1.000183e+00 3.698730e-02 -4.276633e-06 2.257712e-05 1.397100e-06 -5.582115e-07 1.033020e+00 4.730225e-02
2.698406e+07 9.991455e-01 3.649902e-02 3.931671e-05 3.274530e-06 -3.938563e-05 1.900457e-05 1.033813e+00 4.577637e-02
2.720188e+07 1.000549e+00 3.729248e-02 -2.805516e-05 -1.152977e-06 -9.210780e-06 -3.523566e-05 1.034668e+00 4.553223e-02
2.741969e+07 1.001099e+00 3.723145e-02 5.074218e-05 5.412847e-06 6.144866e-06 -2.519041e-05 1.035522e+00 4.461670e-02
2.763750e+07 1.000366e+00 3.723145e-02 -4.080683e-05 -2.559647e-05 -2.887473e-05 -1.116283e-05 1.035950e+00 4.412842e-02
2.785531e+07 1.001465e+00 3.759766e-02 -2.239086e-05 1.331791e-06 2.890453e-05 -5.094334e-06 1.036560e+00 4.327393e-02
2.807312e+07 1.001404e+00 3.668213e-02 1.220871e-05 1.612492e-05 4.135072e-07 -7.191673e-05 1.036560e+00 4.272461e-02
2.829094e+07 1.001465e+00 3.735352e-02 -5.590171e-05 6.195158e-06 8.563511e-07 6.184913e-06 1.037842e+00 4.168701e-02
2.850875e+07 1.002441e+00 3.698730e-02 -3.485382e-05 -1.761317e-05 -1.663063e-05 -1.291465e-05 1.037781e+00 4.156494e-02
2.872656e+07 1.003784e+00 3.741455e-02 3.334880e-05 -7.649884e-06 -1.687184e-05 2.313592e-05 1.037781e+00 4.089355e-02
2.894438e+07 1.003723e+00 3.741455e-02 -1.715962e-07 -2.811896e-06 1.244247e-05 1.464039e-05 1.038757e+00 4.034424e-02
2.916219e+07 1.004822e+00 3.741455e-02 -2.216175e-05 6.999820e-06 -5.085021e-07 2.315640e-05 1.038452e+00 3.936768e-02
2.938000e+07 1.004700e+00 3.668213e-02 1.074187e-05 -9.139068e-06 3.294460e-05 -3.627315e-05 1.039185e+00 3.894043e-02
2.959781e+07 1.005249e+00 3.656006e-02 3.890321e-05 -1.087971e-05 -4.095957e-06 -3.450550e-05 1.038635e+00 3.765869e-02
2.981562e+07 1.005676e+00 3.704834e-02 -2.098642e-05 2.678297e-05 4.788861e-06 -8.513685e-06 1.039551e+00 3.717041e-02
3.003344e+07 1.005554e+00 3.656006e-02 9.879470e-06 -2.328120e-05 -1.852587e-05 -2.541393e-05 1.039185e+00 3.680420e-02
3.025125e+07 1.006775e+00 3.662109e-02 -4.571676e-05 -5.625188e-06 -1.375563e-05 -3.400259e-05 1.039673e+00 3.527832e-02
3.046906e+07 1.007141e+00 3.698730e-02 -1.769047e-05 -1.023617e-05 -1.903903e-05 -2.175570e-06 1.040710e+00 3.430176e-02
3.068688e+07 1.007446e+00 3.607178e-02 -4.266948e-05 -4.563108e-05 -1.268648e-05 2.164487e-05 1.040649e+00 3.436279e-02
3.090469e+07 1.008118e+00 3.692627e-02 -2.956949e-05 -1.803599e-05 -2.152659e-05 -4.086085e-05 1.040161e+00 3.430176e-02
3.112250e+07 1.008911e+00 3.643799e-02 1.445413e-06 -2.233870e-05 -4.681200e-05 -2.160668e-06 1.041260e+00 3.436279e-02
3.134031e+07 1.009644e+00 3.698730e-02 6.215647e-05 3.759563e-05 -8.926727e-06 -1.967140e-05 1.041687e+00 3.247070e-02
3.155812e+07 1.009460e+00 3.649902e-02 -4.871748e-06 -1.153164e-05 -1.420639e-05 -1.544226e-05 1.040405e+00 3.259277e-02
3.177594e+07 1.009583e+00 3.710938e-02 1.391768e-05 4.579872e-05 -6.464310e-06 1.998339e-05 1.040527e+00 3.222656e-02
3.199375e+07 1.010132e+00 3.674316e-02 -5.342811e-05 -4.278123e-05 -3.517978e-05 -2.638064e-05 1.040833e+00 3.179932e-02
3.221156e+07 1.010315e+00 3.741455e-02 1.193304e-05 -1.047924e-05 1.127087e-05 -3.346987e-05 1.041565e+00 3.204346e-02
3.242938e+07 1.010437e+00 3.686523e-02 -2.349727e-05 1.537614e-05 -2.543069e-05 3.969669e-05 1.040405e+00 3.082275e-02
3.264719e+07 1.010620e+00 3.631592e-02 -7.691793e-06 -1.175608e-05 -2.819858e-05 -1.555867e-05 1.040833e+00 3.070068e-02
3.286500e+07 1.011108e+00 3.607178e-02 5.610753e-06 3.599562e-07 -1.601782e-05 1.900829e-05 1.040710e+00 2.984619e-02
3.308281e+07 1.011536e+00 3.735352e-02 -5.725399e-05 1.320988e-05 -5.960464e-08 -7.143244e-05 1.040955e+00 2.978516e-02
3.330062e+07 1.011292e+00 3.729248e-02 -9.777024e-06 -2.321228e-05 4.574656e-05 -2.551824e-05 1.040405e+00 2.941895e-02
3.351844e+07 1.011536e+00 3.686523e-02 -2.593733e-05 -3.555231e-05 3.004260e-05 3.077835e-05 1.040100e+00 2.868652e-02
3.373625e+07 1.011902e+00 3.668213e-02 -4.430115e-05 -1.414493e-05 1.967605e-05 -1.675263e-05 1.040771e+00 2.746582e-02
3.395406e+07 1.012390e+00 3.778076e-02 -3.450736e-05 9.045005e-06 -1.711398e-05 2.864376e-05 1.040222e+00 2.807617e-02
3.417188e+07 1.011536e+00 3.619385e-02 -3.025308e-05 -1.326762e-05 -2.259016e-05 -1.065247e-05 1.039612e+00 2.709961e-02
3.438969e+07 1.012207e+00 3.674316e-02 -2.439693e-05 2.673641e-05 -1.690909e-05 -2.753921e-05 1.040405e+00 2.728271e-02
3.460750e+07 1.012756e+00 3.656006e-02 -5.882233e-06 -4.004687e-05 8.864328e-06 -2.375618e-05 1.039490e+00 2.722168e-02
3.482531e+07 1.013062e+00 3.533936e-02 -4.024804e-05 8.724630e-06 -4.860386e-05 -5.812570e-05 1.039917e+00 2.648926e-02
3.504312e+07 1.013000e+00 3.625488e-02 1.109205e-06 -1.693610e-05 -3.273226e-05 2.898835e-05 1.038696e+00 2.606201e-02
3.526094e+07 1.013306e+00 3.674316e-02 -2.187118e-05 -1.279078e-05 4.869886e-06 -1.356285e-05 1.039307e+00 2.563477e-02
3.547875e+07 1.013123e+00 3.594971e-02 2.460089e-06 5.842187e-06 -3.412366e-05 1.175329e-06 1.039490e+00 2.496338e-02
3.569656e+07 1.012512e+00 3.588867e-02 2.461486e-06 5.845446e-06 -2.145767e-05 4.535168e-05 1.039124e+00 2.441406e-02
3.591438e+07 1.013977e+00 3.631592e-02 -4.528463e-05 -2.954155e-06 -7.344410e-06 -2.657622e-05 1.038147e+00 2.416992e-02
3.613219e+07 1.012756e+00 3.601074e-02 3.927015e-05 8.285046e-06 4.383177e-05 -2.205744e-05 1.037964e+00 2.471924e-02
3.635000e+07 1.013062e+00 3.527832e-02 2.456829e-05 5.851686e-05 -2.357177e-05 -7.424504e-06 1.037048e+00 2.459717e-02
3.656781e+07 1.013855e+00 3.521729e-02 -4.922040e-06 -1.172535e-05 -2.033822e-05 7.559545e-06 1.037964e+00 2.410889e-02
3.678562e+07 1.012207e+00 3.552246e-02 -2.743118e-05 2.668798e-05 -5.671754e-06 3.889948e-05 1.037231e+00 2.410889e-02
3.700344e+07 1.013550e+00 3.533936e-02 5.302951e-06 6.057322e-06 -3.012829e-05 -3.745966e-05 1.037537e+00 2.313232e-02
3.722125e+07 1.012878e+00 3.485107e-02 1.420360e-05 9.387732e-07 2.491847e-05 1.348555e-05 1.036255e+00 2.276611e-02
3.743906e+07 1.013672e+00 3.436279e-02 1.648255e-05 -3.317185e-05 -7.024035e-06 3.297627e-05 1.036133e+00 2.227783e-02
3.765688e+07 1.012878e+00 3.466797e-02 9.655021e-06 -1.650024e-05 -6.661750e-06 -1.704320e-06 1.034912e+00 2.178955e-02
3.787469e+07 1.012939e+00 3.411865e-02 -8.374453e-06 -4.635379e-05 -3.459677e-05 7.512048e-06 1.036133e+00 2.136230e-02
3.809250e+07 1.012756e+00 3.424072e-02 4.083663e-05 -5.450472e-05 3.604963e-05 4.262477e-05 1.034729e+00 2.160645e-02
3.831031e+07 1.012146e+00 3.399658e-02 3.360771e-05 -3.208220e-05 -2.289191e-05 -3.285147e-05 1.033508e+00 2.099609e-02
3.852812e+07 1.013184e+00 3.356934e-02 1.064222e-05 1.216680e-05 -6.327406e-06 -3.647618e-05 1.033508e+00 2.148438e-02
3.874594e+07 1.013306e+00 3.295898e-02 1.903251e-05 -2.739392e-05 -3.464986e-06 -8.721836e-06 1.033325e+00 2.044678e-02
3.896375e+07 1.012451e+00 3.356934e-02 -1.313165e-06 -2.304465e-05 1.679361e-05 -9.953976e-06 1.033020e+00 2.038574e-02
3.918156e+07 1.011597e+00 3.314209e-02 -4.822016e-05 -9.004027e-06 -1.813006e-05 3.911555e-06 1.032776e+00 2.014160e-02
3.939938e+07 1.012390e+00 3.228760e-02 2.649613e-05 -9.680167e-06 1.555309e-06 2.179015e-05 1.031372e+00 2.056885e-02
3.961719e+07 1.011658e+00 3.326416e-02 -6.664544e-06 -2.918206e-05 -2.100319e-05 -2.392754e-05 1.031189e+00 1.934814e-02
3.983500e+07 1.011780e+00 3.234863e-02 1.391768e-05 6.697141e-06 1.300126e-05 3.833510e-05 1.030579e+00 1.989746e-02
4.005281e+07 1.011658e+00 3.253174e-02 -6.118789e-06 5.337410e-06 -6.288290e-06 -1.448486e-05 1.030457e+00 1.928711e-02
4.027062e+07 1.011414e+00 3.259277e-02 1.577288e-05 -6.225705e-05 3.885664e-05 -4.007854e-05 1.029175e+00 1.965332e-02
4.048844e+07 1.010559e+00 3.204346e-02 2.031028e-05 -4.469231e-05 -2.356246e-07 -1.580175e-05 1.028809e+00 1.892090e-02
4.070625e+07 1.011108e+00 3.210449e-02 -5.491078e-05 2.045184e-06 -6.324612e-06 -1.450814e-05 1.028931e+00 1.818848e-02
4.092406e+07 1.011108e+00 3.167725e-02 2.661534e-05 -9.717420e-06 -4.315749e-05 6.126240e-06 1.027954e+00 1.831055e-02
4.114188e+07 1.010315e+00 3.118896e-02 3.976747e-07 -5.742535e-06 -4.941970e-05 3.606826e-05 1.026611e+00 1.922607e-02
4.135969e+07 1.009094e+00 3.094482e-02 -1.189299e-05 4.963018e-06 1.406670e-05 -3.800727e-05 1.026611e+00 1.831055e-02
4.157750e+07 1.009827e+00 3.100586e-02 5.136803e-05 9.261072e-06 -9.114854e-06 1.961831e-06 1.026184e+00 1.739502e-02
4.179531e+07 1.009216e+00 3.094482e-02 -2.275780e-05 -4.779175e-05 1.969747e-06 9.125564e-06 1.025269e+00 1.770020e-02
4.201312e+07 1.008911e+00 3.094482e-02 6.363541e-05 -4.185364e-05 6.295275e-06 -7.724855e-06 1.024109e+00 1.879883e-02
4.223094e+07 1.008606e+00 3.100586e-02 2.797693e-06 -4.032999e-05 4.088506e-05 -2.473220e-05 1.023804e+00 1.831055e-02
4.244875e+07 1.008179e+00 3.082275e-02 2.712011e-05 -1.552515e-05 -3.160164e-05 -5.980954e-06 1.023254e+00 1.739502e-02
4.266656e+07 1.007629e+00 3.082275e-02 2.020225e-05 1.389533e-06 1.174584e-05 -3.445707e-05 1.023743e+00 1.812744e-02
4.288438e+07 1.007568e+00 3.051758e-02 -2.643652e-05 -3.661960e-05 -5.429238e-05 -7.491559e-06 1.021484e+00 1.824951e-02
4.310219e+07 1.006775e+00 3.155518e-02 -1.074653e-05 -1.236890e-05 -5.453825e-06 4.364643e-06 1.022034e+00 1.910400e-02
4.332000e+07 1.006226e+00 3.100586e-02 9.158626e-06 3.546849e-05 4.381873e-07 9.494834e-06 1.020691e+00 1.757812e-02
4.353781e+07 1.005859e+00 3.100586e-02 -1.614541e-05 -1.857616e-05 -1.815706e-05 -2.489425e-05 1.020996e+00 1.849365e-02
4.375562e+07 1.005920e+00 3.063965e-02 8.009374e-06 5.289540e-05 -1.334026e-05 -9.934418e-06 1.020142e+00 1.721191e-02
4.397344e+07 1.006409e+00 3.161621e-02 -3.270991e-05 -3.135949e-05 1.311302e-06 -1.627486e-05 1.018433e+00 1.763916e-02
4.419125e+07 1.003967e+00 3.051758e-02 -3.476255e-05 -2.443790e-06 -3.125705e-05 -1.891516e-05 1.018127e+00 1.855469e-02
4.440906e+07 1.003967e+00 3.082275e-02 -3.149174e-05 -8.046627e-06 -7.879455e-06 8.102041e-06 1.017822e+00 1.824951e-02
4.462688e+07 1.003967e+00 3.045654e-02 -2.105907e-05 5.101040e-05 7.886440e-06 1.436286e-05 1.017090e+00 1.782227e-02
4.484469e+07 1.002441e+00 3.051758e-02 2.404675e-05 3.087334e-05 -3.681146e-05 7.865950e-06 1.015442e+00 1.867676e-02
4.506250e+07 1.001465e+00 3.045654e-02 -2.497807e-06 -6.014016e-06 1.798570e-05 -3.597513e-05 1.015686e+00 1.782227e-02
4.528031e+07 1.002686e+00 3.070068e-02 -1.125783e-05 -4.754588e-05 -8.796342e-06 1.152884e-05 1.015076e+00 1.812744e-02
4.549812e+07 1.001221e+00 3.125000e-02 2.580881e-05 4.857406e-05 1.585484e-05 -3.874674e-05 1.014221e+00 1.812744e-02
4.571594e+07 1.000244e+00 3.088379e-02 1.291558e-05 2.432428e-05 4.465133e-05 -9.533018e-06 1.013855e+00 1.910400e-02
4.593375e+07 1.000183e+00 3.112793e-02 -1.373608e-05 -1.267344e-05 -8.360017e-06 -1.439359e-06 1.012207e+00 1.837158e-02
4.615156e+07 9.998169e-01 3.082275e-02 -5.907565e-05 7.521361e-06 -3.897399e-05 2.120435e-05 1.011658e+00 1.855469e-02
4.636938e+07 9.992065e-01 3.088379e-02 1.622550e-05 -2.227351e-05 9.690411e-06 7.619616e-06 1.010742e+00 1.898193e-02
4.658719e+07 9.979858e-01 3.033447e-02 -1.334865e-05 -1.853332e-05 -1.477078e-05 -1.622736e-05 1.009888e+00 1.934814e-02
4.680500e+07 9.973145e-01 3.192139e-02 3.128499e-05 1.395494e-05 -9.719282e-06 1.498405e-05 1.009583e+00 1.940918e-02
4.702281e+07 9.974976e-01 3.155518e-02 5.429611e-06 6.259419e-06 2.048910e-05 5.058572e-05 1.009338e+00 1.892090e-02
4.724062e+07 9.966431e-01 3.204346e-02 1.837872e-05 -1.045968e-05 -4.008412e-06 2.671778e-05 1.009338e+00 1.898193e-02
4.745844e+07 9.955444e-01 3.192139e-02 2.674013e-05 -3.967434e-06 -2.805889e-05 -1.021288e-05 1.007690e+00 2.056885e-02
4.767625e+07 9.957275e-01 3.131104e-02 1.212955e-05 -5.012378e-06 1.191813e-05 1.040380e-05 1.007080e+00 2.069092e-02
4.789406e+07 9.945679e-01 3.271484e-02 1.762807e-05 -3.994629e-05 -1.019426e-05 5.407259e-06 1.006348e+00 2.136230e-02
4.811188e+07 9.945068e-01 3.259277e-02 1.047924e-05 -2.280250e-05 -1.019752e-05 5.406328e-06 1.005249e+00 2.093506e-02
4.832969e+07 9.937744e-01 3.344727e-02 -1.717638e-05 -7.120892e-06 2.062880e-05 -1.736451e-05 1.004822e+00 2.075195e-02
4.854750e+07 9.926758e-01 3.320312e-02 5.115569e-05 -1.402944e-05 3.705546e-05 -2.410449e-05 1.004761e+00 2.166748e-02
4.876531e+07 9.925537e-01 3.381348e-02 -3.105775e-05 2.137385e-05 2.310425e-05 -2.113916e-05 1.003845e+00 2.258301e-02
4.898312e+07 9.921265e-01 3.399658e-02 1.851842e-05 -5.180016e-05 2.334639e-05 -2.769567e-05 1.002930e+00 2.270508e-02
4.920094e+07 9.915771e-01 3.338623e-02 -2.079643e-06 -1.197122e-05 -2.734177e-05 9.058043e-06 1.001953e+00 2.337646e-02
4.941875e+07 9.912720e-01 3.424072e-02 1.806207e-05 -4.601665e-06 -2.287701e-05 -8.162111e-06 1.001343e+00 2.294922e-02
4.963656e+07 9.902344e-01 3.436279e-02 1.428835e-05 6.944872e-06 2.362020e-05 -3.432669e-05 1.001160e+00 2.343750e-02
4.985438e+07 9.890137e-01 3.466797e-02 1.003966e-05 2.440438e-05 1.336448e-05 -6.088056e-06 1.000183e+00 2.429199e-02
5.007219e+07 9.884644e-01 3.527832e-02 8.403789e-06 6.536953e-06 1.889188e-05 1.229905e-05 9.993286e-01 2.435303e-02
5.029000e+07 9.881592e-01 3.552246e-02 6.751157e-06 -1.136027e-05 -3.231689e-05 1.662225e-05 9.988403e-01 2.465820e-02
5.050781e+07 9.882202e-01 3.558350e-02 2.902374e-05 8.039176e-06 3.361143e-06 -7.237773e-06 9.975586e-01 2.508545e-02
5.072562e+07 9.874268e-01 3.656006e-02 -2.136454e-06 2.947636e-05 5.076826e-05 8.821487e-06 9.973145e-01 2.502441e-02
5.094344e+07 9.863281e-01 3.692627e-02 -3.386289e-06 5.681533e-06 2.872944e-05 2.001226e-05 9.962158e-01 2.673340e-02
5.116125e+07 9.857178e-01 3.729248e-02 -1.561735e-05 1.071300e-05 -9.628478e-06 8.569565e-06 9.951782e-01 2.648926e-02
5.137906e+07 9.853516e-01 3.710938e-02 -1.638196e-06 -1.793634e-05 1.741759e-05 -2.083648e-05 9.951172e-01 2.740479e-02
5.159688e+07 9.843750e-01 3.704834e-02 -3.039092e-05 9.670854e-06 -1.872890e-06 1.718570e-05 9.940796e-01 2.667236e-02
5.181469e+07 9.827881e-01 3.863525e-02 -6.780028e-06 1.138262e-05 1.824927e-06 7.775147e-06 9.934692e-01 2.777100e-02
5.203250e+07 9.837646e-01 3.887939e-02 2.781488e-05 2.583861e-05 3.582053e-05 3.203936e-05 9.930420e-01 2.862549e-02
5.225031e+07 9.823608e-01 3.869629e-02 6.350223e-06 -5.479902e-06 -1.181290e-05 -5.572662e-05 9.923706e-01 2.856445e-02
5.246812e+07 9.829102e-01 3.881836e-02 -2.158433e-05 1.030043e-05 -1.453049e-05 -2.258085e-05 9.916992e-01 2.929688e-02
5.268594e+07 9.816895e-01 4.052734e-02 2.148002e-05 3.136136e-05 7.995870e-06 4.316680e-07 9.907837e-01 3.057861e-02
5.290375e+07 9.805908e-01 4.040527e-02 3.553368e-05 2.657995e-06 -1.845695e-05 -2.912246e-06 9.904175e-01 3.082275e-02
5.312156e+07 9.798584e-01 4.107666e-02 2.385676e-05 -3.992766e-05 -1.337100e-05 1.597777e-05 9.901733e-01 3.192139e-02
5.333938e+07 9.797974e-01 4.138184e-02 -2.525281e-06 -6.147195e-06 -4.285946e-06 -9.864103e-06 9.893188e-01 3.131104e-02
5.355719e+07 9.795532e-01 4.174805e-02 4.446879e-05 3.304332e-06 1.098029e-05 -4.312582e-05 9.880371e-01 3.234863e-02
5.377500e+07 9.786377e-01 4.217529e-02 -3.265217e-06 -3.604777e-05 2.420694e-05 1.606718e-05 9.877930e-01 3.283691e-02
5.399281e+07 9.777222e-01 4.345703e-02 -1.230370e-05 5.041249e-06 1.192093e-06 1.356192e-05 9.866943e-01 3.332520e-02
5.421062e+07 9.774170e-01 4.351807e-02 -8.895062e-06 -6.635673e-07 5.383044e-06 -1.643691e-05 9.858398e-01 3.375244e-02
5.442844e+07 9.763794e-01 4.364014e-02 -1.187809e-05 -8.903444e-07 -9.617768e-06 -1.852214e-05 9.859619e-01 3.436279e-02
5.464625e+07 9.757080e-01 4.504395e-02 3.255904e-06 3.607012e-05 -1.636893e-05 -3.049523e-05 9.848022e-01 3.613281e-02
5.486406e+07 9.752808e-01 4.571533e-02 4.041195e-05 -2.086535e-05 1.954753e-05 1.711771e-06 9.851074e-01 3.570557e-02
5.508188e+07 9.759521e-01 4.626465e-02 -3.043003e-05 -3.213063e-05 -5.244091e-05 -3.767014e-05 9.834595e-01 3.619385e-02
5.529969e+07 9.744873e-01 4.681396e-02 2.170913e-05 -1.032092e-05 -1.232233e-05 -1.034420e-05 9.835205e-01 3.790283e-02
5.551750e+07 9.740601e-01 4.724121e-02 5.217269e-05 2.184510e-05 -3.135577e-05 7.312745e-06 9.827271e-01 3.784180e-02
5.573531e+07 9.727173e-01 4.742432e-02 2.497248e-05 2.582930e-05 -5.967915e-06 -2.902467e-06 9.824829e-01 3.906250e-02
5.595312e+07 9.725952e-01 4.827881e-02 1.369976e-06 -1.786835e-05 5.088747e-06 -4.618242e-05 9.826050e-01 4.046631e-02
5.617094e+07 9.717407e-01 4.852295e-02 1.790002e-06 -2.380274e-05 1.766533e-05 1.902413e-05 9.807739e-01 3.955078e-02
5.638875e+07 9.716187e-01 4.956055e-02 -2.174079e-05 1.033954e-05 2.851523e-05 -1.391582e-05 9.806519e-01 4.040527e-02
5.660656e+07 9.713135e-01 5.108643e-02 3.455393e-05 -2.134591e-05 -8.735806e-06 -3.472716e-05 9.797974e-01 4.119873e-02
5.682438e+07 9.705811e-01 4.962158e-02 -1.606345e-05 -2.519786e-05 3.342330e-05 1.535937e-05 9.796143e-01 4.180908e-02
5.704219e+07 9.692993e-01 5.181885e-02 2.338365e-05 7.778406e-06 1.648162e-05 5.424954e-06 9.784546e-01 4.290771e-02
5.726000e+07 9.694824e-01 5.212402e-02 -1.282524e-05 1.101010e-05 1.586042e-06 1.818128e-05 9.779053e-01 4.321289e-02
5.747781e+07 9.686890e-01 5.377197e-02 -3.350154e-05 -3.255717e-05 -4.561245e-05 -1.095980e-05 9.778442e-01 4.425049e-02
5.769562e+07 9.695435e-01 5.419922e-02 1.030508e-05 -1.722574e-05 -2.262555e-05 1.687743e-05 9.776001e-01 4.473877e-02
5.791344e+07 9.680786e-01 5.480957e-02 -1.537520e-05 4.827045e-06 -3.294088e-05 -3.611669e-05 9.765015e-01 4.565430e-02
5.813125e+07 9.675903e-01 5.511475e-02 -5.054288e-06 -1.239963e-05 -6.430782e-07 5.791429e-06 9.758911e-01 4.626465e-02
5.834906e+07 9.662476e-01 5.523682e-02 3.375299e-05 -9.410083e-06 -8.143857e-05 -1.352653e-05 9.755859e-01 4.742432e-02
5.856688e+07 9.667358e-01 5.682373e-02 -2.087094e-06 -1.217611e-05 4.230998e-05 -1.515821e-05 9.753418e-01 4.699707e-02
5.878469e+07 9.658813e-01 5.841064e-02 3.127381e-05 -1.561269e-05 -7.711351e-07 3.106706e-05 9.745483e-01 4.907227e-02
5.900250e+07 9.652710e-01 5.798340e-02 -1.654308e-05 -1.933984e-05 -1.274608e-05 2.521463e-05 9.743042e-01 5.023193e-02
5.922031e+07 9.649658e-01 5.859375e-02 -3.082119e-05 9.652227e-06 -4.525110e-05 8.493662e-06 9.732666e-01 4.998779e-02
5.943812e+07 9.640503e-01 5.950928e-02 1.934357e-05 -1.656357e-05 -1.735706e-05 -1.460034e-05 9.733276e-01 5.084229e-02
5.965594e+07 9.641113e-01 6.054688e-02 -6.451271e-06 5.522743e-06 -1.096819e-05 -7.107854e-06 9.727173e-01 5.187988e-02
5.987375e+07 9.648438e-01 6.127930e-02 -5.368888e-05 3.200769e-05 3.568083e-05 5.337968e-05 9.722290e-01 5.206299e-02
6.009156e+07 9.630127e-01 6.213379e-02 2.530869e-06 6.226823e-06 -4.623458e-05 -1.561642e-05 9.722900e-01 5.303955e-02
6.030938e+07 9.622803e-01 6.243896e-02 -4.890934e-05 8.273870e-06 -7.969327e-06 1.450721e-05 9.721069e-01 5.358887e-02
6.052719e+07 9.625854e-01 6.317139e-02 -4.582107e-07 -7.249415e-05 -7.719733e-06 4.120637e-06 9.713745e-01 5.432129e-02
6.074500e+07 9.620361e-01 6.402588e-02 1.501199e-05 1.176260e-06 9.829178e-06 3.375858e-05 9.717407e-01 5.627441e-02
6.096281e+07 9.623413e-01 6.573486e-02 -1.736730e-05 2.886541e-05 5.200133e-05 1.404434e-05 9.710693e-01 5.712891e-02
6.118062e+07 9.624023e-01 6.646729e-02 -3.762543e-07 3.712624e-05 7.526018e-06 1.006667e-05 9.697266e-01 5.718994e-02
6.139844e+07 9.627686e-01 6.616211e-02 1.159869e-05 -9.564683e-07 -2.810732e-05 -1.963787e-05 9.690552e-01 5.828857e-02
6.161625e+07 9.629517e-01 6.750488e-02 2.834387e-05 1.782551e-06 -2.981164e-05 1.579523e-05 9.694824e-01 5.895996e-02
6.183406e+07 9.617310e-01 6.829834e-02 -3.961474e-05 -3.799424e-05 1.272094e-05 1.452956e-05 9.689941e-01 5.926514e-02
6.205188e+07 9.611816e-01 6.958008e-02 -3.119558e-05 -1.945533e-05 -1.657195e-05 -7.948838e-06 9.688721e-01 6.079102e-02
6.226969e+07 9.610596e-01 6.970215e-02 -3.859401e-06 -4.648417e-05 2.680905e-05 8.622184e-06 9.681396e-01 6.060791e-02
6.248750e+07 9.605713e-01 7.073975e-02 1.254398e-05 -6.549060e-06 1.049973e-05 1.713913e-05 9.682007e-01 6.170654e-02
6.270531e+07 9.608154e-01 7.147217e-02 -1.676288e-05 -2.735294e-06 1.054909e-05 -1.438148e-05 9.676514e-01 6.164551e-02
6.292312e+07 9.602661e-01 7.153320e-02 -4.014745e-05 -3.526732e-05 -1.303479e-05 -3.101490e-05 9.674072e-01 6.311035e-02
6.314094e+07 9.605103e-01 7.159424e-02 -3.540516e-05 5.671754e-06 -2.642721e-05 -1.545623e-05 9.678345e-01 6.463623e-02
6.335875e+07 9.596558e-01 7.324219e-02 -5.690008e-05 -3.550202e-06 -2.850406e-05 -4.641712e-06 9.677734e-01 6.427002e-02
6.357656e+07 9.598999e-01 7.379150e-02 -3.549270e-05 -2.882071e-05 2.372544e-06 5.649868e-06 9.672241e-01 6.573486e-02
6.379438e+07 9.602051e-01 7.452393e-02 -7.443130e-06 1.028832e-05 3.259815e-05 -2.533384e-05 9.680786e-01 6.628418e-02
6.401219e+07 9.592896e-01 7.519531e-02 -1.929700e-05 -5.781651e-05 -3.196858e-05 -4.867092e-06 9.673462e-01 6.689453e-02
6.423000e+07 9.592285e-01 7.580566e-02 1.582317e-05 -2.618507e-05 8.380041e-06 -4.344247e-05 9.674072e-01 6.842041e-02
6.444781e+07 9.580078e-01 7.739258e-02 2.232939e-05 -3.089570e-05 1.105107e-05 -2.126023e-05 9.669800e-01 6.829834e-02
6.466562e+07 9.585571e-01 7.769775e-02 4.203990e-05 -1.038983e-05 2.338737e-05 1.769513e-07 9.670410e-01 6.964111e-02
6.488344e+07 9.584961e-01 7.843018e-02 6.884336e-06 -4.206970e-05 1.920573e-05 2.192333e-05 9.661255e-01 6.982422e-02
6.510125e+07 9.578857e-01 7.885742e-02 3.744476e-05 1.765601e-05 -6.713439e-06 7.815193e-06 9.660034e-01 7.061768e-02
6.531906e+07 9.583130e-01 7.995605e-02 -8.380041e-06 1.593027e-05 1.998525e-05 -6.426126e-08 9.665527e-01 7.165527e-02
6.553688e+07 9.567261e-01 8.117676e-02 -4.684925e-05 -3.074482e-05 1.410954e-07 8.273404e-06 9.658203e-01 7.232666e-02
6.575469e+07 9.569092e-01 8.190918e-02 2.147071e-05 -2.533942e-05 -4.158728e-05 -2.755597e-05 9.663696e-01 7.318115e-02
6.597250e+07 9.580688e-01 8.264160e-02 4.686043e-05 -3.870577e-06 4.461035e-06 2.651662e-05 9.669189e-01 7.379150e-02
6.619031e+07 9.562988e-01 8.465576e-02 -3.469363e-05 7.450581e-08 -2.237782e-05 -5.634502e-06 9.668579e-01 7.495117e-02
6.640812e+07 9.567261e-01 8.471680e-02 -5.153194e-05 -2.641231e-06 9.655952e-06 3.100745e-05 9.652100e-01 7.470703e-02
6.662594e+07 9.564819e-01 8.502197e-02 -1.550838e-05 -1.119357e-05 -3.891997e-06 6.645452e-06 9.657593e-01 7.592773e-02
6.684375e+07 9.564209e-01 8.581543e-02 1.033954e-05 7.471070e-06 4.379451e-05 -1.506507e-05 9.658203e-01 7.714844e-02
6.706156e+07 9.569092e-01 8.673096e-02 -1.437590e-05 5.259737e-05 -2.736412e-05 -2.528727e-05 9.656982e-01 7.769775e-02
6.727938e+07 9.567871e-01 8.691406e-02 -1.896918e-05 -6.094202e-05 4.145503e-05 1.100451e-05 9.653931e-01 7.812500e-02
6.749719e+07 9.571533e-01 8.746338e-02 -1.784507e-05 2.870336e-06 2.724119e-05 1.699664e-05 9.665527e-01 7.904053e-02
6.771500e+07 9.566040e-01 8.862305e-02 -1.023337e-05 2.729148e-05 1.107063e-05 1.041964e-05 9.664307e-01 7.910156e-02
6.793281e+07 9.566650e-01 8.978271e-02 -1.979992e-05 -2.062321e-05 -1.515448e-05 1.975894e-05 9.660034e-01 8.032227e-02
6.815062e+07 9.564209e-01 9.027100e-02 4.366785e-05 -1.895428e-05 -3.728084e-06 -1.685787e-05 9.662476e-01 8.111572e-02
6.836844e+07 9.564819e-01 9.149170e-02 2.961792e-05 -3.851950e-06 -1.732819e-05 -4.132092e-05 9.660645e-01 8.184814e-02
6.858625e+07 9.558716e-01 9.246826e-02 -2.482533e-05 4.528090e-05 2.711080e-06 -9.513926e-06 9.667358e-01 8.258057e-02
6.880406e+07 9.559937e-01 9.216309e-02 -3.335997e-06 -1.505762e-05 -7.489696e-06 -3.372505e-05 9.660645e-01 8.355713e-02
6.902188e+07 9.568481e-01 9.375000e-02 -2.031960e-05 -1.784600e-05 5.643815e-05 3.837422e-05 9.667358e-01 8.410645e-02
6.923969e+07 9.559326e-01 9.411621e-02 2.311543e-05 8.866191e-07 2.924725e-05 2.963841e-05 9.673462e-01 8.575439e-02
6.945750e+07 9.562378e-01 9.564209e-02 2.449192e-05 -7.612631e-06 -3.873929e-05 1.963973e-05 9.666748e-01 8.593750e-02
6.967531e+07 9.570923e-01 9.576416e-02 3.433973e-05 -3.216043e-05 -2.749823e-05 6.536022e-06 9.664917e-01 8.660889e-02
6.989312e+07 9.567871e-01 9.692383e-02 -2.126582e-05 -1.217984e-05 -1.575053e-05 -4.546717e-05 9.663086e-01 8.660889e-02
7.011094e+07 9.567871e-01 9.716797e-02 -1.133792e-05 -1.861714e-06 -5.262718e-05 -1.316145e-05 9.672852e-01 8.837891e-02
7.032875e+07 9.567261e-01 9.844971e-02 1.173466e-07 3.494695e-05 1.055654e-06 -5.488750e-06 9.674072e-01 8.801270e-02
7.054656e+07 9.572754e-01 9.979248e-02 8.363277e-06 -5.104020e-05 -8.800998e-07 -1.813378e-05 9.671631e-01 8.978271e-02
7.076438e+07 9.575195e-01 9.948730e-02 2.246723e-05 -6.622076e-05 4.667556e-06 3.083609e-06 9.671021e-01 9.039307e-02
7.098219e+07 9.570923e-01 1.008911e-01 -6.136950e-06 1.912937e-06 -4.302710e-07 -2.506562e-05 9.675293e-01 9.075928e-02
7.120000e+07 9.570312e-01 1.017456e-01 -3.256090e-05 2.088584e-05 -1.565274e-05 -5.204231e-06 9.673462e-01 9.259033e-02
7.141781e+07 9.577026e-01 1.028442e-01 3.499910e-05 -8.940697e-08 -2.758577e-05 6.536022e-06 9.674683e-01 9.295654e-02
7.163562e+07 9.570923e-01 1.027222e-01 3.072806e-05 -9.572133e-06 -5.123205e-06 3.839377e-06 9.685669e-01 9.277344e-02
7.185344e+07 9.580078e-01 1.028442e-01 -2.412312e-05 4.798174e-06 9.501353e-06 1.455285e-05 9.680176e-01 9.387207e-02
7.207125e+07 9.577026e-01 1.049805e-01 -5.848706e-07 -3.220886e-05 5.520880e-05 -1.305714e-05 9.688721e-01 9.405518e-02
7.228906e+07 9.575195e-01 1.052246e-01 8.944422e-06 -1.896359e-05 1.266878e-05 -1.956709e-06 9.680786e-01 9.484863e-02
7.250688e+07 9.584961e-01 1.054077e-01 2.370030e-05 -1.972541e-06 3.335811e-05 -8.994713e-06 9.694824e-01 9.515381e-02
7.272469e+07 9.586792e-01 1.060791e-01 -2.320856e-06 1.424085e-05 -1.857337e-05 -3.999099e-06 9.697876e-01 9.594727e-02
7.294250e+07 9.583130e-01 1.068115e-01 3.707781e-05 2.360530e-05 -1.464877e-05 -1.071766e-05 9.697266e-01 9.698486e-02
7.316031e+07 9.583740e-01 1.076660e-01 4.733726e-05 -3.909320e-05 3.230572e-05 -3.559142e-05 9.702148e-01 9.729004e-02
7.337812e+07 9.587402e-01 1.087036e-01 -1.583248e-05 -4.649535e-05 -1.224689e-05 2.712384e-05 9.705200e-01 9.826660e-02
7.359594e+07 9.586182e-01 1.098022e-01 4.656613e-07 -2.850546e-06 5.295500e-06 -2.757460e-05 9.699707e-01 9.912109e-02
7.381375e+07 9.595947e-01 1.104736e-01 -1.093652e-05 -4.719943e-06 1.557358e-05 -3.533438e-05 9.700928e-01 9.973145e-02
7.403156e+07 9.592896e-01 1.105347e-01 -1.244433e-05 -3.132783e-05 3.479654e-06 2.256129e-07 9.705811e-01 1.005859e-01
7.424938e+07 9.601440e-01 1.115723e-01 1.710560e-05 2.797693e-06 4.950911e-05 -1.917779e-05 9.702148e-01 1.011353e-01
7.446719e+07 9.595947e-01 1.134033e-01 -6.552786e-06 3.996119e-05 -2.223998e-05 -1.266412e-05 9.710693e-01 1.021729e-01
7.468500e+07 9.599609e-01 1.134033e-01 -2.284721e-05 -3.734604e-06 -3.335066e-06 8.179806e-06 9.714355e-01 1.025391e-01
7.490281e+07 9.599609e-01 1.143799e-01 1.807325e-05 -2.914108e-06 3.726222e-05 8.037314e-06 9.716797e-01 1.032715e-01
7.512062e+07 9.604492e-01 1.148682e-01 -1.948327e-05 1.150835e-05 2.666935e-05 -1.050532e-06 9.724121e-01 1.035156e-01
7.533844e+07 9.606934e-01 1.158447e-01 -6.537884e-06 4.001334e-05 -2.441555e-05 3.062375e-05 9.719238e-01 1.046143e-01
7.555625e+07 9.620361e-01 1.159668e-01 1.421571e-05 -1.530349e-05 2.520531e-05 1.145713e-05 9.727783e-01 1.037598e-01
7.577406e+07 9.607544e-01 1.166992e-01 -1.085922e-05 3.051013e-05 -2.819300e-05 1.358055e-05 9.727173e-01 1.058960e-01
7.599188e+07 9.613037e-01 1.178589e-01 1.529790e-05 1.423247e-05 5.612150e-06 2.139341e-05 9.729614e-01 1.055298e-01
7.620969e+07 9.622192e-01 1.174316e-01 -2.466142e-06 -2.097711e-05 1.185294e-05 1.198798e-05 9.739990e-01 1.060181e-01
7.642750e+07 9.632568e-01 1.180420e-01 2.957135e-05 -1.076609e-06 -8.371659e-06 -1.176912e-05 9.743042e-01 1.066284e-01
7.664531e+07 9.628906e-01 1.189575e-01 1.298077e-05 2.857670e-05 -1.276191e-05 1.983717e-06 9.743042e-01 1.079102e-01
7.686312e+07 9.629517e-01 1.199951e-01 5.730428e-06 9.341165e-07 2.782047e-05 2.565980e-05 9.745483e-01 1.078491e-01
7.708094e+07 9.636841e-01 1.199341e-01 8.170307e-05 4.440546e-06 1.553260e-05 2.066791e-05 9.755859e-01 1.079712e-01
7.729875e+07 9.639282e-01 1.219482e-01 -2.387352e-05 2.009794e-06 2.297014e-05 -1.818314e-05 9.751587e-01 1.087646e-01
7.751656e+07 9.642944e-01 1.220703e-01 -1.906976e-05 8.651055e-06 -1.901761e-05 1.142174e-05 9.746094e-01 1.101074e-01
7.773438e+07 9.652100e-01 1.226196e-01 -3.441237e-05 -5.619600e-06 -2.284534e-05 -5.703419e-06 9.754639e-01 1.099854e-01
7.795219e+07 9.654541e-01 1.234131e-01 -8.070841e-06 1.342222e-05 -3.503449e-05 -2.266839e-06 9.764404e-01 1.101074e-01
7.817000e+07 9.655151e-01 1.238403e-01 1.114607e-05 4.012883e-05 3.168359e-05 1.050718e-05 9.760132e-01 1.109009e-01
7.838781e+07 9.650879e-01 1.242065e-01 -1.629908e-05 -8.552335e-06 7.160008e-06 8.903909e-06 9.766235e-01 1.116943e-01
7.860562e+07 9.659424e-01 1.248779e-01 -1.666881e-05 2.975948e-05 3.780425e-05 2.496503e-05 9.778442e-01 1.124268e-01
7.882344e+07 9.665527e-01 1.256104e-01 -4.346948e-06 -9.567011e-06 -4.416332e-06 1.380220e-05 9.780273e-01 1.128540e-01
7.904125e+07 9.669800e-01 1.270752e-01 -2.817437e-05 2.788194e-05 3.788620e-06 4.956871e-05 9.780884e-01 1.133423e-01
7.925906e+07 9.669800e-01 1.272583e-01 -1.586229e-05 -1.144502e-05 -1.814868e-05 -2.581626e-06 9.788208e-01 1.139526e-01
7.947688e+07 9.677734e-01 1.276245e-01 4.652888e-05 4.619360e-06 5.202740e-05 1.948327e-06 9.790649e-01 1.146851e-01
7.969469e+07 9.680176e-01 1.283569e-01 1.835264e-05 3.254227e-05 -3.352761e-06 8.241739e-06 9.798584e-01 1.147461e-01
7.991250e+07 9.685669e-01 1.290894e-01 1.963507e-05 -1.158286e-05 1.235865e-05 -2.741441e-05 9.803467e-01 1.159058e-01
8.013031e+07 9.691772e-01 1.286011e-01 -4.667789e-05 -4.015863e-05 1.995824e-06 1.282897e-05 9.803467e-01 1.162720e-01
8.034812e+07 9.700928e-01 1.292725e-01 -4.844740e-05 6.910414e-06 3.835186e-06 1.719780e-05 9.805908e-01 1.157837e-01
8.056594e+07 9.694824e-01 1.301270e-01 -4.354864e-06 -9.590294e-06 -4.342012e-05 -3.809109e-05 9.813232e-01 1.169434e-01
8.078375e+07 9.704590e-01 1.305542e-01 1.684111e-05 5.704351e-06 -3.106706e-05 -3.308244e-05 9.819946e-01 1.171265e-01
8.100156e+07 9.706421e-01 1.310425e-01 -3.747642e-06 2.307072e-05 3.961474e-05 2.093799e-05 9.816895e-01 1.174927e-01
8.121938e+07 9.713135e-01 1.315308e-01 1.404248e-05 2.302043e-05 3.350340e-05 -2.612174e-05 9.829102e-01 1.176147e-01
8.143719e+07 9.713135e-01 1.323853e-01 -1.638383e-05 -8.599833e-06 7.785857e-06 -5.465001e-05 9.830933e-01 1.184692e-01
8.165500e+07 9.718018e-01 1.324463e-01 7.663853e-06 -1.061708e-05 2.383254e-05 -4.089251e-05 9.835815e-01 1.188354e-01
8.187281e+07 9.728394e-01 1.326294e-01 -8.130446e-06 1.350418e-05 1.242291e-05 5.043112e-06 9.833984e-01 1.185913e-01
8.209062e+07 9.716187e-01 1.339111e-01 2.183020e-06 -5.007908e-05 9.952579e-06 -7.753260e-07 9.840088e-01 1.182861e-01
8.230844e+07 9.729614e-01 1.334229e-01 5.186349e-05 -2.714992e-05 -8.281786e-06 -3.362074e-06 9.836426e-01 1.193237e-01
8.252625e+07 9.743652e-01 1.347046e-01 -4.723668e-05 -1.743436e-06 -3.086589e-05 -1.617335e-05 9.851074e-01 1.196289e-01
8.274406e+07 9.743042e-01 1.353149e-01 1.955777e-05 -4.730001e-05 2.564676e-05 2.006255e-05 9.850464e-01 1.199341e-01
8.296188e+07 9.749146e-01 1.351929e-01 -4.222617e-06 2.605096e-05 -4.313421e-06 -1.020264e-05 9.858398e-01 1.199341e-01
8.317969e+07 9.752808e-01 1.361694e-01 1.218170e-05 3.469177e-05 -1.613703e-05 -1.380220e-05 9.861450e-01 1.212769e-01
8.339750e+07 9.752808e-01 1.367798e-01 2.742372e-05 -2.229959e-05 -3.900751e-05 -1.102872e-05 9.865723e-01 1.213989e-01
8.361531e+07 9.758301e-01 1.368408e-01 -7.217284e-06 7.760711e-06 -2.945028e-05 2.793036e-05 9.879761e-01 1.218872e-01
8.383312e+07 9.767456e-01 1.376343e-01 -1.458637e-05 -2.021901e-05 2.171844e-06 2.144091e-05 9.882812e-01 1.209717e-01
8.405094e+07 9.766846e-01 1.370850e-01 -1.049601e-05 2.807006e-05 7.521361e-06 -6.621704e-06 9.884644e-01 1.218262e-01
8.426875e+07 9.776001e-01 1.378784e-01 -1.066457e-05 -7.692724e-06 -5.400181e-05 1.074001e-05 9.889526e-01 1.224976e-01
8.448656e+07 9.772949e-01 1.380615e-01 4.391652e-06 9.651762e-06 2.073869e-05 -2.426095e-05 9.893799e-01 1.228638e-01
8.470438e+07 9.777222e-01 1.378174e-01 8.639880e-06 -1.647789e-05 1.426972e-05 -2.326444e-05 9.896851e-01 1.232910e-01
8.492219e+07 9.786987e-01 1.385498e-01 -4.347041e-05 1.082197e-05 -6.880611e-06 4.083849e-05 9.896240e-01 1.229248e-01
8.514000e+07 9.789429e-01 1.387329e-01 3.304332e-06 -2.033636e-05 -1.602527e-05 -5.293638e-06 9.904175e-01 1.235962e-01
8.535781e+07 9.790039e-01 1.389771e-01 1.082197e-05 -6.687269e-05 -1.079682e-05 -9.226147e-06 9.912109e-01 1.239624e-01
8.557562e+07 9.798584e-01 1.399536e-01 4.794076e-05 -1.169741e-06 -4.809350e-06 -3.592484e-05 9.912109e-01 1.237793e-01
8.579344e+07 9.805908e-01 1.398315e-01 6.608665e-06 -4.073605e-05 -1.402851e-05 7.661059e-06 9.919434e-01 1.241455e-01
8.601125e+07 9.815674e-01 1.401978e-01 2.721138e-05 1.636706e-05 5.291775e-06 2.886914e-05 9.922485e-01 1.243896e-01
8.622906e+07 9.810181e-01 1.409912e-01 -2.281554e-05 -6.712973e-06 -4.333444e-06 -1.025340e-05 9.927368e-01 1.253052e-01
8.644688e+07 9.818115e-01 1.420288e-01 -5.352870e-05 -3.859028e-05 1.533888e-06 -1.273956e-05 9.930420e-01 1.246338e-01
8.666469e+07 9.816895e-01 1.414185e-01 5.353708e-06 3.860798e-06 4.195236e-05 -3.155880e-05 9.931030e-01 1.249390e-01
8.688250e+07 9.827881e-01 1.414795e-01 1.887791e-06 -1.166295e-05 3.074296e-05 -9.015203e-07 9.938354e-01 1.245117e-01
8.710031e+07 9.834595e-01 1.416626e-01 1.404341e-05 -1.269858e-05 -1.157448e-05 1.354981e-05 9.950562e-01 1.249390e-01
8.731812e+07 9.840698e-01 1.417236e-01 -3.501959e-05 -5.699694e-06 -7.861108e-05 -2.211705e-05 9.949341e-01 1.257324e-01
8.753594e+07 9.844971e-01 1.423340e-01 2.588890e-05 2.516620e-05 6.946735e-06 -8.137897e-06 9.952393e-01 1.246948e-01
8.775375e+07 9.839478e-01 1.428223e-01 2.732500e-05 1.640990e-05 -1.277588e-05 4.348531e-05 9.963989e-01 1.251221e-01
8.797156e+07 9.851685e-01 1.427612e-01 -1.500268e-05 1.856592e-05 2.554804e-05 3.052875e-06 9.963989e-01 1.254272e-01
8.818938e+07 9.852295e-01 1.429443e-01 1.122616e-05 4.814006e-06 -2.707914e-05 9.726733e-06 9.968872e-01 1.253662e-01
8.840719e+07 9.864502e-01 1.427612e-01 -2.293102e-05 -6.722286e-06 -3.237277e-05 1.369603e-05 9.973145e-01 1.259766e-01
8.862500e+07 9.863892e-01 1.422119e-01 1.331978e-05 2.917647e-05 1.477450e-05 2.669916e-05 9.979858e-01 1.251221e-01
8.884281e+07 9.871826e-01 1.436157e-01 -3.117137e-05 6.996095e-06 -6.513204e-06 1.016539e-06 9.982300e-01 1.249390e-01
8.906062e+07 9.871216e-01 1.422119e-01 -3.231876e-05 -2.325326e-05 -3.068894e-05 9.534881e-06 9.987183e-01 1.260376e-01
8.927844e+07 9.879761e-01 1.437988e-01 -8.878298e-06 -1.948234e-05 2.946937e-06 -1.246342e-06 9.991455e-01 1.258545e-01
8.949625e+07 9.886475e-01 1.434326e-01 -1.900550e-05 5.939975e-06 1.873123e-06 4.421920e-06 9.985962e-01 1.262207e-01
8.971406e+07 9.889526e-01 1.439819e-01 1.951028e-05 -8.890405e-06 -5.047023e-05 3.997236e-06 1.000427e+00 1.263428e-01
8.993188e+07 9.893799e-01 1.436768e-01 -3.775768e-05 -2.717040e-05 -9.104609e-06 -3.788620e-05 1.000000e+00 1.262207e-01
9.014969e+07 9.892578e-01 1.444092e-01 1.458917e-05 -1.571234e-05 1.464598e-05 1.815520e-05 1.000488e+00 1.261597e-01
9.036750e+07 9.904175e-01 1.445312e-01 -1.898967e-06 1.174398e-05 -5.424395e-05 2.822280e-05 1.000732e+00 1.263428e-01
9.058531e+07 9.911499e-01 1.443481e-01 3.790483e-06 -2.349913e-05 3.939494e-06 1.749862e-05 1.001038e+00 1.261597e-01
9.080312e+07 9.916382e-01 1.445312e-01 2.539903e-05 -7.957220e-06 2.884492e-05 1.043081e-05 1.001465e+00 1.260376e-01
9.102094e+07 9.912109e-01 1.450195e-01 4.212186e-05 7.897615e-07 -4.481524e-06 1.410302e-05 1.002197e+00 1.268311e-01
9.123875e+07 9.924316e-01 1.448364e-01 3.321096e-06 -2.058968e-05 -3.675744e-05 1.209229e-05 1.002319e+00 1.264038e-01
9.145656e+07 9.928589e-01 1.452026e-01 4.084200e-10 -2.947615e-10 3.103167e-05 -9.331852e-07 1.002563e+00 1.257935e-01
9.167438e+07 9.929810e-01 1.454468e-01 3.198162e-05 2.630614e-05 -4.215399e-06 -1.708511e-06 1.002441e+00 1.261597e-01
9.189219e+07 9.929199e-01 1.456299e-01 -9.527430e-07 5.889684e-06 -9.861775e-06 -1.503341e-05 1.003723e+00 1.259766e-01
9.211000e+07 9.938354e-01 1.448364e-01 -4.471280e-06 -9.794254e-06 -1.868792e-05 -3.577396e-05 1.004333e+00 1.260376e-01
9.232781e+07 9.939575e-01 1.448975e-01 2.499297e-05 -5.038455e-06 1.005270e-05 -3.399327e-05 1.003845e+00 1.258545e-01
9.254562e+07 9.947510e-01 1.448364e-01 -1.558475e-05 2.168305e-05 1.705950e-06 -4.223082e-06 1.004028e+00 1.257935e-01
9.276344e+07 9.948730e-01 1.453247e-01 1.036003e-05 1.074933e-05 1.721084e-05 -6.676838e-05 1.003845e+00 1.262207e-01
9.298125e+07 9.949951e-01 1.453247e-01 -3.065355e-05 -3.521144e-05 -1.106597e-05 1.518708e-05 1.004822e+00 1.260376e-01
9.319906e+07 9.954224e-01 1.458130e-01 7.811934e-06 -1.086388e-05 -1.919642e-05 -6.188080e-05 1.005859e+00 1.260376e-01
9.341688e+07 9.957275e-01 1.459961e-01 -3.710389e-06 -5.212054e-05 -3.951602e-06 -1.758803e-05 1.005676e+00 1.259766e-01
9.363469e+07 9.961548e-01 1.455078e-01 -1.915079e-05 6.005168e-06 1.260266e-05 -2.811663e-05 1.005615e+00 1.256104e-01
9.385250e+07 9.966431e-01 1.456909e-01 -5.122274e-06 -4.329532e-05 2.237037e-06 2.183020e-05 1.006165e+00 1.264648e-01
9.407031e+07 9.969482e-01 1.456909e-01 -1.659058e-05 2.766959e-05 -2.998859e-05 -2.937205e-05 1.006470e+00 1.254272e-01
9.428812e+07 9.967651e-01 1.457520e-01 -1.633074e-05 -1.174677e-05 -3.656372e-05 -2.834387e-05 1.007507e+00 1.262817e-01
9.450594e+07 9.974976e-01 1.451416e-01 -5.019456e-05 1.008809e-05 -5.381182e-05 3.863126e-05 1.006409e+00 1.261597e-01
9.472375e+07 9.973755e-01 1.457520e-01 1.279265e-05 -4.013069e-06 -3.686734e-05 -1.246482e-05 1.006836e+00 1.252441e-01
9.494156e+07 9.982910e-01 1.459351e-01 1.613051e-05 -2.474338e-05 -2.021715e-05 1.031533e-05 1.007080e+00 1.252441e-01
9.515938e+07 9.981079e-01 1.452637e-01 -4.012138e-06 -1.282059e-05 -1.885463e-05 -1.132209e-05 1.008179e+00 1.259766e-01
9.537719e+07 9.990845e-01 1.450806e-01 3.748015e-05 -6.115064e-06 1.607463e-05 -3.670901e-05 1.007507e+00 1.254883e-01
9.559500e+07 9.993896e-01 1.455078e-01 -6.128103e-06 -3.749132e-05 2.077781e-06 1.318939e-05 1.007812e+00 1.251221e-01
9.581281e+07 9.993286e-01 1.455078e-01 -1.378544e-05 9.962358e-06 1.607370e-05 2.132170e-05 1.009216e+00 1.249390e-01
9.603062e+07 9.996948e-01 1.456299e-01 2.405792e-05 -3.573857e-05 -1.076795e-05 3.272854e-05 1.009827e+00 1.250610e-01
9.624844e+07 1.000305e+00 1.452637e-01 5.583838e-05 -6.239861e-06 -9.223819e-06 1.976639e-05 1.008972e+00 1.245117e-01
9.646625e+07 9.999390e-01 1.452026e-01 -4.120295e-10 2.976321e-10 3.030337e-05 -1.989864e-05 1.008850e+00 1.246338e-01
9.668406e+07 1.000549e+00 1.452637e-01 3.558584e-06 1.582224e-05 -3.669411e-07 -1.746230e-05 1.010010e+00 1.244507e-01
9.690188e+07 1.000366e+00 1.448975e-01 -5.688518e-06 -4.054606e-05 -2.570264e-05 -1.904182e-05 1.009216e+00 1.240234e-01
9.711969e+07 1.001465e+00 1.443481e-01 -2.377108e-05 -3.833324e-06 2.338924e-05 2.181530e-05 1.008728e+00 1.245117e-01
9.733750e+07 1.001099e+00 1.452026e-01 -3.761612e-05 6.129965e-06 1.358986e-05 1.539662e-05 1.009399e+00 1.248169e-01
9.755531e+07 1.001770e+00 1.441650e-01 3.875419e-05 2.453662e-05 1.885928e-07 8.744653e-06 1.008728e+00 1.242065e-01
9.777312e+07 1.000793e+00 1.447144e-01 -2.596900e-05 -2.861768e-05 -2.409704e-05 1.398847e-06 1.010132e+00 1.237183e-01
9.799094e+07 1.002869e+00 1.450806e-01 -1.191255e-05 -1.917593e-06 9.168405e-06 4.946720e-06 1.009338e+00 1.240845e-01
9.820875e+07 1.002014e+00 1.446533e-01 1.335423e-05 -7.019378e-06 -1.106970e-05 -9.433366e-06 1.009521e+00 1.237183e-01
9.842656e+07 1.002686e+00 1.437988e-01 -1.288764e-05 4.037283e-06 1.275213e-06 2.995599e-06 1.010132e+00 1.241455e-01
9.864438e+07 1.002380e+00 1.450806e-01 -4.056841e-06 -1.288764e-05 -3.778003e-05 -1.403689e-05 1.010254e+00 1.227417e-01
9.886219e+07 1.002686e+00 1.444092e-01 -2.337620e-05 -6.834045e-06 3.317557e-05 -5.250797e-06 1.009521e+00 1.240234e-01
9.908000e+07 1.002686e+00 1.449585e-01 -4.141327e-10 2.991101e-10 1.672562e-05 -1.063664e-05 1.010193e+00 1.237183e-01
9.929781e+07 1.002319e+00 1.436768e-01 1.917407e-05 -4.285201e-05 1.135562e-05 -6.602146e-06 1.010315e+00 1.240845e-01
9.951562e+07 1.002502e+00 1.439819e-01 -1.435820e-05 1.299661e-05 9.900890e-06 -1.837127e-05 1.010132e+00 1.240234e-01
9.973344e+07 1.002258e+00 1.441650e-01 -3.391691e-05 -1.769885e-05 2.078712e-06 -4.514307e-05 1.010010e+00 1.228027e-01
9.995125e+07 1.002502e+00 1.433105e-01 -3.277697e-05 1.314096e-05 -4.211999e-05 -1.575239e-05 1.011230e+00 1.225586e-01
1.001691e+08 1.002441e+00 1.431885e-01 -5.976763e-06 -9.606592e-07 -5.622394e-06 2.010725e-05 1.010681e+00 1.225586e-01
1.003869e+08 1.003296e+00 1.444702e-01 -2.877787e-06 1.794938e-05 -1.573190e-05 2.974086e-05 1.011230e+00 1.223755e-01
1.006047e+08 1.003174e+00 1.440430e-01 -8.136034e-06 -2.584793e-05 2.650544e-06 3.965944e-05 1.010803e+00 1.224976e-01
1.008225e+08 1.003174e+00 1.433105e-01 7.898547e-06 -1.101475e-05 8.618459e-06 -2.141763e-05 1.010803e+00 1.221313e-01
1.010403e+08 1.003479e+00 1.430054e-01 1.747813e-05 5.872920e-06 4.394352e-05 1.147762e-05 1.010498e+00 1.225586e-01
1.012581e+08 1.002991e+00 1.428833e-01 2.477318e-07 3.688969e-05 -1.585856e-05 -3.896654e-06 1.010498e+00 1.214600e-01
1.014759e+08 1.003784e+00 1.428833e-01 -3.369525e-06 2.097897e-05 -2.053007e-05 6.026775e-05 1.011230e+00 1.220703e-01
1.016938e+08 1.003906e+00 1.428833e-01 -9.106472e-06 -1.990050e-05 3.393739e-06 1.632795e-05 1.010559e+00 1.215820e-01
1.019116e+08 1.002686e+00 1.432495e-01 -1.931563e-06 1.198240e-05 2.604909e-05 -3.061630e-05 1.010010e+00 1.223145e-01
1.021294e+08 1.002563e+00 1.428833e-01 6.524101e-05 -2.331287e-05 -2.298132e-05 4.446134e-06 1.009827e+00 1.221313e-01
1.023472e+08 1.002930e+00 1.431885e-01 -6.001443e-06 -9.629875e-07 3.198627e-06 7.525552e-06 1.010742e+00 1.215210e-01
1.025650e+08 1.002869e+00 1.434937e-01 5.034264e-06 6.960705e-06 6.207731e-06 6.249640e-06 1.009827e+00 1.215210e-01
1.027828e+08 1.002991e+00 1.422729e-01 -1.413748e-05 -2.689101e-05 5.811453e-07 2.643093e-05 1.009705e+00 1.217651e-01
1.030006e+08 1.003296e+00 1.427612e-01 -4.074536e-06 -1.297053e-05 -2.641603e-05 -1.188740e-05 1.009827e+00 1.215820e-01
1.032184e+08 1.002747e+00 1.425171e-01 1.705717e-05 8.886680e-06 1.057517e-05 -1.695938e-05 1.010010e+00 1.209717e-01
1.034362e+08 1.003723e+00 1.422119e-01 1.443550e-06 -9.013806e-06 -1.893472e-05 -2.630055e-06 1.010437e+00 1.213379e-01
1.036541e+08 1.002502e+00 1.423950e-01 1.152605e-05 4.931353e-06 1.250952e-05 -1.244247e-05 1.008850e+00 1.214600e-01
1.038719e+08 1.002502e+00 1.423340e-01 1.442526e-05 -1.309533e-05 3.143027e-05 -9.816140e-06 1.009705e+00 1.204834e-01
1.040897e+08 1.002625e+00 1.426392e-01 -2.746657e-05 1.717918e-05 5.840324e-06 -1.138914e-05 1.010925e+00 1.219482e-01
1.043075e+08 1.002502e+00 1.423950e-01 2.548657e-05 -5.159527e-06 5.785376e-06 1.357496e-05 1.009094e+00 1.207275e-01
1.045253e+08 1.001709e+00 1.419678e-01 1.279265e-05 -4.116073e-05 8.555129e-06 2.843142e-05 1.009949e+00 1.212769e-01
1.047431e+08 1.002075e+00 1.420898e-01 1.327321e-05 -4.417449e-05 2.624467e-06 -1.895148e-05 1.009705e+00 1.211548e-01
1.049609e+08 1.001953e+00 1.422119e-01 4.325062e-06 -2.710707e-05 -1.901761e-05 2.236664e-05 1.009949e+00 1.206665e-01
1.051788e+08 1.001953e+00 1.410522e-01 1.203176e-05 1.923181e-06 -1.333095e-05 -2.287328e-05 1.008240e+00 1.206665e-01
1.053966e+08 1.001160e+00 1.411133e-01 3.420562e-05 1.781061e-05 2.375571e-06 -2.796762e-06 1.008667e+00 1.205444e-01
1.056144e+08 1.000732e+00 1.412964e-01 3.517047e-05 1.180917e-05 -3.558956e-05 1.695193e-05 1.008423e+00 1.209717e-01
1.058322e+08 1.001526e+00 1.414185e-01 -2.556667e-05 5.178154e-06 4.757196e-06 -5.601905e-06 1.009033e+00 1.204224e-01
1.060500e+08 1.000854e+00 1.423340e-01 1.952611e-05 -6.138347e-06 2.765656e-05 -1.891889e-05 1.007812e+00 1.208496e-01
1.062678e+08 1.000732e+00 1.416016e-01 7.471535e-06 -8.081086e-06 -3.153458e-06 -3.259070e-05 1.007996e+00 1.196289e-01
1.064856e+08 1.001099e+00 1.420898e-01 -1.399964e-05 1.013000e-05 -2.577435e-06 -6.057788e-06 1.008057e+00 1.203613e-01
1.067034e+08 1.000427e+00 1.417236e-01 2.002157e-05 -9.173527e-06 -1.205504e-05 -1.989584e-05 1.007385e+00 1.200562e-01
1.069212e+08 1.000488e+00 1.422119e-01 2.292544e-05 5.010515e-05 6.699935e-06 -1.065899e-06 1.007507e+00 1.206055e-01
1.071391e+08 1.000610e+00 1.410522e-01 -2.077594e-05 -2.497807e-05 -1.643412e-05 3.432855e-06 1.007202e+00 1.199341e-01
1.073569e+08 9.999390e-01 1.408691e-01 6.037299e-06 9.648502e-07 1.621060e-05 -1.230650e-05 1.006470e+00 1.201172e-01
1.075747e+08 9.994507e-01 1.428223e-01 7.363409e-05 -3.466010e-05 -3.976747e-05 -9.536743e-07 1.005676e+00 1.205444e-01
1.077925e+08 9.998779e-01 1.419678e-01 5.777925e-06 4.121289e-05 -9.257346e-07 3.978610e-05 1.006470e+00 1.210938e-01
1.080103e+08 9.992065e-01 1.427612e-01 2.175011e-05 1.896545e-05 9.287149e-06 4.994217e-06 1.006226e+00 1.202393e-01
1.082281e+08 9.989624e-01 1.419678e-01 3.722683e-05 -2.663583e-07 1.749210e-05 1.581572e-05 1.005981e+00 1.195679e-01
1.084459e+08 9.990845e-01 1.422729e-01 -2.007745e-05 9.188429e-06 3.181025e-05 -1.031905e-06 1.005798e+00 1.201172e-01
1.086638e+08 9.981689e-01 1.418457e-01 9.432435e-06 -2.020970e-05 2.247095e-05 1.906417e-05 1.005798e+00 1.202393e-01
1.088816e+08 9.986572e-01 1.423950e-01 3.460608e-05 -2.238713e-05 -1.973473e-05 2.096687e-05 1.005371e+00 1.204224e-01
1.090994e+08 9.976807e-01 1.417236e-01 -1.597218e-05 2.227351e-05 9.092968e-06 -3.883615e-06 1.005066e+00 1.211548e-01
1.093172e+08 9.985352e-01 1.419678e-01 -4.015490e-05 1.840293e-05 -2.832152e-06 1.017889e-05 1.004028e+00 1.205444e-01
1.095350e+08 9.984741e-01 1.426392e-01 -1.452211e-05 1.319405e-05 -9.560958e-06 1.125503e-05 1.004028e+00 1.211548e-01
1.097528e+08 9.982910e-01 1.422119e-01 -1.719408e-05 -8.963048e-06 -1.495052e-05 -9.776093e-06 1.003784e+00 1.217041e-01
1.099706e+08 9.972534e-01 1.419067e-01 -2.835132e-05 -1.693703e-05 1.384970e-05 1.562387e-05 1.003662e+00 1.208496e-01
1.101884e+08 9.965820e-01 1.417847e-01 -9.220093e-06 -2.012402e-05 2.946332e-05 1.754612e-06 1.004150e+00 1.213379e-01
1.104062e+08 9.960938e-01 1.436768e-01 -8.957461e-06 1.721270e-05 5.960464e-08 -2.514198e-05 1.003174e+00 1.210327e-01
1.106241e+08 9.959717e-01 1.434326e-01 1.914427e-05 -3.163703e-06 -1.344830e-05 2.137385e-06 1.002625e+00 1.215820e-01
1.108419e+08 9.967651e-01 1.428833e-01 7.021707e-06 -5.099457e-06 -1.475494e-05 -8.810312e-07 1.002197e+00 1.204834e-01
1.110597e+08 9.963989e-01 1.428833e-01 1.088716e-05 -2.934225e-05 1.409091e-05 2.454035e-05 1.001709e+00 1.211548e-01
1.112775e+08 9.956665e-01 1.431885e-01 -1.819525e-05 -2.902001e-06 -5.033985e-05 -5.960464e-08 1.001648e+00 1.217041e-01
1.114953e+08 9.959106e-01 1.433105e-01 1.819152e-05 2.908520e-06 -9.125099e-06 3.898516e-06 1.001099e+00 1.222534e-01
1.117131e+08 9.950562e-01 1.431885e-01 -1.454260e-06 9.104144e-06 -1.194701e-05 1.410488e-05 1.001404e+00 1.221313e-01
1.119309e+08 9.955444e-01 1.437378e-01 -2.840348e-05 -1.698174e-05 -1.410767e-05 -2.456643e-05 1.000488e+00 1.220703e-01
1.121488e+08 9.950562e-01 1.442261e-01 2.868474e-07 3.739074e-05 -3.171526e-05 -1.524389e-05 1.000854e+00 1.212769e-01
1.123666e+08 9.942017e-01 1.438599e-01 6.552320e-06 -2.066605e-06 1.150277e-05 1.847558e-05 9.998779e-01 1.221924e-01
1.125844e+08 9.940796e-01 1.445312e-01 -7.752329e-06 4.858524e-05 -7.867813e-06 3.215484e-05 1.000305e+00 1.226196e-01
1.128022e+08 9.937134e-01 1.438599e-01 -1.626275e-05 -1.505390e-05 -2.890266e-05 -2.421439e-07 9.989014e-01 1.234131e-01
1.130200e+08 9.932251e-01 1.445312e-01 -3.870577e-06 2.430379e-05 -1.433305e-05 -8.274801e-06 9.994507e-01 1.229858e-01
1.132378e+08 9.930420e-01 1.456299e-01 -1.435354e-05 -2.720952e-05 6.327406e-06 -1.890864e-05 9.989624e-01 1.231079e-01
1.134556e+08 9.928589e-01 1.458740e-01 -1.948327e-05 -3.426522e-05 3.285706e-06 -1.761131e-05 9.989014e-01 1.234131e-01
1.136734e+08 9.919434e-01 1.456299e-01 -4.828908e-07 3.039604e-06 -1.097098e-05 -7.634610e-05 9.982910e-01 1.234131e-01
1.138912e+08 9.920654e-01 1.447144e-01 -1.650862e-05 2.543628e-05 -1.414213e-05 6.444752e-07 9.981689e-01 1.239014e-01
1.141091e+08 9.916382e-01 1.459351e-01 7.048249e-06 -5.115289e-06 -4.144385e-06 7.173978e-06 9.976196e-01 1.240234e-01
1.143269e+08 9.915161e-01 1.466064e-01 -2.846308e-05 -1.700409e-05 1.934264e-05 1.156889e-05 9.968262e-01 1.248779e-01
1.145447e+08 9.916992e-01 1.467896e-01 3.090501e-05 1.799315e-06 -3.792532e-05 3.786944e-05 9.969482e-01 1.249390e-01
1.147625e+08 9.906616e-01 1.464233e-01 1.487322e-05 2.420507e-05 1.676288e-05 5.450100e-06 9.966431e-01 1.254272e-01
1.149803e+08 9.904175e-01 1.470947e-01 6.574672e-06 -2.074055e-06 5.888753e-06 -1.154188e-05 9.965820e-01 1.256104e-01
1.151981e+08 9.904175e-01 1.471558e-01 -1.219008e-05 -1.929700e-06 -4.572328e-06 -1.068460e-05 9.970093e-01 1.250610e-01
1.154159e+08 9.901123e-01 1.471558e-01 -1.634844e-05 -1.510698e-05 1.657382e-05 -2.876297e-05 9.968262e-01 1.264648e-01
1.156338e+08 9.891968e-01 1.486816e-01 -2.070703e-05 1.231767e-05 9.605661e-06 -1.132023e-05 9.953613e-01 1.265869e-01
1.158516e+08 9.890137e-01 1.484985e-01 -1.605600e-05 2.243184e-05 -8.748844e-06 2.179015e-05 9.946899e-01 1.260376e-01
1.160694e+08 9.895630e-01 1.488647e-01 2.776645e-05 -1.745112e-05 3.469735e-05 5.036592e-06 9.945679e-01 1.262207e-01
1.162872e+08 9.881592e-01 1.489868e-01 2.582557e-05 -5.271286e-06 2.790801e-05 6.126240e-06 9.944458e-01 1.264648e-01
1.165050e+08 9.879761e-01 1.489258e-01 4.418567e-05 -2.387911e-06 2.830289e-06 1.505297e-05 9.952393e-01 1.268921e-01
1.167228e+08 9.877930e-01 1.489868e-01 -1.026317e-05 -1.414679e-05 1.702458e-05 1.439918e-05 9.944458e-01 1.276245e-01
1.169406e+08 9.874268e-01 1.511230e-01 -6.048381e-05 -1.271442e-05 1.878943e-05 -1.526065e-05 9.927368e-01 1.273804e-01
1.171584e+08 9.871216e-01 1.505127e-01 -2.539158e-05 2.223998e-06 7.208902e-06 -8.511823e-06 9.936523e-01 1.279297e-01
1.173762e+08 9.871216e-01 1.508179e-01 -4.166737e-06 -1.318101e-05 2.774224e-05 2.251193e-05 9.927368e-01 1.286011e-01
1.175941e+08 9.866333e-01 1.517944e-01 1.125038e-05 8.049421e-06 4.392490e-05 1.113862e-06 9.931641e-01 1.295776e-01
1.178119e+08 9.864502e-01 1.514282e-01 4.991516e-05 1.642853e-06 -3.823824e-05 3.699213e-06 9.934692e-01 1.300659e-01
1.180297e+08 9.859619e-01 1.514282e-01 4.184432e-06 1.319218e-05 1.289789e-05 2.162810e-05 9.924316e-01 1.292114e-01
1.182475e+08 9.869385e-01 1.520996e-01 -1.239963e-05 3.878400e-05 -3.764592e-05 5.258247e-06 9.921875e-01 1.301270e-01
1.184653e+08 9.863281e-01 1.524658e-01 1.932494e-05 -3.206544e-06 -1.290906e-05 3.715977e-06 9.920654e-01 1.310425e-01
1.186831e+08 9.855347e-01 1.533813e-01 1.272559e-05 -1.122244e-06 7.661059e-06 -1.596939e-05 9.917603e-01 1.311646e-01
1.189009e+08 9.856567e-01 1.536255e-01 2.611428e-05 -4.605576e-05 -2.955645e-05 7.212162e-06 9.913940e-01 1.312866e-01
1.191188e+08 9.846802e-01 1.538696e-01 8.065253e-06 -1.127087e-05 1.356751e-05 -2.187677e-06 9.909058e-01 1.326294e-01
1.193366e+08 9.850464e-01 1.541138e-01 -1.825392e-07 4.079565e-05 2.168491e-05 -2.188608e-07 9.913330e-01 1.326294e-01
1.195544e+08 9.841919e-01 1.553955e-01 -1.225621e-05 -1.939945e-06 -1.097564e-06 5.913433e-06 9.907227e-01 1.332397e-01
1.197722e+08 9.840088e-01 1.555786e-01 -1.565367e-05 1.947023e-05 2.453476e-05 1.490302e-05 9.890137e-01 1.342163e-01
1.199900e+08 9.842529e-01 1.560059e-01 -1.935940e-05 3.216788e-06 -1.688302e-05 -5.481765e-06 9.897461e-01 1.340332e-01
1.202078e+08 9.841919e-01 1.566162e-01 -4.163012e-05 2.476200e-05 2.259202e-05 -1.513027e-05 9.890747e-01 1.350098e-01
1.204256e+08 9.834595e-01 1.568604e-01 -5.086511e-05 -3.633648e-05 -8.763745e-07 1.491513e-05 9.904175e-01 1.344604e-01
1.206434e+08 9.832764e-01 1.572266e-01 -7.109251e-06 5.168375e-06 -1.821108e-05 1.689140e-05 9.902954e-01 1.345825e-01
1.208612e+08 9.832764e-01 1.586914e-01 -3.168359e-05 1.261011e-06 1.252908e-05 -2.173055e-05 9.899902e-01 1.359863e-01
1.210791e+08 9.840088e-01 1.591797e-01 5.608425e-05 8.009374e-07 -1.880154e-05 -6.916001e-06 9.870605e-01 1.361084e-01
1.212969e+08 9.837036e-01 1.587524e-01 2.216175e-05 -2.377108e-05 -1.483248e-06 4.958129e-07 9.874878e-01 1.366577e-01
1.215147e+08 9.834595e-01 1.603394e-01 -1.329649e-05 1.425110e-05 -8.902512e-06 1.286715e-05 9.865723e-01 1.376343e-01
1.217325e+08 9.826050e-01 1.602173e-01 4.062429e-06 1.090951e-05 -1.499429e-06 -1.928210e-05 9.879761e-01 1.382446e-01
1.219503e+08 9.835815e-01 1.609497e-01 -2.105162e-05 -2.318993e-05 -3.471971e-06 -2.525933e-05 9.857178e-01 1.384888e-01
1.221681e+08 9.821777e-01 1.614990e-01 -6.840564e-06 1.496077e-05 -1.635030e-05 -4.403666e-05 9.862061e-01 1.390991e-01
1.223859e+08 9.819946e-01 1.619873e-01 -2.153218e-05 4.214421e-05 2.425164e-05 -1.140125e-05 9.855347e-01 1.398315e-01
1.226038e+08 9.819336e-01 1.627197e-01 -1.773518e-05 1.902319e-05 4.404783e-05 -2.133101e-05 9.852295e-01 1.399536e-01
1.228216e+08 9.815674e-01 1.630859e-01 -1.128577e-05 1.972727e-05 -2.723373e-05 1.239777e-05 9.854736e-01 1.410522e-01
1.230394e+08 9.810791e-01 1.629639e-01 4.696846e-05 2.598390e-05 -6.917864e-06 1.881644e-05 9.857178e-01 1.411743e-01
1.232572e+08 9.817505e-01 1.639404e-01 -5.828217e-06 1.769233e-05 -1.983065e-05 -9.885058e-06 9.846191e-01 1.419067e-01
1.234750e+08 9.812622e-01 1.654663e-01 2.716482e-05 3.958493e-05 -1.584180e-05 3.171898e-05 9.849854e-01 1.422119e-01
1.236928e+08 9.806519e-01 1.654053e-01 -1.941249e-05 -2.091751e-06 3.954396e-06 -1.783948e-05 9.841309e-01 1.428833e-01
1.239106e+08 9.796753e-01 1.660767e-01 5.839393e-06 -1.771562e-05 2.276339e-05 -1.091138e-05 9.843140e-01 1.437378e-01
1.241284e+08 9.812012e-01 1.676025e-01 2.646819e-06 2.386793e-05 -1.091696e-05 -2.282299e-05 9.837646e-01 1.452637e-01
1.243462e+08 9.796753e-01 1.682129e-01 -6.267801e-07 -1.841225e-05 4.015118e-05 3.619306e-05 9.832153e-01 1.455078e-01
1.245641e+08 9.801636e-01 1.686401e-01 1.183152e-05 4.847720e-05 7.439870e-06 -2.478715e-06 9.840088e-01 1.455688e-01
1.247819e+08 9.799805e-01 1.690674e-01 -1.740456e-05 3.364868e-06 -1.734309e-05 3.224052e-05 9.836426e-01 1.464844e-01
1.249997e+08 9.802856e-01 1.693115e-01 4.155189e-05 2.807751e-05 -3.723614e-05 -3.720261e-05 9.837646e-01 1.467896e-01
1.252175e+08 9.796143e-01 1.705322e-01 -1.436751e-05 1.155864e-05 9.922776e-06 9.313226e-10 9.834595e-01 1.479492e-01
1.254353e+08 9.793701e-01 1.714478e-01 2.780929e-06 -2.593361e-05 -5.047768e-07 2.332404e-05 9.835205e-01 1.480103e-01
1.256531e+08 9.790039e-01 1.717529e-01 1.016259e-05 2.731383e-05 -6.451737e-06 -4.465692e-06 9.823608e-01 1.492920e-01
1.258709e+08 9.782715e-01 1.733398e-01 -3.818423e-06 2.322532e-05 -2.878718e-05 1.288950e-05 9.837036e-01 1.499634e-01
1.260888e+08 9.786377e-01 1.731567e-01 1.780875e-05 -1.907442e-05 4.467741e-05 2.480671e-05 9.829102e-01 1.506348e-01
1.263066e+08 9.787598e-01 1.730957e-01 1.054816e-05 1.163688e-05 -3.673136e-05 -9.741634e-07 9.822388e-01 1.516113e-01
1.265244e+08 9.783936e-01 1.757202e-01 -3.446080e-05 -9.005889e-06 1.498498e-06 -1.042895e-05 9.823608e-01 1.522827e-01
1.267422e+08 9.773560e-01 1.757202e-01 -4.200265e-05 -1.241267e-05 -4.021451e-05 -6.496906e-06 9.830933e-01 1.526489e-01
1.269600e+08 9.786987e-01 1.768188e-01 -8.524861e-06 -6.172340e-06 -1.545250e-05 3.827177e-05 9.825439e-01 1.532593e-01
1.271778e+08 9.776611e-01 1.766968e-01 -2.235174e-07 -3.417581e-05 -3.577769e-05 1.966953e-06 9.823608e-01 1.544800e-01
1.273956e+08 9.776001e-01 1.768799e-01 8.913688e-06 -9.538140e-06 -4.469417e-06 -8.447561e-06 9.820557e-01 1.549683e-01
1.276134e+08 9.777222e-01 1.781616e-01 1.870655e-05 3.357977e-05 1.640152e-05 4.481524e-06 9.829712e-01 1.557007e-01
1.278312e+08 9.772949e-01 1.788940e-01 5.256385e-06 -3.620610e-05 2.385490e-05 -7.933006e-06 9.816895e-01 1.568604e-01
1.280491e+08 9.778442e-01 1.797485e-01 -4.712120e-05 -2.614781e-05 2.333336e-05 3.532134e-05 9.824219e-01 1.574097e-01
1.282669e+08 9.774170e-01 1.805420e-01 -7.103197e-06 -1.917221e-05 2.633408e-05 1.444109e-05 9.815674e-01 1.581421e-01
1.284847e+08 9.777222e-01 1.807861e-01 -5.139038e-05 1.284108e-05 1.342595e-05 5.476177e-06 9.827881e-01 1.585693e-01
1.287025e+08 9.774780e-01 1.821899e-01 -3.737956e-05 1.697987e-05 2.383627e-05 4.183874e-05 9.828491e-01 1.591797e-01
1.289203e+08 9.771729e-01 1.828613e-01 -2.296083e-05 5.390495e-06 -4.230998e-05 1.738220e-05 9.826050e-01 1.604004e-01
1.291381e+08 9.768677e-01 1.832886e-01 -2.764538e-05 -2.406351e-05 1.191907e-05 2.588145e-05 9.824219e-01 1.608276e-01
1.293559e+08 9.772339e-01 1.844482e-01 1.809653e-05 1.512840e-05 3.043562e-06 -4.082173e-05 9.819336e-01 1.613159e-01
1.295738e+08 9.768066e-01 1.853027e-01 3.050268e-05 -1.931563e-06 9.493902e-06 -2.635643e-05 9.823608e-01 1.622314e-01
1.297916e+08 9.775391e-01 1.857910e-01 7.707626e-06 -4.655495e-05 1.293700e-05 8.975156e-06 9.825439e-01 1.629639e-01
1.300094e+08 9.779663e-01 1.860352e-01 -4.654750e-05 -7.726252e-06 -2.475455e-06 -2.242811e-05 9.820557e-01 1.636963e-01
1.302272e+08 9.766235e-01 1.870117e-01 -4.272908e-05 -3.100187e-05 -2.536178e-05 -2.142787e-05 9.826050e-01 1.646729e-01
1.304450e+08 9.774170e-01 1.879272e-01 -1.810119e-05 -1.514982e-05 -5.168840e-07 1.344830e-05 9.824829e-01 1.651611e-01
1.306628e+08 9.776611e-01 1.882324e-01 4.558265e-05 4.947186e-06 3.738143e-05 7.521361e-06 9.830933e-01 1.653442e-01
1.308806e+08 9.771729e-01 1.896973e-01 7.733703e-06 3.772974e-05 8.949079e-06 1.696032e-05 9.824829e-01 1.664429e-01
1.310984e+08 9.777222e-01 1.904907e-01 3.650784e-06 2.677552e-05 -7.974915e-06 -4.000030e-06 9.829102e-01 1.674805e-01
1.313162e+08 9.774780e-01 1.917114e-01 2.198108e-05 -8.137897e-06 2.067536e-06 -3.390014e-05 9.824219e-01 1.676025e-01
1.315341e+08 9.774780e-01 1.919556e-01 -3.952160e-05 1.149625e-05 -2.959743e-06 -1.895335e-05 9.833374e-01 1.688232e-01
1.317519e+08 9.773560e-01 1.926270e-01 -3.096089e-05 1.772121e-05 -1.691561e-05 -2.098456e-05 9.832153e-01 1.690063e-01
1.319697e+08 9.777222e-01 1.934814e-01 -2.079085e-05 -3.921241e-05 -4.292838e-05 1.090579e-05 9.837646e-01 1.693726e-01
1.321875e+08 9.773560e-01 1.941528e-01 3.791228e-05 -3.276393e-05 2.694689e-05 -8.931383e-06 9.829712e-01 1.712646e-01
1.324053e+08 9.785156e-01 1.946411e-01 -1.650304e-05 6.108545e-06 2.397411e-05 -7.953495e-06 9.837036e-01 1.716919e-01
1.326231e+08 9.777222e-01 1.958008e-01 2.606772e-05 2.855435e-06 3.480818e-06 5.495735e-06 9.835815e-01 1.723022e-01
1.328409e+08 9.783325e-01 1.970825e-01 2.302229e-05 -5.392358e-06 -1.645833e-05 -4.533678e-06 9.835205e-01 1.732178e-01
1.330588e+08 9.776001e-01 1.970825e-01 7.959083e-06 -1.233816e-05 1.293607e-05 1.898874e-05 9.848022e-01 1.742554e-01
1.332766e+08 9.778442e-01 1.979370e-01 1.854450e-05 -6.072223e-07 -4.789233e-05 -1.408905e-05 9.839478e-01 1.746216e-01
1.334944e+08 9.778442e-01 1.992188e-01 7.385388e-06 -3.087521e-05 1.448207e-05 -1.462176e-06 9.840698e-01 1.760864e-01
1.337122e+08 9.786987e-01 1.992188e-01 -1.429580e-06 1.304690e-05 2.090633e-05 5.299225e-05 9.844360e-01 1.753540e-01
1.339300e+08 9.793091e-01 1.996460e-01 -9.578653e-06 -8.987729e-06 5.999114e-06 -1.992099e-06 9.847412e-01 1.774292e-01
1.341478e+08 9.783325e-01 2.003174e-01 2.454966e-06 -1.030508e-05 4.510395e-06 -1.147855e-05 9.854126e-01 1.773682e-01
1.343656e+08 9.792480e-01 2.022095e-01 4.263967e-05 -3.218651e-06 6.442890e-06 2.450868e-05 9.848633e-01 1.782837e-01
1.345834e+08 9.793701e-01 2.024536e-01 1.324154e-05 3.585033e-05 -2.700090e-05 8.929521e-06 9.862061e-01 1.787720e-01
1.348012e+08 9.793701e-01 2.034302e-01 -4.917383e-06 2.062134e-05 -3.998354e-05 -1.061708e-07 9.860229e-01 1.795044e-01
1.350191e+08 9.800415e-01 2.035522e-01 -5.289912e-05 -2.432242e-05 -1.201034e-05 3.977679e-06 9.866943e-01 1.799927e-01
1.352369e+08 9.790039e-01 2.042847e-01 -1.079217e-05 -4.618242e-05 -4.605576e-05 4.187599e-05 9.869385e-01 1.808472e-01
1.354547e+08 9.797974e-01 2.060547e-01 1.248065e-05 -1.713913e-05 -3.253296e-05 7.402152e-06 9.867554e-01 1.821899e-01
1.356725e+08 9.804688e-01 2.068481e-01 2.279878e-06 -4.474819e-05 -1.507159e-05 1.496915e-05 9.871826e-01 1.822510e-01
1.358903e+08 9.807129e-01 2.064819e-01 -3.268942e-05 -3.606081e-06 3.708526e-05 -1.893751e-05 9.874878e-01 1.829834e-01
1.361081e+08 9.803467e-01 2.067871e-01 -9.164214e-06 -2.484769e-05 3.001094e-05 7.823110e-08 9.877930e-01 1.837158e-01
1.363259e+08 9.811401e-01 2.075806e-01 2.760813e-05 -1.016445e-05 -2.002064e-05 -4.656613e-08 9.879150e-01 1.848145e-01
1.365438e+08 9.810181e-01 2.095947e-01 -1.163222e-05 -1.453329e-05 2.199784e-05 6.085262e-06 9.884033e-01 1.848755e-01
1.367616e+08 9.822388e-01 2.095337e-01 -2.457201e-05 1.846999e-05 -3.578141e-06 2.453662e-05 9.885254e-01 1.855469e-01
1.369794e+08 9.813232e-01 2.108154e-01 -2.430193e-05 -3.183819e-05 4.154257e-05 -3.557652e-07 9.890137e-01 1.860962e-01
1.371972e+08 9.822388e-01 2.103882e-01 -2.007931e-05 1.367740e-05 -3.053062e-05 -6.588176e-06 9.896851e-01 1.871948e-01
1.374150e+08 9.819336e-01 2.120361e-01 9.438023e-06 -2.545118e-05 -3.564917e-05 2.842583e-05 9.895630e-01 1.871338e-01
1.376328e+08 9.833984e-01 2.115479e-01 3.493391e-06 -7.571187e-06 -1.651607e-05 -1.458358e-05 9.911499e-01 1.886597e-01
1.378506e+08 9.823608e-01 2.132568e-01 1.003034e-05 -6.834976e-06 3.706664e-07 3.655627e-05 9.900513e-01 1.889038e-01
1.380684e+08 9.842529e-01 2.143555e-01 1.947209e-05 -3.234111e-05 5.143229e-07 -3.508525e-06 9.915771e-01 1.889648e-01
1.382862e+08 9.833374e-01 2.145996e-01 3.319606e-05 -1.223385e-05 -2.261437e-05 1.747534e-05 9.913330e-01 1.903687e-01
1.385041e+08 9.843750e-01 2.158813e-01 -5.356967e-05 -4.310161e-05 -2.283603e-05 -5.926937e-05 9.915771e-01 1.903687e-01
1.387219e+08 9.841919e-01 2.164307e-01 3.027916e-05 1.399033e-05 -4.994217e-06 -5.034963e-06 9.921265e-01 1.911011e-01
1.389397e+08 9.855957e-01 2.165527e-01 -1.761876e-05 3.351830e-06 4.814938e-07 6.528106e-06 9.926758e-01 1.916504e-01
1.391575e+08 9.856567e-01 2.172241e-01 9.035226e-06 -9.612646e-06 -1.996383e-05 -3.018044e-05 9.932251e-01 1.923218e-01
1.393753e+08 9.855957e-01 2.183228e-01 3.323704e-05 -1.220778e-05 2.318248e-05 -3.103539e-05 9.934692e-01 1.936035e-01
1.395931e+08 9.852295e-01 2.188110e-01 -2.484769e-06 1.034979e-05 -3.324263e-05 3.096089e-05 9.942627e-01 1.938477e-01
1.398109e+08 9.869385e-01 2.186279e-01 2.770312e-05 -1.019053e-05 -5.071983e-06 1.504831e-05 9.946899e-01 1.943970e-01
1.400288e+08 9.860229e-01 2.194214e-01 -1.561083e-05 8.886680e-06 -2.976973e-06 -9.041745e-06 9.960938e-01 1.954346e-01
1.402466e+08 9.872437e-01 2.205811e-01 -1.603551e-05 2.477318e-05 -5.669519e-05 -1.478195e-05 9.954224e-01 1.958618e-01
1.404644e+08 9.877930e-01 2.215576e-01 -4.229695e-05 2.182648e-05 5.707145e-05 5.144998e-05 9.954834e-01 1.964111e-01
1.406822e+08 9.885254e-01 2.213135e-01 4.081987e-06 1.108553e-05 -5.154870e-07 3.515277e-06 9.966431e-01 1.965332e-01
1.409000e+08 9.881592e-01 2.227783e-01 7.923692e-06 -4.697964e-05 -1.780689e-06 -5.628169e-05 9.973755e-01 1.978149e-01
1.411178e+08 9.890137e-01 2.230835e-01 1.018401e-06 2.774177e-06 -3.355928e-05 -2.574362e-05 9.980469e-01 1.980591e-01
1.413356e+08 9.901123e-01 2.238770e-01 7.589813e-06 3.510620e-06 -1.192279e-05 -3.624707e-05 9.987793e-01 1.986084e-01
1.415534e+08 9.904785e-01 2.243042e-01 4.250184e-05 1.274049e-05 1.946464e-06 1.609977e-05 9.995728e-01 1.987915e-01
1.417712e+08 9.898682e-01 2.246704e-01 -2.490357e-06 1.036655e-05 3.920868e-05 -2.859160e-06 9.997559e-01 1.989136e-01
1.419891e+08 9.905396e-01 2.257690e-01 -9.063631e-06 9.632204e-06 1.784787e-05 -5.271286e-05 9.996948e-01 1.995239e-01
1.422069e+08 9.914551e-01 2.259521e-01 -3.491156e-05 -9.248033e-06 2.659857e-05 1.470558e-05 1.000488e+00 2.006226e-01
1.424247e+08 9.915161e-01 2.258301e-01 -4.750118e-05 8.024275e-06 1.856498e-05 1.062918e-05 1.001282e+00 2.003174e-01
1.426425e+08 9.928589e-01 2.265625e-01 3.976002e-05 -4.613400e-05 -3.678724e-08 1.006853e-05 1.001404e+00 2.009277e-01
1.428603e+08 9.932861e-01 2.277222e-01 -2.777949e-05 1.020357e-05 -3.322028e-05 8.493662e-07 1.002319e+00 2.018433e-01
1.430781e+08 9.937134e-01 2.276001e-01 -2.130680e-05 -2.368167e-05 1.900829e-05 2.725609e-05 1.002319e+00 2.015381e-01
1.432959e+08 9.945679e-01 2.285767e-01 9.192154e-06 2.499484e-05 1.162663e-05 -1.052953e-05 1.003479e+00 2.019653e-01
1.435138e+08 9.942017e-01 2.293091e-01 2.936833e-05 1.131557e-05 1.809932e-05 4.108995e-06 1.004333e+00 2.037354e-01
1.437316e+08 9.945679e-01 2.299805e-01 -1.677498e-05 -2.853386e-05 3.495254e-06 5.553477e-06 1.004028e+00 2.034302e-01
1.439494e+08 9.949951e-01 2.299805e-01 3.584474e-05 -2.260692e-05 6.103888e-06 -1.205876e-05 1.004150e+00 2.030640e-01
1.441672e+08 9.954834e-01 2.304688e-01 -2.631731e-05 -2.972782e-06 -1.768023e-05 1.251046e-05 1.005066e+00 2.044678e-01
1.443850e+08 9.967041e-01 2.305908e-01 -8.165836e-06 -2.224557e-05 -1.159683e-05 4.498288e-07 1.006165e+00 2.039185e-01
1.446028e+08 9.971313e-01 2.320557e-01 -1.974218e-05 -2.225861e-06 -5.880371e-06 -2.826005e-05 1.006409e+00 2.044678e-01
1.448206e+08 9.977417e-01 2.315674e-01 5.006790e-06 -2.077408e-05 5.639158e-06 -1.861993e-05 1.007385e+00 2.050171e-01
1.450384e+08 9.980469e-01 2.315674e-01 2.022460e-05 -1.373142e-05 -3.832765e-05 5.876645e-06 1.008728e+00 2.055054e-01
1.452562e+08 9.990234e-01 2.327881e-01 9.546056e-06 -2.560019e-05 2.862886e-05 2.083741e-05 1.008911e+00 2.051392e-01
1.454741e+08 9.993286e-01 2.324829e-01 3.338978e-05 -1.225621e-05 -2.356246e-06 -3.278628e-05 1.009521e+00 2.056274e-01
1.456919e+08 1.000061e+00 2.335205e-01 6.330758e-05 1.778454e-05 -5.900860e-06 -2.827868e-05 1.008667e+00 2.062378e-01
1.459097e+08 1.000488e+00 2.339478e-01 -1.465995e-05 1.169182e-05 2.205931e-05 2.636760e-05 1.010498e+00 2.058105e-01
1.461275e+08 1.000610e+00 2.341309e-01 3.795698e-05 -1.706928e-05 -3.590621e-05 1.846254e-05 1.010803e+00 2.066040e-01
1.463453e+08 1.001343e+00 2.342529e-01 -1.114421e-05 4.081987e-06 -9.566545e-06 -3.583729e-06 1.011963e+00 2.064209e-01
1.465631e+08 1.002136e+00 2.355347e-01 3.146194e-05 1.691096e-05 -1.662504e-05 -4.642643e-06 1.012573e+00 2.074585e-01
1.467809e+08 1.002808e+00 2.349854e-01 4.050881e-05 -2.748147e-05 -2.764165e-06 -4.949421e-05 1.013489e+00 2.079468e-01
1.469988e+08 1.003601e+00 2.359009e-01 -2.693571e-05 -2.176128e-05 1.868233e-05 6.146729e-07 1.014465e+00 2.082520e-01
1.472166e+08 1.004395e+00 2.357178e-01 1.766719e-05 -3.810227e-05 2.406538e-06 2.274290e-05 1.015198e+00 2.083740e-01
1.474344e+08 1.004272e+00 2.359009e-01 -1.489185e-06 1.320057e-05 -5.587935e-08 1.009693e-05 1.015320e+00 2.080688e-01
1.476522e+08 1.005249e+00 2.354126e-01 1.626834e-05 9.858981e-06 -3.656372e-06 2.473220e-05 1.016541e+00 2.086792e-01
1.478700e+08 1.005615e+00 2.362061e-01 -1.271721e-05 -1.747441e-05 -4.038215e-05 -2.384186e-07 1.016113e+00 2.088623e-01
1.480878e+08 1.006836e+00 2.372437e-01 -2.687611e-05 1.300871e-05 -8.122995e-06 6.013084e-06 1.017578e+00 2.090454e-01
1.483056e+08 1.007385e+00 2.374268e-01 -2.436340e-05 2.579764e-06 1.063524e-05 -3.475230e-06 1.018005e+00 2.094116e-01
1.485234e+08 1.008362e+00 2.371826e-01 -1.452863e-06 4.799664e-05 -3.946200e-05 2.820045e-06 1.018982e+00 2.092896e-01
1.487412e+08 1.007812e+00 2.375488e-01 -7.566065e-06 3.124587e-05 1.331232e-05 -3.125146e-05 1.019409e+00 2.094727e-01
1.489591e+08 1.008240e+00 2.374268e-01 2.522953e-06 -1.041591e-05 -1.401640e-06 -1.971703e-05 1.019836e+00 2.094727e-01
1.491769e+08 1.008850e+00 2.382202e-01 -3.610179e-05 -1.212955e-05 -2.106652e-06 1.414027e-05 1.020996e+00 2.089233e-01
1.493947e+08 1.010376e+00 2.384644e-01 -3.610365e-05 -1.213513e-05 -2.016407e-05 -1.024455e-05 1.021240e+00 2.096558e-01
1.496125e+08 1.010071e+00 2.382202e-01 3.302470e-05 3.751367e-06 1.751631e-05 2.789870e-05 1.021423e+00 2.096558e-01
1.498303e+08 1.012207e+00 2.390137e-01 -2.391264e-05 -1.344271e-05 -1.997873e-05 3.680773e-05 1.022522e+00 2.100220e-01
1.500481e+08 1.012024e+00 2.387695e-01 -8.180737e-06 -2.237037e-05 -3.075972e-05 -1.688115e-05 1.024170e+00 2.094727e-01
1.502659e+08 1.012878e+00 2.379761e-01 -2.644025e-05 -2.996996e-06 -3.045611e-05 2.006814e-05 1.024170e+00 2.093506e-01
1.504838e+08 1.012451e+00 2.382202e-01 1.724809e-05 -2.215244e-05 -2.379529e-05 4.420057e-06 1.025024e+00 2.094116e-01
1.507016e+08 1.013184e+00 2.388916e-01 2.392940e-05 1.343153e-05 -1.494773e-05 4.190952e-05 1.025879e+00 2.092896e-01
1.509194e+08 1.013977e+00 2.393188e-01 1.424924e-05 4.311092e-06 3.557466e-05 -2.508797e-05 1.026489e+00 2.101440e-01
1.511372e+08 1.015015e+00 2.396240e-01 -6.651506e-06 -3.559142e-05 6.947666e-06 2.130214e-05 1.026001e+00 2.096558e-01
1.513550e+08 1.014954e+00 2.395630e-01 -1.220591e-05 1.282431e-06 -2.255663e-06 -4.302338e-05 1.026550e+00 2.097778e-01
1.515728e+08 1.016724e+00 2.397461e-01 3.103539e-05 -1.819804e-06 2.183020e-06 -2.430007e-05 1.027527e+00 2.092896e-01
1.517906e+08 1.015503e+00 2.389526e-01 4.785880e-05 -7.960945e-06 1.350418e-05 2.587587e-05 1.029114e+00 2.093506e-01
1.520084e+08 1.017639e+00 2.390137e-01 -2.581626e-06 -2.444163e-05 -1.429021e-05 1.815613e-05 1.029724e+00 2.091064e-01
1.522262e+08 1.017822e+00 2.391968e-01 -9.180978e-06 -2.519600e-05 1.727417e-05 -9.012409e-06 1.029724e+00 2.092285e-01
1.524441e+08 1.018616e+00 2.387085e-01 -5.038083e-05 1.839548e-05 -1.057517e-06 7.086433e-06 1.030334e+00 2.085571e-01
1.526619e+08 1.019043e+00 2.387085e-01 5.071983e-06 -2.088584e-05 -1.026317e-05 2.020691e-05 1.031555e+00 2.089844e-01
1.528797e+08 1.019836e+00 2.401123e-01 2.595037e-05 -5.066022e-05 -3.125332e-05 -2.355315e-05 1.031006e+00 2.094727e-01
1.530975e+08 1.020142e+00 2.391968e-01 3.464334e-05 -9.439886e-06 -3.211200e-06 -4.615635e-05 1.032532e+00 2.088623e-01
1.533153e+08 1.020691e+00 2.396851e-01 4.430860e-05 -2.831221e-07 -1.571048e-05 -1.635402e-06 1.032654e+00 2.092285e-01
1.535331e+08 1.021484e+00 2.391968e-01 -4.945323e-05 2.115220e-05 3.156811e-05 -1.702085e-05 1.034180e+00 2.091675e-01
1.537509e+08 1.022034e+00 2.399292e-01 2.345443e-05 -5.362555e-06 -1.868326e-05 -1.080055e-05 1.034607e+00 2.086182e-01
1.539688e+08 1.022522e+00 2.392578e-01 5.107373e-06 1.400989e-05 3.582332e-06 -4.540198e-06 1.034851e+00 2.076416e-01
1.541866e+08 1.023071e+00 2.387085e-01 2.143346e-05 2.393499e-05 -7.560477e-06 -7.661059e-06 1.035522e+00 2.076416e-01
1.544044e+08 1.023376e+00 2.387085e-01 2.191588e-05 -2.704374e-05 -2.805889e-05 2.260692e-05 1.036255e+00 2.074585e-01
1.546222e+08 1.024170e+00 2.379761e-01 -1.529511e-05 -7.140450e-06 5.695224e-05 -2.191588e-05 1.036377e+00 2.076416e-01
1.548400e+08 1.024048e+00 2.384644e-01 -3.216043e-05 3.394112e-05 3.272668e-06 3.604963e-05 1.037476e+00 2.079468e-01
1.550578e+08 1.025574e+00 2.380981e-01 -3.011152e-05 3.955513e-05 1.686905e-05 -1.562014e-05 1.037781e+00 2.076416e-01
1.552756e+08 1.024902e+00 2.375488e-01 -3.927574e-05 -2.063252e-05 -1.099706e-05 -2.341345e-05 1.037842e+00 2.064209e-01
1.554934e+08 1.026245e+00 2.383423e-01 -1.023989e-06 -2.807705e-06 -1.259334e-05 -1.279637e-05 1.039734e+00 2.061157e-01
1.557112e+08 1.026245e+00 2.368774e-01 2.553873e-05 3.520027e-05 -1.579709e-05 8.514151e-06 1.039551e+00 2.060547e-01
1.559291e+08 1.027344e+00 2.376709e-01 -2.706796e-05 1.303665e-05 -9.782612e-06 -5.088001e-05 1.040955e+00 2.053223e-01
1.561469e+08 1.026978e+00 2.371216e-01 5.627051e-06 3.291108e-05 1.174398e-05 -1.057331e-05 1.040222e+00 2.048950e-01
1.563647e+08 1.028320e+00 2.372437e-01 -2.655387e-05 -3.075227e-06 -4.529580e-05 1.134723e-05 1.041016e+00 2.050171e-01
1.565825e+08 1.028015e+00 2.366943e-01 -1.378916e-05 -2.042949e-05 -1.747906e-05 -3.821030e-05 1.041138e+00 2.048340e-01
1.568003e+08 1.028992e+00 2.362061e-01 2.402067e-05 -2.143346e-05 1.300126e-06 2.997927e-05 1.041382e+00 2.048950e-01
1.570181e+08 1.029785e+00 2.360229e-01 -4.906207e-05 5.073845e-06 2.637319e-05 8.327886e-06 1.042358e+00 2.041626e-01
1.572359e+08 1.029175e+00 2.355347e-01 2.401881e-05 -2.149306e-05 4.586764e-07 6.609131e-06 1.043518e+00 2.028198e-01
1.574538e+08 1.030334e+00 2.362061e-01 -1.175795e-05 -1.482386e-05 -1.078658e-05 1.364294e-05 1.043640e+00 2.027588e-01
1.576716e+08 1.031555e+00 2.353516e-01 -3.067777e-06 2.657250e-05 -1.101196e-05 -2.348609e-05 1.043579e+00 2.024536e-01
1.578894e+08 1.031494e+00 2.339478e-01 -2.563931e-06 1.047738e-05 5.520508e-05 2.938882e-05 1.044495e+00 2.028198e-01
1.581072e+08 1.030884e+00 2.346802e-01 -7.053465e-05 -1.893938e-05 2.886169e-06 1.933519e-05 1.044800e+00 2.015991e-01
1.583250e+08 1.031677e+00 2.345581e-01 1.380872e-05 -1.457427e-05 2.446212e-05 -7.936731e-06 1.045105e+00 2.014160e-01
1.585428e+08 1.032837e+00 2.337036e-01 -1.074933e-05 2.302974e-05 1.136214e-06 5.036965e-05 1.046021e+00 2.005615e-01
1.587606e+08 1.032898e+00 2.338867e-01 -3.631599e-05 -1.229718e-05 2.309680e-06 -3.457814e-05 1.045837e+00 2.003174e-01
1.589784e+08 1.033325e+00 2.337646e-01 -1.945067e-05 -1.843460e-05 1.386274e-05 -1.464505e-05 1.046936e+00 1.994019e-01
1.591962e+08 1.033142e+00 2.327881e-01 1.177285e-05 1.485832e-05 5.967915e-06 1.836568e-05 1.047668e+00 1.995239e-01
1.594141e+08 1.034058e+00 2.328491e-01 3.065448e-06 8.441042e-06 -5.695224e-05 -8.616596e-06 1.046631e+00 1.982422e-01
1.596319e+08 1.034424e+00 2.326660e-01 3.097579e-06 -2.659857e-05 2.756715e-05 -8.923933e-06 1.046509e+00 1.990356e-01
1.598497e+08 1.033997e+00 2.309570e-01 2.712756e-05 -4.811957e-05 -2.066372e-06 4.054047e-06 1.047607e+00 1.973267e-01
1.600675e+08 1.034851e+00 2.319946e-01 -1.332536e-05 3.353134e-05 -1.620967e-06 1.068041e-05 1.048035e+00 1.975098e-01
1.602853e+08 1.035400e+00 2.317505e-01 2.301484e-05 1.076795e-05 6.222166e-06 -1.216959e-05 1.047546e+00 1.975098e-01
1.605031e+08 1.034912e+00 2.308350e-01 -7.672235e-06 -3.590714e-06 9.456649e-06 -3.352016e-05 1.048096e+00 1.967773e-01
1.607209e+08 1.035217e+00 2.301636e-01 -1.382362e-05 1.458544e-05 -6.582122e-06 -4.633330e-06 1.048706e+00 1.955566e-01
1.609388e+08 1.035278e+00 2.300415e-01 2.255104e-05 -8.171424e-06 5.963258e-06 1.837872e-05 1.049438e+00 1.954956e-01
1.611566e+08 1.037231e+00 2.294922e-01 -4.814565e-05 -2.716482e-05 -2.806261e-05 2.324581e-06 1.049561e+00 1.938477e-01
1.613744e+08 1.036621e+00 2.290649e-01 -2.514943e-05 1.866370e-05 4.474074e-05 1.261011e-05 1.049927e+00 1.951904e-01
1.615922e+08 1.036865e+00 2.286987e-01 -5.144626e-06 2.100877e-05 1.144782e-05 -2.743676e-05 1.050293e+00 1.931152e-01
1.618100e+08 1.035645e+00 2.279663e-01 3.382936e-05 -1.225248e-05 -1.189765e-05 2.078060e-05 1.049683e+00 1.928101e-01
1.620278e+08 1.036316e+00 2.269287e-01 2.972409e-05 -2.357922e-05 1.578592e-05 1.665205e-06 1.050110e+00 1.916504e-01
1.622456e+08 1.037598e+00 2.267456e-01 2.157688e-05 -4.612654e-05 3.919750e-05 -4.658848e-05 1.050171e+00 1.918335e-01
1.624634e+08 1.037048e+00 2.266235e-01 -4.717335e-05 1.072884e-05 -9.600073e-06 4.377589e-05 1.050232e+00 1.907959e-01
1.626812e+08 1.037292e+00 2.265015e-01 -1.023524e-06 -2.821675e-06 -1.515076e-05 -1.545716e-05 1.050476e+00 1.901855e-01
1.628991e+08 1.037598e+00 2.249146e-01 -1.128763e-05 4.093163e-06 -1.769885e-05 3.961846e-05 1.050903e+00 1.900024e-01
1.631169e+08 1.037292e+00 2.237549e-01 -6.667338e-06 -7.743947e-07 1.661107e-05 2.513267e-05 1.051086e+00 1.889648e-01
1.633347e+08 1.037292e+00 2.243042e-01 -3.696792e-05 3.820285e-06 -5.783513e-06 1.881272e-05 1.051880e+00 1.886597e-01
1.635525e+08 1.037231e+00 2.227173e-01 -3.025495e-05 -3.060885e-05 -6.817281e-07 -4.388392e-05 1.052307e+00 1.882324e-01
1.637703e+08 1.037720e+00 2.235107e-01 -6.676186e-06 -7.790513e-07 -3.794208e-06 -3.270246e-05 1.051697e+00 1.877441e-01
1.639881e+08 1.037842e+00 2.230225e-01 -8.769333e-06 2.869405e-05 1.401640e-05 -2.489425e-05 1.049744e+00 1.870728e-01
1.642059e+08 1.038269e+00 2.227173e-01 -3.024563e-05 -3.060326e-05 -1.886860e-06 -1.636799e-05 1.051147e+00 1.865234e-01
1.644238e+08 1.037537e+00 2.221680e-01 -3.136881e-05 3.693439e-05 -1.546368e-05 1.516566e-05 1.051270e+00 1.854858e-01
1.646416e+08 1.037598e+00 2.213135e-01 -2.004020e-05 -2.341345e-06 -7.933006e-06 -2.457574e-05 1.051819e+00 1.850586e-01
1.648594e+08 1.038147e+00 2.211914e-01 -4.216284e-05 2.487004e-05 -5.103648e-06 -5.265698e-05 1.051697e+00 1.841431e-01
1.650772e+08 1.038269e+00 2.199707e-01 1.178868e-05 1.490302e-05 -1.175608e-05 4.014000e-07 1.050598e+00 1.831665e-01
1.652950e+08 1.037415e+00 2.195435e-01 -1.593679e-05 8.968636e-06 -7.232185e-06 9.123236e-06 1.050903e+00 1.828613e-01
1.655128e+08 1.038452e+00 2.191162e-01 -2.720207e-05 -2.212636e-05 4.070112e-06 2.083601e-06 1.051270e+00 1.821289e-01
1.657306e+08 1.037720e+00 2.191162e-01 1.077820e-05 1.207925e-05 4.811212e-06 -2.193451e-05 1.050476e+00 1.815796e-01
1.659484e+08 1.036926e+00 2.182007e-01 2.773106e-05 5.943701e-06 -1.190417e-05 -3.688596e-05 1.050598e+00 1.804199e-01
1.661662e+08 1.037720e+00 2.180176e-01 -2.053194e-05 -2.136081e-05 2.169050e-05 3.037043e-05 1.050720e+00 1.799927e-01
1.663841e+08 1.037903e+00 2.173462e-01 4.634261e-06 -4.882226e-06 4.166737e-06 -8.142553e-06 1.051514e+00 1.791382e-01
1.666019e+08 1.037170e+00 2.159424e-01 -1.432747e-05 -3.962591e-05 5.788170e-06 -1.885463e-05 1.050659e+00 1.791992e-01
1.668197e+08 1.037720e+00 2.164307e-01 4.146248e-06 -2.390519e-05 -5.464535e-07 3.575813e-06 1.050415e+00 1.781616e-01
1.670375e+08 1.036621e+00 2.163696e-01 2.366304e-05 -5.358830e-06 9.127893e-06 7.252209e-06 1.050293e+00 1.781006e-01
1.672553e+08 1.036865e+00 2.150269e-01 1.277030e-05 5.299971e-05 -3.376603e-05 6.891787e-07 1.050354e+00 1.770630e-01
1.674731e+08 1.036133e+00 2.138062e-01 2.053753e-05 2.138317e-05 4.353002e-06 -2.858788e-05 1.049377e+00 1.770630e-01
1.676909e+08 1.037292e+00 2.138672e-01 -4.991889e-07 -1.902599e-05 -2.871640e-05 5.848706e-06 1.048706e+00 1.755981e-01
1.679088e+08 1.036194e+00 2.134399e-01 -1.854729e-05 1.951214e-05 -1.827534e-05 -1.451280e-05 1.049133e+00 1.757812e-01
1.681266e+08 1.035400e+00 2.125244e-01 -1.387112e-05 -2.061948e-05 1.141988e-05 -1.727976e-05 1.049927e+00 1.748047e-01
1.683444e+08 1.035522e+00 2.123413e-01 1.958478e-05 -1.667812e-05 -6.492436e-05 -6.258488e-06 1.048523e+00 1.745605e-01
1.685622e+08 1.035461e+00 2.113037e-01 -2.627261e-05 1.591258e-05 4.074303e-06 2.084300e-06 1.048645e+00 1.731567e-01
1.687800e+08 1.035217e+00 2.113647e-01 -2.512708e-06 -2.470985e-05 3.786571e-05 1.404434e-06 1.048096e+00 1.733398e-01
1.689978e+08 1.035767e+00 2.108154e-01 -6.689224e-06 -7.883646e-07 3.827736e-06 -2.506562e-05 1.047485e+00 1.726074e-01
1.692156e+08 1.034668e+00 2.103271e-01 2.047513e-06 5.668029e-06 2.112612e-05 -1.362339e-05 1.047302e+00 1.720581e-01
1.694334e+08 1.034485e+00 2.091675e-01 7.881224e-05 -1.248717e-05 8.695293e-06 5.941838e-07 1.046936e+00 1.710205e-01
1.696512e+08 1.033508e+00 2.088013e-01 -1.549721e-05 2.802163e-05 6.604940e-06 4.669651e-06 1.046143e+00 1.704712e-01
1.698691e+08 1.033936e+00 2.084961e-01 2.987497e-05 1.163967e-05 -1.411140e-05 -2.267770e-05 1.046936e+00 1.694336e-01
1.700869e+08 1.033081e+00 2.080078e-01 4.741922e-05 -1.075119e-05 -2.730638e-05 1.561269e-05 1.046021e+00 1.690674e-01
1.703047e+08 1.032410e+00 2.075195e-01 -2.420880e-05 -1.368672e-05 -9.351410e-06 1.322757e-05 1.045715e+00 1.679077e-01
1.705225e+08 1.032593e+00 2.068481e-01 -4.233047e-05 2.489984e-05 9.659678e-06 -4.397705e-05 1.046021e+00 1.686401e-01
1.707403e+08 1.032227e+00 2.066650e-01 -1.026085e-06 -2.837507e-06 6.500632e-07 -1.383759e-05 1.045410e+00 1.671143e-01
1.709581e+08 1.031494e+00 2.059326e-01 1.339428e-05 1.581386e-06 -2.766214e-05 -1.313165e-06 1.044434e+00 1.669312e-01
1.711759e+08 1.031494e+00 2.059937e-01 2.522394e-05 1.654401e-05 -5.447492e-05 -3.697723e-05 1.043823e+00 1.661377e-01
1.713938e+08 1.030945e+00 2.047729e-01 7.724855e-06 3.628898e-06 4.182570e-06 -8.159783e-06 1.043457e+00 1.659546e-01
1.716116e+08 1.030090e+00 2.050781e-01 -1.909211e-05 4.498288e-07 6.291084e-06 -1.223944e-05 1.043396e+00 1.661987e-01
1.718294e+08 1.030212e+00 2.039795e-01 -8.287840e-06 1.261476e-05 3.553182e-05 3.626756e-05 1.042725e+00 1.650391e-01
1.720472e+08 1.029358e+00 2.033691e-01 -1.239125e-05 1.255423e-06 -1.090579e-05 1.373421e-05 1.042664e+00 1.647339e-01
1.722650e+08 1.028137e+00 2.033081e-01 -2.927333e-05 -6.333366e-05 -1.246110e-05 -3.347173e-05 1.042603e+00 1.638794e-01
1.724828e+08 1.028564e+00 2.025146e-01 -3.977865e-05 1.436472e-05 2.640113e-05 2.902001e-05 1.041321e+00 1.628418e-01
1.727006e+08 1.026794e+00 2.023926e-01 -1.230650e-05 -3.408827e-05 -1.071766e-05 4.089437e-05 1.040466e+00 1.627808e-01
1.729184e+08 1.027283e+00 2.013550e-01 9.980053e-06 -6.141141e-05 8.929521e-06 -1.991913e-05 1.039673e+00 1.629639e-01
1.731362e+08 1.026245e+00 2.012329e-01 -1.751725e-05 -1.294725e-05 -2.802908e-05 2.945028e-05 1.039246e+00 1.619873e-01
1.733541e+08 1.026184e+00 2.007446e-01 -2.321042e-05 -1.090579e-05 6.834976e-06 -1.584459e-05 1.038940e+00 1.613159e-01
1.735719e+08 1.025635e+00 2.004395e-01 -1.911633e-05 4.591420e-07 -1.116004e-05 -1.346041e-05 1.038879e+00 1.619263e-01
1.737897e+08 1.025269e+00 2.001953e-01 -1.695007e-05 -2.923980e-05 2.818182e-05 5.576760e-05 1.038086e+00 1.610718e-01
1.740075e+08 1.024292e+00 2.009888e-01 4.102476e-06 1.137983e-05 9.598210e-06 1.398101e-05 1.037476e+00 1.604004e-01
1.742253e+08 1.024170e+00 2.000122e-01 -7.292256e-06 1.547579e-05 1.247041e-05 3.352575e-05 1.036865e+00 1.607056e-01
1.744431e+08 1.022339e+00 1.987915e-01 2.845563e-05 -1.022406e-05 -1.225248e-05 -6.294809e-06 1.035828e+00 1.603394e-01
1.746609e+08 1.022583e+00 1.987305e-01 8.774921e-06 6.488059e-06 -1.393445e-05 -4.330277e-05 1.035828e+00 1.589966e-01
1.748788e+08 1.022461e+00 1.983032e-01 6.249174e-06 -1.833774e-05 1.681037e-05 1.509767e-05 1.034668e+00 1.587524e-01
1.750966e+08 1.021790e+00 1.984863e-01 4.704669e-05 5.543232e-06 -2.082437e-06 -4.373118e-05 1.034302e+00 1.580811e-01
1.753144e+08 1.020203e+00 1.972046e-01 -3.669970e-05 -1.250952e-05 -3.874302e-06 -2.265349e-05 1.033508e+00 1.581421e-01
1.755322e+08 1.020386e+00 1.969604e-01 3.464334e-05 6.791204e-06 7.404946e-06 -1.946464e-05 1.033447e+00 1.571045e-01
1.757500e+08 1.019592e+00 1.975098e-01 -2.997927e-05 -1.173094e-05 8.512288e-06 2.117828e-05 1.032593e+00 1.575928e-01
1.759678e+08 1.018372e+00 1.967773e-01 1.970865e-05 -1.674891e-05 2.985820e-06 -3.852136e-05 1.031555e+00 1.569824e-01
1.761856e+08 1.017700e+00 1.968384e-01 -3.578141e-05 2.574548e-05 -1.470186e-05 -1.919270e-05 1.030762e+00 1.564941e-01
1.764034e+08 1.017700e+00 1.968994e-01 -1.186319e-05 -1.504924e-05 -2.775714e-05 -4.920363e-05 1.030823e+00 1.561279e-01
1.766212e+08 1.016663e+00 1.961670e-01 -1.929700e-05 3.590807e-05 -4.372746e-05 -3.065914e-06 1.029419e+00 1.566162e-01
1.768391e+08 1.016357e+00 1.962280e-01 -3.000163e-05 -1.175143e-05 -1.129135e-05 -3.215857e-06 1.028870e+00 1.557007e-01
1.770569e+08 1.015198e+00 1.953125e-01 1.478940e-06 2.201088e-05 -1.660082e-05 1.217797e-05 1.027954e+00 1.556396e-01
1.772747e+08 1.015198e+00 1.954346e-01 -4.544854e-07 -1.917221e-05 5.648937e-06 1.606997e-06 1.027588e+00 1.551514e-01
1.774925e+08 1.013611e+00 1.954956e-01 9.811018e-06 9.353273e-06 -1.228973e-05 -6.319024e-06 1.026306e+00 1.546021e-01
1.777103e+08 1.013000e+00 1.950073e-01 -2.153218e-06 2.980605e-05 -8.517876e-06 -2.120808e-05 1.026550e+00 1.540527e-01
1.779281e+08 1.012451e+00 1.953125e-01 -1.084711e-05 -1.221895e-05 7.756986e-06 -2.487563e-06 1.025269e+00 1.544800e-01
1.781459e+08 1.010925e+00 1.952515e-01 -1.261756e-05 -7.024035e-06 3.145076e-06 1.519639e-05 1.023926e+00 1.544800e-01
1.783638e+08 1.010010e+00 1.940308e-01 -1.066178e-05 7.290393e-06 1.211930e-05 -1.488160e-05 1.023560e+00 1.536255e-01
1.785816e+08 1.010010e+00 1.954346e-01 -1.316145e-05 -5.360320e-05 -4.795194e-05 2.894178e-05 1.022949e+00 1.537476e-01
1.787994e+08 1.008667e+00 1.942749e-01 5.328096e-06 -3.647525e-06 -1.792517e-05 5.302951e-06 1.021851e+00 1.530151e-01
1.790172e+08 1.007324e+00 1.939087e-01 -1.027063e-05 1.015514e-05 5.096197e-06 -1.817569e-05 1.021179e+00 1.531982e-01
1.792350e+08 1.006714e+00 1.937866e-01 -4.047155e-05 2.607703e-06 -1.749210e-05 -3.219955e-05 1.020203e+00 1.531372e-01
1.794528e+08 1.006104e+00 1.944580e-01 -1.823343e-05 3.749505e-05 2.927519e-05 3.468245e-06 1.020020e+00 1.530762e-01
1.796706e+08 1.005615e+00 1.933594e-01 -2.955858e-10 3.893206e-10 -1.486763e-05 1.704786e-05 1.020081e+00 1.525269e-01
1.798884e+08 1.004028e+00 1.934204e-01 1.028366e-05 -1.016073e-05 -1.474284e-05 -3.436394e-05 1.018372e+00 1.528931e-01
1.801062e+08 1.003967e+00 1.946411e-01 -4.308671e-05 2.630427e-05 -1.522340e-05 3.142282e-06 1.017334e+00 1.526489e-01
1.803241e+08 1.002747e+00 1.935425e-01 -1.434237e-06 3.230199e-05 1.486670e-05 -1.704879e-05 1.017090e+00 1.524658e-01
1.805419e+08 1.002258e+00 1.947632e-01 -2.631359e-05 2.110004e-05 1.373049e-05 -7.283874e-06 1.015442e+00 1.522217e-01
1.807597e+08 1.001526e+00 1.934814e-01 -3.913883e-07 -2.865912e-06 3.015250e-05 3.818609e-05 1.014648e+00 1.524658e-01
1.809775e+08 1.000732e+00 1.937256e-01 -2.752244e-05 1.249090e-05 2.097338e-05 -5.196407e-05 1.014282e+00 1.530762e-01
1.811953e+08 1.000061e+00 1.939087e-01 1.680478e-05 -5.217269e-06 4.749745e-07 -3.756769e-05 1.013062e+00 1.522217e-01
1.814131e+08 9.989624e-01 1.936646e-01 -4.956499e-06 6.516930e-06 -1.339056e-05 2.119318e-05 1.012756e+00 1.520386e-01
1.816309e+08 9.978638e-01 1.933594e-01 -1.566019e-05 1.382455e-05 -3.731996e-05 9.944662e-06 1.012573e+00 1.524658e-01
1.818488e+08 9.976807e-01 1.941528e-01 3.065169e-05 1.042522e-05 -1.325645e-05 -3.032014e-05 1.011841e+00 1.524048e-01
1.820666e+08 9.968262e-01 1.937866e-01 3.520958e-05 1.059845e-06 -1.076702e-05 1.557823e-05 1.010498e+00 1.527710e-01
1.822844e+08 9.957275e-01 1.939697e-01 -3.297441e-05 -2.765097e-05 -1.673307e-05 -9.955838e-07 1.009399e+00 1.528931e-01
1.825022e+08 9.951172e-01 1.942139e-01 -4.177913e-06 1.225993e-05 1.939014e-05 -4.639849e-06 1.009033e+00 1.526489e-01
1.827200e+08 9.945679e-01 1.942139e-01 9.912997e-06 -1.304783e-05 -6.796792e-06 7.129740e-06 1.008240e+00 1.524658e-01
1.829378e+08 9.939575e-01 1.936035e-01 2.738833e-05 -5.636737e-05 -3.075413e-05 -4.144385e-06 1.007385e+00 1.523438e-01
1.831556e+08 9.932251e-01 1.937256e-01 -1.564622e-06 -1.148228e-05 1.669303e-05 5.605444e-05 1.006348e+00 1.524658e-01
1.833734e+08 9.914551e-01 1.936035e-01 -2.951175e-05 -1.832843e-06 -1.507904e-05 1.011416e-05 1.006287e+00 1.528931e-01
1.835912e+08 9.909668e-01 1.934204e-01 2.596714e-05 -2.400205e-05 -2.056360e-06 3.000535e-05 1.004333e+00 1.527710e-01
1.838091e+08 9.902954e-01 1.941528e-01 -2.767146e-05 -3.133714e-05 -3.731064e-05 1.343526e-05 1.004333e+00 1.530151e-01
1.840269e+08 9.890137e-01 1.942139e-01 -2.868474e-06 6.472692e-05 5.288050e-05 -2.671033e-06 1.003174e+00 1.526489e-01
1.842447e+08 9.893188e-01 1.947021e-01 -2.678856e-05 1.828186e-05 -4.064059e-06 4.981644e-06 1.003296e+00 1.529541e-01
1.844625e+08 9.882202e-01 1.953735e-01 2.738088e-06 2.011284e-05 1.892075e-05 -2.555922e-05 1.001831e+00 1.525879e-01
1.846803e+08 9.864502e-01 1.961060e-01 -3.791414e-05 2.267770e-05 -1.051463e-05 -3.252365e-05 1.001221e+00 1.538086e-01
1.848981e+08 9.862061e-01 1.956787e-01 4.967209e-06 -6.527640e-06 -1.087785e-05 1.210254e-05 1.000244e+00 1.532593e-01
1.851159e+08 9.857178e-01 1.955566e-01 -4.454330e-05 -2.614409e-05 3.151596e-06 1.526624e-05 9.996948e-01 1.531982e-01
1.853338e+08 9.844971e-01 1.950073e-01 -6.913207e-06 -7.843599e-06 2.727471e-05 -2.506375e-05 9.981079e-01 1.544800e-01
1.855516e+08 9.838257e-01 1.952515e-01 1.266878e-05 7.050112e-06 5.056150e-06 -2.174266e-05 9.976196e-01 1.531982e-01
1.857694e+08 9.834595e-01 1.956177e-01 1.033116e-05 -1.019239e-05 -2.074521e-05 7.474795e-06 9.970703e-01 1.541748e-01
1.859872e+08 9.816895e-01 1.960449e-01 -1.003966e-05 -3.085099e-05 3.533997e-05 2.007931e-05 9.959106e-01 1.541748e-01
1.862050e+08 9.812012e-01 1.962891e-01 3.490783e-05 -1.795590e-06 4.697964e-05 -1.924485e-05 9.952393e-01 1.550293e-01
1.864228e+08 9.806519e-01 1.959229e-01 -5.185977e-05 -3.689528e-05 1.590885e-05 -3.388338e-05 9.941406e-01 1.549683e-01
1.866406e+08 9.795532e-01 1.969604e-01 4.947186e-05 -2.427772e-05 -1.726858e-05 -2.192520e-05 9.942017e-01 1.555176e-01
1.868584e+08 9.785767e-01 1.970825e-01 4.027784e-05 -5.461276e-06 -2.708100e-05 3.551506e-05 9.928589e-01 1.555176e-01
1.870762e+08 9.785767e-01 1.967773e-01 1.423620e-05 1.858175e-05 -1.669396e-05 2.501532e-06 9.921265e-01 1.555176e-01
1.872941e+08 9.768677e-01 1.976929e-01 -4.301220e-05 -1.468882e-05 -1.927372e-05 1.161359e-05 9.911499e-01 1.562500e-01
1.875119e+08 9.756470e-01 1.975098e-01 -3.899913e-07 -2.877321e-06 -3.519468e-05 -1.313165e-05 9.905396e-01 1.564331e-01
1.877297e+08 9.757690e-01 1.984863e-01 1.912750e-05 -3.188662e-05 1.714006e-05 -4.369393e-05 9.898071e-01 1.577148e-01
1.879475e+08 9.750366e-01 1.987915e-01 -1.697056e-05 -3.877655e-05 -4.056282e-05 -1.838431e-06 9.899902e-01 1.574707e-01
1.881653e+08 9.739380e-01 1.989746e-01 3.066473e-05 -3.344007e-05 7.910654e-06 -2.043601e-05 9.884033e-01 1.577148e-01
1.883831e+08 9.736328e-01 2.001953e-01 -7.311814e-06 -1.073722e-05 -7.914379e-06 2.045091e-05 9.875488e-01 1.575317e-01
1.886009e+08 9.726562e-01 1.997681e-01 9.193085e-06 -1.883321e-05 2.876669e-05 -2.443604e-05 9.872437e-01 1.581421e-01
1.888188e+08 9.715576e-01 2.001953e-01 2.420507e-05 5.535781e-06 -1.646206e-05 1.295656e-05 9.864502e-01 1.588745e-01
1.890366e+08 9.712524e-01 2.008667e-01 3.416091e-06 -1.806859e-05 2.079643e-05 -7.464550e-06 9.861450e-01 1.584473e-01
1.892544e+08 9.700928e-01 2.011108e-01 5.611405e-05 2.473220e-05 -5.704910e-05 1.111627e-05 9.847412e-01 1.602783e-01
1.894722e+08 9.692993e-01 2.014160e-01 2.924725e-05 4.297495e-05 -3.451854e-05 1.827814e-05 9.840698e-01 1.599731e-01
1.896900e+08 9.687500e-01 2.008667e-01 -1.119077e-05 -3.953278e-05 9.899959e-07 -1.680106e-05 9.827881e-01 1.599731e-01
1.899078e+08 9.683228e-01 2.027588e-01 -1.557171e-06 -1.152232e-05 1.495006e-06 4.160916e-06 9.826660e-01 1.602783e-01
1.901256e+08 9.669800e-01 2.027588e-01 -3.415160e-06 1.807604e-05 2.196431e-05 -1.727231e-05 9.826660e-01 1.599731e-01
1.903434e+08 9.660034e-01 2.035522e-01 -2.189167e-05 1.177005e-05 -1.537800e-05 -3.483146e-07 9.816895e-01 1.610107e-01
1.905612e+08 9.656372e-01 2.035522e-01 3.876630e-07 2.883608e-06 -7.916242e-06 2.045557e-05 9.810181e-01 1.621704e-01
1.907791e+08 9.656982e-01 2.057495e-01 1.192465e-05 1.325272e-06 -2.156384e-05 3.824569e-05 9.805908e-01 1.618042e-01
1.909969e+08 9.636841e-01 2.046509e-01 1.231488e-05 4.203990e-06 -2.276711e-05 -1.765788e-05 9.793701e-01 1.622314e-01
1.912147e+08 9.629517e-01 2.053223e-01 -3.490597e-06 -2.595410e-05 3.124587e-05 2.166070e-05 9.783325e-01 1.633301e-01
1.914325e+08 9.628906e-01 2.049561e-01 -1.553446e-06 -1.153350e-05 7.638708e-06 2.779625e-05 9.777832e-01 1.634521e-01
1.916503e+08 9.620361e-01 2.066650e-01 -3.045425e-06 2.095848e-05 2.567656e-05 -3.975630e-05 9.768066e-01 1.640625e-01
1.918681e+08 9.605713e-01 2.075806e-01 -3.188848e-06 -6.710365e-05 -3.401376e-05 4.270114e-05 9.763794e-01 1.645508e-01
1.920859e+08 9.605713e-01 2.082520e-01 -5.653128e-05 1.642480e-05 -9.742565e-06 2.317596e-06 9.758301e-01 1.648560e-01
1.923038e+08 9.603882e-01 2.079468e-01 -3.444031e-06 1.809094e-05 -1.305714e-05 -2.000201e-05 9.754639e-01 1.655273e-01
1.925216e+08 9.590454e-01 2.083740e-01 -1.651421e-05 5.215034e-05 -3.535300e-06 2.946146e-05 9.748535e-01 1.662598e-01
1.927394e+08 9.580688e-01 2.088623e-01 1.193304e-05 1.327135e-06 4.610792e-05 -2.473593e-06 9.745483e-01 1.655884e-01
1.929572e+08 9.575195e-01 2.094116e-01 -4.120171e-05 -3.539026e-07 -8.090399e-06 1.347810e-05 9.739380e-01 1.670532e-01
1.931750e+08 9.571533e-01 2.103271e-01 -1.538824e-05 1.676194e-05 1.697894e-05 8.025207e-06 9.731445e-01 1.674805e-01
1.933928e+08 9.564209e-01 2.101440e-01 2.041273e-05 2.075359e-05 3.295019e-06 -3.998168e-05 9.719238e-01 1.685181e-01
1.936106e+08 9.555054e-01 2.113647e-01 -2.153777e-05 1.464225e-05 1.870655e-05 2.267957e-05 9.716187e-01 1.688232e-01
1.938284e+08 9.539795e-01 2.117920e-01 -4.605856e-06 9.435695e-06 2.945587e-05 3.548339e-06 9.710693e-01 1.688843e-01
1.940462e+08 9.542847e-01 2.122803e-01 3.439374e-06 -1.811050e-05 2.272613e-05 1.420267e-05 9.711304e-01 1.691284e-01
1.942641e+08 9.536743e-01 2.122803e-01 1.203269e-06 5.273148e-05 4.230998e-05 1.303293e-05 9.697876e-01 1.705322e-01
1.944819e+08 9.530029e-01 2.130127e-01 1.500547e-05 -1.966208e-05 2.241321e-05 1.899898e-07 9.697876e-01 1.709595e-01
1.946997e+08 9.519653e-01 2.144165e-01 3.963336e-05 -5.534291e-05 -1.384225e-05 7.308088e-06 9.694824e-01 1.715088e-01
1.949175e+08 9.514771e-01 2.142334e-01 1.732539e-05 -2.322719e-06 1.318194e-05 -3.531575e-05 9.681396e-01 1.721802e-01
1.951353e+08 9.505005e-01 2.142944e-01 -8.445233e-06 2.464280e-05 2.268702e-06 -2.315268e-05 9.671631e-01 1.724854e-01
1.953531e+08 9.501953e-01 2.158203e-01 8.105300e-06 1.655798e-05 -1.635589e-05 1.996104e-05 9.676514e-01 1.727295e-01
1.955709e+08 9.498901e-01 2.163696e-01 6.163027e-06 2.109446e-06 1.471490e-05 -3.114156e-05 9.664307e-01 1.734009e-01
1.957888e+08 9.495850e-01 2.175293e-01 2.044253e-05 2.078898e-05 5.972572e-06 1.668371e-05 9.665527e-01 1.741943e-01
1.960066e+08 9.487915e-01 2.182617e-01 6.548595e-06 5.006790e-06 -2.755783e-06 2.161833e-06 9.654541e-01 1.751709e-01
1.962244e+08 9.478760e-01 2.190552e-01 -3.890134e-05 1.697242e-05 4.092231e-06 -4.992820e-06 9.645996e-01 1.754150e-01
1.964422e+08 9.471436e-01 2.192383e-01 2.816692e-05 3.443472e-05 2.186932e-05 -2.430193e-05 9.641113e-01 1.752930e-01
1.966600e+08 9.466553e-01 2.201538e-01 -4.700199e-05 4.246831e-07 -7.962808e-06 2.048630e-05 9.635010e-01 1.763306e-01
1.968778e+08 9.458008e-01 2.209473e-01 -5.397014e-06 3.664754e-06 2.406351e-05 1.137704e-05 9.639282e-01 1.776123e-01
1.970956e+08 9.456177e-01 2.213135e-01 3.624707e-05 6.916001e-06 2.935156e-05 -3.449619e-06 9.632568e-01 1.778564e-01
1.973134e+08 9.448853e-01 2.217407e-01 -1.156144e-05 1.546927e-06 6.457791e-06 -2.466701e-05 9.620972e-01 1.785278e-01
1.975312e+08 9.442139e-01 2.227173e-01 3.008172e-05 -3.934652e-05 -1.327135e-05 -3.053248e-05 9.626465e-01 1.796265e-01
1.977491e+08 9.444580e-01 2.230835e-01 -5.127862e-05 1.273677e-05 -5.833805e-05 -3.797561e-05 9.617310e-01 1.798096e-01
1.979669e+08 9.432373e-01 2.237549e-01 -2.041087e-05 2.333522e-05 -1.457334e-05 3.814697e-05 9.609375e-01 1.798096e-01
1.981847e+08 9.428101e-01 2.250366e-01 6.555580e-06 5.011912e-06 -5.514361e-06 4.323665e-06 9.608765e-01 1.813354e-01
1.984025e+08 9.423828e-01 2.249756e-01 -1.042895e-05 -3.391691e-05 -8.574687e-06 -7.526483e-06 9.600220e-01 1.812134e-01
1.986203e+08 9.418335e-01 2.254028e-01 -2.468005e-05 -8.486211e-06 2.124254e-05 1.004338e-05 9.597168e-01 1.828613e-01
1.988381e+08 9.413452e-01 2.263794e-01 -1.549721e-06 -1.156703e-05 2.555549e-05 -5.035475e-05 9.592285e-01 1.828613e-01
1.990559e+08 9.397583e-01 2.274170e-01 3.586337e-05 -4.009157e-05 -6.028451e-06 -2.020318e-05 9.594116e-01 1.846924e-01
1.992738e+08 9.403076e-01 2.279663e-01 -1.813099e-05 -3.467314e-06 -1.327135e-05 -3.059581e-05 9.595337e-01 1.848145e-01
1.994916e+08 9.393921e-01 2.285156e-01 -1.044013e-05 -3.394485e-05 -3.806315e-06 1.901574e-05 9.592896e-01 1.846924e-01
1.997094e+08 9.388428e-01 2.294922e-01 -7.723458e-06 -1.369789e-05 3.437325e-05 -3.229827e-05 9.588013e-01 1.860962e-01
1.999272e+08 9.388428e-01 2.300415e-01 9.252690e-06 -1.890771e-05 -2.192520e-05 2.433546e-05 9.582520e-01 1.867065e-01
2.001450e+08 9.379272e-01 2.305298e-01 6.553251e-06 5.015172e-06 -1.111068e-05 5.154870e-06 9.573364e-01 1.874390e-01
2.003628e+08 9.379883e-01 2.315063e-01 -3.702007e-05 -1.274049e-05 -3.343262e-05 1.196004e-05 9.566650e-01 1.879883e-01
2.005806e+08 9.375610e-01 2.319336e-01 5.093589e-05 -1.561269e-05 -4.311651e-05 1.776591e-05 9.570312e-01 1.886597e-01
2.007984e+08 9.365234e-01 2.344971e-01 5.785376e-06 -7.678755e-07 1.346134e-05 -2.833456e-05 9.561768e-01 1.894531e-01
2.010162e+08 9.361572e-01 2.340698e-01 -3.048778e-05 3.645942e-05 -1.290347e-05 -1.305249e-05 9.562988e-01 1.897583e-01
2.012341e+08 9.360962e-01 2.346191e-01 2.328306e-06 -2.681091e-05 -9.922311e-06 -4.706439e-06 9.555664e-01 1.907349e-01
2.014519e+08 9.355469e-01 2.353516e-01 1.543853e-05 -1.679454e-05 -7.238239e-06 5.559251e-05 9.558716e-01 1.907959e-01
2.016697e+08 9.357300e-01 2.354736e-01 1.582876e-05 -1.388974e-05 -1.119450e-05 1.645647e-06 9.548340e-01 1.921997e-01
2.018875e+08 9.351196e-01 2.363892e-01 8.882955e-06 -2.180412e-05 -1.470372e-05 -3.128126e-05 9.543457e-01 1.926270e-01
2.021053e+08 9.346313e-01 2.373657e-01 6.213039e-05 2.412498e-05 8.129515e-06 -1.350883e-05 9.540405e-01 1.936646e-01
2.023231e+08 9.339600e-01 2.383423e-01 7.674098e-07 5.790498e-06 7.621944e-06 -3.807060e-05 9.539185e-01 1.943970e-01
2.025409e+08 9.340820e-01 2.385864e-01 -1.541339e-06 -1.157913e-05 -3.001280e-05 4.136935e-05 9.533691e-01 1.945801e-01
2.027588e+08 9.339600e-01 2.398682e-01 -5.025882e-06 6.561633e-06 -1.077354e-05 2.269819e-05 9.536133e-01 1.959229e-01
2.029766e+08 9.323730e-01 2.407227e-01 4.901737e-05 -3.007799e-05 -4.253117e-06 -2.018642e-06 9.526978e-01 1.962891e-01
2.031944e+08 9.328613e-01 2.413940e-01 8.113682e-06 1.659337e-05 2.502277e-05 -1.245551e-05 9.525757e-01 1.960449e-01
2.034122e+08 9.320679e-01 2.415161e-01 -1.313817e-05 -1.004245e-05 1.179427e-05 2.641976e-05 9.531860e-01 1.970215e-01
2.036300e+08 9.321899e-01 2.427368e-01 -3.867783e-06 1.525320e-05 -2.248585e-05 -2.160668e-07 9.523315e-01 1.981201e-01
2.038478e+08 9.315796e-01 2.440796e-01 7.659197e-06 5.793571e-05 -2.305023e-05 -2.832338e-05 9.523315e-01 1.990967e-01
2.040656e+08 9.315186e-01 2.443848e-01 5.028211e-06 -6.566755e-06 -3.121793e-05 -1.479313e-05 9.526978e-01 1.997070e-01
2.042834e+08 9.307861e-01 2.453613e-01 -3.835186e-06 -2.895296e-05 -1.785345e-06 -1.822319e-05 9.511719e-01 2.000122e-01
2.045012e+08 9.308472e-01 2.458496e-01 -5.373359e-05 3.954396e-05 -2.196804e-05 2.435781e-05 9.514771e-01 2.004395e-01
2.047191e+08 9.301147e-01 2.467041e-01 6.420910e-05 -4.976615e-05 1.688302e-05 1.063570e-06 9.517822e-01 2.020874e-01
2.049369e+08 9.302979e-01 2.477417e-01 -5.034264e-06 6.566755e-06 5.963258e-06 1.674891e-05 9.518433e-01 2.029419e-01
2.051547e+08 9.301147e-01 2.487183e-01 -8.920208e-06 2.182089e-05 1.920387e-06 2.527796e-05 9.512939e-01 2.035522e-01
2.053725e+08 9.291382e-01 2.487183e-01 1.701806e-05 -5.196780e-06 1.823530e-05 -1.779757e-06 9.514771e-01 2.044678e-01
2.055903e+08 9.298096e-01 2.503052e-01 -1.695007e-05 -3.908388e-05 1.824927e-05 -1.772307e-06 9.512329e-01 2.049561e-01
2.058081e+08 9.292603e-01 2.503052e-01 -2.280623e-05 5.979091e-06 -1.490815e-06 -4.186295e-06 9.508667e-01 2.047729e-01
2.060259e+08 9.283447e-01 2.507324e-01 -1.625065e-05 1.098495e-05 -2.489984e-05 1.946278e-05 9.503784e-01 2.063599e-01
2.062438e+08 9.286499e-01 2.517090e-01 2.357922e-05 -1.564622e-07 1.432840e-05 1.377240e-05 9.505615e-01 2.068481e-01
2.064616e+08 9.285889e-01 2.525024e-01 -3.841706e-07 -2.899440e-06 1.845788e-05 8.763745e-06 9.503174e-01 2.068481e-01
2.066794e+08 9.284668e-01 2.532959e-01 -3.328174e-05 1.621805e-05 -1.540594e-05 3.121793e-06 9.507446e-01 2.080078e-01
2.068972e+08 9.275513e-01 2.544556e-01 -1.389626e-05 -1.586601e-05 -1.439452e-05 -1.729000e-05 9.493408e-01 2.086792e-01
2.071150e+08 9.282227e-01 2.548218e-01 -4.958361e-06 -3.773533e-05 -8.161180e-06 1.353398e-05 9.501343e-01 2.098389e-01
2.073328e+08 9.276123e-01 2.556763e-01 -4.873425e-05 -1.126528e-05 9.076670e-06 3.216602e-05 9.499512e-01 2.098999e-01
2.075506e+08 9.266968e-01 2.562256e-01 1.198705e-05 1.361594e-06 -3.675558e-05 -1.048855e-05 9.493408e-01 2.102661e-01
2.077684e+08 9.267578e-01 2.569580e-01 9.998679e-06 3.116019e-05 -1.752563e-05 3.690459e-05 9.494629e-01 2.119141e-01
2.079862e+08 9.269409e-01 2.581177e-01 1.588371e-05 -1.392327e-05 1.604669e-05 2.852455e-05 9.498901e-01 2.110596e-01
2.082041e+08 9.271240e-01 2.589111e-01 3.209524e-05 1.937523e-05 1.648255e-05 -2.003647e-05 9.494629e-01 2.118530e-01
2.084219e+08 9.265747e-01 2.593994e-01 -2.437830e-05 -5.636364e-06 -1.470558e-05 3.828295e-05 9.496460e-01 2.126465e-01
2.086397e+08 9.266357e-01 2.596436e-01 2.598017e-05 -2.708659e-05 2.477504e-05 -2.654642e-05 9.505615e-01 2.132568e-01
2.088575e+08 9.261475e-01 2.604370e-01 -3.170408e-05 -1.649745e-05 1.569930e-05 1.093280e-05 9.491577e-01 2.142334e-01
2.090753e+08 9.261475e-01 2.614136e-01 6.574206e-06 5.041715e-06 -1.506228e-05 2.070982e-05 9.495239e-01 2.144775e-01
2.092931e+08 9.260864e-01 2.621460e-01 3.054738e-06 2.321601e-05 -2.324395e-05 -3.542751e-05 9.487915e-01 2.157593e-01
2.095109e+08 9.255981e-01 2.636719e-01 -2.246909e-05 8.869916e-06 1.311675e-05 2.367422e-05 9.493408e-01 2.158203e-01
2.097288e+08 9.264526e-01 2.637329e-01 -6.578863e-06 -5.044509e-06 -2.573617e-05 -1.920201e-05 9.495850e-01 2.166748e-01
2.099466e+08 9.257812e-01 2.646484e-01 1.590885e-05 -1.393352e-05 -1.713075e-05 -1.162570e-05 9.498901e-01 2.173462e-01
2.101644e+08 9.257812e-01 2.650757e-01 3.212504e-05 1.943298e-05 -2.331100e-05 -3.896467e-05 9.494629e-01 2.181396e-01
2.103822e+08 9.257812e-01 2.658081e-01 2.018735e-05 -2.629869e-05 1.393631e-05 -7.316470e-06 9.491577e-01 2.185059e-01
2.106000e+08 9.254761e-01 2.659302e-01 1.628604e-05 -1.101661e-05 -2.233870e-05 1.029857e-05 9.492798e-01 2.194824e-01
2.108178e+08 9.260254e-01 2.673950e-01 2.675690e-05 -2.125837e-05 7.248949e-06 1.042895e-05 9.490967e-01 2.198486e-01
2.110356e+08 9.250488e-01 2.678223e-01 2.406910e-05 -4.159659e-05 -1.219567e-06 9.880867e-06 9.488525e-01 2.206421e-01
2.112534e+08 9.250488e-01 2.683105e-01 3.337674e-05 -1.623668e-05 -5.183741e-05 1.369044e-05 9.500732e-01 2.212524e-01
2.114712e+08 9.252930e-01 2.700806e-01 2.518669e-05 1.146458e-05 2.004392e-05 1.653284e-05 9.499512e-01 2.213745e-01
2.116891e+08 9.251099e-01 2.705688e-01 6.054714e-05 -3.458187e-05 -5.661324e-05 -1.303852e-05 9.497681e-01 2.222900e-01
2.119069e+08 9.254761e-01 2.706909e-01 -4.114583e-05 2.417713e-06 -1.889467e-05 4.336797e-05 9.505615e-01 2.233887e-01
2.121247e+08 9.255981e-01 2.715454e-01 5.820021e-05 -7.655472e-06 1.815800e-05 -8.809380e-06 9.497681e-01 2.233276e-01
2.123425e+08 9.250488e-01 2.724609e-01 1.125503e-05 -4.433095e-06 -4.201662e-06 1.488253e-06 9.491577e-01 2.243652e-01
2.125603e+08 9.256592e-01 2.724609e-01 3.961474e-05 -1.409650e-05 -1.630746e-05 -3.917329e-05 9.500732e-01 2.244263e-01
2.127781e+08 9.256592e-01 2.738647e-01 1.439266e-05 -2.556294e-05 1.291279e-06 -6.373040e-06 9.491577e-01 2.250366e-01
2.129959e+08 9.249878e-01 2.744751e-01 1.011416e-05 -1.316890e-05 -2.846587e-06 -1.356471e-06 9.496460e-01 2.255249e-01
2.132138e+08 9.248047e-01 2.749634e-01 -2.283975e-05 -3.844686e-05 5.626120e-06 -8.125789e-07 9.499512e-01 2.256470e-01
2.134316e+08 9.252319e-01 2.750244e-01 -5.429611e-05 -7.677823e-06 -4.474074e-06 -1.261383e-05 9.494629e-01 2.265625e-01
2.136494e+08 9.249878e-01 2.756348e-01 6.972812e-06 7.972121e-06 -2.733245e-05 -2.698600e-05 9.501953e-01 2.270508e-01
2.138672e+08 9.247437e-01 2.759399e-01 3.066473e-05 7.819384e-06 6.846152e-06 -1.071254e-05 9.505615e-01 2.277832e-01
2.140850e+08 9.252319e-01 2.772217e-01 5.091354e-05 -1.853704e-05 -3.998168e-06 1.207832e-05 9.502563e-01 2.285767e-01
2.143028e+08 9.246826e-01 2.775879e-01 7.345341e-06 1.088902e-05 3.112480e-05 4.351139e-06 9.498901e-01 2.292480e-01
2.145206e+08 9.251099e-01 2.787476e-01 1.242664e-05 4.293397e-06 -1.153722e-05 -1.248810e-05 9.509888e-01 2.288208e-01
2.147384e+08 9.249268e-01 2.793579e-01 -5.825423e-06 7.646158e-07 5.293638e-06 -1.845229e-05 9.500732e-01 2.297974e-01
2.149562e+08 9.251099e-01 2.797852e-01 1.864042e-05 6.462447e-06 -2.273731e-05 -7.338822e-06 9.511719e-01 2.307129e-01
2.151741e+08 9.253540e-01 2.803345e-01 -5.829148e-06 7.627532e-07 2.227724e-06 4.303828e-05 9.503784e-01 2.307739e-01
2.153919e+08 9.243164e-01 2.807007e-01 2.724491e-05 -1.836941e-05 -1.147389e-06 1.343153e-05 9.501343e-01 2.316284e-01
2.156097e+08 9.248657e-01 2.816162e-01 -4.234537e-05 -6.321818e-06 8.345116e-06 -6.516930e-06 9.506836e-01 2.313232e-01
2.158275e+08 9.248047e-01 2.817383e-01 4.617125e-05 3.547594e-05 -2.714340e-06 5.702022e-06 9.508667e-01 2.315674e-01
2.160453e+08 9.251709e-01 2.826538e-01 1.558848e-05 -1.686439e-05 2.708100e-05 1.290441e-05 9.508057e-01 2.323608e-01
2.162631e+08 9.255371e-01 2.838745e-01 2.320856e-05 4.149601e-05 -1.711212e-05 -8.162111e-06 9.515991e-01 2.337646e-01
2.164809e+08 9.246826e-01 2.837524e-01 -3.110804e-05 -1.076050e-05 -9.015203e-07 2.756529e-05 9.522705e-01 2.333374e-01
2.166988e+08 9.255371e-01 2.842407e-01 6.419420e-05 -8.378178e-06 -1.697987e-05 -1.093373e-06 9.516602e-01 2.340698e-01
2.169166e+08 9.251099e-01 2.852173e-01 1.244247e-05 4.301779e-06 -1.394004e-05 1.085550e-05 9.522095e-01 2.340698e-01
2.171344e+08 9.257202e-01 2.849731e-01 -7.369556e-06 -1.091789e-05 -1.344830e-06 -7.069111e-05 9.523315e-01 2.350464e-01
2.173522e+08 9.251099e-01 2.861328e-01 -3.773347e-05 -1.584366e-05 2.404675e-05 9.704381e-07 9.521484e-01 2.352905e-01
2.175700e+08 9.253540e-01 2.859497e-01 9.413809e-06 -1.904182e-05 1.556054e-05 4.163012e-07 9.517822e-01 2.364502e-01
2.177878e+08 9.259033e-01 2.868652e-01 -1.981482e-05 -1.524203e-05 8.288771e-07 -3.114529e-05 9.522095e-01 2.361450e-01
2.180056e+08 9.257202e-01 2.871094e-01 3.932975e-06 -1.537427e-05 -2.524815e-06 1.632050e-05 9.523926e-01 2.363281e-01
2.182234e+08 9.251099e-01 2.882080e-01 2.565980e-05 1.447275e-05 -4.289672e-05 5.313754e-05 9.522705e-01 2.366333e-01
2.184412e+08 9.252319e-01 2.882690e-01 5.083624e-06 -6.610062e-06 2.790242e-06 -2.173707e-06 9.529419e-01 2.377930e-01
2.186591e+08 9.261475e-01 2.883911e-01 4.015490e-05 -1.119450e-05 -1.681317e-05 9.521842e-06 9.525146e-01 2.380371e-01
2.188769e+08 9.254761e-01 2.885742e-01 -1.053046e-05 1.030229e-05 1.667067e-05 -1.659151e-05 9.523315e-01 2.367554e-01
2.190947e+08 9.255981e-01 2.893066e-01 -3.425404e-06 -2.631918e-05 -4.483387e-06 -1.266040e-05 9.529419e-01 2.388306e-01
2.193125e+08 9.259644e-01 2.903442e-01 3.002025e-05 2.041459e-06 1.783483e-05 -3.008731e-05 9.534302e-01 2.391968e-01
2.195303e+08 9.252319e-01 2.899780e-01 3.795139e-07 2.925983e-06 -8.026138e-06 2.422184e-05 9.534302e-01 2.392578e-01
2.197481e+08 9.256592e-01 2.916870e-01 -1.373328e-05 3.153831e-05 4.027970e-06 -1.211930e-05 9.536743e-01 2.388916e-01
2.199659e+08 9.260864e-01 2.915649e-01 3.167614e-05 -3.089197e-05 -1.629815e-06 -1.130812e-05 9.536133e-01 2.395630e-01
2.201838e+08 9.262085e-01 2.923584e-01 2.379715e-05 -1.322478e-07 1.293607e-05 9.687617e-06 9.542236e-01 2.396851e-01
2.204016e+08 9.257202e-01 2.925415e-01 -4.338473e-05 3.240630e-05 3.322959e-06 2.614968e-05 9.533081e-01 2.402344e-01
2.206194e+08 9.264526e-01 2.924805e-01 2.199784e-05 -5.940348e-05 3.334135e-06 2.616830e-05 9.537354e-01 2.395630e-01
2.208372e+08 9.265137e-01 2.935181e-01 1.657754e-06 -3.297254e-05 8.046627e-06 -2.427027e-05 9.547729e-01 2.406006e-01
2.210550e+08 9.263306e-01 2.929688e-01 -2.660975e-05 2.430007e-05 -2.486259e-05 -3.993139e-05 9.542236e-01 2.408447e-01
2.212728e+08 9.260864e-01 2.945557e-01 -7.140264e-05 3.613532e-07 3.927760e-05 -2.336130e-05 9.542236e-01 2.409058e-01
2.214906e+08 9.266357e-01 2.949219e-01 4.114211e-05 -5.004182e-05 3.668480e-05 -1.060404e-05 9.547729e-01 2.413940e-01
2.217084e+08 9.267578e-01 2.949219e-01 -5.478039e-06 3.692694e-06 1.567602e-05 3.972091e-06 9.549561e-01 2.416382e-01
2.219262e+08 9.267578e-01 2.951050e-01 -2.381392e-05 1.266599e-07 1.717359e-05 8.196570e-06 9.544678e-01 2.416992e-01
2.221441e+08 9.265747e-01 2.954712e-01 -1.551583e-05 -2.778694e-05 -3.143027e-05 -1.149997e-05 9.548950e-01 2.432861e-01
2.223619e+08 9.268799e-01 2.958984e-01 -2.319738e-05 5.069003e-05 -1.425575e-05 -3.296882e-06 9.550781e-01 2.429199e-01
2.225797e+08 9.275513e-01 2.962646e-01 6.959215e-05 -1.502782e-05 -7.227063e-06 -6.976072e-06 9.550781e-01 2.433472e-01
2.227975e+08 9.274902e-01 2.962036e-01 3.518350e-05 -4.559755e-06 1.634285e-05 3.948063e-05 9.546509e-01 2.441406e-01
2.230153e+08 9.273071e-01 2.969971e-01 -9.448268e-06 1.912378e-05 -1.451839e-05 -1.749862e-05 9.553223e-01 2.438354e-01
2.232331e+08 9.268188e-01 2.974243e-01 3.708526e-05 1.007691e-05 -4.298287e-06 -2.052635e-06 9.548340e-01 2.434082e-01
2.234509e+08 9.272461e-01 2.985229e-01 -1.325551e-05 -1.022406e-05 -2.972409e-05 6.910414e-06 9.553833e-01 2.444458e-01
2.236688e+08 9.272461e-01 2.979126e-01 -2.122298e-05 2.066791e-05 4.237331e-05 -1.499243e-05 9.564209e-01 2.446289e-01
2.238866e+08 9.271851e-01 2.986450e-01 -1.211464e-05 -1.410954e-06 6.666407e-06 -2.499484e-05 9.552612e-01 2.442627e-01
2.241044e+08 9.277954e-01 2.982178e-01 -2.692640e-05 -2.337620e-05 5.347654e-06 -1.858175e-05 9.561768e-01 2.443237e-01
2.243222e+08 9.274292e-01 2.988892e-01 6.634276e-06 5.113427e-06 2.204627e-05 -3.880262e-05 9.560547e-01 2.450562e-01
2.245400e+08 9.269409e-01 2.986450e-01 2.159178e-05 -1.771934e-05 -4.367437e-06 -5.607028e-06 9.555664e-01 2.450562e-01
2.247578e+08 9.273071e-01 2.996826e-01 1.345016e-05 -3.460795e-05 -3.972463e-05 5.682930e-06 9.564819e-01 2.452393e-01
2.249756e+08 9.274902e-01 2.993164e-01 7.021707e-06 8.055009e-06 -3.164448e-05 -1.863018e-05 9.564819e-01 2.451172e-01
2.251934e+08 9.272461e-01 3.003540e-01 3.014505e-05 2.060086e-06 -1.584832e-05 -1.110602e-05 9.561768e-01 2.452393e-01
2.254112e+08 9.276123e-01 3.004150e-01 2.556480e-05 -3.319792e-05 9.186566e-06 3.613718e-05 9.559326e-01 2.451782e-01
2.256291e+08 9.276123e-01 3.007202e-01 -4.743412e-05 3.166497e-06 1.684949e-05 -1.311395e-05 9.566650e-01 2.454834e-01
2.258469e+08 9.275513e-01 3.000488e-01 3.051013e-06 2.353266e-05 2.493337e-05 -3.747456e-05 9.567871e-01 2.456665e-01
2.260647e+08 9.285889e-01 3.005981e-01 1.726579e-05 -5.224720e-06 -2.150144e-05 -6.734394e-06 9.564819e-01 2.457886e-01
2.262825e+08 9.270020e-01 3.009644e-01 -2.531335e-05 -5.654991e-05 -1.754612e-05 -2.603419e-05 9.569092e-01 2.454834e-01
2.265003e+08 9.281616e-01 3.016968e-01 1.919828e-05 9.482726e-06 1.206994e-05 -4.365295e-05 9.575806e-01 2.460327e-01
2.267181e+08 9.284668e-01 3.024292e-01 1.177378e-05 -1.521781e-06 1.580734e-05 7.581897e-06 9.566650e-01 2.467041e-01
2.269359e+08 9.281006e-01 3.021851e-01 -2.864935e-05 9.706244e-06 -1.467578e-05 -2.468564e-05 9.561768e-01 2.455444e-01
2.271538e+08 9.282837e-01 3.022461e-01 -9.693205e-06 -2.866611e-05 2.557412e-06 -1.644157e-05 9.562988e-01 2.464600e-01
2.273716e+08 9.285278e-01 3.027344e-01 -1.330208e-05 -1.026224e-05 -5.662441e-07 -3.208220e-05 9.570312e-01 2.463989e-01
2.275894e+08 9.283447e-01 3.034668e-01 3.823079e-07 2.945773e-06 -1.913309e-05 -3.390200e-05 9.570923e-01 2.457275e-01
2.278072e+08 9.283447e-01 3.025513e-01 -2.473593e-06 2.729148e-05 1.755729e-05 -5.524233e-05 9.573364e-01 2.471924e-01
2.280250e+08 9.279785e-01 3.032227e-01 -3.062002e-05 -5.036592e-06 -2.877554e-06 -1.377426e-06 9.569702e-01 2.473755e-01
2.282428e+08 9.284058e-01 3.029175e-01 -1.996942e-05 -1.542270e-05 -5.010515e-07 -2.853759e-05 9.570923e-01 2.478638e-01
2.284606e+08 9.275513e-01 3.037109e-01 1.676381e-07 -4.497916e-05 -1.336448e-05 -3.117137e-05 9.565430e-01 2.468262e-01
2.286784e+08 9.279785e-01 3.041992e-01 1.179241e-05 -1.529232e-06 -6.172806e-06 -2.775155e-05 9.567261e-01 2.471924e-01
2.288962e+08 9.280396e-01 3.038330e-01 -1.716614e-05 -3.978983e-05 3.887899e-05 1.861900e-05 9.575195e-01 2.471313e-01
2.291141e+08 9.277344e-01 3.035278e-01 6.667804e-06 5.137641e-06 4.753098e-05 2.272800e-05 9.572754e-01 2.476196e-01
2.293319e+08 9.279175e-01 3.049927e-01 -3.991649e-06 1.552794e-05 8.046627e-06 5.344674e-05 9.573364e-01 2.474976e-01
2.295497e+08 9.279785e-01 3.052979e-01 3.142096e-05 1.091324e-05 1.832750e-05 -1.602154e-05 9.567261e-01 2.467651e-01
2.297675e+08 9.276123e-01 3.042603e-01 -7.819384e-06 -1.399033e-05 8.645002e-06 4.136004e-06 9.567871e-01 2.471313e-01
2.299853e+08 9.276733e-01 3.044434e-01 5.444139e-05 -4.301965e-05 4.140195e-06 -8.650124e-06 9.559937e-01 2.474976e-01
2.302031e+08 9.276123e-01 3.047485e-01 -2.478808e-05 -5.807728e-06 -2.534501e-05 2.329610e-05 9.575195e-01 2.474976e-01
2.304209e+08 9.276123e-01 3.049316e-01 2.801791e-05 -1.566298e-05 -2.763234e-06 5.768146e-06 9.572754e-01 2.474976e-01
2.306388e+08 9.279785e-01 3.045044e-01 2.057105e-05 -2.668425e-05 -4.097074e-05 3.005750e-05 9.561768e-01 2.477417e-01
2.308566e+08 9.277344e-01 3.054199e-01 2.647191e-05 -2.745353e-05 1.634844e-05 3.621168e-05 9.559326e-01 2.473755e-01
2.310744e+08 9.273071e-01 3.058472e-01 -3.281794e-05 2.527423e-05 -2.307817e-05 -1.106039e-05 9.569092e-01 2.479858e-01
2.312922e+08 9.267578e-01 3.059692e-01 -4.328042e-05 -9.454787e-06 1.332909e-05 -5.746633e-05 9.559326e-01 2.477417e-01
2.315100e+08 9.267578e-01 3.062134e-01 -1.354702e-05 3.482401e-05 2.517551e-05 -3.406219e-05 9.564819e-01 2.476807e-01
2.317278e+08 9.275513e-01 3.055420e-01 4.785508e-05 -4.826114e-05 -2.511591e-05 -4.392862e-05 9.556274e-01 2.473145e-01
2.319456e+08 9.267578e-01 3.060913e-01 2.663583e-06 2.071075e-05 -1.719780e-05 -1.145527e-06 9.561768e-01 2.478638e-01
2.321634e+08 9.266968e-01 3.058472e-01 3.930368e-05 2.500974e-05 4.209112e-06 -5.082460e-06 9.557495e-01 2.479248e-01
2.323812e+08 9.271240e-01 3.063354e-01 -1.468509e-05 2.597272e-05 7.409602e-06 1.419988e-05 9.560547e-01 2.468872e-01
2.325991e+08 9.266968e-01 3.056641e-01 4.660711e-05 -1.201034e-05 9.043142e-06 2.562441e-05 9.556274e-01 2.482300e-01
2.328169e+08 9.267578e-01 3.065796e-01 2.329424e-05 -6.010756e-06 3.551133e-05 -1.852214e-05 9.551392e-01 2.478027e-01
2.330347e+08 9.267578e-01 3.062134e-01 -5.844980e-05 1.355261e-05 5.655922e-06 -4.400034e-06 9.549561e-01 2.476807e-01
2.332525e+08 9.260254e-01 3.063965e-01 1.260825e-05 4.397705e-06 -3.913045e-05 -2.585910e-05 9.546509e-01 2.480469e-01
2.334703e+08 9.255981e-01 3.063965e-01 2.484769e-06 -2.743118e-05 3.466941e-05 1.660362e-05 9.546509e-01 2.485962e-01
2.336881e+08 9.255981e-01 3.071899e-01 7.828698e-06 1.404900e-05 -3.034808e-05 -1.457706e-05 9.544067e-01 2.487183e-01
2.339059e+08 9.257812e-01 3.060913e-01 2.270192e-05 -5.718321e-05 9.257346e-06 -4.535168e-05 9.546509e-01 2.475586e-01
2.341238e+08 9.255981e-01 3.054199e-01 -2.333708e-05 6.033108e-06 -1.192093e-06 1.364667e-05 9.546509e-01 2.484741e-01
2.343416e+08 9.253540e-01 3.075562e-01 3.441237e-05 -1.348741e-05 -2.459437e-05 -1.180358e-05 9.539185e-01 2.481689e-01
2.345594e+08 9.248657e-01 3.070679e-01 1.300778e-05 7.354654e-06 -1.006667e-05 -1.269393e-06 9.536743e-01 2.479858e-01
2.347772e+08 9.248657e-01 3.071289e-01 2.505258e-05 -3.940612e-05 2.454221e-05 8.206815e-06 9.533081e-01 2.484131e-01
2.349950e+08 9.245605e-01 3.074951e-01 1.224969e-05 1.437962e-06 -3.293157e-05 5.578622e-06 9.534912e-01 2.485962e-01
2.352128e+08 9.240112e-01 3.074951e-01 1.377892e-05 1.330487e-05 8.441973e-06 -1.019239e-05 9.532471e-01 2.482910e-01
2.354306e+08 9.245605e-01 3.071899e-01 -3.675371e-05 -4.313886e-06 -4.346948e-06 -2.081040e-06 9.527588e-01 2.484131e-01
2.356484e+08 9.241333e-01 3.075562e-01 6.122142e-05 7.200986e-06 -4.883111e-05 1.527369e-06 9.519043e-01 2.482910e-01
2.358662e+08 9.238892e-01 3.078003e-01 -3.980845e-05 -2.805889e-05 -1.213513e-05 -3.788993e-05 9.519043e-01 2.482910e-01
2.360841e+08 9.231567e-01 3.068237e-01 2.815761e-05 -1.569651e-05 2.828240e-05 -2.563559e-05 9.521484e-01 2.482910e-01
2.363019e+08 9.227905e-01 3.079224e-01 3.440306e-06 2.671778e-05 -9.102747e-06 -2.930872e-05 9.515991e-01 2.482300e-01
2.365197e+08 9.229126e-01 3.074341e-01 2.624467e-05 6.308779e-05 1.859851e-05 -5.355105e-06 9.523926e-01 2.489014e-01
2.367375e+08 9.224243e-01 3.080444e-01 -1.935195e-05 -9.589829e-06 8.577947e-06 -3.017951e-06 9.512329e-01 2.489014e-01
2.369553e+08 9.212646e-01 3.081055e-01 2.739951e-05 -2.163276e-05 1.122709e-05 -1.598429e-05 9.500732e-01 2.487183e-01
2.371731e+08 9.212036e-01 3.079224e-01 3.756769e-05 1.026317e-05 3.602542e-05 6.588176e-06 9.506226e-01 2.485962e-01
2.373909e+08 9.212646e-01 3.085327e-01 2.125464e-05 2.444908e-05 -1.250207e-05 2.608821e-05 9.497681e-01 2.491455e-01
2.376088e+08 9.210205e-01 3.081055e-01 1.995265e-05 -3.275834e-05 1.781993e-05 3.348850e-05 9.495850e-01 2.489014e-01
2.378266e+08 9.199219e-01 3.081665e-01 1.897104e-05 6.611459e-06 -5.796552e-06 -2.779532e-06 9.487305e-01 2.484131e-01
2.380444e+08 9.199219e-01 3.088379e-01 -3.717467e-05 -7.309020e-06 7.249881e-06 3.480818e-06 9.481812e-01 2.491455e-01
2.382622e+08 9.197998e-01 3.084106e-01 -2.684072e-05 -2.070703e-05 1.328532e-06 -6.496441e-06 9.485474e-01 2.487183e-01
2.384800e+08 9.194946e-01 3.086548e-01 1.914799e-06 1.486298e-05 1.474377e-05 2.134778e-05 9.478760e-01 2.492065e-01
2.386978e+08 9.193115e-01 3.077393e-01 8.812174e-06 -2.531148e-05 3.382005e-05 -4.089065e-05 9.468994e-01 2.485962e-01
2.389156e+08 9.188232e-01 3.088989e-01 -1.975894e-05 -1.258403e-05 1.330860e-05 2.064835e-05 9.471436e-01 2.492065e-01
2.391334e+08 9.188232e-01 3.088989e-01 2.527609e-06 -2.754852e-05 1.143105e-05 -5.235896e-06 9.469604e-01 2.496338e-01
2.393512e+08 9.177246e-01 3.090820e-01 3.939122e-05 -2.321228e-05 1.868885e-05 -1.759268e-06 9.472046e-01 2.501221e-01
2.395691e+08 9.177246e-01 3.095093e-01 2.630614e-05 -3.062189e-05 2.101064e-06 4.031137e-05 9.462891e-01 2.494507e-01
2.397869e+08 9.169922e-01 3.095093e-01 -3.763102e-05 -1.029670e-05 2.294034e-05 -6.852672e-06 9.458618e-01 2.498779e-01
2.400047e+08 9.165039e-01 3.099365e-01 -1.534261e-05 -2.528727e-05 -6.798655e-06 2.532825e-05 9.458008e-01 2.505493e-01
2.402225e+08 9.165039e-01 3.095093e-01 6.716698e-06 5.189329e-06 1.084991e-06 -2.091657e-05 9.447021e-01 2.498169e-01
2.404403e+08 9.157104e-01 3.098145e-01 -7.323921e-06 3.723800e-05 -2.567098e-05 1.628324e-05 9.442749e-01 2.501831e-01
2.406581e+08 9.158325e-01 3.099365e-01 1.902319e-05 6.636605e-06 -3.566965e-07 -2.162345e-05 9.450684e-01 2.501221e-01
2.408759e+08 9.148560e-01 3.093872e-01 3.902055e-05 -2.624653e-05 3.207475e-06 1.940597e-05 9.447021e-01 2.500000e-01
2.410938e+08 9.152832e-01 3.109741e-01 -1.979060e-05 -1.260266e-05 3.261492e-06 2.303533e-05 9.437256e-01 2.506104e-01
2.413116e+08 9.138794e-01 3.100586e-01 -3.832392e-07 -2.979534e-06 1.186691e-05 1.998059e-05 9.433594e-01 2.504272e-01
2.415294e+08 9.141235e-01 3.106079e-01 4.573539e-05 -2.102554e-05 3.028661e-06 8.607749e-06 9.424438e-01 2.503052e-01
2.417472e+08 9.130859e-01 3.106689e-01 -8.648261e-06 -2.008304e-05 1.628883e-06 1.151208e-05 9.421997e-01 2.503052e-01
2.419650e+08 9.137573e-01 3.112793e-01 -3.664754e-06 1.864228e-05 2.807751e-05 3.853440e-05 9.415894e-01 2.508545e-01
2.421828e+08 9.122925e-01 3.107300e-01 -1.115259e-05 7.487833e-06 -1.198612e-05 -2.721325e-05 9.407959e-01 2.511597e-01
2.424006e+08 9.121704e-01 3.111572e-01 2.384745e-05 -3.064051e-06 -5.642883e-06 8.028466e-06 9.409790e-01 2.514648e-01
2.426184e+08 9.118652e-01 3.110352e-01 4.111603e-05 3.716350e-05 1.564436e-05 -1.397543e-05 9.401855e-01 2.520142e-01
2.428362e+08 9.104004e-01 3.125000e-01 -1.459662e-05 -1.934264e-05 -1.553912e-05 2.116989e-05 9.393921e-01 2.515869e-01
2.430541e+08 9.098511e-01 3.121338e-01 4.580989e-05 -2.103299e-05 -4.068017e-06 1.593865e-05 9.396973e-01 2.516479e-01
2.432719e+08 9.101562e-01 3.124390e-01 -5.174801e-05 2.176315e-05 -1.164060e-05 -5.591661e-06 9.383545e-01 2.515259e-01
2.434897e+08 9.091187e-01 3.121338e-01 6.715208e-05 3.557652e-06 1.710560e-05 -1.326669e-05 9.382935e-01 2.524414e-01
2.437075e+08 9.091187e-01 3.131714e-01 1.231395e-05 1.453795e-06 -1.216307e-05 -3.807805e-05 9.373169e-01 2.525024e-01
2.439253e+08 9.080811e-01 3.128052e-01 2.945587e-05 -6.804243e-06 3.020652e-05 -6.996095e-06 9.369507e-01 2.525635e-01
2.441431e+08 9.078979e-01 3.125000e-01 -2.554432e-05 -5.740300e-05 -2.384186e-07 -1.444202e-05 9.366455e-01 2.528687e-01
2.443609e+08 9.077759e-01 3.139038e-01 2.566911e-05 -3.663823e-05 -3.712811e-05 2.877042e-05 9.358521e-01 2.535400e-01
2.445788e+08 9.066772e-01 3.130493e-01 2.984516e-05 -3.820285e-06 -4.378706e-05 -2.818182e-05 9.353638e-01 2.529297e-01
2.447966e+08 9.062500e-01 3.142700e-01 2.172031e-05 2.757646e-05 8.850358e-06 1.142081e-05 9.349365e-01 2.540283e-01
2.450144e+08 9.051514e-01 3.139648e-01 -1.790933e-05 2.289191e-06 -9.848736e-06 1.676194e-05 9.343262e-01 2.539673e-01
2.452322e+08 9.056396e-01 3.136597e-01 2.349727e-05 -6.049871e-06 -4.833564e-06 -3.101490e-05 9.338989e-01 2.545166e-01
2.454500e+08 9.052734e-01 3.145752e-01 7.366762e-06 -3.735721e-05 1.434889e-05 -7.459894e-06 9.333496e-01 2.550659e-01
2.456678e+08 9.039917e-01 3.141479e-01 2.156943e-06 -3.063679e-05 1.136586e-05 -1.246855e-05 9.331055e-01 2.551270e-01
2.458856e+08 9.031372e-01 3.143921e-01 -2.197735e-05 1.799129e-05 3.911555e-06 -2.679974e-05 9.321899e-01 2.553101e-01
2.461034e+08 9.031982e-01 3.156128e-01 2.665445e-06 2.089329e-05 -4.651025e-06 -2.017897e-05 9.310303e-01 2.558594e-01
2.463212e+08 9.023438e-01 3.154907e-01 -2.084486e-05 2.697110e-05 -2.331659e-05 -1.120567e-05 9.317627e-01 2.559204e-01
2.465391e+08 9.014893e-01 3.159180e-01 4.082546e-05 3.425404e-05 2.687797e-06 -1.305901e-05 9.309692e-01 2.560425e-01
2.467569e+08 9.009399e-01 3.165283e-01 -1.943950e-05 -9.651296e-06 3.755093e-05 -3.471971e-06 9.294434e-01 2.559204e-01
2.469747e+08 9.010010e-01 3.167725e-01 -2.427585e-05 4.656613e-08 2.714060e-05 -2.285466e-05 9.291992e-01 2.568359e-01
2.471925e+08 9.003296e-01 3.171387e-01 -2.543256e-05 -8.909032e-06 1.858920e-06 2.602860e-05 9.289551e-01 2.570190e-01
2.474103e+08 8.993530e-01 3.167725e-01 1.716986e-05 -8.260831e-06 2.740696e-05 -4.772097e-06 9.282837e-01 2.574463e-01
2.476281e+08 8.991699e-01 3.175049e-01 1.832098e-05 7.040799e-07 -1.177471e-05 -1.283921e-05 9.282837e-01 2.578125e-01
2.478459e+08 8.984985e-01 3.181152e-01 -1.119915e-05 7.508323e-06 -1.715869e-05 1.328066e-05 9.281616e-01 2.578735e-01
2.480638e+08 8.983154e-01 3.178101e-01 -6.093457e-05 -1.378357e-06 1.844391e-05 -2.345257e-05 9.267578e-01 2.585449e-01
2.482816e+08 8.977051e-01 3.186646e-01 1.868047e-05 3.697351e-06 -4.571676e-05 3.907457e-05 9.254150e-01 2.586670e-01
2.484994e+08 8.970947e-01 3.197632e-01 -6.363727e-06 -2.229586e-06 -5.378388e-08 -3.619818e-06 9.262695e-01 2.593994e-01
2.487172e+08 8.959961e-01 3.189087e-01 5.007163e-05 1.183152e-05 4.316913e-06 -1.515727e-06 9.239502e-01 2.592773e-01
2.489350e+08 8.959961e-01 3.190918e-01 -2.172217e-05 -2.758950e-05 -2.072006e-05 -2.790801e-05 9.227905e-01 2.598877e-01
2.491528e+08 8.949585e-01 3.205566e-01 -6.463379e-06 -5.083531e-05 -4.957616e-05 -2.388284e-05 9.236450e-01 2.604370e-01
2.493706e+08 8.942261e-01 3.203125e-01 3.080070e-05 5.077571e-05 5.188212e-05 -1.456216e-05 9.229736e-01 2.603760e-01
2.495884e+08 8.934937e-01 3.208008e-01 3.408641e-05 2.908334e-05 6.681308e-06 -3.629364e-05 9.222412e-01 2.612305e-01
2.498062e+08 8.923340e-01 3.211060e-01 -5.219597e-06 6.739516e-06 -3.476068e-05 -2.354383e-06 9.213257e-01 2.615356e-01
2.500241e+08 8.923950e-01 3.215942e-01 1.461990e-05 1.940411e-05 2.143346e-05 -1.842529e-05 9.206543e-01 2.620239e-01
2.502419e+08 8.924561e-01 3.221436e-01 3.029034e-05 -8.083880e-07 3.531575e-06 4.123524e-05 9.205933e-01 2.628174e-01
2.504597e+08 8.914795e-01 3.223877e-01 2.203323e-05 -1.802668e-05 -7.013790e-06 1.459382e-05 9.207153e-01 2.627563e-01
2.506775e+08 8.901978e-01 3.237915e-01 -4.265085e-05 -6.705523e-07 -9.451061e-06 4.576519e-05 9.194946e-01 2.633057e-01
2.508953e+08 8.897705e-01 3.242188e-01 -2.840348e-05 1.576170e-05 -4.702806e-05 -4.419684e-05 9.191895e-01 2.643433e-01
2.511131e+08 8.894043e-01 3.240356e-01 5.052239e-05 1.488999e-05 -2.066605e-05 -2.432242e-05 9.183960e-01 2.647705e-01
2.513309e+08 8.889771e-01 3.249512e-01 5.144626e-06 -5.538017e-05 -2.179295e-05 -3.296882e-06 9.177246e-01 2.654419e-01
2.515488e+08 8.877563e-01 3.249512e-01 -1.514331e-06 -1.197401e-05 2.432242e-05 -2.063997e-05 9.176025e-01 2.661743e-01
2.517666e+08 8.875732e-01 3.254395e-01 5.568191e-05 -4.051626e-05 -8.540694e-06 1.027156e-05 9.169312e-01 2.662354e-01
2.519844e+08 8.874512e-01 3.261719e-01 2.470240e-05 2.937391e-06 2.380461e-05 4.023127e-05 9.164429e-01 2.664795e-01
2.522022e+08 8.865967e-01 3.267822e-01 2.244860e-05 -1.500547e-05 1.487881e-05 2.514757e-05 9.160767e-01 2.678223e-01
2.524200e+08 8.856812e-01 3.269653e-01 -5.230773e-06 6.743707e-06 3.026798e-06 8.652918e-06 9.151001e-01 2.681885e-01
2.526378e+08 8.848267e-01 3.272705e-01 -2.659857e-06 -2.096407e-05 3.425032e-05 -3.382750e-05 9.149780e-01 2.684326e-01
2.528556e+08 8.847046e-01 3.281860e-01 3.233179e-05 6.287545e-05 2.345815e-05 1.849793e-05 9.150391e-01 2.691650e-01
2.530734e+08 8.839722e-01 3.277588e-01 3.629923e-05 -1.551583e-06 1.404434e-05 -2.920069e-05 9.133301e-01 2.697144e-01
2.532912e+08 8.825073e-01 3.292847e-01 -5.350634e-05 9.801239e-06 3.734976e-05 -2.154522e-05 9.126587e-01 2.704468e-01
2.535091e+08 8.826904e-01 3.294067e-01 -1.948234e-05 -9.716488e-06 4.271278e-06 -5.135313e-06 9.127197e-01 2.709351e-01
2.537269e+08 8.822632e-01 3.298340e-01 -2.700649e-05 -2.092123e-05 -1.589488e-05 3.137626e-06 9.124756e-01 2.710571e-01
2.539447e+08 8.818970e-01 3.309326e-01 3.719702e-06 -1.872331e-05 -4.166365e-05 2.670847e-05 9.112549e-01 2.720947e-01
2.541625e+08 8.809204e-01 3.308105e-01 -3.126672e-10 4.035883e-10 1.350418e-06 -6.542541e-06 9.118042e-01 2.726440e-01
2.543803e+08 8.800659e-01 3.312378e-01 4.556030e-06 3.592484e-05 9.836629e-06 -2.043881e-05 9.096069e-01 2.730103e-01
2.545981e+08 8.798218e-01 3.323975e-01 9.716488e-06 -1.949444e-05 -2.044253e-05 -9.846874e-06 9.099121e-01 2.736206e-01
2.548159e+08 8.790283e-01 3.329468e-01 -1.306832e-05 4.117563e-05 -2.597459e-06 2.033263e-05 9.082031e-01 2.744141e-01
2.550338e+08 8.780518e-01 3.343506e-01 -1.836102e-05 -7.357448e-07 -2.184510e-05 -6.938353e-06 9.086914e-01 2.753296e-01
2.552516e+08 8.781738e-01 3.348999e-01 3.593974e-05 -4.533678e-06 -1.904275e-05 -1.278240e-05 9.075928e-01 2.754517e-01
2.554694e+08 8.776245e-01 3.348999e-01 1.161266e-05 -4.503876e-06 -2.944097e-05 -2.855994e-05 9.077148e-01 2.767334e-01
2.556872e+08 8.764038e-01 3.361206e-01 1.047738e-05 -1.349300e-05 -8.307397e-07 -5.799159e-05 9.067993e-01 2.768555e-01
2.559050e+08 8.760376e-01 3.364258e-01 -2.064370e-05 -1.870282e-05 -1.559034e-05 2.488121e-05 9.068604e-01 2.770996e-01
2.561228e+08 8.759155e-01 3.373413e-01 -3.634579e-05 1.514331e-06 1.282804e-05 -1.541805e-05 9.060059e-01 2.783203e-01
2.563406e+08 8.747559e-01 3.378906e-01 -1.009367e-05 1.648534e-05 4.541129e-06 1.298636e-05 9.050293e-01 2.788086e-01
2.565584e+08 8.742676e-01 3.383789e-01 -2.510846e-05 -5.964190e-06 -1.358055e-05 -3.533252e-05 9.051514e-01 2.800293e-01
2.567762e+08 8.734741e-01 3.397217e-01 3.897958e-05 1.945347e-05 9.469688e-06 -4.944578e-05 9.045410e-01 2.808838e-01
2.569941e+08 8.731689e-01 3.396606e-01 4.456192e-05 -3.302470e-05 -1.455657e-05 -3.420748e-06 9.043579e-01 2.814331e-01
2.572119e+08 8.724976e-01 3.407593e-01 1.760386e-05 -5.262904e-06 2.432428e-05 -2.427958e-05 9.036255e-01 2.819214e-01
2.574297e+08 8.713989e-01 3.415527e-01 1.350511e-05 1.048390e-05 1.963973e-05 -4.814193e-05 9.035645e-01 2.828979e-01
2.576475e+08 8.714600e-01 3.411255e-01 -1.312885e-05 -7.485971e-06 3.293529e-05 -3.096834e-05 9.029541e-01 2.836304e-01
2.578653e+08 8.707275e-01 3.420410e-01 -1.387391e-05 -1.348834e-05 -1.173932e-05 -9.265728e-06 9.024048e-01 2.842407e-01
2.580831e+08 8.702393e-01 3.432617e-01 -1.162011e-05 4.505739e-06 -4.332047e-06 1.512002e-06 9.018555e-01 2.852783e-01
2.583009e+08 8.694458e-01 3.440552e-01 1.086667e-05 -1.049880e-05 -5.085021e-07 -3.625825e-05 9.013062e-01 2.861328e-01
2.585188e+08 8.695068e-01 3.446655e-01 -1.461990e-05 -1.949817e-05 6.806105e-06 -3.275461e-05 9.008789e-01 2.870483e-01
2.587366e+08 8.685303e-01 3.445435e-01 -1.498684e-05 -2.248585e-05 6.533787e-05 2.656132e-06 8.999634e-01 2.874146e-01
2.589544e+08 8.676147e-01 3.465576e-01 -7.508323e-06 -1.124386e-05 -2.794154e-05 -2.792850e-05 9.003906e-01 2.875366e-01
2.591722e+08 8.667603e-01 3.464966e-01 4.048273e-05 -1.725927e-05 -1.193583e-05 -2.376735e-05 8.997803e-01 2.885742e-01
2.593900e+08 8.671875e-01 3.483887e-01 1.275912e-05 4.494563e-06 3.018882e-06 8.672010e-06 9.002686e-01 2.892456e-01
2.596078e+08 8.666382e-01 3.490601e-01 -2.701581e-05 -2.097897e-05 -1.046807e-05 -2.308749e-05 8.986206e-01 2.902222e-01
2.598256e+08 8.657227e-01 3.487549e-01 -1.125224e-05 7.504597e-06 1.768395e-05 1.933984e-05 8.983154e-01 2.915039e-01
2.600434e+08 8.650513e-01 3.503418e-01 1.648907e-05 -1.424458e-05 3.047474e-05 3.315508e-07 8.973389e-01 2.920532e-01
2.602612e+08 8.648071e-01 3.505859e-01 1.862645e-08 4.876405e-05 -2.871733e-06 2.216082e-06 8.977661e-01 2.922974e-01
2.604791e+08 8.641357e-01 3.510742e-01 3.748015e-05 -4.126877e-05 2.512708e-06 -2.760626e-05 8.969727e-01 2.932739e-01
2.606969e+08 8.642578e-01 3.520508e-01 -2.136640e-05 2.398901e-05 -2.903305e-05 4.004687e-07 8.959961e-01 2.941284e-01
2.609147e+08 8.629761e-01 3.526001e-01 3.004447e-06 2.400577e-05 8.154660e-06 -3.928691e-05 8.963623e-01 2.952881e-01
2.611325e+08 8.631592e-01 3.538208e-01 -3.115088e-05 -5.232170e-06 1.661479e-06 1.522154e-05 8.969116e-01 2.958374e-01
2.613503e+08 8.626709e-01 3.544922e-01 3.486499e-05 -1.352839e-05 -1.865067e-05 1.623854e-05 8.958130e-01 2.961426e-01
2.615681e+08 8.622437e-01 3.544922e-01 2.400018e-05 -3.010035e-06 1.326483e-05 1.359452e-05 8.953857e-01 2.971802e-01
2.617859e+08 8.616333e-01 3.563232e-01 3.415160e-05 -1.951307e-05 -2.775807e-06 9.475276e-06 8.955078e-01 2.988892e-01
2.620038e+08 8.609009e-01 3.572388e-01 -2.288446e-05 -3.677234e-05 -1.890585e-07 -1.451839e-05 8.948975e-01 2.996216e-01
2.622216e+08 8.609009e-01 3.576660e-01 -7.520430e-07 -6.001443e-06 2.162810e-05 -1.119357e-05 8.944702e-01 3.005371e-01
2.624394e+08 8.602905e-01 3.588867e-01 -1.426041e-05 -1.652166e-05 8.722767e-06 6.048940e-07 8.946533e-01 3.012085e-01
2.626572e+08 8.591309e-01 3.589478e-01 -4.653260e-05 1.801923e-05 2.020970e-05 -8.259900e-06 8.942261e-01 3.014526e-01
2.628750e+08 8.591309e-01 3.610229e-01 6.758142e-06 5.251728e-06 2.305768e-05 -1.408719e-05 8.940430e-01 3.023682e-01
2.630928e+08 8.596802e-01 3.613281e-01 -2.324581e-05 -3.974885e-05 -2.131052e-05 3.660843e-05 8.928223e-01 3.031006e-01
2.633106e+08 8.587036e-01 3.620605e-01 1.050811e-05 -1.352001e-05 -4.043803e-06 2.329610e-05 8.938599e-01 3.042603e-01
2.635284e+08 8.576050e-01 3.630981e-01 5.257316e-06 -6.747432e-06 -2.007280e-05 1.913682e-05 8.923340e-01 3.059082e-01
2.637462e+08 8.574219e-01 3.644409e-01 -1.238473e-05 -1.511537e-06 2.382323e-06 -4.214607e-05 8.924561e-01 3.070068e-01
2.639641e+08 8.574219e-01 3.651733e-01 -1.726672e-05 -4.055724e-05 1.914147e-05 2.009515e-05 8.929443e-01 3.069458e-01
2.641819e+08 8.569336e-01 3.659668e-01 1.914054e-05 -4.201755e-05 -1.821667e-06 -2.975389e-05 8.920288e-01 3.071899e-01
2.643997e+08 8.568115e-01 3.665771e-01 -3.373250e-06 -2.703071e-05 -3.778934e-05 -2.253801e-07 8.919678e-01 3.087769e-01
2.646175e+08 8.562622e-01 3.674316e-01 2.061389e-05 1.875497e-05 -1.649745e-05 -4.047342e-05 8.906250e-01 3.093872e-01
2.648353e+08 8.560181e-01 3.682251e-01 1.727138e-05 -8.243136e-06 -2.832152e-06 5.847774e-06 8.906250e-01 3.106079e-01
2.650531e+08 8.560791e-01 3.697510e-01 -3.678352e-05 -1.529232e-06 2.472661e-05 1.145527e-06 8.903198e-01 3.118896e-01
2.652709e+08 8.549805e-01 3.695068e-01 1.989864e-05 -3.599748e-05 2.923235e-05 1.414493e-05 8.895874e-01 3.120728e-01
2.654888e+08 8.540649e-01 3.712769e-01 -9.015203e-06 -2.328679e-05 -1.877267e-05 8.947216e-06 8.907471e-01 3.130493e-01
2.657066e+08 8.549194e-01 3.717651e-01 -1.014769e-05 1.650583e-05 -1.160707e-05 1.603737e-06 8.897095e-01 3.144531e-01
2.659244e+08 8.540649e-01 3.717041e-01 2.924725e-05 -9.745359e-06 -1.544505e-05 3.943034e-05 8.886719e-01 3.143921e-01
2.661422e+08 8.538208e-01 3.735962e-01 1.201127e-05 -1.491979e-06 -2.188981e-05 -6.988645e-06 8.892212e-01 3.159790e-01
2.663600e+08 8.536377e-01 3.747559e-01 -1.277030e-05 -4.526228e-06 -1.174677e-05 -9.302981e-06 8.899536e-01 3.173218e-01
2.665778e+08 8.536377e-01 3.756104e-01 1.488253e-06 1.201499e-05 1.614355e-05 1.142640e-05 8.889771e-01 3.177490e-01
2.667956e+08 8.526611e-01 3.773193e-01 -1.537800e-05 -2.553500e-05 4.342757e-06 -1.505250e-06 8.890991e-01 3.181763e-01
2.670134e+08 8.526001e-01 3.767090e-01 8.603558e-06 2.028048e-05 -8.678064e-06 3.021210e-06 8.881836e-01 3.197632e-01
2.672312e+08 8.522339e-01 3.779297e-01 2.143532e-05 -2.399459e-05 3.063120e-06 1.231208e-05 8.884277e-01 3.208618e-01
2.674491e+08 8.516846e-01 3.795166e-01 2.023578e-05 1.577847e-05 -2.202205e-05 -1.790188e-05 8.875732e-01 3.209839e-01
2.676669e+08 8.517456e-01 3.806763e-01 9.721145e-06 2.931245e-05 -7.399358e-06 -1.081638e-05 8.886108e-01 3.224487e-01
2.678847e+08 8.514404e-01 3.814087e-01 2.972782e-06 2.403744e-05 4.387228e-06 2.125744e-06 8.883057e-01 3.230591e-01
2.681025e+08 8.516846e-01 3.819580e-01 7.858500e-06 1.428183e-05 -7.584691e-06 -2.535433e-05 8.880615e-01 3.248291e-01
2.683203e+08 8.514404e-01 3.828735e-01 2.591126e-05 1.205504e-05 4.188344e-05 -2.307072e-05 8.885498e-01 3.252563e-01
2.685381e+08 8.507690e-01 3.834229e-01 -4.355982e-05 -5.565211e-05 8.817296e-06 7.887837e-06 8.886719e-01 3.259888e-01
2.687559e+08 8.504028e-01 3.850098e-01 4.250929e-05 -5.101413e-05 4.172325e-07 3.633276e-05 8.878784e-01 3.270874e-01
2.689738e+08 8.502808e-01 3.854980e-01 6.007031e-06 -7.431954e-07 -1.874845e-05 1.257844e-05 8.875122e-01 3.276367e-01
2.691916e+08 8.504639e-01 3.869629e-01 3.043562e-05 -7.227063e-07 9.028241e-06 2.607331e-05 8.880615e-01 3.284912e-01
2.694094e+08 8.505249e-01 3.878174e-01 -3.377534e-05 -2.633967e-05 -1.996383e-05 3.369339e-05 8.877563e-01 3.297119e-01
2.696272e+08 8.503418e-01 3.886108e-01 1.507625e-05 -2.626143e-05 -5.246699e-05 -7.394701e-06 8.872070e-01 3.309937e-01
2.698450e+08 8.493042e-01 3.892212e-01 1.690537e-05 -1.126062e-05 -1.427904e-05 2.197362e-05 8.877563e-01 3.308105e-01
2.700628e+08 8.495483e-01 3.909302e-01 -1.803692e-05 2.220273e-06 -6.143004e-06 -2.830476e-05 8.869629e-01 3.330688e-01
2.702806e+08 8.485718e-01 3.910522e-01 -5.858764e-05 -2.942979e-05 5.546957e-06 -2.260134e-05 8.875732e-01 3.338623e-01
2.704984e+08 8.492432e-01 3.928223e-01 7.577240e-06 -3.755465e-05 2.002157e-05 -3.007054e-05 8.869019e-01 3.342896e-01
2.707162e+08 8.489990e-01 3.933716e-01 -1.202803e-05 1.481734e-06 -1.033116e-05 -1.224317e-05 8.869019e-01 3.355103e-01
2.709341e+08 8.481445e-01 3.948364e-01 -1.768209e-05 5.229376e-06 6.949529e-06 -2.916716e-05 8.876953e-01 3.364258e-01
2.711519e+08 8.483276e-01 3.953247e-01 -2.933107e-05 9.728596e-06 -2.193637e-05 -1.065433e-05 8.872070e-01 3.365479e-01
2.713697e+08 8.489990e-01 3.965454e-01 1.803041e-05 -2.223067e-06 2.755783e-05 -8.329749e-06 8.865356e-01 3.377075e-01
2.715875e+08 8.481445e-01 3.967285e-01 1.053885e-05 -1.350697e-05 1.990423e-05 -3.731996e-05 8.867188e-01 3.383789e-01
2.718053e+08 8.480835e-01 3.979492e-01 4.210696e-05 -5.155802e-06 -2.191029e-05 -7.022172e-06 8.868408e-01 3.403320e-01
2.720231e+08 8.482056e-01 3.991089e-01 6.013550e-06 -7.380731e-07 3.837049e-06 -4.515052e-05 8.868408e-01 3.407593e-01
2.722409e+08 8.482666e-01 4.002075e-01 -6.016344e-06 7.431954e-07 -3.743917e-05 3.609620e-05 8.876953e-01 3.411865e-01
2.724588e+08 8.475952e-01 4.010620e-01 3.712252e-06 3.007054e-05 3.306940e-05 -3.456511e-05 8.872681e-01 3.421021e-01
2.726766e+08 8.478394e-01 4.017944e-01 1.545437e-05 -2.328493e-05 2.036151e-05 -9.601936e-07 8.875122e-01 3.431396e-01
2.728944e+08 8.482056e-01 4.031982e-01 -1.234561e-05 -5.042553e-05 7.025898e-06 -2.191775e-05 8.881836e-01 3.442383e-01
2.731122e+08 8.476562e-01 4.038696e-01 -1.879781e-05 -3.790483e-06 2.328679e-05 4.563481e-07 8.878784e-01 3.449097e-01
2.733300e+08 8.483276e-01 4.044800e-01 -1.192093e-06 3.984943e-05 4.119799e-05 3.807805e-05 8.877563e-01 3.455200e-01
2.735478e+08 8.477783e-01 4.058838e-01 4.175119e-06 -1.578871e-05 -4.854053e-06 -4.579499e-05 8.878784e-01 3.472900e-01
2.737656e+08 8.474121e-01 4.067993e-01 2.371892e-05 -6.007031e-06 -1.589302e-05 1.035817e-05 8.893433e-01 3.477173e-01
2.739834e+08 8.479004e-01 4.074097e-01 -8.620322e-06 -2.032705e-05 8.870848e-06 1.153536e-05 8.886719e-01 3.489380e-01
2.742012e+08 8.475342e-01 4.079590e-01 -2.740882e-05 -2.413988e-05 3.158674e-05 -3.531016e-05 8.885498e-01 3.499756e-01
2.744191e+08 8.474121e-01 4.096069e-01 2.555177e-05 9.087846e-06 -4.272442e-06 8.779112e-06 8.884888e-01 3.505249e-01
2.746369e+08 8.475342e-01 4.110718e-01 3.343448e-06 2.707914e-05 -2.195872e-05 -1.069345e-05 8.886719e-01 3.507690e-01
2.748547e+08 8.482056e-01 4.114380e-01 -1.917221e-05 -6.806105e-06 1.657754e-07 1.456216e-05 8.889160e-01 3.521118e-01
2.750725e+08 8.471680e-01 4.123535e-01 3.795139e-06 -1.879595e-05 -1.455657e-05 1.527369e-07 8.886719e-01 3.529663e-01
2.752903e+08 8.472290e-01 4.132690e-01 1.225621e-06 -3.986806e-05 -8.702744e-06 3.005378e-06 8.881226e-01 3.543091e-01
2.755081e+08 8.476562e-01 4.142456e-01 -1.130812e-05 7.504597e-06 1.337193e-05 2.461113e-05 8.894043e-01 3.553467e-01
2.757259e+08 8.482666e-01 4.158325e-01 5.305558e-05 -1.569837e-05 1.735985e-06 2.620928e-05 8.887329e-01 3.552246e-01
2.759438e+08 8.484497e-01 4.162598e-01 5.653128e-06 -3.750436e-06 4.680827e-06 2.763048e-05 8.892212e-01 3.569336e-01
2.761616e+08 8.476562e-01 4.174805e-01 1.733471e-05 -8.242205e-06 3.772229e-05 -1.423806e-05 8.893433e-01 3.578491e-01
2.763794e+08 8.474121e-01 4.177246e-01 4.326180e-05 3.814697e-06 -2.045371e-05 -6.332994e-06 8.897095e-01 3.576660e-01
2.765972e+08 8.480225e-01 4.191895e-01 -3.354065e-05 2.550334e-05 2.176687e-05 -7.513911e-06 8.894043e-01 3.591919e-01
2.768150e+08 8.479004e-01 4.191284e-01 1.018587e-05 -1.654681e-05 1.916476e-05 2.017990e-05 8.903198e-01 3.596802e-01
2.770328e+08 8.472900e-01 4.199829e-01 -1.845229e-05 -7.878989e-07 -9.108335e-06 -3.338791e-05 8.907471e-01 3.609619e-01
2.772506e+08 8.475342e-01 4.205322e-01 2.077967e-05 -3.006309e-05 -4.260801e-08 -3.639841e-06 8.907471e-01 3.620605e-01
2.774684e+08 8.477783e-01 4.224243e-01 9.837560e-06 -1.956243e-05 1.298729e-05 -1.179613e-05 8.912964e-01 3.627319e-01
2.776862e+08 8.475952e-01 4.229736e-01 -3.688969e-05 -1.596287e-06 1.839921e-05 -4.898757e-05 8.908081e-01 3.633423e-01
2.779041e+08 8.479004e-01 4.243164e-01 2.209097e-06 1.806859e-05 -1.910608e-05 -1.655333e-05 8.908691e-01 3.642578e-01
2.781219e+08 8.483276e-01 4.252930e-01 -1.118332e-05 -4.145131e-05 -2.629496e-05 -5.550683e-06 8.914185e-01 3.652344e-01
2.783397e+08 8.484497e-01 4.252930e-01 1.105014e-06 9.041745e-06 3.140420e-06 1.963787e-05 8.918457e-01 3.659058e-01
2.785575e+08 8.486328e-01 4.271240e-01 -1.478940e-06 -1.205504e-05 4.624948e-06 2.398714e-05 8.922729e-01 3.662109e-01
2.787753e+08 8.480835e-01 4.282837e-01 -3.456511e-05 -3.248639e-05 1.599360e-05 -3.075227e-06 8.925171e-01 3.671875e-01
2.789931e+08 8.491821e-01 4.282227e-01 -3.680587e-06 -3.011711e-05 -3.333017e-05 1.640432e-05 8.920288e-01 3.677979e-01
2.792109e+08 8.486328e-01 4.295044e-01 1.058076e-05 -1.353584e-05 -2.905354e-05 7.592142e-06 8.932495e-01 3.688354e-01
2.794288e+08 8.494873e-01 4.304199e-01 1.808535e-05 -2.224930e-06 9.988435e-06 -2.051145e-05 8.936768e-01 3.688965e-01
2.796466e+08 8.496704e-01 4.310303e-01 5.044788e-05 1.218542e-05 3.513321e-05 1.344830e-05 8.938599e-01 3.706665e-01
2.798644e+08 8.499146e-01 4.317017e-01 2.227165e-05 -1.802854e-05 -1.189392e-05 -2.027582e-05 8.939209e-01 3.715820e-01
2.800822e+08 8.492432e-01 4.328613e-01 1.058355e-05 -1.353491e-05 -3.046356e-05 1.414679e-05 8.942871e-01 3.721924e-01
2.803000e+08 8.495483e-01 4.336548e-01 2.954155e-06 2.412498e-05 2.328306e-05 -3.153458e-06 8.948975e-01 3.727417e-01
2.805178e+08 8.499756e-01 4.348145e-01 3.125519e-05 5.340204e-06 8.679926e-06 -6.648712e-06 8.944702e-01 3.734741e-01
2.807356e+08 8.500977e-01 4.351196e-01 -7.884577e-06 -1.434237e-05 1.033302e-05 1.227949e-05 8.952026e-01 3.744507e-01
2.809534e+08 8.500977e-01 4.357910e-01 -8.750707e-06 2.861768e-05 -6.247312e-06 -3.929064e-05 8.950806e-01 3.755493e-01
2.811712e+08 8.500977e-01 4.375000e-01 -1.477450e-05 2.935529e-05 -1.311302e-05 8.530915e-07 8.955078e-01 3.759155e-01
2.813891e+08 8.506470e-01 4.379883e-01 8.737668e-06 -2.862141e-05 1.487881e-05 2.900325e-05 8.956909e-01 3.767700e-01
2.816069e+08 8.515015e-01 4.381104e-01 -5.618110e-05 -8.441508e-06 1.133047e-05 -3.074482e-05 8.969116e-01 3.776855e-01
2.818247e+08 8.513184e-01 4.395752e-01 -1.132302e-05 7.511117e-06 2.333708e-05 4.786998e-07 8.969116e-01 3.779907e-01
2.820425e+08 8.513184e-01 4.405518e-01 2.447516e-05 7.264316e-08 2.563000e-06 -3.503077e-05 8.963623e-01 3.782349e-01
2.822603e+08 8.515625e-01 4.410400e-01 1.206249e-05 -1.466833e-06 1.149345e-05 -1.616403e-05 8.972168e-01 3.795776e-01
2.824781e+08 8.513184e-01 4.425049e-01 2.264977e-05 -1.501665e-05 -2.497621e-05 -1.944974e-05 8.980713e-01 3.796997e-01
2.826959e+08 8.517456e-01 4.426880e-01 7.636845e-06 -3.765710e-05 1.168624e-05 2.065673e-06 8.981323e-01 3.801270e-01
2.829138e+08 8.527222e-01 4.434814e-01 1.353491e-05 1.059473e-05 -1.146831e-05 1.982041e-05 8.986816e-01 3.812866e-01
2.831316e+08 8.526611e-01 4.439697e-01 5.048141e-05 1.220778e-05 3.653206e-05 6.921589e-06 8.991089e-01 3.818970e-01
2.833494e+08 8.530884e-01 4.452515e-01 -6.236136e-06 -5.130097e-05 -1.154095e-05 1.252070e-05 8.992310e-01 3.831177e-01
2.835672e+08 8.529053e-01 4.458618e-01 3.200769e-05 1.141056e-05 -4.240498e-05 -9.769574e-06 8.994751e-01 3.833618e-01
2.837850e+08 8.540039e-01 4.466553e-01 -1.847744e-05 -8.102506e-07 3.632158e-08 3.647991e-06 9.002686e-01 3.839722e-01
2.840028e+08 8.532715e-01 4.472046e-01 -1.101289e-06 -9.055249e-06 4.286412e-06 -8.794479e-06 9.005127e-01 3.845825e-01
2.842206e+08 8.543091e-01 4.480591e-01 1.663528e-05 -1.428928e-05 -1.507252e-05 -4.726276e-05 9.014282e-01 3.848877e-01
2.844384e+08 8.550415e-01 4.491577e-01 2.011284e-05 -3.615022e-05 1.049042e-05 2.690591e-05 9.013672e-01 3.859863e-01
2.846562e+08 8.546143e-01 4.491577e-01 9.872951e-06 -1.959037e-05 -1.583155e-05 2.131704e-05 9.022827e-01 3.864746e-01
2.848741e+08 8.549805e-01 4.502563e-01 -6.062165e-05 -4.470348e-05 -3.367662e-06 -4.520267e-05 9.023438e-01 3.869019e-01
2.850919e+08 8.558350e-01 4.510498e-01 -1.171697e-05 4.489906e-06 -1.429580e-06 2.933200e-06 9.028931e-01 3.880005e-01
2.853097e+08 8.555298e-01 4.515991e-01 5.513802e-05 -6.109476e-07 -5.270168e-05 -1.844764e-05 9.041138e-01 3.886719e-01
2.855275e+08 8.563843e-01 4.517212e-01 -3.057532e-05 6.668270e-07 2.637506e-05 9.194016e-06 9.041138e-01 3.889771e-01
2.857453e+08 8.558350e-01 4.529419e-01 -2.599880e-05 -1.215562e-05 -1.500733e-05 -3.995560e-05 9.039307e-01 3.895874e-01
2.859631e+08 8.563232e-01 4.542236e-01 -2.935529e-06 -2.417527e-05 2.309494e-05 -2.869219e-05 9.041138e-01 3.908081e-01
2.861809e+08 8.574219e-01 4.552002e-01 3.306195e-06 2.719462e-05 1.341663e-05 2.836436e-05 9.048462e-01 3.907471e-01
2.863988e+08 8.570557e-01 4.556274e-01 -8.786097e-06 2.866425e-05 -3.787503e-05 1.056492e-05 9.052734e-01 3.912964e-01
2.866166e+08 8.575439e-01 4.559326e-01 -4.945789e-06 9.801704e-06 -2.827030e-06 9.519979e-06 9.056396e-01 3.922119e-01
2.868344e+08 8.583374e-01 4.569092e-01 2.048910e-05 -3.313646e-05 -8.701347e-06 6.658491e-06 9.052124e-01 3.923340e-01
2.870522e+08 8.588257e-01 4.572144e-01 1.460314e-06 1.209229e-05 -2.467632e-05 1.704320e-05 9.063721e-01 3.934937e-01
2.872700e+08 8.586426e-01 4.586792e-01 3.368594e-05 -2.556294e-05 -6.658956e-08 -7.306226e-06 9.066162e-01 3.931274e-01
2.874878e+08 8.596191e-01 4.584961e-01 1.062267e-05 -1.356471e-05 -1.175236e-05 -5.729496e-06 9.075928e-01 3.937988e-01
2.877056e+08 8.598633e-01 4.586792e-01 1.962297e-05 9.891577e-06 7.380266e-06 7.233582e-06 9.083862e-01 3.944092e-01
2.879234e+08 8.596802e-01 4.598389e-01 5.625933e-05 8.489937e-06 -2.506375e-05 -2.313405e-05 9.083862e-01 3.941650e-01
2.881412e+08 8.600464e-01 4.603271e-01 2.273172e-05 -1.501851e-05 1.743715e-05 -9.666197e-06 9.085083e-01 3.956909e-01
2.883591e+08 8.606567e-01 4.611206e-01 2.200715e-05 -2.109632e-05 1.133233e-05 -3.811158e-05 9.097290e-01 3.961792e-01
2.885769e+08 8.610229e-01 4.617920e-01 -1.842156e-06 -1.512561e-05 2.583489e-05 -4.923344e-05 9.097290e-01 3.959351e-01
2.887947e+08 8.616943e-01 4.623413e-01 5.704537e-05 1.453236e-05 -2.031960e-05 1.555309e-05 9.105835e-01 3.962402e-01
2.890125e+08 8.621216e-01 4.630737e-01 -2.210960e-06 -1.814961e-05 -7.308554e-06 6.752089e-08 9.106445e-01 3.968506e-01
2.892303e+08 8.625488e-01 4.624634e-01 4.163384e-05 -1.119077e-05 2.350099e-05 1.145713e-05 9.111328e-01 3.975830e-01
2.894481e+08 8.630371e-01 4.636230e-01 -1.063105e-05 1.358707e-05 1.269206e-05 -4.837289e-05 9.121704e-01 3.975220e-01
2.896659e+08 8.626709e-01 4.641724e-01 -1.780130e-05 5.232170e-06 1.284294e-06 -1.754984e-05 9.125977e-01 3.984985e-01
2.898838e+08 8.624268e-01 4.655151e-01 -3.101677e-05 -2.406538e-06 4.371163e-06 -1.499197e-06 9.128418e-01 3.991089e-01
2.901016e+08 8.642578e-01 4.660645e-01 1.467019e-05 1.972727e-05 -5.951617e-06 -1.018448e-05 9.129639e-01 3.991089e-01
2.903194e+08 8.646851e-01 4.662476e-01 -2.714805e-05 -2.130866e-05 2.631731e-05 -1.726672e-06 9.135132e-01 4.001465e-01
2.905372e+08 8.646240e-01 4.669189e-01 -7.890165e-06 -1.442432e-05 -2.344698e-05 -4.164875e-06 9.147949e-01 4.002075e-01
2.907550e+08 8.662720e-01 4.672852e-01 3.450923e-05 -1.952983e-05 3.200024e-06 2.705492e-05 9.142456e-01 4.005127e-01
2.909728e+08 8.659058e-01 4.680176e-01 2.423674e-05 -2.935529e-06 1.032930e-05 8.680858e-06 9.152222e-01 4.010620e-01
2.911906e+08 8.653564e-01 4.686279e-01 4.042685e-05 2.894551e-05 3.082305e-05 1.141429e-05 9.161377e-01 4.016724e-01
2.914084e+08 8.674316e-01 4.694824e-01 3.177300e-05 8.452684e-06 1.154840e-06 -3.224798e-05 9.158325e-01 4.019165e-01
2.916262e+08 8.665771e-01 4.699707e-01 -7.162802e-06 -8.358154e-06 2.908753e-06 -2.221204e-06 9.160767e-01 4.021606e-01
2.918441e+08 8.676147e-01 4.700317e-01 7.162802e-06 8.352101e-06 -3.110617e-06 -1.975335e-05 9.163818e-01 4.019165e-01
2.920619e+08 8.676758e-01 4.717407e-01 -1.911074e-05 4.539266e-05 -5.425513e-05 -4.682690e-06 9.175415e-01 4.025269e-01
2.922797e+08 8.690186e-01 4.708862e-01 -3.822707e-05 -1.077168e-05 -1.702458e-06 -2.637133e-05 9.177246e-01 4.036865e-01
2.924975e+08 8.685913e-01 4.713135e-01 2.738088e-05 -2.793595e-05 -6.156042e-06 -3.218465e-05 9.182739e-01 4.030762e-01
2.927153e+08 8.683472e-01 4.727173e-01 1.096632e-06 9.098090e-06 4.530884e-06 1.681689e-05 9.184570e-01 4.041138e-01
2.929331e+08 8.701782e-01 4.721680e-01 2.886169e-05 -1.580827e-05 -1.024455e-05 2.293848e-06 9.190674e-01 4.041138e-01
2.931509e+08 8.701172e-01 4.728394e-01 4.283339e-05 -2.104789e-06 2.907775e-05 -2.957508e-05 9.193726e-01 4.042969e-01
2.933688e+08 8.698730e-01 4.740601e-01 -1.030974e-05 1.663622e-05 1.061149e-05 4.170462e-05 9.199829e-01 4.047852e-01
2.935866e+08 8.709717e-01 4.734497e-01 -2.077967e-05 -1.904741e-05 -4.386296e-06 1.507113e-06 9.205933e-01 4.050293e-01
2.938044e+08 8.720703e-01 4.755859e-01 -1.192838e-05 -4.785135e-05 -2.481975e-05 1.709908e-05 9.212646e-01 4.052734e-01
2.940222e+08 8.713379e-01 4.747925e-01 7.527880e-06 1.141988e-05 5.297363e-05 1.860783e-05 9.213257e-01 4.061279e-01
2.942400e+08 8.721924e-01 4.747925e-01 2.574734e-05 9.201467e-06 -1.639128e-06 -1.905300e-05 9.215698e-01 4.050293e-01
2.944578e+08 8.724976e-01 4.766846e-01 -1.397263e-05 -1.372211e-05 -1.028366e-05 -1.386274e-06 9.220581e-01 4.058228e-01
2.946756e+08 8.730469e-01 4.767456e-01 -6.808899e-06 -5.343929e-06 -8.812174e-06 -6.612390e-07 9.230957e-01 4.062500e-01
2.948934e+08 8.734131e-01 4.761963e-01 1.178775e-05 -4.499219e-06 1.466926e-05 -1.331791e-07 9.232788e-01 4.064331e-01
2.951112e+08 8.745117e-01 4.766846e-01 -3.260188e-05 -1.456216e-05 -2.332963e-05 1.783483e-05 9.243164e-01 4.062500e-01
2.953291e+08 8.743286e-01 4.767456e-01 1.861062e-05 8.381903e-07 -1.543667e-06 -8.058269e-06 9.248047e-01 4.064331e-01
2.955469e+08 8.745728e-01 4.779053e-01 -2.688542e-05 -1.834705e-05 2.948800e-06 1.442851e-06 9.248657e-01 4.065552e-01
2.957647e+08 8.753662e-01 4.782104e-01 -5.715527e-06 3.772788e-06 -7.191673e-06 1.842435e-05 9.252930e-01 4.070435e-01
2.959825e+08 8.753052e-01 4.774780e-01 -1.082569e-05 -3.878213e-05 3.411621e-05 3.858842e-05 9.249878e-01 4.074707e-01
2.962003e+08 8.736572e-01 4.777832e-01 -3.892742e-05 2.313964e-05 1.437962e-05 -2.758391e-05 9.270630e-01 4.081421e-01
2.964181e+08 8.748779e-01 4.776611e-01 -3.569759e-05 3.106892e-06 4.165620e-05 7.623807e-06 9.266357e-01 4.075317e-01
2.966359e+08 8.750610e-01 4.780273e-01 -6.388873e-06 4.008040e-05 -4.824251e-06 -2.863817e-06 9.277344e-01 4.082642e-01
2.968538e+08 8.757935e-01 4.777222e-01 -1.557916e-05 2.396666e-05 6.179325e-06 5.662907e-06 9.288330e-01 4.088135e-01
2.970716e+08 8.760376e-01 4.790039e-01 -3.369525e-05 -4.647300e-05 5.947426e-06 1.959875e-05 9.282837e-01 4.085693e-01
2.972894e+08 8.759155e-01 4.786987e-01 3.210083e-05 1.980551e-05 -2.009887e-05 -5.883165e-06 9.290771e-01 4.089966e-01
2.975072e+08 8.767090e-01 4.787598e-01 -1.764949e-05 1.173466e-07 -5.168840e-06 -2.515502e-05 9.293823e-01 4.093018e-01
2.977250e+08 8.767700e-01 4.794922e-01 3.829785e-05 1.787953e-05 -5.388632e-06 -1.123175e-05 9.297485e-01 4.093018e-01
2.979428e+08 8.772583e-01 4.795532e-01 4.587695e-05 7.320195e-06 -5.614478e-06 2.695713e-06 9.303589e-01 4.097900e-01
2.981606e+08 8.779907e-01 4.799194e-01 -1.237541e-05 3.901310e-06 5.134940e-05 1.334399e-05 9.299316e-01 4.094238e-01
2.983784e+08 8.784790e-01 4.801636e-01 -4.723296e-05 1.292676e-06 6.619841e-06 -2.220273e-05 9.304199e-01 4.089966e-01
2.985962e+08 8.779907e-01 4.808960e-01 -1.101103e-05 -4.693866e-06 -1.806766e-06 -1.814216e-05 9.308472e-01 4.094849e-01
2.988141e+08 8.782349e-01 4.814453e-01 -2.802908e-05 -4.567578e-05 1.383573e-05 -3.600307e-05 9.320068e-01 4.100952e-01
2.990319e+08 8.782959e-01 4.808350e-01 -9.117648e-07 5.735550e-06 3.885664e-05 8.998439e-06 9.317627e-01 4.093628e-01
2.992497e+08 8.791504e-01 4.814453e-01 -3.328547e-05 -4.943833e-05 -1.404900e-05 6.733462e-06 9.318848e-01 4.104004e-01
2.994675e+08 8.801880e-01 4.816895e-01 -2.133101e-05 2.306700e-05 -2.360903e-05 -5.967915e-06 9.321899e-01 4.102173e-01
2.996853e+08 8.801270e-01 4.819946e-01 -1.239125e-05 3.912486e-06 1.168530e-05 9.957701e-06 9.329834e-01 4.097900e-01
2.999031e+08 8.799438e-01 4.818726e-01 2.891384e-05 -3.362820e-05 5.945563e-06 1.961831e-05 9.329834e-01 4.102783e-01
3.001209e+08 8.807983e-01 4.823608e-01 2.825633e-05 7.456169e-06 5.442649e-06 -3.198721e-05 9.342041e-01 4.104004e-01
3.003388e+08 8.810425e-01 4.826660e-01 -5.066395e-06 -4.201382e-05 2.193451e-05 -1.917034e-05 9.337158e-01 4.104004e-01
3.005566e+08 8.818970e-01 4.824219e-01 -5.076826e-05 -1.397356e-05 -5.793944e-05 1.832843e-06 9.346313e-01 4.099121e-01
3.007744e+08 8.820190e-01 4.824219e-01 7.376075e-06 2.769008e-05 1.698919e-05 -1.507346e-05 9.353027e-01 4.104614e-01
3.009922e+08 8.817749e-01 4.833374e-01 -2.820790e-05 6.617978e-05 3.578886e-05 -1.195446e-05 9.349976e-01 4.102783e-01
3.012100e+08 8.824463e-01 4.827881e-01 3.515184e-05 3.799237e-05 -1.969375e-05 9.447336e-06 9.349976e-01 4.104614e-01
3.014278e+08 8.835449e-01 4.825439e-01 -2.984703e-05 3.938749e-05 -1.103058e-05 -8.556992e-06 9.349365e-01 4.107056e-01
3.016456e+08 8.830566e-01 4.834595e-01 -9.159558e-07 5.746260e-06 3.949739e-05 1.740269e-05 9.363403e-01 4.108276e-01
3.018634e+08 8.834229e-01 4.833374e-01 -3.193319e-05 1.553260e-05 -4.581362e-05 -1.610443e-05 9.358521e-01 4.105225e-01
3.020812e+08 8.841553e-01 4.835205e-01 -4.133210e-06 2.586469e-05 -2.681278e-05 -2.696738e-05 9.365234e-01 4.107666e-01
3.022991e+08 8.838501e-01 4.836426e-01 -4.373491e-06 -9.544659e-06 -1.126155e-05 5.401671e-06 9.371338e-01 4.110718e-01
3.025169e+08 8.838501e-01 4.838867e-01 3.126636e-05 -4.805252e-05 -8.329283e-06 -2.931803e-06 9.363403e-01 4.114380e-01
3.027347e+08 8.845825e-01 4.844360e-01 1.058076e-05 7.579103e-06 -3.334135e-05 -1.172721e-05 9.373779e-01 4.104614e-01
3.029525e+08 8.843384e-01 4.848633e-01 -3.930368e-05 -1.220219e-05 -5.077571e-06 1.108833e-05 9.369507e-01 4.111328e-01
3.031703e+08 8.847656e-01 4.847412e-01 -4.366972e-06 -9.538140e-06 -3.921241e-05 4.928559e-06 9.366455e-01 4.108276e-01
3.033881e+08 8.848877e-01 4.848022e-01 2.115779e-05 1.517124e-05 1.655612e-05 1.284387e-05 9.375610e-01 4.109497e-01
3.036059e+08 8.857422e-01 4.842529e-01 -6.715953e-05 -2.251938e-05 5.289912e-06 -2.507120e-05 9.373169e-01 4.105225e-01
3.038238e+08 8.859863e-01 4.844360e-01 6.210990e-06 -1.954380e-06 -1.623947e-05 9.525567e-06 9.374390e-01 4.106445e-01
3.040416e+08 8.864746e-01 4.845581e-01 -4.834030e-06 -6.674323e-06 1.464784e-05 4.499778e-05 9.379272e-01 4.110107e-01
3.042594e+08 8.856812e-01 4.852295e-01 1.633912e-05 8.509494e-06 -1.060637e-05 6.803777e-06 9.381104e-01 4.102783e-01
3.044772e+08 8.862305e-01 4.844360e-01 -1.838431e-06 1.150463e-05 2.232566e-05 3.160909e-06 9.379883e-01 4.105835e-01
3.046950e+08 8.870850e-01 4.841309e-01 -3.453344e-06 -1.529325e-05 1.601409e-05 4.452653e-06 9.378052e-01 4.099731e-01
3.049128e+08 8.873291e-01 4.844971e-01 -1.588371e-05 -1.138356e-05 -1.477916e-05 5.352311e-06 9.385986e-01 4.100952e-01
3.051306e+08 8.879395e-01 4.846802e-01 7.599592e-06 -1.058821e-05 -3.902987e-05 -9.037554e-06 9.386597e-01 4.108887e-01
3.053484e+08 8.869019e-01 4.851074e-01 -2.996065e-06 -1.818780e-05 -1.256354e-05 3.893860e-05 9.388428e-01 4.112549e-01
3.055662e+08 8.878174e-01 4.849243e-01 -2.579577e-05 1.357682e-05 1.794286e-05 -2.769008e-05 9.389038e-01 4.114380e-01
3.057841e+08 8.873291e-01 4.859009e-01 7.347763e-05 2.060458e-05 4.220754e-05 -1.326203e-05 9.398193e-01 4.105835e-01
3.060019e+08 8.883057e-01 4.850464e-01 8.745119e-06 1.911633e-05 -3.726222e-06 1.393538e-05 9.391479e-01 4.112549e-01
3.062197e+08 8.874512e-01 4.862671e-01 1.636613e-05 8.523464e-06 -2.944376e-06 8.344185e-06 9.402466e-01 4.110718e-01
3.064375e+08 8.880005e-01 4.854736e-01 -1.337100e-05 9.690411e-06 1.693144e-05 -8.117408e-06 9.408569e-01 4.111328e-01
3.066553e+08 8.887329e-01 4.861450e-01 1.014583e-05 1.048576e-05 -2.851337e-05 -5.231053e-05 9.402466e-01 4.108887e-01
3.068731e+08 8.892212e-01 4.862671e-01 2.051517e-05 -1.739524e-05 3.501773e-06 5.890615e-08 9.400635e-01 4.110107e-01
3.070909e+08 8.891602e-01 4.859619e-01 -1.080334e-05 -4.309788e-05 9.946991e-06 -8.235220e-06 9.398193e-01 4.108276e-01
3.073088e+08 8.888550e-01 4.858398e-01 4.543737e-05 -2.523512e-05 3.166869e-05 7.336587e-05 9.407349e-01 4.108276e-01
3.075266e+08 8.894043e-01 4.855957e-01 1.498125e-05 1.718476e-05 1.680106e-05 4.230812e-05 9.408569e-01 4.106445e-01
3.077444e+08 8.894043e-01 4.850464e-01 3.235415e-06 -2.017803e-05 -1.819059e-05 4.171953e-05 9.406128e-01 4.106445e-01
3.079622e+08 8.889771e-01 4.857788e-01 3.180653e-05 2.285093e-05 -3.039651e-05 1.628138e-05 9.406128e-01 4.105835e-01
3.081800e+08 8.900757e-01 4.857788e-01 -2.167746e-05 -1.234002e-05 3.186055e-05 2.295524e-05 9.408569e-01 4.100342e-01
3.083978e+08 8.896484e-01 4.862061e-01 -9.206124e-07 5.764421e-06 1.909211e-06 1.124479e-05 9.407349e-01 4.098511e-01
3.086156e+08 8.897705e-01 4.866943e-01 9.920448e-06 -2.502091e-05 -4.981644e-06 4.117377e-06 9.407349e-01 4.104614e-01
3.088334e+08 8.895264e-01 4.862671e-01 -3.620982e-05 -3.241934e-05 -4.069880e-05 2.065673e-06 9.409790e-01 4.100952e-01
3.090512e+08 8.900757e-01 4.859619e-01 2.241135e-05 -2.897345e-05 -9.282492e-06 9.655952e-06 9.419556e-01 4.105225e-01
3.092691e+08 8.896484e-01 4.868164e-01 3.853068e-05 1.799688e-05 1.311675e-05 -6.707385e-05 9.412842e-01 4.099731e-01
3.094869e+08 8.896484e-01 4.868774e-01 3.599562e-05 -3.084540e-06 -1.642387e-05 1.653936e-05 9.407959e-01 4.104004e-01
3.097047e+08 8.904419e-01 4.869385e-01 -1.107529e-05 -4.738569e-06 -3.007241e-05 -4.755333e-06 9.406128e-01 4.106445e-01
3.099225e+08 8.897705e-01 4.862061e-01 -2.123415e-07 -3.555417e-05 -3.571622e-05 -2.026558e-06 9.407959e-01 4.105225e-01
3.101403e+08 8.901978e-01 4.862671e-01 -2.006814e-05 -5.944073e-05 -2.609566e-05 -3.272109e-05 9.407349e-01 4.094849e-01
3.103581e+08 8.897705e-01 4.864502e-01 3.648736e-05 -5.999580e-06 -2.250820e-05 3.801659e-06 9.412231e-01 4.104614e-01
3.105759e+08 8.902588e-01 4.866333e-01 8.288771e-06 2.206117e-05 -1.808815e-05 -8.731149e-06 9.406738e-01 4.113770e-01
3.107938e+08 8.902588e-01 4.862061e-01 -3.415719e-05 -8.473173e-06 2.071261e-05 -2.209656e-05 9.404297e-01 4.113159e-01
3.110116e+08 8.904419e-01 4.863892e-01 -5.009398e-05 -1.991913e-05 6.769551e-07 1.415261e-06 9.406128e-01 4.105225e-01
3.112294e+08 8.905029e-01 4.863892e-01 -2.560392e-05 -2.485141e-05 6.457791e-06 -8.305535e-06 9.405518e-01 4.108887e-01
3.114472e+08 8.906250e-01 4.869995e-01 -1.154374e-05 -1.861714e-06 2.251938e-05 -3.807247e-06 9.404297e-01 4.104614e-01
3.116650e+08 8.914795e-01 4.863892e-01 -2.309121e-05 -3.717840e-06 -1.483876e-05 5.368143e-06 9.405518e-01 4.104614e-01
3.118828e+08 8.907471e-01 4.865112e-01 2.983958e-06 1.824554e-05 9.816140e-07 2.387539e-05 9.404297e-01 4.103394e-01
3.121006e+08 8.905029e-01 4.867554e-01 -3.465265e-05 -5.574897e-06 -3.144518e-05 -7.588416e-06 9.408569e-01 4.104614e-01
3.123184e+08 8.910522e-01 4.871826e-01 4.116818e-05 -3.483519e-05 -1.446437e-05 -1.571048e-05 9.405518e-01 4.108887e-01
3.125362e+08 8.914795e-01 4.868774e-01 4.528090e-05 1.322478e-05 2.587214e-05 -3.326312e-05 9.406128e-01 4.110107e-01
3.127541e+08 8.905640e-01 4.871826e-01 -7.847324e-06 -2.495199e-05 2.050120e-05 -8.057803e-06 9.406128e-01 4.098511e-01
3.129719e+08 8.911743e-01 4.866333e-01 2.886541e-05 4.654750e-06 -7.140916e-06 6.902497e-06 9.398804e-01 4.104004e-01
3.131897e+08 8.908691e-01 4.873657e-01 4.088879e-05 3.632158e-06 3.585033e-05 -4.151650e-05 9.400635e-01 4.110107e-01
3.134075e+08 8.898926e-01 4.875488e-01 -9.996817e-06 2.507307e-05 -1.214258e-05 1.100916e-05 9.404297e-01 4.117432e-01
3.136253e+08 8.909302e-01 4.871216e-01 -1.362339e-05 -2.590381e-05 -5.565956e-05 7.439405e-06 9.401855e-01 4.106445e-01
3.138431e+08 8.900146e-01 4.874268e-01 2.291426e-05 -3.189966e-05 1.023710e-05 -2.229214e-05 9.406738e-01 4.105225e-01
3.140609e+08 8.906250e-01 4.871216e-01 4.389137e-05 2.189726e-05 1.484714e-05 -5.358830e-06 9.398193e-01 4.108887e-01
3.142788e+08 8.899536e-01 4.877319e-01 1.045316e-05 -2.795830e-05 -6.604940e-06 1.533609e-05 9.400024e-01 4.111328e-01
3.144966e+08 8.911133e-01 4.875488e-01 -2.967380e-05 3.672391e-05 7.451512e-06 1.560152e-05 9.401245e-01 4.111328e-01
3.147144e+08 8.907471e-01 4.870605e-01 5.308073e-06 3.820751e-06 1.713634e-07 2.952665e-05 9.389038e-01 4.104004e-01
3.149322e+08 8.909302e-01 4.874268e-01 -4.220754e-06 2.599694e-05 -1.164433e-05 -1.708325e-05 9.389038e-01 4.113159e-01
3.151500e+08 8.903198e-01 4.877319e-01 -1.325458e-05 4.529953e-05 2.421066e-05 2.153218e-05 9.395142e-01 4.112549e-01
3.153678e+08 8.902588e-01 4.874268e-01 3.402680e-05 -2.708659e-05 -1.850165e-05 1.231488e-05 9.388428e-01 4.113159e-01
3.155856e+08 8.899536e-01 4.875488e-01 -3.281422e-05 -1.717918e-05 1.215003e-05 -1.102500e-05 9.389038e-01 4.120483e-01
3.158034e+08 8.898926e-01 4.872437e-01 4.047528e-05 6.549060e-06 -5.504116e-07 -8.442905e-06 9.388428e-01 4.122925e-01
3.160212e+08 8.900757e-01 4.876709e-01 -1.125038e-05 -4.037470e-05 2.326444e-06 2.676062e-05 9.382324e-01 4.120483e-01
3.162391e+08 8.898315e-01 4.882202e-01 -7.811934e-06 -2.500601e-05 -3.027171e-05 2.255663e-06 9.382935e-01 4.123535e-01
3.164569e+08 8.891602e-01 4.882812e-01 -9.378418e-07 5.779788e-06 -6.025285e-05 2.699718e-05 9.381714e-01 4.121704e-01
3.166747e+08 8.898926e-01 4.882812e-01 3.830716e-05 5.663186e-05 1.641363e-05 -5.314872e-05 9.383545e-01 4.122314e-01
3.168925e+08 8.893433e-01 4.882202e-01 -8.285046e-06 -2.210587e-05 -1.054257e-05 -1.876615e-07 9.378052e-01 4.121094e-01
3.171103e+08 8.893433e-01 4.888306e-01 6.237626e-05 -5.516410e-05 8.927658e-06 1.142174e-05 9.379883e-01 4.125366e-01
3.173281e+08 8.894043e-01 4.888306e-01 7.182825e-06 -7.741153e-06 -5.157664e-06 -2.541766e-05 9.379883e-01 4.116821e-01
3.175459e+08 8.892212e-01 4.889526e-01 3.703311e-05 -8.840114e-06 -3.382098e-06 -7.092021e-06 9.377441e-01 4.121704e-01
3.177638e+08 8.898926e-01 4.893799e-01 2.338551e-06 -1.445599e-05 3.287569e-05 1.045689e-05 9.373169e-01 4.122314e-01
3.179816e+08 8.887939e-01 4.893799e-01 1.468509e-05 5.581602e-05 -1.085922e-06 -1.689699e-05 9.376831e-01 4.132690e-01
3.181994e+08 8.883667e-01 4.890747e-01 -6.727874e-06 4.840083e-06 -1.337752e-05 1.151115e-06 9.372559e-01 4.136963e-01
3.184172e+08 8.884277e-01 4.891968e-01 -2.172589e-05 -1.244433e-05 3.811903e-05 -7.728115e-06 9.376221e-01 4.131470e-01
3.186350e+08 8.890991e-01 4.893188e-01 3.766268e-06 -2.314523e-05 3.691763e-05 -1.761876e-05 9.373779e-01 4.134521e-01
3.188528e+08 8.888550e-01 4.895020e-01 -1.074746e-06 -2.985820e-05 2.881140e-05 1.942739e-06 9.367676e-01 4.135132e-01
3.190706e+08 8.883057e-01 4.900513e-01 -2.704747e-05 -1.627021e-05 -3.868528e-05 -7.357448e-07 9.369507e-01 4.132690e-01
3.192884e+08 8.877563e-01 4.901733e-01 -4.522502e-06 6.452575e-05 1.373701e-07 -7.029623e-06 9.361572e-01 4.126587e-01
3.195062e+08 8.889160e-01 4.896240e-01 -4.375819e-06 -9.617303e-06 -1.311861e-05 2.367608e-05 9.367065e-01 4.133911e-01
3.197241e+08 8.881226e-01 4.904785e-01 -1.452863e-05 -2.016500e-05 -3.016926e-05 -4.809350e-06 9.358521e-01 4.133911e-01
3.199419e+08 8.880005e-01 4.897461e-01 4.035234e-05 -2.906471e-05 -3.200024e-06 5.902350e-05 9.361572e-01 4.140015e-01
3.201597e+08 8.876343e-01 4.907227e-01 -3.814325e-05 -2.105162e-05 1.799129e-05 1.582876e-05 9.361572e-01 4.141846e-01
3.203775e+08 8.873291e-01 4.913940e-01 -4.049763e-05 -6.619841e-06 1.055188e-05 2.007000e-07 9.358521e-01 4.155884e-01
3.205953e+08 8.878174e-01 4.911499e-01 6.727409e-06 -4.843809e-06 -2.708286e-06 -5.684327e-06 9.357910e-01 4.153442e-01
3.208131e+08 8.871460e-01 4.915161e-01 -2.016127e-05 1.453236e-05 1.893565e-05 -7.003173e-05 9.350586e-01 4.149780e-01
3.210309e+08 8.870239e-01 4.915161e-01 4.375819e-06 9.613577e-06 -1.014490e-05 -2.130400e-05 9.351807e-01 4.147949e-01
3.212488e+08 8.875732e-01 4.915161e-01 1.156423e-05 1.876615e-06 2.218597e-05 -1.930073e-05 9.349365e-01 4.151001e-01
3.214666e+08 8.869629e-01 4.918213e-01 -1.688395e-05 -5.716458e-06 3.220700e-05 9.052455e-06 9.344482e-01 4.158325e-01
3.216844e+08 8.863525e-01 4.911499e-01 -1.889654e-05 -2.983585e-05 -9.238720e-07 4.921854e-05 9.352417e-01 4.165649e-01
3.219022e+08 8.863525e-01 4.919434e-01 3.422983e-05 8.530915e-06 -1.217332e-05 1.102872e-05 9.341431e-01 4.155884e-01
3.221200e+08 8.859253e-01 4.924316e-01 3.517047e-05 2.764165e-06 -1.797918e-05 -1.583435e-05 9.337158e-01 4.162598e-01
3.223378e+08 8.865356e-01 4.927368e-01 -2.490357e-06 -2.120249e-05 -7.981434e-06 1.251977e-05 9.343262e-01 4.168091e-01
3.225556e+08 8.859253e-01 4.928589e-01 -2.066046e-05 1.741014e-05 -2.682209e-07 1.406949e-05 9.332886e-01 4.172974e-01
3.227734e+08 8.864136e-01 4.932861e-01 -2.065860e-05 1.740083e-05 6.360002e-06 -1.288019e-06 9.331055e-01 4.171143e-01
3.229912e+08 8.858032e-01 4.931641e-01 -1.299009e-05 6.786548e-06 -1.257285e-05 3.214180e-05 9.332886e-01 4.174805e-01
3.232091e+08 8.856812e-01 4.936523e-01 1.203734e-05 -9.974465e-07 -2.761371e-05 7.899478e-06 9.328613e-01 4.175415e-01
3.234269e+08 8.859863e-01 4.941406e-01 -3.221072e-05 1.551211e-05 -1.610350e-05 -4.549511e-06 9.323730e-01 4.174194e-01
3.236447e+08 8.851318e-01 4.942627e-01 4.098192e-05 3.721565e-06 -1.605041e-05 -4.114769e-05 9.332886e-01 4.182739e-01
3.238625e+08 8.852539e-01 4.942627e-01 -2.902746e-05 -4.038215e-05 6.336719e-06 3.531575e-05 9.324951e-01 4.185181e-01
3.240803e+08 8.848877e-01 4.942627e-01 -1.015794e-05 -1.056679e-05 1.447648e-05 -2.082996e-05 9.327393e-01 4.185181e-01
3.242981e+08 8.843994e-01 4.951782e-01 -1.974031e-05 1.161732e-05 1.935381e-05 -1.791585e-05 9.328613e-01 4.198608e-01
3.245159e+08 8.840942e-01 4.960327e-01 2.550520e-05 -1.068041e-05 4.133023e-05 4.307181e-05 9.323730e-01 4.191284e-01
3.247338e+08 8.843994e-01 4.949341e-01 -5.785376e-06 -9.452924e-07 -1.260266e-05 3.210828e-05 9.323730e-01 4.194336e-01
3.249516e+08 8.843994e-01 4.951782e-01 -1.415610e-06 8.676201e-06 -8.258969e-06 2.657808e-05 9.319458e-01 4.193726e-01
3.251694e+08 8.837891e-01 4.957886e-01 2.407469e-05 -2.004206e-06 -2.775341e-07 1.406763e-05 9.317627e-01 4.202881e-01
3.253872e+08 8.842163e-01 4.968262e-01 -1.979992e-06 -2.407655e-05 1.609977e-05 4.553236e-06 9.312744e-01 4.207764e-01
3.256050e+08 8.837280e-01 4.968872e-01 2.702884e-05 1.631118e-05 -3.268942e-06 2.245605e-05 9.318237e-01 4.213867e-01
3.258228e+08 8.836670e-01 4.962769e-01 4.052371e-05 6.649643e-06 -3.626011e-05 1.898780e-05 9.321899e-01 4.218750e-01
3.260406e+08 8.827515e-01 4.970093e-01 -1.868978e-05 4.148856e-05 -3.654510e-05 3.301352e-05 9.314575e-01 4.216919e-01
3.262584e+08 8.834229e-01 4.979248e-01 -1.898035e-06 1.157355e-05 1.234002e-05 -1.805089e-05 9.315186e-01 4.223022e-01
3.264762e+08 8.831177e-01 4.981079e-01 3.411435e-06 1.539476e-05 2.693757e-05 -9.303913e-06 9.302368e-01 4.215698e-01
3.266941e+08 8.826904e-01 4.982910e-01 -2.903491e-05 -4.039705e-05 2.817623e-05 -3.601983e-05 9.312744e-01 4.224854e-01
3.269119e+08 8.834839e-01 4.985352e-01 -9.485520e-07 5.781651e-06 4.685298e-05 -1.879409e-05 9.305420e-01 4.229126e-01
3.271297e+08 8.829346e-01 4.979858e-01 3.137253e-05 2.592616e-05 1.595169e-05 1.157541e-05 9.304199e-01 4.227905e-01
3.273475e+08 8.829346e-01 4.990845e-01 -2.656691e-05 -1.920387e-05 1.207925e-06 9.879004e-06 9.306641e-01 4.237061e-01
3.275653e+08 8.822632e-01 5.006104e-01 -1.521781e-06 -2.698414e-05 1.967885e-05 -3.197417e-05 9.307251e-01 4.240112e-01
3.277831e+08 8.822632e-01 5.000000e-01 3.878959e-06 1.250952e-05 3.136881e-05 1.470186e-05 9.293213e-01 4.243164e-01
3.280009e+08 8.818359e-01 5.004272e-01 2.265535e-05 6.694347e-06 4.519150e-05 -7.487833e-06 9.298096e-01 4.249878e-01
3.282188e+08 8.818970e-01 5.008545e-01 2.410077e-05 -1.976267e-06 -1.518521e-05 1.939293e-05 9.302979e-01 4.260254e-01
3.284366e+08 8.818970e-01 5.011597e-01 -1.425855e-06 8.671544e-06 -2.890825e-05 -3.156625e-05 9.294434e-01 4.255371e-01
3.286544e+08 8.809814e-01 5.014648e-01 9.209849e-06 1.636613e-05 -3.220513e-06 -1.413561e-05 9.305420e-01 4.254761e-01
3.288722e+08 8.810425e-01 5.016479e-01 -2.732500e-05 5.785003e-05 -1.324434e-05 -5.904585e-06 9.291382e-01 4.262085e-01
3.290900e+08 8.812256e-01 5.021973e-01 5.007163e-05 -1.551583e-05 -2.544373e-05 5.101785e-06 9.296265e-01 4.263306e-01
3.293078e+08 8.809814e-01 5.018921e-01 -1.212023e-05 -3.467314e-05 -2.841698e-06 1.348089e-06 9.299316e-01 4.265747e-01
3.295256e+08 8.814697e-01 5.025635e-01 4.921481e-05 2.587959e-05 -2.388656e-05 -3.567338e-05 9.297485e-01 4.267578e-01
3.297434e+08 8.811646e-01 5.036011e-01 -9.175390e-06 -1.637265e-05 3.097765e-05 -7.450581e-07 9.294434e-01 4.277954e-01
3.299612e+08 8.807373e-01 5.035400e-01 2.312101e-05 3.818423e-06 -1.339056e-05 1.118518e-06 9.288940e-01 4.287109e-01
3.301791e+08 8.806152e-01 5.040894e-01 -9.504147e-07 5.780254e-06 8.376781e-06 2.990477e-06 9.289551e-01 4.283447e-01
3.303969e+08 8.805542e-01 5.041504e-01 1.734030e-05 2.869405e-06 1.106691e-05 8.674338e-06 9.285889e-01 4.295044e-01
3.306147e+08 8.802490e-01 5.046387e-01 5.775318e-05 -2.612919e-05 2.258271e-05 -3.736466e-06 9.290161e-01 4.295654e-01
3.308325e+08 8.803101e-01 5.051270e-01 3.856607e-05 1.825020e-05 -3.043748e-05 9.194016e-06 9.292603e-01 4.303589e-01
3.310503e+08 8.802490e-01 5.065308e-01 1.632795e-05 -2.701767e-05 -3.092736e-05 3.026985e-05 9.298096e-01 4.305420e-01
3.312681e+08 8.811646e-01 5.064087e-01 -2.131239e-05 -5.099177e-05 -3.190152e-05 -2.318248e-05 9.289551e-01 4.303589e-01
3.314859e+08 8.806152e-01 5.066528e-01 -6.807968e-06 -3.081188e-05 -2.356060e-05 1.638941e-05 9.289551e-01 4.313354e-01
3.317038e+08 8.795776e-01 5.069580e-01 4.190952e-05 -2.004206e-06 1.442246e-05 1.577009e-05 9.293213e-01 4.318237e-01
3.319216e+08 8.801270e-01 5.072021e-01 1.000240e-06 2.985448e-05 -3.171898e-05 -3.021210e-05 9.285889e-01 4.322510e-01
3.321394e+08 8.804932e-01 5.083008e-01 2.841651e-05 7.640570e-06 6.224588e-05 -1.557544e-05 9.285278e-01 4.319458e-01
3.323572e+08 8.797607e-01 5.087280e-01 2.454594e-05 -4.861504e-06 -8.527655e-06 4.032161e-06 9.289551e-01 4.326782e-01
3.325750e+08 8.798218e-01 5.089111e-01 1.782458e-05 -2.235174e-08 1.069577e-05 -6.804708e-06 9.288330e-01 4.340210e-01
3.327928e+08 8.796387e-01 5.096436e-01 2.271309e-05 4.234165e-05 -1.199730e-05 3.349595e-05 9.293213e-01 4.331665e-01
3.330106e+08 8.802490e-01 5.098877e-01 -2.410077e-05 -3.365800e-05 1.504924e-05 -1.234282e-05 9.283447e-01 4.337769e-01
3.332284e+08 8.795776e-01 5.097046e-01 8.686446e-06 1.923740e-05 -4.762784e-05 2.428517e-05 9.284058e-01 4.342041e-01
3.334462e+08 8.803711e-01 5.100098e-01 -6.772578e-06 -3.081746e-05 -9.353273e-06 9.651762e-06 9.285889e-01 4.353027e-01
3.336641e+08 8.793945e-01 5.111084e-01 1.730584e-05 -3.275461e-05 -2.961792e-05 3.568828e-06 9.281006e-01 4.356689e-01
3.338819e+08 8.806763e-01 5.108643e-01 6.112084e-05 -1.063198e-05 -2.080016e-05 -1.451187e-05 9.279175e-01 4.359741e-01
3.340997e+08 8.799438e-01 5.115356e-01 2.874061e-06 -1.734030e-05 2.931431e-05 1.048669e-05 9.286499e-01 4.363403e-01
3.343175e+08 8.797607e-01 5.123901e-01 -2.311543e-05 -3.809109e-06 2.297759e-05 -5.435944e-05 9.285889e-01 4.360962e-01
3.345353e+08 8.800659e-01 5.122681e-01 -4.351605e-06 -9.622891e-06 -1.091417e-05 -1.571048e-05 9.290161e-01 4.368286e-01
3.347531e+08 8.798828e-01 5.127563e-01 5.296431e-06 3.842637e-06 -1.510046e-05 -1.720618e-05 9.277954e-01 4.372559e-01
3.349709e+08 8.801270e-01 5.134888e-01 -5.781185e-06 -9.564683e-07 2.744794e-05 -8.195639e-07 9.289551e-01 4.383545e-01
3.351888e+08 8.796997e-01 5.134277e-01 -1.346786e-05 9.649433e-06 1.749583e-05 -2.915040e-05 9.291992e-01 4.386597e-01
3.354066e+08 8.795166e-01 5.145874e-01 1.494214e-05 1.731794e-05 -4.268251e-05 -9.365380e-06 9.290771e-01 4.393311e-01
3.356244e+08 8.803101e-01 5.148926e-01 4.293397e-06 -2.600066e-05 -5.049258e-05 2.563745e-05 9.288330e-01 4.392700e-01
3.358422e+08 8.804932e-01 5.158081e-01 -5.009025e-05 1.545623e-05 -5.153939e-05 8.698553e-06 9.296265e-01 4.404907e-01
3.360600e+08 8.803101e-01 5.170288e-01 1.446903e-05 2.019480e-05 -1.066923e-05 3.633648e-05 9.291382e-01 4.404297e-01
3.362778e+08 8.802490e-01 5.167236e-01 1.829397e-05 -2.907589e-06 1.668185e-05 -2.353825e-05 9.296265e-01 4.401855e-01
3.364956e+08 8.801270e-01 5.166626e-01 -2.358295e-05 -9.443611e-07 2.015615e-06 4.262198e-06 9.292603e-01 4.411011e-01
3.367134e+08 8.809204e-01 5.164795e-01 3.377907e-06 1.541805e-05 4.403293e-05 1.218915e-05 9.305420e-01 4.420166e-01
3.369312e+08 8.804932e-01 5.175781e-01 2.790615e-05 -2.506375e-05 4.903972e-05 8.095056e-06 9.299316e-01 4.421387e-01
3.371491e+08 8.801270e-01 5.180664e-01 1.879409e-05 2.981164e-05 -2.805702e-05 2.889149e-05 9.294434e-01 4.420166e-01
3.373669e+08 8.806763e-01 5.184937e-01 -6.258860e-05 -1.633167e-05 -2.536923e-06 -1.271255e-05 9.298096e-01 4.429321e-01
3.375847e+08 8.806763e-01 5.187378e-01 2.597272e-05 -4.912540e-05 2.489612e-05 -1.350790e-05 9.304810e-01 4.430542e-01
3.378025e+08 8.807983e-01 5.194702e-01 1.441967e-05 -1.541898e-05 -2.015848e-06 -4.263828e-06 9.301147e-01 4.431152e-01
3.380203e+08 8.806763e-01 5.192261e-01 -3.999099e-05 -4.519895e-05 4.484132e-05 6.608665e-06 9.301758e-01 4.438477e-01
3.382381e+08 8.805542e-01 5.203857e-01 -2.861023e-06 1.733005e-05 -1.820363e-05 2.770312e-05 9.307861e-01 4.434204e-01
3.384559e+08 8.807983e-01 5.204468e-01 -4.140288e-05 -3.653392e-05 2.794154e-05 7.642433e-06 9.301147e-01 4.446411e-01
3.386738e+08 8.814697e-01 5.208740e-01 -5.736947e-06 3.466755e-05 3.596582e-05 -4.848465e-06 9.311523e-01 4.447021e-01
3.388916e+08 8.812256e-01 5.224609e-01 -2.449006e-05 4.046038e-05 2.999790e-06 -8.371659e-06 9.312744e-01 4.447632e-01
3.391094e+08 8.814697e-01 5.225830e-01 -1.783483e-05 -3.562123e-05 -3.850274e-05 -7.892027e-06 9.313965e-01 4.461670e-01
3.393272e+08 8.825073e-01 5.225830e-01 8.671544e-06 1.923833e-05 -3.067032e-05 -1.333468e-05 9.304810e-01 4.460449e-01
3.395450e+08 8.818970e-01 5.230103e-01 7.411465e-05 -1.738966e-05 2.005044e-05 -1.643691e-05 9.312134e-01 4.468384e-01
3.397628e+08 8.812256e-01 5.234985e-01 1.494866e-05 1.730770e-05 -1.315027e-06 2.667494e-05 9.319458e-01 4.468384e-01
3.399806e+08 8.819580e-01 5.242310e-01 -5.302951e-06 -3.850553e-06 -3.064983e-05 -1.333281e-05 9.329224e-01 4.478149e-01
3.401984e+08 8.822632e-01 5.242920e-01 -1.782551e-05 -3.559329e-05 6.508082e-06 -8.294825e-06 9.317627e-01 4.476929e-01
3.404162e+08 8.823853e-01 5.247192e-01 -2.795830e-05 -4.624575e-05 -1.555402e-05 3.874302e-06 9.329224e-01 4.493408e-01
3.406341e+08 8.829956e-01 5.253906e-01 2.117455e-05 -2.024882e-05 -2.662279e-05 -4.811212e-06 9.331055e-01 4.487305e-01
3.408519e+08 8.833618e-01 5.260620e-01 1.059752e-05 7.703900e-06 1.569279e-07 -7.033348e-06 9.332886e-01 4.493408e-01
3.410697e+08 8.829956e-01 5.274048e-01 5.775131e-06 9.583309e-07 2.746098e-05 -7.767230e-07 9.326782e-01 4.492188e-01
3.412875e+08 8.834839e-01 5.264282e-01 5.778391e-06 9.597279e-07 -1.922622e-05 1.082849e-05 9.334106e-01 4.496460e-01
3.415053e+08 8.832397e-01 5.274658e-01 -3.710762e-05 8.670613e-06 3.514113e-06 7.916242e-08 9.340210e-01 4.510498e-01
3.417231e+08 8.837891e-01 5.275269e-01 5.792826e-06 3.658421e-05 1.606811e-05 4.583970e-06 9.335938e-01 4.504395e-01
3.419409e+08 8.834839e-01 5.274048e-01 4.674122e-05 4.043058e-05 -3.315136e-05 -2.604350e-05 9.346313e-01 4.506836e-01
3.421588e+08 8.842163e-01 5.283813e-01 3.086403e-05 2.892315e-05 -5.882233e-06 -1.982693e-05 9.356689e-01 4.519653e-01
3.423766e+08 8.836670e-01 5.286865e-01 1.543947e-05 1.443923e-05 -3.913976e-05 -9.320676e-06 9.357300e-01 4.517212e-01
3.425944e+08 8.848877e-01 5.288696e-01 4.343223e-06 9.632669e-06 -1.942832e-05 -1.170021e-05 9.355469e-01 4.520874e-01
3.428122e+08 8.855591e-01 5.293579e-01 1.639500e-05 4.427880e-05 -3.836676e-05 -1.493841e-05 9.349976e-01 4.515991e-01
3.430300e+08 8.850098e-01 5.294189e-01 -2.794713e-05 2.504699e-05 2.392568e-05 -8.717179e-07 9.356689e-01 4.530029e-01
3.432478e+08 8.856812e-01 5.305176e-01 -4.991889e-07 -3.276207e-05 -3.919750e-05 -9.331852e-06 9.363403e-01 4.530029e-01
3.434656e+08 8.858643e-01 5.307007e-01 -2.460554e-05 -3.084913e-05 -1.214445e-06 -3.942847e-05 9.371948e-01 4.534912e-01
3.436834e+08 8.863525e-01 5.313721e-01 -1.206435e-05 -3.470853e-05 5.242229e-05 1.528859e-05 9.375610e-01 4.536133e-01
3.439012e+08 8.856812e-01 5.319824e-01 -1.783669e-05 -4.656613e-09 -1.739338e-05 2.210401e-05 9.375000e-01 4.541016e-01
3.441191e+08 8.865356e-01 5.319214e-01 -1.442153e-06 8.672476e-06 1.706183e-06 4.788861e-05 9.375610e-01 4.536743e-01
3.443369e+08 8.865356e-01 5.327148e-01 -1.399033e-05 1.252815e-05 -5.777180e-05 -2.668053e-05 9.380493e-01 4.550171e-01
3.445547e+08 8.876343e-01 5.324707e-01 5.400181e-05 -2.902001e-06 2.932735e-05 1.051091e-05 9.385986e-01 4.545288e-01
3.447725e+08 8.882446e-01 5.327148e-01 1.446530e-05 2.025068e-05 -6.563962e-06 -2.127048e-05 9.390869e-01 4.555664e-01
3.449903e+08 8.883667e-01 5.328369e-01 2.842769e-05 7.728115e-06 -2.264045e-05 -2.584420e-05 9.384155e-01 4.560547e-01
3.452081e+08 8.889771e-01 5.341797e-01 1.014024e-05 1.061149e-05 -6.687827e-06 1.534354e-05 9.400024e-01 4.557495e-01
3.454259e+08 8.890381e-01 5.342407e-01 -2.219714e-05 -9.641051e-06 -5.126931e-07 -8.463394e-06 9.400024e-01 4.563599e-01
3.456438e+08 8.895874e-01 5.343628e-01 2.794899e-05 -2.508238e-05 -2.847984e-06 1.343898e-06 9.396973e-01 4.560547e-01
3.458616e+08 8.897705e-01 5.347290e-01 -3.183633e-05 1.254119e-05 4.005991e-05 3.727153e-06 9.402466e-01 4.566650e-01
3.460794e+08 8.901978e-01 5.356445e-01 1.253281e-05 -3.855675e-06 1.462176e-05 3.837608e-05 9.401245e-01 4.564819e-01
3.462972e+08 8.892822e-01 5.346680e-01 -4.810281e-07 2.895016e-06 1.457427e-05 8.773059e-06 9.416504e-01 4.565430e-01
3.465150e+08 8.901978e-01 5.357056e-01 -2.556853e-05 1.062639e-05 5.122274e-07 8.462928e-06 9.414062e-01 4.571533e-01
3.467328e+08 8.914185e-01 5.354614e-01 3.038719e-05 6.754324e-05 -1.056027e-05 -2.337620e-07 9.419556e-01 4.570923e-01
3.469506e+08 8.912354e-01 5.366821e-01 3.910437e-05 1.541525e-05 -1.876429e-05 1.929142e-05 9.427490e-01 4.570923e-01
3.471684e+08 8.915405e-01 5.373535e-01 -9.167939e-06 1.930445e-05 -5.377457e-06 -4.099123e-05 9.425659e-01 4.577026e-01
3.473862e+08 8.917236e-01 5.366821e-01 9.651296e-06 1.351815e-05 4.032161e-06 8.546282e-06 9.431763e-01 4.578857e-01
3.476041e+08 8.926392e-01 5.371094e-01 1.443550e-06 2.702512e-05 8.063391e-06 1.710560e-05 9.432373e-01 4.577637e-01
3.478219e+08 8.923950e-01 5.369873e-01 2.316386e-05 -3.186986e-05 -2.129376e-05 -2.303533e-05 9.440918e-01 4.578857e-01
3.480397e+08 8.928833e-01 5.374756e-01 -2.170354e-05 -4.828721e-05 -1.944602e-05 1.785159e-05 9.439697e-01 4.581909e-01
3.482575e+08 8.928223e-01 5.380859e-01 2.607703e-08 -3.576092e-05 -5.364418e-06 -1.139939e-05 9.451904e-01 4.592896e-01
3.484753e+08 8.934937e-01 5.378418e-01 1.158193e-05 1.933426e-06 -2.465397e-05 -3.018230e-05 9.445801e-01 4.583130e-01
3.486931e+08 8.941040e-01 5.374756e-01 -3.524870e-05 -2.911314e-06 -2.566352e-05 -4.710630e-05 9.453735e-01 4.581909e-01
3.489109e+08 8.952637e-01 5.381470e-01 2.176315e-05 -2.319552e-05 -1.341105e-05 3.071874e-05 9.465942e-01 4.592896e-01
3.491288e+08 8.955078e-01 5.380249e-01 -6.279442e-06 1.932029e-06 -2.232194e-05 -1.038611e-05 9.464111e-01 4.586182e-01
3.493466e+08 8.958740e-01 5.390625e-01 -4.880130e-05 6.761402e-06 4.347041e-05 1.090020e-05 9.470825e-01 4.584961e-01
3.495644e+08 8.959961e-01 5.394897e-01 -7.244293e-06 7.738359e-06 1.678616e-05 6.033108e-06 9.481201e-01 4.581299e-01
3.497822e+08 8.967285e-01 5.395508e-01 -3.858469e-06 -1.256447e-05 -2.550706e-05 3.466383e-05 9.475098e-01 4.595947e-01
3.500000e+08 8.967896e-01 5.395508e-01 -5.293638e-06 -3.964454e-05 -8.738600e-06 -1.854170e-05 9.482422e-01 4.597778e-01
