!Keysight Technologies,N5245B,MY52501319,Z.13.01.242
!Date: Monday, February 16, 2026 14:43:14
!Correction: S11(Off) 
!S21(Off) 
!S12(Off) 
!S22(Off) 
!S2P File: Measurements: S11, S21, S12, S22:
# Hz S  RI   R 50
10000000 -0.040991437 0.051254299 0.001417035 0.0014965869 0.0011673772 -0.00026762369 0.8855406 -0.16356757
17487500 -0.032138899 0.036316149 0.00032837648 5.9986294e-005 -0.00087717397 -0.0010142749 0.7945267 -0.41458395
24975000 -0.028664783 0.02715699 0.00016369329 0.00010357667 -0.00024977847 -0.0015259418 0.65395784 -0.59818101
32462500 -0.023926986 0.020900033 -0.00063157681 -0.00060993491 0.000514752 0.00035812243 0.49418625 -0.73835802
39950000 -0.021916257 0.017068725 -0.00010798769 -0.0001264078 -0.00026508525 0.00044147277 0.30852008 -0.8364411
47437500 -0.021709504 0.012582084 0.00095245318 0.00011187653 -7.4937898e-006 0.00027435413 0.10268177 -0.89845145
54925000 -0.022219565 0.0099300509 -0.00073988101 0.00043001687 0.00052964588 -5.8800168e-005 -0.11743056 -0.906268
62412500 -0.020843441 0.0073876223 -0.00073545385 -0.00017725638 0.00042311609 0.001182423 -0.32991171 -0.86400789
69900000 -0.020959351 0.004447205 0.0011400279 0.00043103081 0.00086905801 -0.0012991024 -0.52697963 -0.76292354
77387500 -0.023159988 0.0031921575 0.00023333498 -0.00053606805 -0.00087107456 0.00031759171 -0.69227546 -0.62087345
84875000 -0.024147816 0.002657746 -0.00063580245 -0.00062942639 -0.001287078 6.7482535e-005 -0.81353688 -0.44647202
92362500 -0.025410248 0.0011985321 -0.0004618091 5.0028786e-005 0.0002959212 0.00025773438 -0.89148492 -0.25017685
99850000 -0.027765557 0.002147173 -0.00062383519 -0.00022116402 0.00075145275 0.00010599986 -0.92111635 -0.044369198
107337500 -0.028967334 0.0022102066 0.00010945883 -7.1590832e-005 -0.001665686 0.00021782218 -0.90857631 0.15871803
114825000 -0.028949162 0.0026343928 0.00033203294 2.539834e-005 -0.00044409512 0.0010229154 -0.85067832 0.35825753
122312500 -0.030619789 0.0042828778 0.00059787469 0.00014037888 -0.00064312643 -0.0012394271 -0.74903202 0.53654832
129800000 -0.032030933 0.0069562835 0.00054619822 -0.00029880885 -0.0003186581 0.00042533025 -0.61247343 0.69043303
137287500 -0.031859756 0.0079568019 -7.7205448e-005 -0.00017258154 0.00040982134 -0.00038848165 -0.44211844 0.81269574
144775000 -0.031166874 0.0092188166 0.00031981332 -0.00014937294 0.00034524823 -0.00033985544 -0.24629267 0.8945362
152262500 -0.030118855 0.01191397 0.00040763666 0.00089997408 -0.00074302364 -0.00023519906 -0.036650982 0.92570788
159750000 -0.02926038 0.013461279 -8.6896696e-005 0.00043238091 -0.0002260756 0.00066075061 0.17564298 0.90618265
167237500 -0.026751468 0.015054403 1.0663931e-005 4.9503615e-005 -0.00015837695 -0.00045338689 0.37681445 0.84023082
174725000 -0.026499335 0.015860507 -0.00044733443 -6.6513232e-005 4.9029852e-005 0.0004486246 0.55539888 0.72908723
182212500 -0.022941593 0.017106984 0.00055442215 0.00010929855 0.00015991856 0.00016643881 0.70602024 0.58348995
189700000 -0.019937232 0.01631403 -0.00043371692 -0.00058349367 6.4010048e-005 -0.00017977589 0.82093179 0.40397519
197187500 -0.018726338 0.016677178 -4.3534212e-005 -0.00033975794 -0.00021855421 -0.00012828619 0.89199132 0.20205708
204675000 -0.014717767 0.016669551 0.00037988811 0.00084417837 -0.00040557713 0.00022894958 0.91578048 -0.014216668
212162500 -0.012983573 0.015755897 0.00019011014 0.00050289941 -0.00054967281 0.00056792569 0.88445503 -0.23087829
219650000 -0.010378179 0.012470098 -0.00036503986 0.00043818224 0.0011929782 -0.00033079906 0.8022694 -0.43475634
227137500 -0.0096081803 0.011201843 -0.00059989933 -0.00037158915 -0.00045974733 -0.00028324264 0.67405361 -0.61157197
234625000 -0.0072009773 0.008280063 0.0013015964 0.00015762595 -0.00033373965 -0.00036397172 0.5079577 -0.75255239
242112500 -0.0077177673 0.0049355053 -0.00082365482 0.00012992465 0.00021114865 -0.00042085178 0.31496167 -0.84411556
249600000 -0.0073221317 0.0030406052 -0.00063864351 0.00035631345 -0.00021718783 2.5076019e-005 0.11188678 -0.89090872
257087500 -0.0070114234 0.00050370273 -5.6706107e-005 0.00029115609 -7.5693373e-005 -0.00089845079 -0.09630774 -0.89428717
264575000 -0.0078257108 -0.0017112168 -0.00061966782 2.0000311e-006 -0.00011926174 0.00051175518 -0.2971828 -0.85005248
272062500 -0.0092550796 -0.0048955944 -0.00045082197 0.00032249445 0.001192141 -0.0006450541 -0.48521316 -0.76338512
279550000 -0.01037604 -0.0075064236 -0.00016826016 -0.00025893751 -0.00089257077 9.2622022e-006 -0.64810652 -0.63384509
287037500 -0.012700902 -0.0084024817 -0.00036735585 -0.00013790968 -0.00030088981 -0.00026561227 -0.77623314 -0.47149196
294525000 -0.014356894 -0.0096543031 -0.00013915368 0.00032104718 0.00066142762 3.6452357e-006 -0.86682504 -0.2826266
302012500 -0.016996726 -0.0095416931 -1.0022494e-005 4.5927605e-005 9.0014961e-005 0.00040402485 -0.90804476 -0.079072334
309500000 -0.01879268 -0.0088830004 -0.00063459325 0.00027593746 -0.00083956553 0.00060396758 -0.90131557 0.12825295
316987500 -0.021873711 -0.0082115093 -0.00015134297 -0.00011125755 -0.00069340412 -0.00024932795 -0.84743989 0.32558164
324475000 -0.023087772 -0.0074518626 -0.00042657807 -0.00012481234 -0.0005344263 -0.00020138703 -0.75241071 0.50243062
331962500 -0.024176138 -0.0072907126 -0.0006684112 0.00012142126 -0.00015377965 -0.00031309554 -0.6207974 0.65227139
339450000 -0.02599912 -0.0046119317 0.00024984215 0.00016864941 -7.6442084e-005 9.3284274e-005 -0.46328458 0.77273345
346937500 -0.02611029 -0.0033147845 -2.7197402e-005 0.000295679 0.0001980464 -1.3354977e-005 -0.28339773 0.85548556
354425000 -0.026099833 -0.0010020077 0.00039130708 0.00014615538 -0.00023692382 0.00020422986 -0.088997304 0.90321577
361912500 -0.026218778 9.6093157e-005 -0.00037578173 -0.00015304815 0.00047928657 -0.00032165178 0.11822529 0.90687954
369400000 -0.024595892 0.0033980901 -0.00075223658 0.00018104937 -0.00010539197 -0.00055068632 0.32629815 0.86188197
376887500 -0.023166709 0.0042077559 0.00017612582 0.00018805261 0.00039316877 -0.00011546203 0.52471161 0.76514888
384375000 -0.02209409 0.0060064923 -0.00031083747 0.00014543226 -0.00042438906 0.00014278866 0.69439095 0.61552286
391862500 -0.020075366 0.0069470624 0.00020110206 -0.000514374 -0.00050004676 5.5603428e-005 0.82047826 0.42818561
399350000 -0.017005108 0.0074699647 0.00046652081 -0.0003985645 0.00024256062 -9.2914059e-005 0.89193302 0.21307358
406837500 -0.016336948 0.0073992182 -0.00081225333 0.00035490142 0.00027725086 -0.0001650638 0.90539169 -0.0081223613
414325000 -0.012898061 0.0061600101 0.00035216921 0.00014451558 -5.0708563e-006 -0.00017937766 0.86653727 -0.21901909
421812500 -0.010897879 0.0049531306 0.00035199506 -0.00080343202 -6.2443614e-005 -0.00013976546 0.78151715 -0.41103199
429300000 -0.0088726301 0.0035857342 0.00048310735 -0.00029817477 -0.00024106637 -0.00040483018 0.66140997 -0.57508153
436787500 -0.0074167075 0.0014307124 -0.00018068087 -0.00081941835 0.00055963721 -0.00068836962 0.51121032 -0.70915711
444275000 -0.0059415558 -0.00051270926 -0.00014830138 -0.00029034636 -5.1836047e-005 -0.00016707896 0.33859485 -0.80789304
451762500 -0.0063169939 -0.002465182 -0.00077698351 -0.00046718676 0.00032327769 0.00051177503 0.14787218 -0.869021
459250000 -0.0062505109 -0.0051846812 -0.00010917085 9.7149845e-005 0.00024313717 -0.00091199653 -0.055719852 -0.8867318
466737500 -0.006607906 -0.0072753485 -0.00014126774 0.00035165521 -0.00083470414 5.2498566e-005 -0.26084179 -0.85897964
474225000 -0.0075423541 -0.0093044965 -0.00038699555 -0.00022663744 -0.00019392266 -0.00026035774 -0.4545379 -0.77955085
481712500 -0.0094004832 -0.011027839 -9.4304945e-005 0.00014906246 0.00023140793 0.00061870122 -0.62530988 -0.65564525
489200000 -0.010668462 -0.012422871 -4.1927047e-005 0.00025105028 3.0181454e-005 -0.00017671062 -0.75772512 -0.49432459
496687500 -0.013625284 -0.013935399 0.00013985898 0.00024889712 0.00015219511 5.245279e-005 -0.84779501 -0.31065848
504175000 -0.015574758 -0.014079035 -0.00031996678 0.00057136948 -0.00018606715 0.00028768159 -0.88972878 -0.11262532
511662500 -0.018339632 -0.014394207 -0.00010123821 0.00025807507 8.1199381e-005 -0.00038791468 -0.89126861 0.086357556
519150000 -0.019807564 -0.013350171 -0.00040836702 0.00016628426 -0.00060605485 -1.6425005e-005 -0.85106277 0.27854612
526637500 -0.022484543 -0.012409609 -0.0003004655 0.00015619809 0.0001373074 0.00011890863 -0.7721293 0.45724353
534125000 -0.023570741 -0.010756708 0.00023865805 -0.00022797007 0.00012385452 0.00049570424 -0.65465385 0.61917663
541612500 -0.0249548 -0.0087261088 -0.00027459543 -0.00030855983 0.00013580827 0.00011189101 -0.50232458 0.75287718
549100000 -0.025594555 -0.0064855129 7.5364063e-005 0.00025353319 -8.5778345e-005 0.00027115762 -0.32007304 0.8495912
556587500 -0.02547765 -0.0040658391 0.00072946533 -6.5727625e-005 2.3841085e-005 0.00017701884 -0.11610169 0.90199941
564075000 -0.025806669 -0.0013277428 0.00031824861 -0.00032566374 0.00065367925 0.00019568006 0.095275424 0.90210116
571562500 -0.024647372 0.0009760118 0.00030828084 0.00014441217 0.00018403791 0.00027346693 0.30100626 0.84988648
579050000 -0.022962576 0.0022784921 0.00034529049 -6.7381901e-005 0.00036975977 0.00036539126 0.48687485 0.75053567
586537500 -0.020618016 0.00499092 0.00023628207 0.00039588418 1.2586649e-005 -0.00011222175 0.64262396 0.61222655
594025000 -0.019166678 0.0059492057 -0.00044158043 -8.5657339e-005 0.00024765838 0.00016947195 0.7616958 0.44354305
601512500 -0.015585855 0.0069458168 0.0004166181 0.00065570045 3.7754558e-005 -4.806227e-006 0.83971167 0.25388071
609000000 -0.012984987 0.0066539273 -0.00023028909 0.00062103959 9.2732975e-005 -0.00025962386 0.8727504 0.05070173
616487500 -0.010143622 0.0064483029 -0.00021386177 2.3706129e-005 -0.00022145682 -0.00048314864 0.86126018 -0.15569538
623975000 -0.0072304853 0.0056808782 9.9929799e-005 -3.8820988e-005 0.0002634605 -0.00032194762 0.803083 -0.35620838
631462500 -0.0045665763 0.0039404919 -0.00019100678 0.00029982967 0.0003608377 0.00046176044 0.70746195 -0.52428365
638950000 -0.001947701 0.0027487823 -0.00035642632 0.00020535527 -0.00035150273 -6.0045968e-005 0.56488496 -0.67972505
646437500 -0.00048193749 0.00048853154 -5.6262293e-006 -0.00025389291 0.00046235451 0.0001665458 0.38745627 -0.79669803
653925000 0.00027047654 -0.0021719572 0.00014709801 0.00088384567 -6.5620814e-005 0.00037910984 0.18714024 -0.86670041
661412500 0.00098319666 -0.0054042414 -0.00012634764 0.0001600532 -0.00014756835 -0.00040405581 -0.021126686 -0.88596994
668900000 0.0015401783 -0.0079351254 -8.5900247e-005 -0.00023369634 -5.4501856e-005 0.00016632871 -0.22456697 -0.85632044
676387500 0.00077709154 -0.010728385 -1.8271405e-006 0.00024465178 0.00016500399 -1.5553671e-005 -0.41284427 -0.78288418
683875000 -0.00034913945 -0.013499932 -0.00026375789 -0.00016790256 2.6412237e-005 3.6563335e-005 -0.57761604 -0.67065215
691362500 -0.0021882975 -0.01546584 0.00027835616 0.00051568297 -0.00016583683 0.00015735617 -0.71248144 -0.52747905
698850000 -0.0036506609 -0.017024849 6.0736882e-005 -9.6246426e-005 -0.00017601872 0.0002287189 -0.81482214 -0.35781705
706337500 -0.006240705 -0.018655948 -0.00016872438 -0.0002324597 7.0985996e-005 0.00012158562 -0.87880886 -0.17017567
713825000 -0.0079366183 -0.019106612 -3.0528841e-005 6.0769798e-005 4.0991548e-005 -9.7555196e-005 -0.89877915 0.02904564
721312500 -0.010491436 -0.019434975 0.00029015157 -0.00025999008 8.8981906e-005 6.4193082e-005 -0.87324739 0.22935835
728800000 -0.013716587 -0.019166386 0.00018380387 0.00037134081 -5.5902765e-005 0.00025454731 -0.79974854 0.42134294
736287500 -0.016045578 -0.017905392 2.693412e-005 -0.00027570064 0.00017411284 -0.00023184199 -0.68287826 0.58987606
743775000 -0.01798966 -0.016669009 9.586876e-005 0.00014242969 -0.00040274067 0.00013671533 -0.53010064 0.72619087
751262500 -0.019442853 -0.014417846 4.9888804e-005 -3.8560916e-005 3.7201677e-005 5.2098509e-005 -0.35133392 0.82270998
758750000 -0.02083767 -0.01181249 6.5681015e-005 -7.422007e-006 0.00016413243 0.00036745344 -0.15723975 0.87513465
766237500 -0.021014716 -0.0091031576 -2.9599903e-005 -0.00018328946 -6.6186156e-005 -0.00010292813 0.042897802 0.88253123
773725000 -0.020907706 -0.0065887403 0.0001949062 0.00042194829 4.6899335e-005 0.00015638756 0.2392329 0.84572774
781212500 -0.020475894 -0.0047175721 -8.6070693e-005 -5.598964e-005 0.00015834265 -0.00036600689 0.42376727 0.76848382
788700000 -0.019173417 -0.0019357433 -6.5130051e-005 -0.00015685496 0.00022720901 -0.00052768068 0.58873647 0.65163118
796187500 -0.017223332 -0.000169885 7.323562e-005 -0.00043422909 3.2996835e-005 0.00046210195 0.72399998 0.49905002
803675000 -0.014834016 0.0018448973 -5.1478284e-005 -6.7874673e-005 -0.00010888294 -0.00030185739 0.8216868 0.31643379
811162500 -0.0130697 0.0030956413 -0.00019648635 -0.00029612245 -6.243791e-005 -0.00016364116 0.87439132 0.11427912
818650000 -0.010191869 0.0042283987 0.00016705254 0.00035054475 -0.00019879968 0.00012504715 0.87776065 -0.09794426
826137500 -0.0067154597 0.0038079717 0.00051468238 -0.00022438238 -1.166373e-006 -0.00028692328 0.83072007 -0.3050313
833625000 -0.0044882996 0.0033923835 0.00019051309 -0.000473547 3.0568841e-005 -0.0001852791 0.73378193 -0.49438933
841112500 -0.001939013 0.0021892504 -9.501181e-006 0.00027043949 -0.00042943188 -0.00019217929 0.59663564 -0.65411365
848600000 9.4756047e-005 0.00070064294 -0.00020851399 6.4724089e-005 -7.4901953e-005 -0.00030923379 0.4269802 -0.77507848
856087500 0.0023807681 -0.0013213349 -0.00018608902 8.8732988e-005 0.00013779754 -5.3014478e-006 0.23397918 -0.85276347
863575000 0.0038663282 -0.0034811951 -0.00014998282 0.00026297127 1.4161323e-005 -0.00031748958 0.029709341 -0.88095307
871062500 0.0047865962 -0.0058823102 -0.0001398797 0.00024232137 0.00016737617 -0.00023712158 -0.17176814 -0.8620804
878550000 0.0049506822 -0.0088179475 -0.00039441601 -0.00014435739 0.00013341829 0.00015068398 -0.36068088 -0.79933393
886037500 0.0051568723 -0.011324794 0.00014940673 9.6592878e-005 0.00018456941 1.0726327e-005 -0.52729511 -0.69902849
893525000 0.0035053198 -0.013735838 9.5717391e-005 -0.0002208763 7.8642654e-005 0.00062242826 -0.66474515 -0.56555855
901012500 0.002858252 -0.016063144 0.00016977693 -0.00017362837 0.00023652548 6.2302329e-006 -0.76940167 -0.40795583
908500000 0.001071566 -0.017857226 0.00021518262 0.00031403071 -0.00027989194 -0.0003798377 -0.83927488 -0.23020108
915987500 -0.0011287233 -0.018489793 -6.8336041e-005 0.00010033602 -0.00019597683 -0.00020273151 -0.8689214 -0.042130135
923475000 -0.0032092792 -0.019320378 0.00024194519 0.00016336951 0.00015099884 0.00016876354 -0.85890138 0.14587419
930962500 -0.0056307213 -0.019523161 -0.00023020197 7.1102484e-005 -0.00012807151 -5.7150639e-005 -0.80931473 0.32883039
938450000 -0.0082195755 -0.019164322 -0.00012242337 0.00036766371 -1.1222347e-005 4.2788204e-005 -0.71995318 0.5009799
945937500 -0.010510193 -0.018431066 0.00018680819 -5.0845814e-005 -0.00018701714 2.5129546e-005 -0.59162706 0.6541602
953425000 -0.012574349 -0.016581589 2.5792357e-005 0.00012031599 6.2479572e-005 4.844011e-005 -0.42726129 0.77606189
960912500 -0.013848914 -0.014986515 0.00033799844 -0.00031077035 8.5267042e-005 -0.00019105109 -0.23381427 0.85678488
968400000 -0.015272815 -0.012704988 0.000107265 0.00013675279 2.0265652e-005 6.6301298e-005 -0.024515221 0.88526893
975887500 -0.016150028 -0.010137248 -0.00013588517 -0.0001911865 -0.00014898562 0.00018934123 0.18559809 0.86159325
983375000 -0.015677003 -0.0075942413 0.00020906649 -0.00020934585 -0.00035715182 1.1525515e-005 0.38099071 0.78672135
990862500 -0.015630642 -0.0048444839 -0.00016332119 2.8320894e-005 -0.0002878315 0.00043477339 0.54912472 0.67086232
998350000 -0.014104921 -0.0022676657 -0.00016516907 0.00015607924 0.00016856013 -0.00012289183 0.68632704 0.52042669
1005837500 -0.012236738 -0.00025491949 -0.00023655742 -0.00015181044 9.3101931e-005 -0.00031404686 0.79264921 0.33230546
1013325000 -0.010787453 0.0013401225 0.00038697748 0.00013522009 7.2526906e-005 -0.00035294602 0.84906286 0.14298609
1020812500 -0.0086499583 0.0031771776 0.00017901939 -0.00012597721 -9.518303e-005 -0.00013117975 0.86597478 -0.055297066
1028300000 -0.0054946616 0.003864544 0.00011195209 -0.00017892283 -5.8316218e-005 0.00011062067 0.83721066 -0.25939354
1035787500 -0.0028976768 0.0044094147 -0.0001590512 0.00036001756 -3.8320264e-005 -2.407899e-005 0.76030546 -0.45536751
1043275000 0.00017782077 0.0044549326 -9.6125761e-005 0.00022508204 0.00026855475 -1.1841893e-005 0.63482136 -0.63059777
1050762500 0.0028327862 0.0033545385 -0.00019177533 -0.00016968514 -0.00027025104 0.00030572634 0.46562091 -0.76996672
1058250000 0.0049553169 0.0020625442 5.0039809e-005 1.8346378e-005 -2.5918825e-005 0.00014600401 0.26582167 -0.85914147
1065737500 0.006851112 0.00035637864 -0.00016369467 0.00026710803 0.00011441432 2.8375311e-005 0.054151513 -0.89212561
1073225000 0.0085830577 -0.001851147 -0.00015946868 -0.00031541099 9.968962e-005 0.00010916912 -0.15193272 -0.87178993
1080712500 0.0092411833 -0.0039271852 -1.6423104e-005 -0.00021651802 5.6398989e-005 0.00014846923 -0.33940935 -0.80517548
1088200000 0.010452374 -0.0066781985 6.4580141e-005 4.8714748e-005 0.00026390346 -0.00011255196 -0.50146919 -0.70515186
1095687500 0.0098488703 -0.0091953166 -0.00017887331 -0.00011325978 1.0162676e-005 -1.0468199e-005 -0.63438696 -0.57781225
1103175000 0.0096247466 -0.011772031 9.5691612e-005 6.4910446e-006 6.4098029e-005 -9.6915843e-005 -0.73949414 -0.43067062
1110662500 0.0080086421 -0.01361934 -2.6558062e-005 -0.00014380905 -2.8834399e-006 0.00025527237 -0.81557941 -0.26551837
1118150000 0.0062493496 -0.015424093 -0.0001126321 -7.318757e-005 -4.5107363e-006 0.00023973029 -0.85888338 -0.086555973
1125637500 0.0044202921 -0.016687173 -7.7119141e-005 0.00020677512 7.0996444e-005 -1.8984489e-005 -0.86458063 0.10367552
1133125000 0.0014166182 -0.017413352 0.00019092973 -8.9631285e-006 6.5073409e-006 -3.7297021e-005 -0.82602769 0.29754117
1140612500 -0.00084947154 -0.017657537 -0.00012471557 0.00022973704 5.2703585e-005 -0.0001795961 -0.74012351 0.48236337
1148100000 -0.0032322996 -0.017664241 -0.00022997308 -0.00016953108 -0.0001456804 -0.00013072617 -0.60784656 0.64241755
1155587500 -0.0055880169 -0.016754935 2.179183e-005 0.00013545441 -7.8015197e-005 -0.00029563706 -0.4377735 0.76548707
1163075000 -0.0078921029 -0.015168132 4.690226e-009 0.00020945161 0.00011372453 0.00028048179 -0.24471422 0.84274781
1170562500 -0.0096495859 -0.012868185 0.00010559745 0.0002568601 0.00020047712 -0.00012318011 -0.041429762 0.86956757
1178050000 -0.010982272 -0.010669587 7.2135255e-005 -0.00010405133 -4.4174496e-005 -5.0862913e-005 0.15877019 0.85050613
1185537500 -0.012163276 -0.008047808 -0.00019795733 -0.00024106633 -0.00021019214 0.00033800362 0.34833699 0.78865933
1193025000 -0.012356349 -0.005376575 0.00021275328 0.00016299541 -0.00014752836 0.00010332106 0.52033401 0.68836898
1200512500 -0.012019155 -0.0026193825 -0.00040898501 5.9841102e-005 -0.00024362841 -0.00024483388 0.66844267 0.55227554
1208000000 -0.011529177 0.00029741946 7.086117e-005 -0.00027178781 -5.9222337e-005 -6.1009028e-005 0.7860949 0.38379651
1215487500 -0.010115172 0.0026584766 -4.7814578e-006 -1.6251885e-005 -8.4069572e-005 3.9090351e-005 0.86220288 0.18584043
1222975000 -0.0082697477 0.0050345617 -1.9790505e-005 -0.00023229339 -0.00015949078 7.1929819e-005 0.88611573 -0.028424457
1230462500 -0.0060747513 0.0068997922 -0.00011209553 0.0002342529 -2.0832767e-005 -0.00016898768 0.85400867 -0.2432652
1237950000 -0.0034912345 0.0086036287 0.00015462992 -0.00015951303 -1.1352766e-005 -6.4813401e-005 0.76734459 -0.44160539
1245437500 -0.00063523732 0.0091657611 -2.7256085e-005 -2.6369898e-005 -0.0001880153 -0.00032999704 0.63553637 -0.60480702
1252925000 0.0021487125 0.0093624592 -0.0001375852 0.00013087822 0.00027325258 -3.9831604e-005 0.47448677 -0.72706318
1260412500 0.004930567 0.0087374579 -0.00044303658 -0.00015567172 3.4315042e-005 -3.8055899e-005 0.29650652 -0.80578524
1267900000 0.0077243042 0.008138055 7.5416894e-005 -2.9328397e-005 0.00045638237 0.00026260412 0.11370061 -0.84543091
1275387500 0.010059435 0.0062716645 -6.2018051e-005 -0.00036646266 -0.00026874719 6.1620722e-006 -0.069516152 -0.84800047
1282875000 0.01217534 0.0042175408 -4.5674475e-005 0.00011555193 0.00016108972 -0.00012613175 -0.24815127 -0.81528348
1290362500 0.013297894 0.0019300277 2.9134691e-005 0.00047134332 0.00018037041 4.8952254e-005 -0.42084736 -0.749277
1297850000 0.014194487 -0.00035205705 0.00013095862 0.00011896148 0.00013381655 0.00011058548 -0.58040828 -0.64509076
1305337500 0.0149049 -0.0028246583 7.1092771e-005 0.00026361566 -0.00015236998 -0.00010250162 -0.71773922 -0.50340313
1312825000 0.014480892 -0.0055396054 -0.00010723727 -7.0075068e-005 -1.7915998e-005 0.000207883 -0.82251507 -0.32741916
1320312500 0.013878394 -0.0081450045 4.9110997e-005 -0.0002939346 9.5044241e-005 -0.00035200003 -0.87818366 -0.12568848
1327800000 0.011804971 -0.010958353 -0.00023278416 -7.1214672e-005 -0.00029147347 -9.9172314e-005 -0.87971264 0.085842863
1335287500 0.010085842 -0.012575979 5.4448661e-005 -8.3227947e-005 0.00010589537 0.00012907415 -0.8273496 0.28790709
1342775000 0.0077463249 -0.014450268 0.0001951536 0.00015781916 0.00010939308 -6.7354864e-005 -0.72742558 0.46470162
1350262500 0.0052948967 -0.015486959 -0.00025824559 -0.00023619569 3.9697068e-005 5.5867295e-005 -0.59445906 0.60791713
1357750000 0.0024367832 -0.015618664 2.0390906e-005 9.1523667e-005 0.00040999003 7.9748963e-005 -0.43916386 0.71587044
1365237500 -0.00049675856 -0.015312622 -5.538113e-005 -0.00023977997 -1.2290283e-005 -5.46542e-005 -0.27021623 0.78867638
1372725000 -0.0039053087 -0.014511467 -6.584925e-005 0.00011789728 1.7246088e-005 -0.00012371146 -0.091167971 0.82704949
1380212500 -0.0060938606 -0.013033348 -9.8034534e-006 -0.00010635082 -0.00016189762 -0.00015792377 0.093167998 0.83167237
1387700000 -0.0083031515 -0.011192802 -5.7301306e-005 -0.00018892434 -0.00022748565 -0.00012326844 0.2797296 0.79828858
1395187500 -0.010041824 -0.0092372466 -0.00017881609 -3.4774181e-005 0.00014639157 0.00014944511 0.46332604 0.72402662
1402675000 -0.011870337 -0.0064000045 -0.00015952876 0.00015434269 -0.00010996006 -0.00027461632 0.63128334 0.60332358
1410162500 -0.012019623 -0.0040754583 -2.2204214e-005 0.00011752188 -0.00010878695 -8.6515363e-005 0.76931703 0.43843925
1417650000 -0.012679802 -0.00095171784 9.3740193e-005 -1.3227974e-005 0.00026658343 0.0001252879 0.86083573 0.23716575
1425137500 -0.012363637 0.0020451059 5.5046985e-005 -6.1700994e-005 -0.0001706754 -3.6334015e-005 0.89342415 0.017106589
1432625000 -0.010629833 0.0047081942 -9.1053778e-005 -0.00012665371 -7.300741e-005 0.00010223536 0.86508995 -0.20065691
1440112500 -0.010051212 0.00666067 -8.6224981e-007 7.4828647e-005 -1.2121401e-005 8.2292041e-005 0.78483576 -0.39713085
1447600000 -0.0078757554 0.0086184768 -0.00016323246 0.00018328763 -0.00025516484 8.9100191e-005 0.66211754 -0.56103098
1455087500 -0.0057144468 0.0098651415 -0.00011242979 -6.7071771e-005 1.0972774e-005 1.5336194e-005 0.51266617 -0.6869483
1462575000 -0.0034362373 0.010965132 -2.631498e-005 0.00023458677 0.00035993312 -5.4533844e-005 0.34507883 -0.77478778
1470062500 -0.00074190082 0.011070463 0.0003563565 -4.1599407e-005 6.0371443e-005 -0.00015197271 0.16789669 -0.82563865
1477550000 0.0011691938 0.011149142 0.00022074187 -0.00032602824 0.00022904895 -0.00016595935 -0.012721781 -0.84064007
1485037500 0.0035270937 0.010251102 -3.5084726e-005 -2.6866608e-005 -0.00012863534 0.00014395858 -0.19378135 -0.82035059
1492525000 0.005218612 0.0086129243 -8.6445238e-005 0.00013282952 3.1308446e-005 -0.00031653082 -0.36979604 -0.76231021
1500012500 0.0071356758 0.0070911949 -8.4058556e-005 0.00016956705 0.00011272844 0.00027863923 -0.53326827 -0.66542244
1507500000 0.0082045039 0.0050669578 -0.000204768 8.2396873e-005 6.5405708e-005 -6.4709777e-005 -0.67433804 -0.53073978
1514987500 0.0088897832 0.002481549 0.00022888787 0.00023437776 7.1544717e-005 -0.00023959568 -0.78162456 -0.36353493
1522475000 0.0086859539 0.00013139138 -0.00012536897 -0.00012746867 -6.3008316e-005 -0.00017327188 -0.8461675 -0.17150642
1529962500 0.0082456283 -0.0022382506 0.00023594032 -0.000181367 0.00028071829 0.00011919588 -0.86175758 0.031478524
1537450000 0.0064151739 -0.0046150205 -2.1199279e-005 0.00013930212 0.00016156366 -5.0963263e-007 -0.82588017 0.2315401
1544937500 0.0049198512 -0.0065017412 -0.00023435702 0.00013486957 -0.00011432951 -4.1190986e-005 -0.74539089 0.41396317
1552425000 0.0030161168 -0.0083340984 2.423904e-005 7.2885805e-006 -0.00010445827 0.00025653472 -0.62597924 0.57050967
1559912500 0.0004390559 -0.0096958019 -6.2430831e-006 0.00013637333 -6.6139859e-005 -2.704811e-005 -0.4765285 0.69362628
1567400000 -0.0023976038 -0.010406667 0.00014621585 -0.00041994822 0.00034169643 -1.9220659e-005 -0.3074438 0.78018934
1574887500 -0.0055518174 -0.010321759 -0.00013167939 -7.4167074e-005 4.8390448e-005 3.2621389e-005 -0.12467535 0.82974732
1582375000 -0.0083299363 -0.0099153947 -0.00012328276 -0.00024301845 4.8568683e-005 -0.00027663162 0.064724021 0.84026283
1589862500 -0.011263819 -0.0088572064 -0.00022039456 -2.4511002e-005 -7.1367816e-005 0.00011680803 0.25554645 0.80960977
1597350000 -0.014051106 -0.0071653831 -0.00024788169 -9.0161149e-005 -0.00014534328 1.5776959e-005 0.43832141 0.73684567
1604837500 -0.016114669 -0.0050255507 -0.0001544921 9.2215741e-005 -6.3579631e-005 -0.00010398708 0.60461497 0.62061054
1612325000 -0.018106276 -0.0020337449 -5.2935713e-005 -0.00010013021 -3.9586695e-005 -4.5751814e-005 0.74016893 0.46465299
1619812500 -0.019379159 0.00036878034 0.00012284196 8.8511806e-005 0.00048004251 0.00018112935 0.83344299 0.2763429
1627300000 -0.02010572 0.0034492176 -2.6053429e-005 4.0447587e-005 0.00036782594 -6.4059321e-005 0.8761133 0.069534548
1634787500 -0.020264117 0.0066520404 0.00024606794 -3.1354593e-005 -1.5493111e-005 -6.7719135e-005 0.86426342 -0.13858612
1642275000 -0.019872384 0.0095113851 -5.0627932e-005 -0.00013840386 2.0108757e-005 7.8878256e-006 0.80219841 -0.33384424
1649762500 -0.01840237 0.012423748 -0.00015658395 -0.00055953773 -0.00024138503 -5.3533779e-005 0.69819963 -0.5028736
1657250000 -0.016913375 0.014869861 -0.00013176989 0.00041034693 0.0001220042 0.00013361372 0.56207615 -0.64052731
1664737500 -0.015147286 0.016659331 -0.00012596877 0.00017111955 -6.4580876e-005 0.00011793125 0.40419671 -0.74442732
1672225000 -0.012479801 0.0183478 0.00011439125 -1.388254e-005 -0.00033440662 1.4967732e-005 0.22981426 -0.81156403
1679712500 -0.0095561361 0.019264733 -0.00013307897 0.00032337746 -0.00019580089 -2.3253995e-005 0.045746233 -0.84077156
1687200000 -0.0064829579 0.019337228 0.00017690531 -3.57965e-005 -1.9694817e-005 2.0160511e-005 -0.14183095 -0.83108091
1694687500 -0.0039866893 0.019293742 5.1645955e-005 0.00022505119 0.00014487444 0.00013163754 -0.32553932 -0.78039658
1702175000 -0.0014746318 0.018142598 4.6552537e-005 -3.8782418e-005 0.00019678325 3.1877134e-005 -0.49629831 -0.68652236
1709662500 0.0012066278 0.016966641 0.00016670288 0.00014954541 0.00019317892 -0.00027706596 -0.64191854 -0.55327809
1717150000 0.0029360405 0.014275072 -0.00017027219 -4.8561011e-005 -1.8321118e-005 -0.00012573492 -0.74973994 -0.38739407
1724637500 0.0043099383 0.012304682 0.00015094838 0.00012296562 -0.00015844393 8.022409e-006 -0.81452644 -0.20252314
1732125000 0.0055891145 0.0096778888 -3.0201949e-005 -2.1509399e-005 -0.00025710638 0.000154696 -0.83290654 -0.010108788
1739612500 0.0054303296 0.0069300248 -0.0002875106 -1.9873247e-005 0.00024568842 -0.00031567708 -0.80826402 0.17602512
1747100000 0.0051404848 0.0036513193 -0.00016740795 0.00010141704 -8.0000755e-005 0.00047290995 -0.74605078 0.34998235
1754587500 0.0042304168 0.0012806394 5.1736017e-005 0.00041272357 7.2755087e-005 -6.1333121e-005 -0.65128022 0.50541872
1762075000 0.0024600169 -0.0016026435 -0.00034481674 -0.00015137426 0.00026165947 0.00027264279 -0.52775127 0.6396873
1769562500 0.00086542527 -0.0041152895 -0.00019528104 0.00023747816 0.00026865152 6.0423161e-005 -0.37706059 0.74993712
1777050000 -0.0016105153 -0.0060922201 -0.00032597475 -2.6143805e-005 7.7337303e-005 -0.00037109444 -0.20004082 0.8284536
1784537500 -0.0047787363 -0.0070063239 1.8402714e-005 -0.00016586605 3.8934264e-005 0.00019028013 -0.0010332392 0.86817855
1792025000 -0.0074393051 -0.0083660129 8.8245582e-007 -0.00027531647 -0.00016602619 1.5121258e-005 0.21066807 0.85721588
1799512500 -0.010460564 -0.008071119 -0.00014995759 -0.0002227183 -0.00046909525 0.00019645972 0.41887841 0.78574675
1807000000 -0.012953114 -0.0078522414 -0.00015418076 -7.972707e-005 -8.0863443e-005 -0.00015232066 0.6004113 0.65876508
1814487500 -0.015941629 -0.0070506358 8.3540006e-005 0.00036059596 0.00032779938 0.00013909 0.73799568 0.48751444
1821975000 -0.018766966 -0.0057872231 8.9079349e-006 -7.9564139e-005 0.00014010862 0.00041875997 0.82054085 0.29298055
1829462500 -0.020770589 -0.0034923735 -0.00024517305 -0.00018799286 -8.3891646e-005 0.00017359671 0.84971786 0.09440209
1836950000 -0.022570331 -0.0018169706 8.1328573e-005 -0.00019617737 -0.00019669735 9.8740114e-005 0.83391553 -0.09425994
1844437500 -0.02374512 0.0010677696 0.00013033691 -7.5286436e-005 4.027761e-005 -0.00021312477 0.78330904 -0.26823008
1851925000 -0.024315277 0.0037697265 -1.5998445e-005 -5.9900012e-005 -9.0658243e-005 -6.7319721e-005 0.70391196 -0.42426929
1859412500 -0.024295999 0.0061203041 -0.00029649341 -0.00016616051 0.0001421691 -0.00018505876 0.59834075 -0.56351966
1866900000 -0.023639908 0.0087249707 8.0764556e-005 0.00018544463 0.00015448403 5.9984963e-005 0.46731004 -0.68255615
1874387500 -0.022177607 0.010645185 -0.00042481619 4.429125e-005 0.00015016324 2.4678451e-005 0.30893815 -0.77789909
1881875000 -0.020415368 0.012396402 0.00030430465 9.7811309e-005 -0.00019097945 0.00011987874 0.12530382 -0.83814007
1889362500 -0.018655429 0.013779832 0.00014233108 -8.6677035e-005 1.4233809e-005 0.00011340321 -0.075717404 -0.85400659
1896850000 -0.016561501 0.014276061 -7.3467512e-005 -4.0256324e-005 3.5053894e-005 8.9063957e-005 -0.28031352 -0.81416082
1904337500 -0.013789515 0.014453367 0.0005010367 8.2161823e-005 -0.00011218369 9.3599047e-005 -0.46780097 -0.72106469
1911825000 -0.011931689 0.014293639 -0.00048648586 2.484827e-005 3.1642136e-005 7.6279102e-005 -0.62011886 -0.58241361
1919312500 -0.0091315303 0.013404409 -0.00014427039 -9.3595583e-005 0.00016869826 0.0006442506 -0.72897381 -0.41455117
1926800000 -0.0072056372 0.011987186 0.00026200392 0.00036873415 0.00039893764 -0.0001690076 -0.79207575 -0.23503961
1934287500 -0.0061433441 0.0095113385 7.0965347e-005 -0.0001448649 0.00010316823 0.00010829183 -0.81439084 -0.05488608
1941775000 -0.0043239775 0.0073102782 2.4725177e-005 -7.6451142e-005 -0.00026874998 -0.00028552249 -0.80140996 0.12015511
1949262500 -0.0040684007 0.0047533661 0.00016283887 0.00011819012 1.1862321e-005 7.0470422e-005 -0.7588675 0.28762439
1956750000 -0.0035037277 0.002016434 9.8047996e-005 0.00041090776 6.3108062e-005 -0.00022236274 -0.68550122 0.44602069
1964237500 -0.0036022083 -0.00057885889 0.00010963149 -0.00015538649 -1.5811362e-005 0.00017960144 -0.58142149 0.59244132
1971725000 -0.0047019888 -0.0034683684 -8.8446526e-005 -0.00020441524 0.0001720268 -0.00014956902 -0.44293687 0.71956694
1979212500 -0.006133425 -0.0061878506 -9.4814975e-005 -6.9071801e-005 0.00016616577 6.3755215e-005 -0.27016935 0.81726861
1986700000 -0.0079124002 -0.0081345718 4.4286302e-005 -0.0002270652 -0.00011951564 -3.8120746e-005 -0.070124127 0.87243295
1994187500 -0.010385325 -0.010354002 0.00011520115 -0.00023821284 -0.00016792631 8.4227009e-005 0.14318798 0.87124479
2001675000 -0.012719038 -0.011335254 -6.8509602e-005 -0.00012786617 -1.3805307e-005 -6.9239453e-005 0.35150349 0.81233174
2009162500 -0.015152502 -0.011991228 0.00016915739 -0.00015930057 -0.00021043661 0.00016982968 0.53396231 0.69971466
2016650000 -0.018414892 -0.012329837 0.00010720536 -0.00021576083 -9.3608214e-005 -0.00023602898 0.67784947 0.54803157
2024137500 -0.020821862 -0.012149232 -0.00017890724 0.00019768202 0.0001378719 0.00013183813 0.77691567 0.37117818
2031625000 -0.023368731 -0.011181304 0.00018375422 -5.5246455e-005 0.00029412113 0.00030791247 0.82983482 0.18249783
2039112500 -0.025717011 -0.010046591 8.6424872e-005 0.00025972162 0.00032056062 0.00012623813 0.84064472 -0.0085107777
2046600000 -0.027848376 -0.0082637649 -0.00022204878 -0.00013532363 -0.00055124977 0.00015318239 0.81142032 -0.19372188
2054087500 -0.028766371 -0.0059839152 2.8014292e-005 -6.8632551e-005 -0.00031684875 -3.9798932e-005 0.74432015 -0.36700398
2061575000 -0.029666156 -0.0038534487 -8.1429374e-005 -5.7614659e-005 0.00026327444 2.5694497e-005 0.64188659 -0.52301162
2069062500 -0.029719302 -0.0016175454 0.00027870474 -3.4948564e-005 -0.0001432381 -5.40824e-005 0.50648803 -0.6533035
2076550000 -0.029311571 0.00056582683 0.00015598479 -0.00022077552 5.4721557e-005 9.1133399e-005 0.345357 -0.75045371
2084037500 -0.02870783 0.0030154893 -8.8231463e-005 -9.6879106e-005 -0.00024453804 3.9948878e-005 0.16593276 -0.81044072
2091525000 -0.027347749 0.0043073897 -0.00010377081 -2.9021171e-006 -0.00011690689 -0.00040228368 -0.023109592 -0.82537878
2099012500 -0.02557504 0.0062630484 7.1570081e-005 5.3063795e-005 0.00019078312 -9.2883805e-005 -0.20982599 -0.79907602
2106500000 -0.023304489 0.0072690723 -0.00020059847 -5.100566e-005 -0.00017881677 -0.00055644166 -0.38612962 -0.7326721
2113987500 -0.021011101 0.0074152937 9.6236829e-005 -3.4047582e-005 0.000487343 4.5979719e-005 -0.54358876 -0.62919837
2121475000 -0.018255213 0.0071220803 0.00024901703 8.5910688e-005 -0.00018404561 -0.00027754356 -0.67653698 -0.49285859
2128962500 -0.015873259 0.0065540499 0.00019581759 -0.00018593699 0.00042869279 0.00018248474 -0.77581954 -0.328637
2136450000 -0.013049926 0.0054592215 8.26756e-005 0.00015738032 5.2183128e-005 -7.2921852e-005 -0.83742863 -0.14303544
2143937500 -0.0110336 0.0038744097 -7.9301026e-005 -8.6886852e-005 0.00021552901 0.0003074678 -0.85389441 0.05369686
2151425000 -0.0095067108 0.0013054892 -0.00012725791 2.8480219e-005 -7.4890784e-005 0.00038309081 -0.82278508 0.25184488
2158912500 -0.0079436777 -0.0011667403 9.3524839e-005 -1.6756418e-005 -0.00038410304 -0.00012802369 -0.74319631 0.43631765
2166400000 -0.0069384007 -0.0045168493 0.00018160792 -0.00013994407 5.5827637e-005 -0.00027984296 -0.62266725 0.59534782
2173887500 -0.0064150672 -0.0070642298 1.9609045e-006 -2.033093e-005 -0.00029863589 -0.00022101945 -0.46871865 0.71947604
2181375000 -0.0066892048 -0.010480754 0.00010647042 3.0724732e-005 6.8331421e-005 2.1075641e-005 -0.29415444 0.80310625
2188862500 -0.0078257136 -0.013193791 -0.0001242763 0.00014970567 3.0760657e-005 -2.8688676e-006 -0.10683902 0.84579462
2196350000 -0.0089825401 -0.016153438 0.00011626541 8.2086808e-005 1.6465732e-005 -0.00034031636 0.082825489 0.84601855
2203837500 -0.011016267 -0.018467344 -0.00012821128 0.00058191811 -6.3857122e-005 -0.00010543558 0.26921052 0.80676413
2211325000 -0.013232534 -0.020454669 -1.8381741e-005 7.6447912e-005 0.00011429779 -1.2780655e-005 0.44372827 0.72808117
2218812500 -0.015275568 -0.021864859 -0.0001189203 -7.0652699e-005 -3.8184942e-005 -0.000227253 0.5997746 0.60901892
2226300000 -0.018440124 -0.022826571 5.2979623e-005 -7.039358e-005 -0.00018563763 3.6969341e-005 0.72702068 0.4549551
2233787500 -0.021147702 -0.023030443 -0.00014805894 3.9966329e-005 0.00020070754 -0.00018444317 0.81410033 0.27134755
2241275000 -0.023933379 -0.023246398 -0.00022734678 5.2380929e-005 1.7504546e-005 -8.9392495e-005 0.85326558 0.069907248
2248762500 -0.025926372 -0.022032021 0.00020229876 0.00010043004 -7.5490971e-005 -3.924904e-005 0.83900326 -0.13552167
2256250000 -0.027890643 -0.020984322 -0.00014762751 -0.00014412869 -0.00010964569 -0.00017325739 0.77520144 -0.3274087
2263737500 -0.029824927 -0.019546751 0.00011491064 0.00024914928 -0.0002084118 -0.00010681993 0.66914642 -0.49499139
2271225000 -0.030995846 -0.017751347 0.00010617475 -0.00023357086 0.00022847948 -0.00022885477 0.53067613 -0.62912875
2278712500 -0.031664107 -0.015458986 0.0001114773 2.4064879e-005 -0.00027715979 -0.00013497165 0.3710874 -0.72763717
2286200000 -0.031479694 -0.013063812 -0.00011535377 2.0627496e-005 0.0001675067 0.00015192461 0.19678415 -0.78869045
2293687500 -0.03113894 -0.010995349 -9.5836323e-005 -4.0443207e-005 0.00016337716 -0.0003292445 0.016171003 -0.81206399
2301175000 -0.029884353 -0.00857215 6.9767033e-005 -1.2351647e-005 9.8251148e-005 -0.00039201858 -0.16667774 -0.79902059
2308662500 -0.028184036 -0.0067050438 -0.00017222371 2.9240249e-005 -0.00010349185 0.00028572805 -0.34371334 -0.74738461
2316150000 -0.025942145 -0.0057034269 3.7304178e-006 -0.0003731373 -6.8519897e-005 9.2904673e-007 -0.50841457 -0.65685028
2323637500 -0.023516286 -0.0046908711 0.00012035541 0.00029015529 0.00024525434 0.00018666452 -0.65177304 -0.52952766
2331125000 -0.021209532 -0.004604741 -0.00039975558 -0.00010970706 0.00013470436 -0.0005750843 -0.7626614 -0.36904153
2338612500 -0.017931623 -0.0046228552 -7.2381044e-005 -6.2367675e-005 -0.00038965768 -5.9076933e-006 -0.83341068 -0.18543631
2346100000 -0.015023986 -0.0054551265 -5.3986332e-005 -0.00011468894 4.4733275e-005 0.00021173622 -0.85747457 0.01072703
2353587500 -0.01239915 -0.0070739039 -0.00012858667 -0.00015842795 -8.0181941e-005 -0.00018108997 -0.83465737 0.20620398
2361075000 -0.010033724 -0.0084499829 0.00034738489 0.0002083758 3.979593e-005 0.00010789957 -0.76782745 0.39030191
2368562500 -0.0079526184 -0.010811632 7.6721793e-005 -3.3643231e-005 -5.7697354e-005 3.776926e-005 -0.65988809 0.5529623
2376050000 -0.0062568756 -0.014125595 -0.00024429828 0.00021573245 -0.00028566906 0.00024300186 -0.51878572 0.68851101
2383537500 -0.0049153911 -0.017198719 9.1090173e-005 -0.00034558136 7.1886439e-005 0.00024517442 -0.3506116 0.78809029
2391025000 -0.0049808822 -0.020360284 2.3692537e-006 2.1254324e-005 -0.00034641998 0.00045133749 -0.16216592 0.84629089
2398512500 -0.0049924436 -0.023528006 5.4448246e-005 -7.5544385e-006 -0.00014008906 -0.00020939177 0.035927888 0.85953933
2406000000 -0.0055683963 -0.026637794 0.00043638784 -0.00020591298 0.0001763896 -7.8134944e-005 0.23272686 0.82423395
2413487500 -0.0069924966 -0.02925824 0.0004362835 -0.00034799249 -5.0373628e-006 -5.3898002e-005 0.41582701 0.74201167
2420975000 -0.00853635 -0.031779796 0.0001384138 0.00010419259 -0.00024456659 -0.000160771 0.57206827 0.61925775
2428462500 -0.010760032 -0.033835579 -0.00013266518 1.2406093e-005 -0.00016764668 -1.5724041e-005 0.69276512 0.4652842
2435950000 -0.013430919 -0.034943782 0.00028912578 -2.5329673e-006 -0.00030434813 0.00018179718 0.77311128 0.28984872
2443437500 -0.016227612 -0.036138292 -0.00010146862 0.00036339342 -0.00043203079 0.00020134475 0.8108179 0.10367332
2450925000 -0.019095872 -0.036003746 -4.2777043e-005 0.00012027879 0.00019717131 -6.7601941e-005 0.8084411 -0.083586387
2458412500 -0.021449115 -0.035530608 7.8837384e-006 0.00026170156 -1.2975646e-005 0.00020745408 0.767133 -0.26581618
2465900000 -0.023942249 -0.03475409 0.0002704135 9.6736534e-005 -1.8270272e-006 0.00030473687 0.68651885 -0.43494567
2473387500 -0.025852656 -0.033021934 0.00012575689 -0.00029586727 -0.00018594411 -5.2200336e-005 0.57024038 -0.58482069
2480875000 -0.027595803 -0.030979678 2.369721e-005 0.00021007207 -0.00011787911 0.00035585195 0.41928339 -0.70639384
2488362500 -0.028116222 -0.028020684 0.00021372379 -0.0001697783 -3.8993338e-005 0.00028130112 0.24230918 -0.79046082
2495850000 -0.028846875 -0.025373114 1.0761432e-005 -0.00032746035 2.4294124e-005 0.00012464217 0.049143132 -0.82906371
2503337500 -0.028262116 -0.022774147 -2.3419887e-005 0.0002799322 -2.0754787e-005 0.00019343819 -0.1490417 -0.81951994
2510825000 -0.027641661 -0.01966639 -0.00013219511 -0.00015881605 -0.000236515 -0.00020794076 -0.33704084 -0.76249182
2518312500 -0.025777828 -0.017121704 0.00022345695 -0.00032985097 0.00010139357 -0.00011023862 -0.50256848 -0.66351473
2525800000 -0.023951545 -0.014908009 -0.00010646593 -5.1511121e-005 -0.00027656759 6.3688254e-005 -0.63843757 -0.53180134
2533287500 -0.021015778 -0.012915755 -0.00022873269 -5.2538318e-005 2.1374586e-005 1.8790601e-005 -0.73990798 -0.37587211
2540775000 -0.018025169 -0.011612538 -4.0772538e-005 -0.0001118199 0.00055673212 -0.0002552529 -0.80469698 -0.20485254
2548262500 -0.014500879 -0.010848007 0.0002257983 7.9233141e-006 -5.7441801e-005 0.00012241594 -0.83236539 -0.024172347
2555750000 -0.010919411 -0.01052775 -8.4710946e-006 6.7859328e-005 0.00028280992 -0.00017494816 -0.82093894 0.15918916
2563237500 -0.0075630369 -0.011096957 -5.421499e-005 0.00013475803 0.00043543451 0.00018602774 -0.76954615 0.33756039
2570725000 -0.0034620045 -0.012239918 0.00016061643 -6.4820065e-006 0.00051079312 -8.4721232e-006 -0.67719752 0.50363261
2578212500 -0.00062029174 -0.013927297 0.00027557043 0.00024447837 0.00016787559 6.0877039e-005 -0.54710782 0.64449686
2585700000 0.0024706644 -0.016349724 8.618577e-005 -0.00011795214 1.5674148e-005 9.0366833e-005 -0.3855373 0.75211507
2593187500 0.0045751524 -0.018753858 -0.00011989407 0.00037448006 5.8664922e-005 0.00013228675 -0.20062101 0.81705385
2600675000 0.0069870125 -0.021826457 4.287425e-005 -1.0798402e-005 -7.3270436e-005 0.0001610529 -0.0079196356 0.83487773
2608162500 0.0080395686 -0.025737114 0.00028565025 0.00025851838 -8.4442952e-005 2.6371592e-005 0.18255039 0.80745631
2615650000 0.0088005522 -0.028582262 -0.00021549479 2.0486619e-005 -0.00016471831 -0.00025037254 0.35940385 0.73738909
2623137500 0.0084327916 -0.031872142 -2.012611e-005 -0.00018726544 0.00021421074 5.9236379e-005 0.51537746 0.63109845
2630625000 0.0083008232 -0.034819558 7.2065435e-005 -4.1457159e-005 0.00019647909 0.00015944053 0.6432085 0.49286389
2638112500 0.0071218307 -0.037923396 0.00021614271 0.00013200023 -0.00033832129 -8.08805e-006 0.73844481 0.32945976
2645600000 0.0053364551 -0.039756894 8.5810454e-005 5.6625213e-005 -6.5104738e-005 0.00014706742 0.79455167 0.14658242
2653087500 0.0031095408 -0.041981127 2.9105066e-005 -3.6326666e-005 -0.00025431541 -9.9198034e-005 0.80607766 -0.046732381
2660575000 0.00084904942 -0.043157559 -0.00011461085 -0.0002413637 0.000271709 0.00021142969 0.77200937 -0.23786828
2668062500 -0.0013926547 -0.04377991 -1.9690737e-005 9.0319372e-005 -4.100053e-005 -0.00016450218 0.6910997 -0.41523248
2675550000 -0.0041667805 -0.043925274 0.00043610341 5.291681e-005 0.00017729031 -0.00012261725 0.57126415 -0.56665421
2683037500 -0.0063890619 -0.043157998 -0.00021969597 0.0001534684 2.9179466e-005 9.81868e-005 0.42184329 -0.68351233
2690525000 -0.0082922596 -0.04189311 6.8768022e-005 -0.00010721739 -0.0001144287 0.0002222851 0.25184026 -0.76100898
2698012500 -0.010066788 -0.04015059 0.00010371083 2.7014808e-005 7.4565272e-005 -5.230082e-005 0.07242354 -0.79897666
2705500000 -0.011335832 -0.03746311 -0.00016997871 7.574106e-005 -0.00010301064 -8.7623317e-005 -0.10902996 -0.79644537
2712987500 -0.011610283 -0.035607543 -0.00012815045 -0.00015401664 -0.00018482871 0.00024020448 -0.28515115 -0.75622559
2720475000 -0.011896745 -0.032678962 -0.0004641384 -0.0002317344 -2.4405808e-005 9.0566595e-005 -0.44956934 -0.67999047
2727962500 -0.011231676 -0.030265434 -0.00015709053 2.6791544e-005 9.9853933e-006 -0.00025803622 -0.59590167 -0.56765908
2735450000 -0.010328826 -0.027711455 0.00028409931 -0.00024988753 0.00015623326 -0.00023708862 -0.71505332 -0.42185193
2742937500 -0.0090522869 -0.025370581 -0.00018557748 -4.9696409e-005 -0.00043935873 0.00047540528 -0.79667687 -0.24962401
2750425000 -0.006305913 -0.023526503 0.00014918756 0.00011570234 -0.00014695109 -0.00054069317 -0.83442533 -0.061803121
2757912500 -0.0039139506 -0.022055438 4.7796366e-005 0.00026818042 -0.00014194581 -0.00013675322 -0.82348251 0.13134092
2765400000 -0.0012915909 -0.021201655 -0.00017802264 -0.00023543592 -4.7310612e-005 -4.9319213e-005 -0.76698649 0.31250787
2772887500 0.0012811403 -0.020942997 0.00031498703 -0.00013959629 0.00026116864 0.00029551677 -0.66977012 0.47148052
2780375000 0.0043205698 -0.02054875 -0.00048227696 -0.00011440257 0.00015785829 9.5237083e-006 -0.54435283 0.60265642
2787862500 0.0071243774 -0.021053698 0.00025010557 -0.00018336566 -0.00024737325 -0.0001805623 -0.39505187 0.70104915
2795350000 0.0096932733 -0.02230425 0.00044165173 0.00025557249 0.0002794358 3.4678629e-005 -0.23126504 0.76667982
2802837500 0.011771737 -0.023829535 0.00059156289 0.00023217323 6.5449203e-005 7.1869513e-006 -0.055800449 0.79715008
2810325000 0.013684498 -0.025711404 0.00032936459 0.00013273756 -5.5448825e-005 -0.00023682958 0.12582339 0.79164857
2817812500 0.014935764 -0.027860263 0.00032508024 0.00016664653 7.9892408e-005 -0.00029343646 0.30592102 0.74432933
2825300000 0.015639899 -0.029943051 0.00042466813 -9.3929477e-005 0.00011759614 0.00059728796 0.47513869 0.65449446
2832787500 0.015882563 -0.032159951 1.8702434e-005 -4.0253584e-005 -7.212146e-005 -0.00017663625 0.62151784 0.52140236
2840275000 0.015817186 -0.034173321 -0.00048557113 -7.2739145e-005 0.00018121014 -0.00018995973 0.73026216 0.35436928
2847762500 0.014862015 -0.036092706 -0.00034072853 -0.00017201557 9.1674679e-005 0.00013846345 0.79124826 0.16474353
2855250000 0.013415207 -0.037360813 0.00024760884 -0.0003566969 -0.00042165178 -5.7302786e-005 0.80155182 -0.031317201
2862737500 0.011705403 -0.038851436 1.7593413e-005 -8.3417384e-005 -0.00010787163 -0.00028512237 0.76540697 -0.21933612
2870225000 0.0099389553 -0.039309688 0.00013122962 -0.00025107848 -0.00042379409 6.7726767e-005 0.68847686 -0.38854957
2877712500 0.0076416396 -0.039444655 -6.0903585e-005 -0.0003341941 -6.4033382e-005 5.9976705e-005 0.58049619 -0.53297126
2885200000 0.005627566 -0.038913362 -0.00014878297 5.6362987e-005 -0.00029937469 -0.00040458416 0.44800556 -0.64910543
2892687500 0.0037952354 -0.037992299 0.00019668308 -5.24098e-005 8.8290566e-005 -0.00037274233 0.29302508 -0.73652685
2900175000 0.0013218619 -0.035461489 9.2342589e-006 -9.5652294e-006 0.00027653476 0.0003787535 0.12348223 -0.78975224
2907662500 1.651333e-005 -0.033877078 -0.00013755116 2.7673168e-005 -0.00019503845 0.00039273262 -0.056808047 -0.80524099
2915150000 -0.00087641174 -0.031027565 0.00016908973 -9.3465715e-006 -0.00016282324 4.8765673e-005 -0.2389463 -0.77909487
2922637500 -0.0015259563 -0.028080409 -0.00011687497 0.00034285666 2.6652198e-005 -0.00021549111 -0.41239852 -0.70874512
2930125000 -0.0017629914 -0.02483896 -0.00019023108 8.1228587e-005 0.00015154143 -3.7581951e-006 -0.5645262 -0.59985447
2937612500 -0.00060356746 -0.021552714 -4.8701157e-005 7.2673836e-005 4.0155184e-005 -2.8553372e-005 -0.68569833 -0.45576766
2945100000 0.00052304083 -0.0181017 0.00033145337 -5.2490323e-005 -0.00041786855 -5.4508646e-006 -0.76792693 -0.28941116
2952587500 0.0023211404 -0.014646581 -0.00010922897 4.6962719e-005 -0.00012913934 3.5477035e-005 -0.80860901 -0.11054501
2960075000 0.0047743907 -0.012899143 0.00013353594 4.0588271e-005 -0.00010406493 0.00027629221 -0.80944341 0.069830887
2967562500 0.0074953097 -0.010187069 8.9079003e-005 3.9280731e-005 0.00015476983 0.00013816987 -0.77076912 0.24447329
2975050000 0.010322916 -0.0084450021 0.00021811872 0.00015647722 3.8766386e-005 2.520636e-005 -0.69738281 0.40781882
2982537500 0.014261242 -0.0079048639 1.4166749e-005 -0.00026598579 -0.00035756658 -0.00036985028 -0.58918619 0.553675
2990025000 0.01783457 -0.0069053201 -0.00024810451 0.00012765116 0.00014829404 0.00013123068 -0.44793484 0.67499328
2997512500 0.021621259 -0.007187115 0.00010105909 -0.00021389399 0.00043926269 0.00011552074 -0.27957043 0.76196581
3005000000 0.024950249 -0.0079309512 -8.8108129e-005 3.4221495e-005 -0.00013787349 0.00019837056 -0.090606861 0.805547
3012487500 0.027861251 -0.0092427172 0.00030413023 -0.00036830973 -0.00020541225 -0.00012496526 0.1059508 0.80167049
3019975000 0.030086115 -0.01135804 -3.6544061e-005 -6.7438625e-005 0.00036809131 -0.0002285145 0.29592457 0.74821043
3027462500 0.032390408 -0.01399109 -0.00026487556 -0.00017653772 5.2557229e-005 0.00013041173 0.46297565 0.65038276
3034950000 0.033824328 -0.016413033 -0.00014014299 0.00035567724 0.0001506745 -2.1171403e-005 0.60006267 0.51715088
3042437500 0.034575973 -0.018917259 7.8546749e-005 -0.00012377993 8.515369e-005 -0.0001898558 0.69931096 0.35969332
3049925000 0.034388263 -0.021867942 0.00011667658 -4.9966064e-005 0.00017132505 0.00016376346 0.76003587 0.18909077
3057412500 0.034193307 -0.02398405 0.00017897112 -4.6442772e-005 5.5325327e-005 8.3740306e-006 0.78310502 0.011463013
3064900000 0.033067118 -0.026682636 -0.00018736067 -7.4540316e-005 2.867105e-006 0.00010925973 0.76964605 -0.16690426
3072387500 0.031434737 -0.028522825 -0.00032012287 -4.7376607e-006 -0.00024790884 -0.00048880267 0.71835017 -0.33929574
3079875000 0.029006861 -0.030329226 8.8134599e-005 -5.0873594e-005 -3.9675113e-005 6.5717228e-005 0.62988979 -0.49928358
3087362500 0.026815658 -0.030870894 -4.6293557e-005 0.0001069634 0.00042414424 0.00020926878 0.50508809 -0.63799512
3094850000 0.024168573 -0.031559441 -6.6559878e-005 -3.4316603e-005 -4.0150942e-005 -7.8213219e-005 0.34707171 -0.74535966
3102337500 0.020707525 -0.031368852 0.00011469431 -2.4231615e-005 7.1489783e-005 0.00022873943 0.16541035 -0.81089777
3109825000 0.018256497 -0.030184964 -0.00018430925 5.6360084e-005 -8.7185173e-005 7.0799506e-005 -0.026721902 -0.82881939
3117312500 0.015501864 -0.0289439 -0.0003501201 0.00017192704 0.00035031297 0.00026916777 -0.21652561 -0.79800421
3124800000 0.013212344 -0.027188305 0.00019473169 -5.082363e-005 0.00034738088 0.00025292273 -0.38914227 -0.72435051
3132287500 0.011158528 -0.023839232 -0.0001615638 8.3710853e-005 7.0116235e-005 5.7053541e-005 -0.53526115 -0.61432123
3139775000 0.0096063484 -0.021185491 0.00019026161 0.00012293301 -5.5995664e-005 5.2818861e-005 -0.65075165 -0.4781104
3147262500 0.0088384496 -0.017913522 4.0211737e-005 -0.00048804385 -0.00018251383 -8.5005006e-005 -0.73286539 -0.32361495
3154750000 0.0081358738 -0.014334806 -0.00010323292 0.00015037019 -0.00039666801 1.5851145e-005 -0.78014928 -0.15841667
3162237500 0.0089025665 -0.010956142 9.3072827e-005 -3.7680587e-005 6.9360765e-005 4.1290237e-005 -0.79488039 0.013284132
3169725000 0.0096866433 -0.0079688691 0.0002885217 -0.00025442691 0.00011172144 -0.00011127073 -0.7741766 0.18677476
3177212500 0.010782495 -0.0049512661 -0.00017440951 0.00016737818 -0.00037521595 -0.00033913236 -0.71621025 0.35626972
3184700000 0.012727799 -0.0022813794 -0.00019954164 0.00018450832 5.9627298e-005 -8.89694e-006 -0.61960858 0.51559335
3192187500 0.014730095 0.0003202947 -7.6104159e-005 0.00038266409 -6.254304e-006 0.00016709922 -0.48295185 0.65072292
3199675000 0.01780019 0.0021083965 0.00025634878 -2.8777798e-005 0.00025678263 3.9427821e-005 -0.31250635 0.75166065
3207162500 0.020200951 0.0031541209 0.00013718953 1.760009e-005 -5.6454337e-005 -8.2054903e-005 -0.11861673 0.8058399
3214650000 0.02357748 0.0037248246 0.0002179439 -6.4074957e-005 0.00025277678 -0.00023811946 0.083490953 0.80640841
3222137500 0.025755264 0.0034297451 -2.4962328e-005 6.399089e-005 -0.00043289532 -2.6804411e-005 0.2780202 0.75450575
3229625000 0.028265825 0.0028920374 7.4946431e-005 -0.0001887704 -0.00021813932 7.890404e-006 0.44885889 0.65690398
3237112500 0.030729983 0.001903533 0.00026575426 -0.00018728251 0.00011549763 0.00020091687 0.58527505 0.52533704
3244600000 0.032282721 0.00081811682 -0.00010831272 -0.00010057391 1.5222375e-005 -2.1195832e-005 0.68495631 0.37188107
3252087500 0.033034258 -0.0013192075 -3.9417082e-005 0.00018424231 -0.00034303087 0.00042286556 0.74717677 0.20602493
3259575000 0.033927158 -0.0037215648 -0.00017140491 0.00011395341 -0.00011467164 0.00015411915 0.77412421 0.035196625
3267062500 0.034423031 -0.005515344 -6.125943e-005 0.00033417228 0.00025875727 -0.00018734224 0.76764685 -0.13693413
3274550000 0.033482097 -0.0080329496 0.00014304172 -3.7845461e-005 -5.2018582e-005 0.00022511148 0.72645408 -0.30631593
3282037500 0.032795005 -0.0094902422 0.00024751815 0.00025593356 1.4404497e-005 -5.800595e-005 0.65119213 -0.46686319
3289525000 0.030820472 -0.011586048 -7.9005345e-005 0.00032883941 -0.00013178795 -0.00018006425 0.53849393 -0.61381775
3297012500 0.029431351 -0.012410789 0.00017659804 -9.4051073e-005 0.0002279667 -0.00046903733 0.38827878 -0.73342723
3304500000 0.026795611 -0.013225192 -4.5066703e-005 -0.00012420883 0.00012125252 -0.00011575621 0.20669183 -0.81376028
3311987500 0.024316393 -0.013748986 -6.9403482e-005 0.00026898968 0.00016444821 -0.00017472461 0.0068733124 -0.84302866
3319475000 0.021830641 -0.013795935 5.6725668e-005 -5.9846287e-005 0.00010427658 0.00015850182 -0.19225383 -0.81743944
3326962500 0.018719088 -0.012644663 -0.00028118974 0.00020995474 0.00026610028 0.00040926089 -0.37295973 -0.74141091
3334450000 0.016065199 -0.011457109 3.4338998e-005 3.4263572e-005 0.00036332023 6.9590897e-005 -0.52246773 -0.6266101
3341937500 0.013852125 -0.0098822424 -0.00026364965 2.5505296e-005 0.00012482908 -0.0002622641 -0.63523692 -0.48818576
3349425000 0.012033101 -0.0077379569 -0.00011228583 0.00015349338 -0.00017821832 -0.00025863817 -0.71268141 -0.33587229
3356912500 0.010296741 -0.0055996575 8.1644976e-005 0.00024239274 -0.00037485745 6.2137515e-005 -0.75912756 -0.17627965
3364400000 0.0092773847 -0.0027944467 -0.00013181756 -5.8158221e-005 0.00021183629 -0.00023259294 -0.77578586 -0.012987274
3371887500 0.008540947 2.7811855e-005 0.00011859211 4.4864024e-005 0.00035396469 -0.00012078095 -0.76265234 0.1532954
3379375000 0.0084519228 0.0030959211 -4.7293848e-005 0.00020185643 6.4349748e-005 0.00012751907 -0.71743977 0.31877077
3386862500 0.0091129951 0.0054528466 0.00022421712 0.00013041751 -8.6064629e-006 -0.00024855233 -0.63408619 0.47895351
3394350000 0.0096175298 0.0077035348 -0.00013236639 2.3340386e-005 0.0002919168 -3.500568e-005 -0.50978523 0.62290329
3401837500 0.010800065 0.010105097 -0.00023888369 -0.00011612411 0.00039905682 0.00027092674 -0.3452591 0.73475927
3409325000 0.012067018 0.011641762 -6.0253114e-005 9.8086515e-005 0.00015024185 0.00026058368 -0.15198211 0.80060941
3416812500 0.014773197 0.01353785 -2.2380609e-005 -0.00017749058 0.0002968194 0.00014639043 0.050866265 0.80996901
3424300000 0.016446007 0.014068393 0.00010561402 -3.9370756e-005 4.5353168e-005 -8.8878907e-005 0.24501583 0.76550066
3431787500 0.01827194 0.014392921 -0.00017862394 0.00020280418 -3.1496431e-005 0.00014159131 0.41447267 0.6783939
3439275000 0.020151336 0.014162214 -9.6380638e-005 -5.8867845e-005 0.00028426806 -5.2563835e-005 0.55419439 0.55961162
3446762500 0.022222968 0.013268284 0.00021208228 -0.00031183817 -0.00013077848 -0.00068637979 0.6634019 0.42038158
3454250000 0.02325091 0.012206994 8.5410327e-005 0.00016718141 9.1977294e-005 -0.00020323166 0.74263471 0.26523194
3461737500 0.024872618 0.010457226 7.7634941e-005 7.4156218e-005 -7.9053694e-005 2.192153e-006 0.79113865 0.095376305
3469225000 0.024643568 0.0091690524 0.00010752178 -3.0644216e-005 0.0005257632 0.00022710428 0.80488974 -0.086649045
3476712500 0.025232188 0.0073112375 -0.00028476125 -0.00011197991 0.00015239032 -0.00034104049 0.77763242 -0.27539164
3484200000 0.024686055 0.0047338679 0.00011699062 5.8207779e-006 0.00010536874 0.00010503046 0.69993097 -0.45821962
3491687500 0.024164347 0.003524276 -0.00014639506 4.3285108e-005 -2.1217953e-005 -1.8610581e-005 0.57077235 -0.61925465
3499175000 0.022645751 0.0014556235 2.4913661e-005 -0.00023587083 -1.3145846e-005 4.9786151e-005 0.40166607 -0.73799711
3506662500 0.020845419 -0.00044339729 2.6374641e-005 0.00014803301 0.00010082869 0.0001328256 0.21150167 -0.80068302
3514150000 0.018982541 -0.002055676 6.6691297e-005 0.00024384046 7.9857782e-005 0.00010959256 0.020443032 -0.81091583
3521637500 0.016360063 -0.0032159265 5.411492e-005 3.6205685e-005 -0.00030851722 -0.00026155042 -0.15581062 -0.77839392
3529125000 0.013980764 -0.003234897 -9.5196745e-005 0.00031769922 0.00012278595 -0.00032194465 -0.31151628 -0.71384847
3536612500 0.011463639 -0.0033735298 1.3471734e-005 0.00023844634 9.0444053e-005 4.0323976e-005 -0.44681329 -0.62618595
3544100000 0.0090204915 -0.0032032959 -6.4676038e-005 5.212289e-005 -4.1027284e-005 0.00022191138 -0.56348938 -0.51957339
3551587500 0.0057046902 -0.0024153916 -7.62747e-005 -7.1579481e-005 -9.702066e-005 -0.00054012064 -0.66282719 -0.39405194
3559075000 0.0037567338 -0.001235737 0.00023417806 7.6718454e-005 -7.0823517e-005 -0.00025784262 -0.7431668 -0.24608311
3566562500 0.0016672203 0.00061356626 0.00030974916 -2.0321719e-005 -3.3121774e-005 8.082798e-005 -0.7936821 -0.073983595
3574050000 -2.214439e-005 0.0021139404 -0.00012402017 1.8294781e-005 -0.0003127417 -0.00021944664 -0.8025232 0.1183228
3581537500 -0.0012186753 0.004196852 -1.5063973e-005 -7.7458863e-005 -0.00027662236 -7.6267002e-005 -0.7576617 0.31654713
3589025000 -0.0024447204 0.0065398826 -5.1350544e-005 0.00018339609 -0.00036967563 -0.00030225675 -0.65407723 0.49843574
3596512500 -0.0027721401 0.008206822 -1.8907973e-005 -6.4523148e-005 -0.00018134891 0.00030740621 -0.50408053 0.64037299
3604000000 -0.0028249035 0.010770574 -5.9808284e-005 0.00013483717 -0.00013677021 0.00034909105 -0.32713798 0.73002899
3611487500 -0.0021919049 0.012730797 -9.9707009e-005 -0.00015693433 6.7547669e-005 -0.00048486568 -0.14550905 0.77185136
3618975000 -0.0013543156 0.013802443 -0.00016802232 0.0001090061 5.1376696e-006 0.00026509986 0.029088845 0.77237618
3626462500 4.6642243e-005 0.015311242 -7.0400602e-005 -0.00021529706 5.7144109e-005 0.00017602817 0.19331151 0.7422449
3633950000 0.00095535372 0.016210966 0.00019130571 0.00015228073 -1.4653738e-005 -2.8402974e-006 0.34652188 0.68667674
3641437500 0.0023985491 0.016613986 -1.3513293e-005 -0.00015555964 -0.00010708133 0.00023712772 0.4909451 0.60537171
3648925000 0.0035977098 0.016815251 0.00016220704 -0.00017120832 5.5278401e-006 -0.00013045956 0.6257056 0.49429423
3656412500 0.0053127222 0.016295593 -3.6178992e-007 0.00024964553 4.3939131e-006 -0.00027610172 0.74109811 0.34643656
3663900000 0.0061852513 0.015544965 -4.0081555e-005 0.00029523749 0.00023762744 -0.0001800154 0.82185793 0.16324815
3671387500 0.0074545685 0.01386776 6.9698879e-005 0.00015801414 -0.00014101768 -2.42138e-006 0.84907675 -0.047114961
3678875000 0.0080522029 0.012737596 -0.00018175345 -3.0641299e-005 3.6319678e-005 0.00019404491 0.8102566 -0.25901389
3686362500 0.0084950691 0.010479591 -0.00016035142 -0.00017632097 -9.4331168e-005 4.3815733e-005 0.71101063 -0.44779733
3693850000 0.0084799761 0.008827325 -0.0001626562 -5.4245174e-005 3.9409839e-005 -0.00023440576 0.56900227 -0.59128171
3701337500 0.0075895949 0.0062759891 -0.00016097962 0.00016122588 0.00017470273 -0.00015295391 0.40825889 -0.68585771
3708825000 0.0068828771 0.0045956504 0.00014262386 0.00014455816 0.00016906977 0.00020109551 0.2445374 -0.73761511
3716312500 0.0056463522 0.0029798704 -0.00011443225 -0.0001198812 -6.4718872e-005 0.00057172909 0.084147908 -0.75713998
3723800000 0.0041326662 0.0012089669 0.00010902337 -3.4696874e-005 -4.481131e-005 0.00014876602 -0.067961715 -0.75113088
3731287500 0.0017275941 -0.00035840456 7.2290054e-006 -0.00017913037 9.8981196e-005 -0.00016831105 -0.21894659 -0.72188765
3738775000 -6.9536967e-005 -0.0010687351 -0.00022223328 -0.00031849384 3.4789562e-005 -0.00024684708 -0.36713004 -0.66763979
3746262500 -0.002203397 -0.0026758595 -7.335699e-005 4.2832857e-005 -0.00031444311 0.00015918884 -0.51098645 -0.58285862
3753750000 -0.0043074167 -0.0022748464 -0.00017946895 -0.00020242319 -0.00022937052 -1.7404675e-005 -0.64307588 -0.46270922
3761237500 -0.0065213609 -0.0025537531 -8.8269599e-006 8.9657871e-005 0.00021863478 -3.5388992e-005 -0.74887073 -0.30293527
3768725000 -0.008800447 -0.0022543073 -0.00031354383 -0.00035601729 0.00018121662 -8.2715324e-006 -0.81093204 -0.11149001
3776212500 -0.010882225 -0.0018251871 0.00010278061 -4.5985355e-005 -0.00017561346 8.4174753e-005 -0.81651646 0.094521172
3783700000 -0.012435895 -0.00086197164 -0.0004072341 -0.00034352989 1.5109276e-005 4.8632126e-005 -0.76392233 0.29330239
3791187500 -0.014074049 0.00049447198 -2.3598588e-005 -0.00010620229 6.5946559e-005 -3.3745484e-005 -0.66257536 0.46484429
3798675000 -0.01517137 0.0015467369 2.183875e-005 0.00025231007 3.2205346e-005 0.00023578772 -0.52740598 0.59828037
3806162500 -0.015706889 0.0029178229 9.4690506e-005 -0.00025349151 -6.4640342e-005 -1.3956434e-005 -0.37339634 0.69485366
3813650000 -0.016067635 0.0040833699 -0.00016543367 6.9616006e-005 6.0446211e-005 0.0001085119 -0.20764652 0.75480545
3821137500 -0.016233759 0.0055288118 -5.5177261e-005 -0.00011022352 0.00011183548 -0.00015841678 -0.037447415 0.78232777
3828625000 -0.015801806 0.0068295388 6.5759207e-007 -5.7567726e-005 -0.00011579926 -0.00019778046 0.1355215 0.77591127
3836112500 -0.015600549 0.0075132945 4.2950523e-005 9.2920935e-005 -0.00035303683 -0.00020367485 0.30705738 0.73392177
3843600000 -0.014842797 0.0078302221 0.00016079035 4.3598942e-005 0.00018911426 5.1156065e-005 0.47119871 0.65236527
3851087500 -0.013644506 0.0083332183 8.0890568e-005 0.00015020577 -7.978006e-005 -5.3807133e-005 0.61614472 0.53212833
3858575000 -0.012632197 0.0083579533 -3.435462e-005 0.00035090634 0.00025920564 4.8467635e-005 0.72924364 0.37407604
3866062500 -0.011747634 0.0077080792 -1.8855197e-005 -0.0001245913 0.0002656568 0.00012638801 0.79771805 0.19016503
3873550000 -0.010317945 0.0072058914 0.00022781007 -0.00034153357 6.1394392e-005 -0.00012026299 0.8157236 -0.0043122945
3881037500 -0.0096409731 0.0058577382 0.00020031841 -1.1024094e-005 -0.00025295038 2.1599897e-006 0.78474557 -0.19177336
3888525000 -0.0092025893 0.0044706352 3.6620382e-005 -4.0262945e-005 -0.0001293395 4.3818189e-005 0.71074921 -0.36129713
3896012500 -0.0083562611 0.0028997234 9.8678553e-005 0.00012501041 0.00026452579 -0.00016252244 0.60382175 -0.50466651
3903500000 -0.0082689812 0.0013950109 -8.6111351e-005 0.00019624369 1.2583537e-005 3.4708476e-006 0.47307935 -0.61902934
3910987500 -0.0087749595 -0.00034584137 -0.00025201018 -8.9593443e-005 -0.00030230853 -0.00012749831 0.3245298 -0.70234805
3918475000 -0.0087236799 -0.0020591817 -5.9975853e-005 0.00029457294 -0.00015324296 -0.00013479957 0.16283347 -0.75461912
3925962500 -0.0099302493 -0.0039213412 0.00022077968 -0.00031026936 0.00010518041 3.3484543e-005 -0.0069903638 -0.77337748
3933450000 -0.010683719 -0.0056689922 0.00012949274 -0.00023115861 -1.5129231e-005 -1.1036127e-005 -0.18006168 -0.75667256
3940937500 -0.012005794 -0.0070930887 0.00028970386 -3.3051445e-005 -4.8319398e-005 -0.00015008316 -0.34876826 -0.69996572
3948425000 -0.013190133 -0.0079204179 -1.8375251e-005 -0.00030095884 0.00013989193 -0.00018348175 -0.50284332 -0.60389364
3955912500 -0.014839021 -0.009049749 0.00015752495 -0.00016852535 4.7394977e-005 -0.00021495369 -0.63193917 -0.47347608
3963400000 -0.016599163 -0.0095893797 -4.7646568e-005 5.8870981e-005 0.00021335193 3.4545333e-006 -0.72690016 -0.31432366
3970887500 -0.018549556 -0.010115962 0.00014801809 -0.0002030258 0.00015119568 0.000144586 -0.77999896 -0.13759199
3978375000 -0.019490782 -0.0096058212 -7.6418924e-005 5.0068236e-005 0.00019926224 -0.00015545699 -0.78990126 0.044918727
3985862500 -0.02108968 -0.0091858637 -9.4090639e-005 3.1448017e-005 0.00036331304 9.5883159e-005 -0.75879747 0.22298078
3993350000 -0.022128711 -0.0087564671 0.0001501775 9.9596284e-005 0.0004263343 -2.4658661e-005 -0.69001353 0.38859108
4000837500 -0.023078585 -0.0084903352 -4.5839646e-005 0.0001592474 0.00035886932 9.0451802e-005 -0.58649349 0.53449142
4008325000 -0.0238005 -0.0071325554 -9.4910087e-005 2.7147296e-005 0.00010698981 1.5210801e-005 -0.45329687 0.65469509
4015812500 -0.023982659 -0.0068406668 4.358088e-005 6.2048224e-005 -7.7168705e-005 -0.00019177656 -0.29618785 0.74513036
4023300000 -0.024216922 -0.0058484091 -0.0002863949 5.4583241e-005 0.00013496065 -7.6812248e-005 -0.11980949 0.79869729
4030787500 -0.023785587 -0.0048165596 0.00014368839 -0.00024659254 0.00010037544 -0.0001103607 0.0666418 0.80917877
4038275000 -0.022942506 -0.0037442108 6.1495615e-005 -0.00039435696 0.00018105375 -0.00010961664 0.25372228 0.77340555
4045762500 -0.021985607 -0.003289486 0.00053586898 -5.7936311e-005 7.4123818e-005 -0.00025643734 0.42598173 0.6921308
4053250000 -0.021051584 -0.0031909479 -0.00017212584 -0.00019032236 0.00017868759 0.00020648523 0.57109392 0.57080972
4060737500 -0.020168228 -0.0030723158 -0.00027331809 0.00034711376 0.00015897906 -2.4104769e-005 0.67957306 0.41983521
4068225000 -0.018422073 -0.0034366553 3.0377803e-005 0.00014128916 -5.9499114e-005 0.00016209848 0.74827439 0.25294462
4075712500 -0.01648861 -0.0034215203 -4.6030633e-005 -8.451358e-005 -0.00033955299 0.00019719232 0.77673954 0.078490719
4083200000 -0.015298242 -0.004292733 0.00014109534 -0.00011230494 0.00039770041 2.9580389e-005 0.7680456 -0.092441253
4090687500 -0.01360504 -0.0049963598 -0.00019866184 7.7307843e-005 -0.00027047473 3.27218e-005 0.72598416 -0.25587997
4098175000 -0.012547059 -0.0066074282 -9.2278555e-005 -0.00022935444 0.00011388162 -2.6669484e-005 0.6518696 -0.4076429
4105662500 -0.011270155 -0.0077494713 0.00052682904 0.00013334725 -0.00012979814 -8.2429644e-005 0.5497669 -0.5441587
4113150000 -0.010416889 -0.0097755846 6.0446266e-005 0.00014194722 -0.00042473673 -0.00021996829 0.41682246 -0.6594997
4120637500 -0.0097809397 -0.011502011 -0.00023409436 0.00019044732 0.00019682618 -0.00036990442 0.25627777 -0.74557781
4128125000 -0.0092359213 -0.013254855 -0.00022677345 -8.3751569e-005 -0.0002343845 -9.7036776e-005 0.0745681 -0.7915858
4135612500 -0.0091529489 -0.015240168 -0.00029633328 0.00021287761 0.00055933336 -0.00022796894 -0.11817222 -0.79338545
4143100000 -0.0093698502 -0.017154789 1.1922408e-005 -6.581589e-005 -0.00035396015 -0.00016338927 -0.30624306 -0.74209487
4150587500 -0.0096105607 -0.01932854 -8.2070659e-007 3.075277e-005 0.00022923732 -0.00021214181 -0.47444895 -0.64461929
4158075000 -0.010282374 -0.020872716 0.00017748844 -2.4144239e-005 -7.281149e-005 0.00014564602 -0.60827446 -0.51056957
4165562500 -0.010874164 -0.022506237 -0.0001828307 -0.00028634243 -0.00015637308 -0.00021415042 -0.70178074 -0.35343143
4173050000 -0.012109876 -0.023226079 0.00026694938 -0.00011104586 7.0550414e-005 -2.8722789e-005 -0.75407445 -0.18587126
4180537500 -0.012971586 -0.024865339 3.2144308e-005 0.00033031878 0.00021745077 0.00025962852 -0.77184242 -0.017523112
4188025000 -0.013832674 -0.025269935 0.00028750449 -0.000120452 -0.00026529582 0.00012544249 -0.75491548 0.14715712
4195512500 -0.015278728 -0.025460765 0.00024932096 -6.0826906e-006 3.8951462e-006 -0.00033812033 -0.70755398 0.30386838
4203000000 -0.016234931 -0.025502926 -1.666209e-005 -7.7547957e-005 -0.00012969782 0.00017663655 -0.63232452 0.45040274
4210487500 -0.016768882 -0.025133817 -7.1831266e-005 -4.9983064e-005 -0.00011821084 0.0001529549 -0.52682084 0.58294821
4217975000 -0.017234847 -0.025188809 -4.9769231e-005 -0.00019652123 -0.00011844553 3.2819327e-005 -0.39036131 0.69371873
4225462500 -0.018023394 -0.024485381 -0.00022416987 -2.6052481e-005 6.1506646e-005 0.00039573765 -0.22572823 0.77534121
4232950000 -0.017809764 -0.023637429 0.00012125573 0.00011491753 -4.3401415e-005 -5.1076862e-005 -0.039404616 0.81436527
4240437500 -0.017785134 -0.023185903 4.1409305e-005 0.00032097925 0.00012306956 -1.5893102e-005 0.15619941 0.80395728
4247925000 -0.017298276 -0.022588501 -6.4684509e-006 -0.00020998651 0.00028720358 7.9496633e-005 0.34308544 0.74068487
4255412500 -0.016424976 -0.02175892 0.0002505967 -0.0001241922 -0.0001244679 -7.9803649e-005 0.50633693 0.63222241
4262900000 -0.015402138 -0.020975597 0.00023462779 0.00025811483 -5.6412002e-005 0.00014861801 0.63291693 0.48762211
4270387500 -0.014280605 -0.020747006 -3.5995638e-006 0.00018324799 9.3309849e-005 -2.2856932e-006 0.71813756 0.32178986
4277875000 -0.012814536 -0.020589078 0.00025517173 0.00025727943 -0.00032905702 0.0001044447 0.76199114 0.14657503
4285362500 -0.011012912 -0.020126006 0.00012852288 1.9659103e-005 0.000389883 0.00021612438 0.7670331 -0.029577682
4292850000 -0.0098945145 -0.020416789 6.9488873e-005 7.0452552e-005 -0.00018383467 -3.7541489e-005 0.73581803 -0.19961759
4300337500 -0.0080006421 -0.020712528 -8.3819257e-005 3.1465952e-005 -7.7716773e-005 9.5626701e-006 0.67096162 -0.35861281
4307825000 -0.0061814906 -0.021157451 1.5805108e-005 -3.8287191e-005 1.8532493e-005 8.573482e-005 0.57319897 -0.50264502
4315312500 -0.0046340888 -0.022408916 0.00011861893 4.9341204e-005 0.00011702407 0.00012152809 0.44560242 -0.62390959
4322800000 -0.0031647661 -0.023111606 0.00012469981 -1.4045952e-005 0.00021481741 9.636084e-005 0.2916607 -0.71545285
4330287500 -0.0012862401 -0.024408659 0.00015633323 0.00025055511 0.00016529557 0.00012705453 0.1188153 -0.76878005
4337775000 -6.3169478e-005 -0.025456877 -0.00026235796 -7.4716678e-005 0.00013383957 -0.00010994818 -0.064068019 -0.78031075
4345262500 0.00082499941 -0.02748017 -1.0543691e-005 6.1328014e-005 2.3064531e-005 -7.89357e-006 -0.2449664 -0.7482509
4352750000 0.0016030482 -0.028699253 1.2931719e-005 -4.3930679e-005 -6.2756772e-005 -3.455349e-005 -0.41118774 -0.67336279
4360237500 0.0025799403 -0.029984675 -5.4441509e-005 -0.00026993881 8.0099962e-005 3.4932422e-005 -0.55454892 -0.56333524
4367725000 0.0027654713 -0.031540114 -0.00030437805 9.8900215e-005 0.00019054757 0.00010182349 -0.66815829 -0.42518935
4375212500 0.0028838317 -0.033075716 0.00020060073 -5.6642333e-005 -7.9609243e-005 8.5757951e-005 -0.74701077 -0.26673165
4382700000 0.0028425534 -0.03424494 -0.00021435843 9.2653252e-005 4.0176979e-005 -0.00052415329 -0.78806096 -0.096086353
4390187500 0.0033584568 -0.035652965 -0.00017728191 -0.00024328048 0.00028954863 7.883041e-005 -0.79182297 0.078719623
4397675000 0.0028642607 -0.036692522 -7.5643387e-005 0.00027259786 -0.00013920665 0.00018404685 -0.75695652 0.25077316
4405162500 0.002662665 -0.037157636 0.00017213338 -0.00025915669 -8.9036417e-005 0.00011216073 -0.68447989 0.41189256
4412650000 0.002147275 -0.038129486 0.00022944974 -0.00011462862 0.00014999656 -2.9102705e-005 -0.57582438 0.55347532
4420137500 0.0018468046 -0.038170643 0.00018880841 -8.4678519e-005 -0.00028523806 -5.3945016e-005 -0.43686244 0.66632897
4427625000 0.0013328776 -0.037904032 3.9066912e-005 -0.00012681917 0.00019199193 -0.00010233875 -0.27634752 0.74523646
4435112500 0.0013651232 -0.037718054 2.1917887e-005 -7.0141476e-005 -0.00014303016 -5.6508052e-006 -0.10185654 0.78327501
4442600000 0.0010641156 -0.037756447 -9.9046076e-005 0.00012567455 -7.7139804e-005 1.9166644e-005 0.075693622 0.78190333
4450087500 0.0016396154 -0.037009388 1.4745399e-005 2.15584e-005 4.7947615e-005 0.00015158052 0.24831985 0.7400558
4457575000 0.0017821481 -0.03638171 -0.00010288697 0.00012584167 0.00026217825 -4.1034808e-005 0.40689147 0.66180837
4465062500 0.0018915108 -0.036227588 -0.00017934987 0.00015780304 4.5756278e-005 -0.00018006517 0.54615247 0.55114388
4472550000 0.0031817518 -0.034721702 -0.00014730215 3.3525837e-005 2.7358492e-005 -0.00015596308 0.6589871 0.41068959
4480037500 0.0038417333 -0.034013964 -0.00021418808 -0.00015763464 -0.00010375433 0.00017480429 0.740345 0.24592912
4487525000 0.0046348665 -0.034044761 7.0459129e-005 -1.7474958e-005 -0.00026023999 0.00012836505 0.78053296 0.062660351
4495012500 0.0060696881 -0.032932788 -6.834347e-005 -0.00014899774 -0.00025482001 -0.00017600172 0.7763626 -0.1292655
4502500000 0.0077106063 -0.032796562 -4.1385505e-005 3.734745e-005 6.337279e-005 9.845318e-005 0.72307938 -0.31513414
4509987500 0.0095512467 -0.032456648 -8.5915213e-005 -2.1397311e-005 -0.00013825987 0.00014466127 0.62440103 -0.48247439
4517475000 0.011033244 -0.031885955 0.00019278286 -2.8060336e-005 0.00016720621 2.7428721e-005 0.48760656 -0.61698461
4524962500 0.012659437 -0.031892389 -3.6637604e-005 -0.00019281857 -0.00012371426 2.2176297e-005 0.32540911 -0.7114104
4532450000 0.01475484 -0.032002453 1.4316905e-005 0.00032349714 2.3601957e-005 0.00018665601 0.15123631 -0.76172674
4539937500 0.016692333 -0.032144118 5.2543361e-005 4.2061085e-005 3.5082969e-005 -6.223972e-005 -0.023739399 -0.77221173
4547425000 0.0182459 -0.032627285 -0.000197006 -0.0003807125 -0.0002468772 0.0001013541 -0.1904465 -0.74617749
4554912500 0.019787828 -0.033599082 0.00016990778 3.5176221e-005 -0.00011778066 0.00015308528 -0.34555036 -0.68880957
4562400000 0.021035789 -0.034301102 0.00028949173 -0.00037320194 0.00016045989 -0.00028198195 -0.48461989 -0.60331082
4569887500 0.022340521 -0.034952961 0.00028611461 1.2830696e-005 -5.223713e-005 0.00010676822 -0.60600281 -0.49244621
4577375000 0.023863396 -0.036159676 0.00051690778 3.9741724e-005 0.00019591348 -7.9485799e-005 -0.70354921 -0.35717174
4584862500 0.024771908 -0.037336074 6.5329587e-005 -5.4173503e-005 1.3457743e-005 6.3935586e-005 -0.77290958 -0.20054233
4592350000 0.025752475 -0.038055539 8.0102014e-005 0.00024582786 -6.401015e-005 0.00018318748 -0.80665541 -0.026351422
4599837500 0.026312357 -0.039786723 8.2689687e-005 -0.00010942065 5.0592265e-005 6.2997351e-005 -0.79840034 0.15485215
4607325000 0.026700713 -0.040140737 -0.00025133943 -9.2802526e-005 2.0438205e-005 0.00017594377 -0.74550194 0.33279723
4614812500 0.026152823 -0.041411642 3.4819561e-005 4.9381677e-005 4.1630145e-005 0.00022445543 -0.64767641 0.49376646
4622300000 0.026417671 -0.041936498 -1.3785527e-005 0.00019201197 0.00011701921 8.7091867e-005 -0.51404017 0.62607396
4629787500 0.026108019 -0.042827778 -8.7115164e-005 8.8651497e-005 5.953259e-006 -3.7473113e-005 -0.35213995 0.71852386
4637275000 0.02566852 -0.043734938 9.8332508e-005 2.5307038e-005 -0.00018803051 8.8180699e-005 -0.17619896 0.77161556
4644762500 0.025582772 -0.043297831 -0.00013071414 -1.0831645e-005 0.00013215214 -2.1058268e-005 0.0045952178 0.78247917
4652250000 0.025195083 -0.043372475 8.4676227e-005 -0.00025529126 -8.0985126e-005 1.0045293e-005 0.18199924 0.7529366
4659737500 0.024485454 -0.042890664 -0.00049496681 -0.0002089911 0.00025966798 -5.1436276e-005 0.34933379 0.68590909
4667225000 0.02421063 -0.042019054 7.6964199e-005 0.0002020411 -7.245841e-005 -0.00014928207 0.49740666 0.58267939
4674712500 0.024182195 -0.041432064 2.2926808e-006 0.00030010467 0.00020546994 -7.4043906e-005 0.62037385 0.44766235
4682200000 0.023764633 -0.040298808 0.00020705617 0.00021223916 -3.1992433e-005 1.9505989e-005 0.70985073 0.28626978
4689687500 0.023795065 -0.03903633 1.7628543e-005 9.4468342e-005 0.00014964548 -3.4820103e-005 0.75872284 0.10663485
4697175000 0.02414638 -0.037928954 -0.00020660703 -0.00023724725 -0.00020861089 -0.0001319826 0.76297253 -0.078912042
4704662500 0.024389379 -0.036540054 -2.9721727e-005 6.8269503e-005 7.9593665e-005 -0.00024305057 0.7234394 -0.25893635
4712150000 0.025266185 -0.035142001 -0.00026380661 0.00015103225 6.6612803e-005 0.00010788467 0.6433503 -0.42348224
4719637500 0.026046056 -0.033820983 -0.00029631256 4.2001655e-005 0.00011620759 9.7722314e-006 0.53056055 -0.56374699
4727125000 0.027019352 -0.032321848 -0.00022965629 2.4457195e-005 0.00024408798 -9.0702728e-005 0.39031994 -0.6749084
4734612500 0.027764551 -0.030819554 3.1354546e-005 0.00014793543 -0.0001849993 1.3452292e-005 0.22958066 -0.75217438
4742100000 0.029233839 -0.029509133 0.000368434 -9.981569e-005 -4.2412295e-005 9.8388455e-006 0.055928394 -0.79190218
4749587500 0.030813785 -0.028530203 0.0002932369 -6.9978305e-005 7.7439927e-006 -1.7194561e-005 -0.12423578 -0.79292071
4757075000 0.032424849 -0.027862249 1.6195694e-006 -5.8275746e-005 -0.00016642039 4.22757e-005 -0.30184507 -0.75167209
4764562500 0.034161333 -0.026733549 0.00015138584 0.00015102437 -4.9359998e-005 7.7980527e-005 -0.46545991 -0.66887772
4772050000 0.035824202 -0.026313946 -3.2670023e-006 3.2001266e-005 0.00023660717 0.00013209184 -0.60392416 -0.54837376
4779537500 0.037338436 -0.025771676 -0.00018994242 2.0738142e-005 3.1797576e-005 1.2271379e-006 -0.70932412 -0.39924446
4787025000 0.039173331 -0.02578018 7.2839597e-005 -0.00010633931 2.7894215e-005 -4.7614823e-005 -0.77418089 -0.23227087
4794512500 0.040611949 -0.025749069 -4.0026687e-005 0.00011582633 0.00016186784 5.0850045e-005 -0.7970109 -0.059141144
4802000000 0.041895088 -0.025898825 0.00028142307 8.6198073e-005 -0.00016800639 0.00013061709 -0.78246808 0.11090001
4809487500 0.043032084 -0.026366914 4.7600315e-005 -1.2422975e-005 -1.896601e-005 0.00012953956 -0.73444158 0.27137277
4816975000 0.044179052 -0.02723662 0.00020249373 4.2427982e-005 0.00015192799 1.9149122e-005 -0.65618253 0.41833159
4824462500 0.044548709 -0.027929911 4.0033396e-005 -8.4592342e-005 -1.5794376e-005 7.1812836e-005 -0.54986644 0.5482704
4831950000 0.044911843 -0.028238397 0.00015695763 -4.1712246e-005 4.3255777e-006 2.0480755e-005 -0.41566813 0.6575349
4839437500 0.04534997 -0.028613755 9.4947845e-006 1.2338059e-005 -7.2227544e-005 -0.00027612637 -0.25570515 0.73722124
4846925000 0.045254886 -0.029281335 -4.9662438e-005 -0.00018560696 6.8413283e-005 -2.9540417e-005 -0.07379666 0.78050268
4854412500 0.044431549 -0.0293396 -5.5745702e-005 -0.00026887102 3.0920848e-005 -8.4318352e-005 0.11875535 0.77545041
4861900000 0.043924604 -0.029557478 -0.00027017284 0.00012846488 6.6016481e-005 1.8680774e-005 0.3077659 0.71998549
4869387500 0.043377675 -0.029289618 9.6511103e-005 -7.6468095e-005 5.501667e-005 2.8852675e-005 0.4750635 0.61624414
4876875000 0.042247251 -0.028975222 0.00016781353 0.0001113921 -0.000221728 -0.00010895755 0.60671413 0.47377217
4884362500 0.041543767 -0.027909383 -5.7435165e-005 4.5670218e-005 -0.0001528478 -5.1117753e-005 0.6964286 0.30818024
4891850000 0.040726908 -0.02688849 0.00012951063 1.8512736e-005 7.6709155e-005 -0.00013589684 0.74256319 0.13333714
4899337500 0.039810508 -0.025538418 0.00015751297 -1.3014217e-006 0.00025648993 1.6851876e-005 0.74940437 -0.041327845
4906825000 0.039309312 -0.024584442 0.00026092018 -5.9355312e-005 -7.1093855e-005 -0.00022364889 0.72185767 -0.2098536
4914312500 0.03866588 -0.022782039 0.0002390733 -3.886754e-005 -0.00014910627 -0.00013446114 0.66243374 -0.36782157
4921800000 0.038458537 -0.020911844 -2.1043301e-005 1.2615636e-005 9.5102798e-005 7.5787008e-005 0.57094675 -0.51130879
4929287500 0.038152039 -0.018806316 7.2697818e-005 0.00013628601 -0.00015321428 -9.7632226e-005 0.4506079 -0.63569361
4936775000 0.037688442 -0.016866539 -0.00012798722 -0.00010601797 -8.2000137e-005 0.00010643595 0.30227032 -0.73202145
4944262500 0.038010724 -0.014651733 6.5948596e-005 0.00010495298 1.9299037e-005 -0.00010073549 0.13189395 -0.79310369
4951750000 0.038482755 -0.012532005 -0.00011646166 6.1076964e-005 -4.6484874e-005 4.435825e-005 -0.051344562 -0.81139976
4959237500 0.03919287 -0.010293186 7.2655341e-005 -9.3417089e-005 2.1054404e-005 -0.0002117074 -0.23403077 -0.78385496
4966725000 0.040138818 -0.0086374599 7.7997138e-005 -5.054244e-005 -0.00025835846 0.0001843419 -0.40521544 -0.71158624
4974212500 0.041046217 -0.0066843368 0.00010656346 0.00010634268 -0.00025890727 -0.00038058101 -0.55084014 -0.60135204
4981700000 0.041934919 -0.0045374124 0.00016628955 -2.0383883e-005 -0.00023320536 5.8894489e-006 -0.6652894 -0.46209356
4989187500 0.043324564 -0.0036924463 -0.00015867523 -5.2303472e-005 6.5634791e-005 0.00016109952 -0.74326682 -0.30155373
4996675000 0.044674169 -0.0021676265 5.9525857e-005 -0.00019560894 0.0002813834 -0.00022246367 -0.78316647 -0.1305126
5004162500 0.04605557 -0.00098190643 3.6049958e-005 9.286865e-005 9.1680304e-005 -0.00014387205 -0.78409606 0.044450734
5011650000 0.047495842 -0.00026989487 7.4021256e-005 -0.0001318953 -5.7195561e-005 6.7712652e-005 -0.74530041 0.21371172
5019137500 0.048436984 0.00041332355 -0.00026383184 0.00013110596 -0.00010288816 -0.00013671593 -0.67030126 0.36931485
5026625000 0.049674269 0.00059239758 -2.7919354e-005 -0.00027720071 -0.0001812207 -0.00019586323 -0.56388861 0.504637
5034112500 0.050365254 0.0010301059 0.00027846935 0.00011622511 -0.00011493356 0.00029680124 -0.43063885 0.61255145
5041600000 0.050779961 0.0013077208 3.3757657e-005 -8.1444348e-005 0.00018385563 0.00011532618 -0.27752197 0.68910652
5049087500 0.051389396 0.0010007735 5.3020489e-005 -0.00010461476 0.00010207415 8.1099628e-005 -0.1108562 0.73220068
5056575000 0.051440299 0.0012032994 0.00011828174 0.00034643567 -0.00012243487 0.00012459166 0.063296348 0.73936611
5064062500 0.05131875 0.001208758 -6.3545325e-005 -0.00027517715 -9.3416536e-005 7.532438e-005 0.23721099 0.70798051
5071550000 0.051159956 0.0016661481 -6.342891e-005 -0.00025987369 -8.4525585e-005 0.00014657293 0.40579256 0.63747543
5079037500 0.050561301 0.0020165427 4.1263287e-005 0.00011782377 -0.00020078475 -5.2312105e-005 0.55667967 0.52543086
5086525000 0.050234322 0.0023606396 4.9708011e-005 -0.00021028159 1.9795407e-005 7.8999738e-006 0.67928493 0.37534752
5094012500 0.04922232 0.0030757508 0.00022294518 0.00014086341 -6.3931104e-005 -8.8474753e-006 0.75874209 0.19575901
5101500000 0.048417497 0.0036915469 -0.000229 0.00012394352 4.564946e-005 -6.9418806e-005 0.78739512 0.0021055362
5108987500 0.047596768 0.0046860091 -0.00011991703 7.1786744e-005 0.00014748597 7.7541052e-005 0.76470804 -0.18936272
5116475000 0.046817433 0.0057892692 -0.00010452128 1.036041e-005 -0.00011953916 5.6403242e-005 0.69631678 -0.36209324
5123962500 0.046258837 0.0071814563 0.00012849229 5.0718285e-005 -2.2889508e-005 -0.00026672706 0.59341228 -0.50710237
5131450000 0.045373008 0.0085753212 -0.00014086934 0.00016713864 -0.00028560968 -4.7500456e-005 0.46778715 -0.62174332
5138937500 0.045112442 0.010440757 -3.3043787e-005 4.3255321e-005 -0.00014095102 0.0002993446 0.32666248 -0.70598137
5146425000 0.044529088 0.012344745 0.00017160534 0.00030610122 8.5971747e-005 0.00013400364 0.1740299 -0.7624681
5153912500 0.044467378 0.014101079 -0.00011862384 1.4838178e-005 -3.996653e-005 0.00011316482 0.012234919 -0.78901881
5161400000 0.04478249 0.016088085 -6.630244e-005 0.00014349086 8.2918457e-005 0.00018890956 -0.15650652 -0.78245085
5168887500 0.045097522 0.017652988 -0.00020131365 0.00013644841 -0.00025611473 0.00014962182 -0.32722348 -0.73782772
5176375000 0.045646526 0.019341657 0.00010782658 -7.2798299e-005 -8.6116459e-005 -0.00013288703 -0.48760596 -0.64924502
5183862500 0.046207421 0.020872619 -0.00035267707 -0.0001553388 -0.00019659438 0.00011908056 -0.62347329 -0.51991069
5191350000 0.047286417 0.022153923 -0.00024671433 -4.9642986e-005 0.00017382063 5.2478117e-005 -0.71992487 -0.35663632
5198837500 0.047999378 0.023041438 0.00013065354 6.0441067e-005 -6.1470491e-005 -3.363876e-005 -0.76845676 -0.17694569
5206325000 0.049054436 0.02352139 -1.7745706e-005 0.00012060561 6.2999628e-005 0.00010236283 -0.77001607 0.0028969604
5213812500 0.050059851 0.024045995 0.00014025178 9.5886084e-005 8.4476815e-005 -0.00014392326 -0.73139846 0.17021303
5221300000 0.051045451 0.023950936 -9.5313793e-005 -0.00012085732 0.00018064617 9.9310477e-005 -0.66250253 0.31981084
5228787500 0.051525835 0.024197368 5.5962821e-005 4.7101752e-005 0.00028756895 0.00026317744 -0.56915289 0.44939548
5236275000 0.051840521 0.023524148 0.0001917358 0.00019036859 -2.2643264e-005 -0.00012657377 -0.45513558 0.56084919
5243762500 0.051928457 0.022896605 0.00014843156 0.00016077771 -0.00010977992 4.1025905e-005 -0.31974456 0.65080494
5251250000 0.051805142 0.022326289 8.1256941e-005 -9.3833842e-006 -2.553384e-005 -2.9299452e-005 -0.16215079 0.71625525
5258737500 0.051552113 0.021080745 -0.00013399101 -0.00012586445 -0.00013798276 -1.3487823e-005 0.014833521 0.74645418
5266225000 0.050205983 0.020608814 -0.00024000909 -0.00011578134 -0.00019020836 2.6272652e-005 0.20285466 0.7313183
5273712500 0.049204361 0.019730249 -7.8007353e-005 -2.2210988e-005 -0.00017807959 0.00011358463 0.38603354 0.6646347
5281200000 0.047621559 0.01931802 -0.0001011804 -0.0001428797 -0.00012174348 -5.8863832e-005 0.54548675 0.54932225
5288687500 0.045759857 0.018878073 -7.8765021e-005 5.0327402e-005 1.0725777e-005 3.7854323e-005 0.66560787 0.39732826
5296175000 0.044182777 0.018627416 -0.00024073436 0.0001216887 0.00031234851 0.00015376968 0.73959905 0.22492035
5303662500 0.041747186 0.01898228 -7.2200717e-005 -3.048114e-005 0.0001088048 -8.2820901e-005 0.7702018 0.048484288
5311150000 0.03970369 0.018916938 0.0001566852 4.5758174e-005 -4.3357828e-005 -6.1550898e-005 0.7632395 -0.12451199
5318637500 0.037445065 0.02006338 -5.7748957e-006 3.6103138e-005 0.00031940654 -1.8294311e-005 0.72219288 -0.28947154
5326125000 0.035438497 0.021026934 7.8774799e-005 3.9553521e-005 2.4137569e-005 4.8962112e-005 0.64894104 -0.4445307
5333612500 0.033775836 0.021963283 0.00017326318 0.00012620952 -4.3188509e-005 0.00017163123 0.54178077 -0.58191013
5341100000 0.031465989 0.023878304 0.00014176112 0.00013314548 -4.159228e-006 -5.7451569e-005 0.40267476 -0.69660121
5348587500 0.029401444 0.025636047 5.9476195e-005 6.5869994e-005 2.3685707e-005 -0.00018084675 0.23418355 -0.77532578
5356075000 0.02830969 0.027930923 -0.00014217751 -0.00017860139 0.00012978996 -2.8904286e-005 0.047524411 -0.80661243
5363562500 0.027226094 0.030187676 -0.00038046294 -0.0001862311 0.00010207728 9.6026313e-005 -0.1383231 -0.78688926
5371050000 0.026390769 0.031820014 5.472542e-005 -0.00018115001 0.00010697178 0.00020262282 -0.30603686 -0.71932048
5378537500 0.025772961 0.033810765 0.00026281478 0.00013336858 0.00034741373 -0.00011338628 -0.44471535 -0.6190111
5386025000 0.025168415 0.035821274 -3.7194568e-005 0.00012759735 2.0289079e-005 0.00011515895 -0.55134195 -0.4974544
5393512500 0.025720758 0.037446313 3.5520865e-005 -2.8031307e-005 0.00017445047 2.3273635e-005 -0.62916148 -0.36504808
5401000000 0.026127851 0.03942062 -5.8326586e-005 0.0001040305 -0.0002260405 0.0003496439 -0.68124145 -0.2253218
5408487500 0.02632736 0.04014134 3.6289573e-005 0.00031511398 -0.00019062369 9.4304763e-005 -0.710926 -0.079656474
5415975000 0.027592599 0.041121379 0.00024254993 7.7455334e-005 0.00012904982 0.00013598005 -0.71635753 0.074612334
5423462500 0.028343672 0.04163539 -2.4832349e-005 -0.00026764921 0.00038539228 -0.00013597043 -0.69115812 0.2373786
5430950000 0.029100096 0.042107947 -0.00011325999 0.00019597127 -0.00012988996 0.0005047578 -0.62745506 0.40161008
5438437500 0.03012629 0.041125599 0.00012799629 -0.00036369273 -0.00014198385 7.8488367e-005 -0.51643354 0.55487412
5445925000 0.029980773 0.040726252 -0.0004441666 -0.00012273004 0.00029163854 6.3401843e-005 -0.35990527 0.67774981
5453412500 0.030498879 0.039656743 -0.00023655026 0.0001050661 -6.1893013e-005 0.00038777961 -0.17043619 0.75104827
5460900000 0.030503601 0.038369905 -6.2599865e-005 -0.00019958527 -0.0002057322 -0.00023863331 0.029185709 0.76589566
5468387500 0.029703068 0.037010852 4.2647176e-008 0.00018691778 1.0306943e-005 -0.00023839725 0.2177024 0.72601241
5475875000 0.028686993 0.035484992 -5.8326754e-005 -2.2430926e-005 0.00026899116 9.3716168e-005 0.38044578 0.64597738
5483362500 0.027799344 0.034101009 -0.00015047853 0.00021679576 0.00028845432 0.00012112119 0.51444119 0.53800452
5490850000 0.026043886 0.033189621 1.4890763e-005 1.8438541e-005 -0.00036982191 0.00024888705 0.61956942 0.41138738
5498337500 0.024035696 0.031427119 0.0001461401 0.00015306979 0.00012242049 -0.00033036061 0.69829637 0.26960105
5505825000 0.02174595 0.030136123 0.00016889258 -8.2669845e-005 3.1987434e-005 -7.573935e-005 0.75112683 0.11440963
5513312500 0.018903056 0.029706493 4.7554917e-005 -0.00012899308 -0.00041493159 1.881842e-005 0.77161247 -0.053618483
5520800000 0.015922263 0.029592333 -5.2066789e-005 -0.0001381912 5.7454647e-005 -0.00011020414 0.75334543 -0.22887444
5528287500 0.013137978 0.029394625 0.00022281284 -8.3652631e-005 -0.00014874597 7.0751135e-005 0.69145042 -0.40059409
5535775000 0.010421561 0.029824579 0.00010975518 -0.00018800281 0.00027720578 -2.1167587e-005 0.58235395 -0.55458611
5543262500 0.0082205972 0.030594297 -0.0001891198 -8.1732978e-005 4.953807e-005 -1.4592089e-005 0.43642953 -0.67425752
5550750000 0.0050272173 0.031351354 0.00014978455 -0.00016073252 0.00018465726 1.8358707e-005 0.26590377 -0.74837744
5558237500 0.0026375102 0.03304394 -5.9162834e-005 -0.00012880808 -0.00015408434 -0.00031834672 0.087076731 -0.77655816
5565725000 -0.00020951162 0.034948908 0.00029477972 0.00024649093 0.00013863224 -0.00029359874 -0.083840229 -0.76103747
5573212500 -0.0019677843 0.037070092 0.00017837904 0.00019904775 2.5239384e-005 0.00017541065 -0.2424718 -0.71106726
5580700000 -0.0028052793 0.038663886 -3.7391812e-005 7.4959942e-005 -8.0785125e-005 -5.4331569e-005 -0.38254195 -0.63174284
5588187500 -0.003625473 0.041107547 5.2998445e-007 -6.2242298e-006 8.4573912e-005 -0.00028038913 -0.50308681 -0.52904731
5595675000 -0.0043851268 0.043032166 4.991001e-005 0.00018690185 -1.6120011e-005 -5.7745918e-005 -0.60126793 -0.40431035
5603162500 -0.0048236395 0.0449448 -1.8911656e-005 -6.5173343e-005 5.8799837e-005 0.00030612061 -0.67422575 -0.26160118
5610650000 -0.0042238859 0.046753872 -9.8500779e-005 -0.00014922016 0.00018782931 -0.00020001491 -0.71678323 -0.10185696
5618137500 -0.0036617161 0.048424706 5.9310707e-005 -3.2750369e-005 -0.00017667579 -3.9575483e-005 -0.72452563 0.066669196
5625625000 -0.0024653377 0.049646404 -2.7610049e-005 0.00012716276 0.00026109238 -0.00011302676 -0.69308031 0.23773775
5633112500 -0.0016041909 0.049820725 -0.0004524751 -3.3450884e-005 7.1047107e-005 -2.67997e-005 -0.61929154 0.40057188
5640600000 -0.00028830901 0.050588995 -0.00024703183 0.0001609654 -7.3225347e-005 6.4764899e-005 -0.50785053 0.54209399
5648087500 0.0014751994 0.050030127 -0.00025366191 -6.7267007e-005 9.6363096e-005 9.6064119e-005 -0.36344397 0.6552428
5655575000 0.0025255394 0.049417529 -0.00017984389 -0.00013960441 0.00012683608 -0.00012026591 -0.19445576 0.73019654
5663062500 0.0032927885 0.047724057 -0.00018479077 9.2051094e-005 -0.00017559124 0.00024940984 -0.012002454 0.76180691
5670550000 0.0045026997 0.046297099 -0.00013938012 9.5203713e-006 0.00017243116 2.4256973e-005 0.17286605 0.74762279
5678037500 0.0048576938 0.044042323 -0.00037912471 -0.00042597426 0.000123886 0.00020115929 0.34766662 0.68904525
5685525000 0.0050925771 0.041818675 -0.00011824186 -0.00010392466 -6.2583116e-005 0.00048595737 0.50184387 0.59137064
5693012500 0.0046281028 0.039835121 -5.5980199e-005 -0.00021905484 0.00012670815 0.00012929682 0.62671995 0.4604173
5700500000 0.0041404041 0.036787488 8.0734644e-005 0.00012386798 0.00024001226 9.101077e-005 0.71566951 0.30634257
5707987500 0.0031314965 0.034734227 -5.9574184e-005 0.0002105376 -3.1718519e-005 -9.7241173e-005 0.76623774 0.13874584
5715475000 0.0015262179 0.032084845 6.9261427e-005 2.626819e-005 -7.4226036e-006 -0.00013618733 0.77823961 -0.033034563
5722962500 -0.00019006501 0.030117076 -0.00024201628 -0.0001020084 0.0004008103 -0.00016877739 0.75188136 -0.20347694
5730450000 -0.0031206554 0.027734805 -8.2127815e-005 0.00018874639 0.0001203245 5.9334699e-005 0.68907994 -0.36189982
5737937500 -0.0056163096 0.02677989 -6.2190382e-005 -0.00011305516 0.00011382475 -0.00014944414 0.59252155 -0.50322461
5745425000 -0.0077441195 0.025437342 -0.00011069216 0.00029848979 -0.00015096554 0.00018580485 0.46513072 -0.62022519
5752912500 -0.010589155 0.025012402 -0.00027164875 0.00018352202 7.2351737e-005 -0.00025487569 0.31408682 -0.70403737
5760400000 -0.013551835 0.024966408 -6.437827e-005 -0.00013262681 2.6327367e-005 8.2540173e-005 0.14802398 -0.74984688
5767887500 -0.016023761 0.02480799 2.8053371e-006 -0.00035708325 -0.00011286273 -0.00023116327 -0.02344943 -0.75627303
5775375000 -0.018368404 0.025534173 -0.00027317595 -2.4887317e-005 -7.356835e-005 -3.0937812e-005 -0.18991302 -0.72316206
5782862500 -0.020336088 0.026601357 0.00022214178 0.0001939839 0.00025781029 -0.00040621866 -0.34278488 -0.65512896
5790350000 -0.022357088 0.027621819 6.9981295e-005 0.00032456231 -5.0136827e-005 5.5215041e-005 -0.47498831 -0.55705047
5797837500 -0.023089809 0.029132161 -0.00025557834 -4.091646e-005 0.00017342751 -6.724284e-006 -0.58427185 -0.43457255
5805325000 -0.023579542 0.030104756 0.00030159415 -2.2258137e-006 1.571012e-005 0.00038389501 -0.66805327 -0.2911537
5812812500 -0.024049575 0.032248784 -7.2534613e-006 0.00015238808 8.6171291e-005 -0.00012299484 -0.72084624 -0.13057777
5820300000 -0.024047008 0.033026535 -4.2534255e-005 0.00031340678 -0.0001250598 0.00035336765 -0.73890865 0.04296153
5827787500 -0.023371398 0.034083642 -0.00046096058 0.00024575461 0.00011636758 -0.00011990572 -0.71356028 0.22096282
5835275000 -0.022249363 0.034825452 -8.2807099e-005 -5.3984564e-005 5.2739117e-005 2.7741524e-005 -0.64445728 0.39286903
5842762500 -0.020973941 0.035672519 0.0001697359 2.9384512e-007 0.00029653279 -0.00013993747 -0.53028983 0.54424262
5850250000 -0.019105496 0.035438586 0.00015792494 -0.00010045108 6.8468878e-005 3.9377956e-005 -0.38023001 0.65825438
5857737500 -0.017459495 0.034547355 -0.00012383988 -0.00027897896 6.1934756e-005 8.671065e-005 -0.20977306 0.72900307
5865225000 -0.016375968 0.033314414 -0.00028222398 0.00024417098 -0.00017131185 7.9133919e-005 -0.032123297 0.75453937
5872712500 -0.014106963 0.032041736 -0.00015015254 -0.00038633242 -0.00030316846 1.2999198e-005 0.14010967 0.7384066
5880200000 -0.013067621 0.030050036 -1.3867626e-005 0.00020472045 -0.00012169627 0.0001481123 0.29813841 0.68732053
5887687500 -0.011556054 0.027562065 0.00014422438 0.00027732688 -6.710842e-005 -3.0615513e-005 0.44169158 0.60873616
5895175000 -0.011209144 0.024718504 0.00012288043 -0.00019363365 0.0001227153 -0.00023376803 0.56626517 0.50396973
5902662500 -0.010884792 0.021986231 -1.0131016e-006 6.9016787e-005 -5.6429126e-005 -9.074463e-005 0.67003304 0.3724564
5910150000 -0.011050978 0.018991821 7.1885377e-005 -0.00030521033 -0.00022378053 -0.00017040363 0.74617964 0.21839523
5917637500 -0.011300166 0.015774287 -0.00033638676 0.00020590676 0.00018958014 -0.00034469157 0.78635001 0.043519914
5925125000 -0.012404132 0.012954362 -0.00019436196 0.00021392973 2.4873809e-005 -0.0002447388 0.77941436 -0.14181809
5932612500 -0.0143832 0.010138713 0.0001496019 7.495693e-005 0.00033006971 0.00022060901 0.72386247 -0.32256857
5940100000 -0.015492789 0.0078835413 -0.00030080901 4.5975277e-005 -2.2152095e-005 -0.00020432516 0.62075812 -0.47998416
5947587500 -0.01800983 0.0057552923 -1.6388232e-005 8.6485352e-006 -2.1258978e-005 -5.9345625e-006 0.48311278 -0.60216027
5955075000 -0.020131927 0.0043445262 0.00015067423 -6.4329455e-005 2.9466788e-005 0.00020908304 0.3262116 -0.68293852
5962562500 -0.022710117 0.0031603628 0.00021307207 8.4400337e-005 0.00015552875 -0.00023564465 0.16193457 -0.72379071
5970050000 -0.025347443 0.0019090414 -0.00020107783 0.0001670968 0.00018858498 5.2426883e-005 -0.00020675344 -0.72890353
5977537500 -0.02732826 0.002610896 -0.00017068161 -0.00017965885 4.7502206e-005 -9.67288e-005 -0.15718287 -0.70293891
5985025000 -0.029889366 0.0023558824 9.1095761e-005 -2.1280181e-005 4.7382815e-005 0.0002005354 -0.30536771 -0.64882249
5992512500 -0.031382378 0.0027838333 -0.00021449786 -0.00019742583 -7.1059185e-005 -3.5379019e-006 -0.44148231 -0.56641191
6000000000 -0.032963149 0.0042082584 -0.00026373623 0.00011474299 9.8207769e-005 1.6436901e-005 -0.56178099 -0.45518112
