!Keysight Technologies,N5245B,MY52501319,Z.13.01.242
!Date: Monday, February 16, 2026 14:40:45
!Correction: S11(Off) 
!S21(Off) 
!S12(Off) 
!S22(Off) 
!S2P File: Measurements: S11, S21, S12, S22:
# Hz S  RI   R 50
10000000 0.83490407 -0.45837381 0.0049154679 0.0008261695 -0.0019488388 -0.00014064964 0.88296413 -0.16707598
17487500 0.72449505 -0.56840688 0.0017622703 -0.0003490652 -0.0015567099 0.0022151107 0.79515171 -0.41697487
24975000 0.60118109 -0.70153123 -0.0015329979 0.0012269631 -0.00010507341 -0.00057138538 0.65421557 -0.59527552
32462500 0.44456521 -0.81491554 -0.00097735575 4.7783957e-005 -0.00032969462 -0.00022082377 0.49325463 -0.7389375
39950000 0.26079887 -0.90184796 -0.00078532769 -0.00022430473 7.1719463e-005 0.00040495725 0.30871308 -0.83573151
47437500 0.053395879 -0.94717276 0.0001386876 -0.00068260159 0.00047420544 -1.230046e-005 0.10183781 -0.8996647
54925000 -0.16723084 -0.95020032 -0.00026803103 -0.0010582568 -0.0013110834 -0.00030441326 -0.11612222 -0.90551627
62412500 -0.38567743 -0.89760506 -0.00032276678 -6.0206353e-006 0.00012286632 0.00088984531 -0.32892603 -0.86417437
69900000 -0.58775628 -0.79211551 -0.000834418 0.00068209792 -0.00037506677 -0.00045994492 -0.52560568 -0.76406646
77387500 -0.76207632 -0.63485843 0.00031255154 -0.00060527708 0.00018577377 -0.0007607204 -0.69095421 -0.62168467
84875000 -0.88803351 -0.44172117 -0.00037878449 0.0001844373 9.1817574e-006 0.0012967977 -0.81314242 -0.44538519
92362500 -0.959144 -0.2274415 -0.00023185044 -0.00067486119 0.00060628442 0.00015543762 -0.89223331 -0.24943098
99850000 -0.9787932 -0.010391182 -0.00020630615 0.00038998015 0.00047991867 0.00032807214 -0.92187667 -0.044883441
107337500 -0.94983023 0.19956975 -0.00067967828 0.0011849809 0.00052547274 -0.00049641746 -0.90663916 0.1594227
114825000 -0.88077253 0.39774889 -0.00032013489 -0.00017336875 0.00020540586 -0.00021768444 -0.8491767 0.35493222
122312500 -0.77652586 0.57303339 0.00082355872 -0.00031574685 0.00018816294 -0.0010276559 -0.74936455 0.53529525
129800000 -0.63672656 0.72723776 -0.00030137331 -0.00053310517 -0.00061245717 0.00028711176 -0.61399186 0.69114673
137287500 -0.46433267 0.85107803 6.8286281e-006 -0.00028018156 0.00020833105 -8.6959088e-005 -0.4429763 0.81306678
144775000 -0.26504302 0.93492436 6.9152818e-005 -0.00025378817 -0.00022869921 -0.00013524613 -0.24786554 0.89421165
152262500 -0.044011705 0.9720937 -0.00071999419 -1.3877757e-005 -0.00016144566 0.00020596177 -0.03727331 0.92458248
159750000 0.1809524 0.95726335 -0.00058491383 -0.00042390754 0.00051685493 -0.00051276165 0.17483209 0.90476829
167237500 0.40008929 0.88545412 0.0003559608 0.00048863451 0.00024475524 -0.00029324787 0.37511581 0.83997232
174725000 0.59310633 0.76118904 -0.00056744495 -0.00016758248 -7.0016984e-005 -0.00022626475 0.55536509 0.73064661
182212500 0.75000232 0.59548706 0.00015178521 -8.9549823e-005 0.00017362715 0.00048098993 0.70696723 0.58389157
189700000 0.86252141 0.40076506 -0.00028345914 0.00017966094 0.00010421239 0.000122635 0.8206175 0.40336242
197187500 0.92745888 0.18912362 -3.0193689e-005 -0.00030434792 6.0805023e-006 4.7719852e-005 0.89152986 0.20120339
204675000 0.94569576 -0.030996742 3.8733026e-005 -4.6783305e-005 -6.5089283e-005 -0.00022138836 0.916587 -0.01409493
212162500 0.91084212 -0.2495831 -0.00045985793 -0.00059462752 -0.00035343171 7.0001362e-005 0.88350129 -0.23144025
219650000 0.83000565 -0.45323575 0.00016296063 -0.00053194416 -0.00041167554 0.00095941965 0.80305588 -0.43556151
227137500 0.70448458 -0.6364854 0.00019755153 -0.00015227709 0.00037850445 -0.00037366722 0.67278147 -0.61230987
234625000 0.53713077 -0.78636992 0.0002705025 -0.00054477307 8.9303721e-005 -1.4339162e-005 0.50839883 -0.75304562
242112500 0.34004527 -0.89691657 -0.00011923625 0.00039850487 0.0004474592 0.0001072842 0.31623393 -0.84451914
249600000 0.12241541 -0.95298398 -4.9814822e-005 7.7327513e-006 -0.00040218557 0.00070598762 0.11043999 -0.88946933
257087500 -0.10149054 -0.95696145 -0.00080522383 -0.00080046331 -0.00023748721 0.00039230016 -0.09659794 -0.8943519
264575000 -0.31912458 -0.90780795 -0.00035894586 -0.00032628531 -4.9928898e-005 -0.00069432298 -0.29644969 -0.85052967
272062500 -0.51791972 -0.81002212 -9.726773e-005 0.00029799371 0.00018023903 -0.0010127779 -0.48475075 -0.76334268
279550000 -0.68794858 -0.67194557 0.00035128006 -0.00011074064 8.0084865e-006 2.0992755e-005 -0.64645064 -0.63439184
287037500 -0.81772953 -0.50249112 -3.2398224e-005 -0.00033945634 0.00084741187 1.5933987e-006 -0.77707446 -0.47226259
294525000 -0.90634048 -0.30673259 8.6893881e-005 -0.00032879633 4.7211641e-005 0.00054344616 -0.86683601 -0.28287545
302012500 -0.95116901 -0.10036428 0.00032042197 9.3180075e-005 -0.00027521283 -0.00014323674 -0.90869182 -0.078799069
309500000 -0.94829726 0.10925457 -0.00010790581 -0.00031782489 -0.00011174973 0.0002978463 -0.90054512 0.12856492
316987500 -0.90178853 0.31383598 -0.00013972956 0.00016166747 2.5675774e-005 -0.00050172047 -0.84595889 0.32702875
324475000 -0.81026059 0.50201035 0.00025265708 8.9286288e-005 0.00052475452 0.00030184779 -0.75052309 0.50269449
331962500 -0.68063372 0.66447741 0.0002756998 1.7074524e-005 -0.00070973125 -6.5953311e-005 -0.620601 0.65279478
339450000 -0.51566994 0.79983532 -0.00054897636 -0.00044440158 -0.00020156543 0.00057082524 -0.46269014 0.77229548
346937500 -0.32541743 0.89568102 0.00033023948 2.912415e-005 -0.0001627865 0.00020224783 -0.28422117 0.85711682
354425000 -0.11615112 0.94726831 -7.9896308e-005 0.00010848256 0.00016013408 -2.597242e-005 -0.087674193 0.90402603
361912500 0.10479262 0.95199478 3.2890308e-005 -0.00030897895 0.0005627136 0.00020063679 0.11737538 0.90585434
369400000 0.32437122 0.90320337 -0.00018172982 -0.00022760086 -0.00042420925 6.8656213e-005 0.32695082 0.86159772
376887500 0.52903217 0.80143589 -8.924563e-005 -0.00028137674 0.00021305124 -0.0010956529 0.52390277 0.76481968
384375000 0.70539987 0.65179616 -0.0001786197 -8.9985922e-005 0.0001080593 -0.0003617522 0.69454175 0.61627412
391862500 0.84024024 0.46069112 0.00011998309 -0.00060978439 -0.00079907494 3.8950351e-005 0.82049555 0.42719206
399350000 0.92335314 0.24465565 -0.00033708199 -5.5738442e-006 -0.00033702629 -0.00039795871 0.8921864 0.21251197
406837500 0.94699967 0.019052593 -0.00033119749 -0.00010488019 0.00024033568 -0.00043220737 0.90537858 -0.0085846251
414325000 0.921224 -0.20326155 -5.5548626e-005 -0.00070395233 -4.4375371e-005 2.1437827e-005 0.86572737 -0.21938071
421812500 0.84485364 -0.4097701 0.00090680004 -0.00060241215 -0.00028171737 -0.00011118092 0.78205127 -0.41121048
429300000 0.72675884 -0.58853579 3.9752322e-005 -0.00023829786 0.00083993893 0.00091915589 0.66115814 -0.57550591
436787500 0.57418126 -0.73580033 0.00035173085 0.00017356804 -0.00063515431 0.00027952448 0.51140916 -0.70886815
444275000 0.39378965 -0.84868902 0.00018569433 0.00014641789 0.00057550386 -0.00011023298 0.3387543 -0.80748636
451762500 0.1922725 -0.91943461 0.00029105198 0.00036100773 0.00028708964 -0.00017122486 0.14777727 -0.86806464
459250000 -0.021097092 -0.94405335 -7.1039714e-005 -0.00045059013 -0.00037406493 0.00040228342 -0.054229509 -0.88620251
466737500 -0.23782825 -0.91713607 0.0005779168 -8.7843051e-005 -0.00035646654 0.0007672254 -0.26132533 -0.85828394
474225000 -0.44141608 -0.8404898 0.000981202 2.0591304e-005 -0.00024753166 0.00027515716 -0.455217 -0.77950007
481712500 -0.62306941 -0.72171217 0.00075321126 -0.00045763617 7.6112905e-005 2.3774286e-005 -0.62322587 -0.65623659
489200000 -0.77155453 -0.56042886 0.00017495014 0.00011021363 2.6895672e-005 5.449056e-005 -0.75608003 -0.49506271
496687500 -0.87542164 -0.37224185 -0.00016008582 -0.00047264411 0.0001411078 0.0002289577 -0.84734589 -0.3095229
504175000 -0.93855697 -0.16966186 0.00038982354 -0.000948428 3.8585607e-005 0.00011234153 -0.88896513 -0.1122978
511662500 -0.94797188 0.040557865 7.3217852e-005 8.8217224e-005 0.00030206377 0.00026164958 -0.89067143 0.085782371
519150000 -0.91231191 0.24773782 5.0918014e-005 -0.00016690108 -0.00021638726 0.00012043669 -0.85086983 0.27805838
526637500 -0.83565056 0.44035456 -7.9674253e-005 -9.1365211e-005 0.00025632523 -6.2309598e-005 -0.77144295 0.45818722
534125000 -0.71786487 0.61373913 0.00033953573 -0.00041215698 -0.0004048078 0.00014696036 -0.65442795 0.61976236
541612500 -0.56385708 0.7595579 -0.00045884849 0.00028263478 -0.00020725773 0.00059743406 -0.50292987 0.75275797
549100000 -0.37758052 0.87216705 0.00032962111 0.00022810108 0.00012497143 0.00026373551 -0.31963333 0.85039043
556587500 -0.16639724 0.9375568 0.00054011558 0.00040771917 0.00072851143 -2.7648979e-005 -0.11588895 0.90045953
564075000 0.057176776 0.95050639 -0.00013563929 0.00028418447 0.00050955405 -0.00036794695 0.09570308 0.9015193
571562500 0.27934819 0.90828574 0.00011494118 -7.4860633e-005 -3.4072949e-005 0.00010929794 0.30069831 0.85077524
579050000 0.48443735 0.81319946 0.00037738416 -7.2547933e-005 -4.638419e-005 -0.00033618277 0.48664212 0.75059694
586537500 0.65804911 0.67455947 -0.00016738473 9.4244067e-005 8.9798472e-005 0.00027743334 0.6420365 0.61196953
594025000 0.79408693 0.50065595 -0.00028015699 -0.0001332901 -9.1806316e-005 0.00048833789 0.76163679 0.44304106
601512500 0.88595539 0.30285186 -6.6938614e-005 -0.0001124054 -0.00030548207 7.572036e-005 0.83895355 0.25327235
609000000 0.9297412 0.090916336 0.00036151669 0.00055960013 6.0680901e-005 1.0407937e-005 0.87323278 0.050424408
616487500 0.92709339 -0.12436086 0.00012578373 -0.00037172611 4.940174e-005 0.00037387616 0.86227888 -0.15574402
623975000 0.87733245 -0.3352178 -0.00016191813 7.6865865e-005 0.00031478665 -6.6780136e-005 0.80227101 -0.35584021
631462500 0.76835096 -0.5454179 0.00033567625 -0.00026581442 0.0003563762 -0.00023964705 0.70839071 -0.52402395
638950000 0.62230814 -0.71031481 0.00014387954 -0.00035284023 0.00053780922 -0.00023663287 0.56425774 -0.68028224
646437500 0.44175836 -0.835051 -0.00010981581 0.00017676545 -0.00030777178 -0.00013867293 0.38725814 -0.79694146
653925000 0.23715362 -0.91424412 0.00028404171 0.00034275962 -0.0002971775 0.00050454325 0.18697353 -0.86690891
661412500 0.021664957 -0.94059104 7.7184137e-005 1.3788949e-005 -3.2496151e-005 0.00042274789 -0.021973958 -0.88610566
668900000 -0.19042797 -0.91838413 -0.00022121832 -0.000194874 -4.9868726e-005 -0.00049987348 -0.22469272 -0.85608637
676387500 -0.3876051 -0.84687692 0.00047021132 0.00014964219 0.00020701009 1.193061e-005 -0.4129402 -0.78277725
683875000 -0.56223178 -0.73796749 0.00015954411 -6.4408152e-005 9.4680188e-005 -0.00015293747 -0.5772382 -0.67039669
691362500 -0.70798981 -0.5975368 -0.00030231764 -0.00028375661 -0.00015699396 -0.00022047402 -0.71308357 -0.52682912
698850000 -0.81961894 -0.43017569 -0.00018508898 0.00013148911 -0.00010107235 0.0004493951 -0.81423783 -0.35863331
706337500 -0.89689976 -0.24129958 2.1038903e-005 -0.00027825258 -0.00051161292 9.011942e-006 -0.87833381 -0.1701854
713825000 -0.9318192 -0.037794404 0.00012641383 0.00013512599 0.00013652619 5.4791012e-006 -0.89855814 0.028735701
721312500 -0.92339146 0.17190476 6.0367397e-006 -1.244417e-005 0.00036626225 0.00034562417 -0.87274569 0.22997655
728800000 -0.86342758 0.37971693 -0.00015236878 -0.00014769884 0.00012692447 -0.00014096996 -0.79917562 0.42130494
736287500 -0.75524902 0.57157952 0.0002427399 0.00035495104 0.00010038015 -0.00019291477 -0.6828844 0.59036893
743775000 -0.60139632 0.73299778 0.00018203647 0.00027183272 0.00021106951 -0.00049167679 -0.53027838 0.72696525
751262500 -0.40922529 0.85347039 -9.1511938e-005 -6.2032617e-005 0.00012942085 0.00022139378 -0.35128313 0.82234395
758750000 -0.19530581 0.9209587 0.00058072881 -9.8453333e-005 9.2157461e-006 -0.00010530543 -0.15654446 0.8748374
766237500 0.026985954 0.9339447 -2.1721669e-005 -0.00019115071 0.00029995095 -0.0001211511 0.043006264 0.88281
773725000 0.2424957 0.89593214 -0.00010619652 -0.00037085803 -8.6578635e-005 0.000506296 0.24026997 0.84599948
781212500 0.44121879 0.81046528 -0.00026476543 0.00010090782 6.9924681e-005 -0.00036526634 0.42385373 0.7679441
788700000 0.61380297 0.68347716 -0.00028278807 0.00011219783 8.6035849e-005 -0.00011830123 0.58794379 0.65142423
796187500 0.75346023 0.52463591 -0.00022254091 -5.6577514e-006 6.2639891e-005 0.00039769674 0.72369021 0.49912569
803675000 0.85263211 0.33731541 3.710885e-005 0.00015830595 0.00013538291 9.6482137e-005 0.82168514 0.31626505
811162500 0.91112006 0.13199839 0.00011108795 4.6826346e-005 0.00048818756 -0.00024812945 0.87418777 0.11417127
818650000 0.92039114 -0.0818111 -0.00015457399 -0.00013089945 -2.0662717e-005 -6.735151e-005 0.87745619 -0.09661416
826137500 0.87922579 -0.29567119 0.00018501507 0.00018799886 0.00011642002 -0.00037212681 0.8308956 -0.30526358
833625000 0.78988278 -0.49529985 -0.0002393368 -0.00013659323 5.3599601e-005 0.00014544201 0.73485184 -0.49419928
841112500 0.65412825 -0.66831774 7.7713652e-005 -0.00026014069 0.0002020614 -0.00026735145 0.59718388 -0.65424693
848600000 0.47981077 -0.80305403 -0.00015495885 -0.00014201194 9.7811724e-005 0.00027238979 0.42654791 -0.77505678
856087500 0.27992588 -0.89119744 6.4182044e-005 0.000231568 0.00011105393 0.00030406605 0.23375624 -0.85210294
863575000 0.065983452 -0.92761594 0.00020411587 0.00023170364 4.2929107e-005 0.00025378406 0.030698698 -0.88120836
871062500 -0.14647727 -0.9129256 -7.1032235e-005 0.00014322512 -1.8059003e-005 -5.1664574e-005 -0.17197676 -0.86186123
878550000 -0.34689099 -0.85208929 -8.2500796e-005 0.00052130851 -0.00021826674 -2.0714831e-005 -0.3603543 -0.79894012
886037500 -0.52417624 -0.74938744 -8.8169918e-006 -0.00011397451 -0.00020142786 -0.00014142263 -0.52734905 -0.69892037
893525000 -0.6731652 -0.61126244 -6.1681436e-005 8.8870751e-005 0.00020439252 -0.00013391819 -0.66442949 -0.56577814
901012500 -0.78808588 -0.44772705 3.0131958e-005 8.9608751e-005 4.866692e-005 -0.00047528261 -0.76931411 -0.40785441
908500000 -0.86520797 -0.26434043 -0.00034396737 0.00022959645 0.00028365015 8.5431566e-006 -0.83976227 -0.22949904
915987500 -0.90383261 -0.066584431 0.00013624904 -0.00035283796 -7.9956604e-005 -0.0001047323 -0.86826134 -0.042399004
923475000 -0.90029657 0.13669419 6.7358247e-005 -0.0002245053 0.00012815002 0.00017841048 -0.8588146 0.14564861
930962500 -0.85034424 0.33570528 0.00019464531 7.8486009e-005 -0.00022962241 -1.2325209e-005 -0.80896217 0.32893437
938450000 -0.75772351 0.52370006 0.00014537357 0.00027111746 0.00021629367 0.00026861401 -0.71966249 0.50081068
945937500 -0.61904579 0.68909043 -6.54498e-005 -8.1274186e-005 0.00016346377 -0.00029439529 -0.59153235 0.65402329
953425000 -0.44096923 0.81998456 -3.1543732e-005 0.00026846642 4.2827196e-006 -0.00013034398 -0.42687094 0.77611029
960912500 -0.23214985 0.90312421 -9.7147968e-005 -0.00013836694 9.5677715e-005 -7.4871212e-005 -0.23319073 0.85667545
968400000 -0.011726569 0.93010914 0.00013405186 -0.00021756491 -0.00020251876 -0.00025320775 -0.024200991 0.88600838
975887500 0.20569135 0.90251774 -0.00011466849 -0.00017624516 -0.00012276007 -6.205099e-006 0.18527208 0.86131293
983375000 0.40844408 0.82327461 -0.00025682701 9.1564296e-005 0.00024385939 0.00024954544 0.37989828 0.7867077
990862500 0.58170539 0.7026009 0.00016855243 6.7741843e-005 -0.00013671425 8.3542116e-005 0.54947066 0.66998255
998350000 0.72318423 0.54903126 0.00038871571 -0.00018483942 0.00025064847 5.7822002e-005 0.68528205 0.52044547
1005837500 0.82082754 0.3910253 0.00023966817 -6.1843682e-005 -3.6103811e-005 6.9820824e-005 0.79245287 0.33201292
1013325000 0.89084899 0.19853486 4.5372923e-005 -0.00022963279 -8.2510567e-005 -3.1368556e-005 0.84923434 0.14340053
1020812500 0.91963613 -0.007039194 3.8605827e-005 0.00022806243 4.5795816e-005 0.00014359372 0.86499482 -0.056197621
1028300000 0.90184665 -0.21763256 -0.00023916514 -0.00012357401 -2.0691092e-005 -0.00013957286 0.83756471 -0.25888306
1035787500 0.83453393 -0.42332917 -0.00036932729 9.764246e-006 9.2442802e-005 -0.00026582609 0.76073617 -0.45572606
1043275000 0.71640664 -0.61126751 -9.2521499e-005 -5.0134844e-005 -1.997025e-005 1.6700258e-005 0.63456726 -0.63044643
1050762500 0.55234319 -0.764121 -6.0318882e-005 -0.00029248925 0.00010184904 6.4975444e-005 0.46458945 -0.76976681
1058250000 0.35528353 -0.87397778 0.00011819148 -4.2652489e-005 -0.00026249306 -6.7308341e-005 0.26636073 -0.85910362
1065737500 0.13939387 -0.92644209 0.00015957863 -9.1374481e-005 -0.00021874873 5.8441645e-005 0.054469593 -0.89256328
1073225000 -0.077796035 -0.92438459 -0.00034542248 4.3866195e-005 -0.00017775188 -0.00027663144 -0.15238258 -0.87190306
1080712500 -0.28192857 -0.87262583 -7.3440679e-005 0.00015951104 4.37415e-005 0.00016403632 -0.33908185 -0.80631721
1088200000 -0.461918 -0.78006858 8.9914538e-005 -0.00014064852 -0.00014988281 -0.00038750863 -0.50058532 -0.70529181
1095687500 -0.61532438 -0.65378368 -0.00014711481 0.00028703257 -0.00013484682 -0.0001190285 -0.63377327 -0.57751679
1103175000 -0.74035347 -0.50305027 -0.00038578609 -0.00020566711 0.00015909875 -0.00031138785 -0.73992383 -0.43029058
1110662500 -0.83415163 -0.32909685 -0.00035234026 -0.00033577727 -0.0002857417 -0.00018967192 -0.81560642 -0.2657814
1118150000 -0.89083475 -0.13660175 -0.00014050702 0.00032542113 -0.00013047905 6.076245e-005 -0.85870576 -0.086135596
1125637500 -0.90576124 0.069934286 -4.4057211e-005 7.0848968e-005 0.00019727563 4.7330584e-005 -0.86415023 0.10394754
1133125000 -0.87006605 0.27917898 -4.1548981e-005 -0.00010408967 -0.00010796822 7.9852733e-005 -0.82602948 0.29769096
1140612500 -0.78406024 0.47783083 3.0003301e-005 0.00016247592 0.00011302063 -0.00027577361 -0.74005473 0.48240694
1148100000 -0.65004671 0.65034187 -0.00036886713 4.5215265e-006 -1.0227941e-005 0.00021454782 -0.60790116 0.64262086
1155587500 -0.47418469 0.78365701 -0.00011197211 -8.9983705e-006 0.00017520506 3.1299984e-005 -0.43828398 0.76595646
1163075000 -0.27391824 0.86711311 -8.5010543e-005 0.00017576892 0.00027661127 -2.3798348e-005 -0.24432915 0.84204334
1170562500 -0.064259432 0.89889592 0.00022997281 -0.00020494789 -0.0001013621 -0.0001326834 -0.041467398 0.86979687
1178050000 0.14096496 0.88357663 6.6670364e-005 0.00013710129 2.1991147e-005 0.0002893121 0.15888022 0.8498199
1185537500 0.33450404 0.82620275 -6.8068999e-005 -5.7610298e-005 -0.00022724029 0.00011947709 0.34839258 0.78853548
1193025000 0.5095917 0.73118037 0.00017937558 -0.00015977789 -1.8888384e-005 -0.00032694868 0.5195387 0.68830186
1200512500 0.66389209 0.60218555 -2.237881e-005 0.00028803066 0.00033270332 0.00020281039 0.66838408 0.55266738
1208000000 0.78664464 0.43838251 -1.6701537e-005 -0.00020596292 -0.00035914994 1.8280907e-005 0.78568351 0.38332415
1215487500 0.87227005 0.24775109 0.00026378673 0.00023504833 4.3935092e-005 -0.00012934429 0.86133003 0.1860877
1222975000 0.91195536 0.038160786 -0.00046391416 0.00013413189 -1.8627881e-005 -2.6255833e-005 0.8864367 -0.028429644
1230462500 0.89735717 -0.17763917 -0.00016989908 0.00032460951 4.8118214e-005 -0.00022446419 0.85417485 -0.24362446
1237950000 0.82814825 -0.38390544 5.5585602e-005 -7.0762428e-005 -0.00018239512 -2.8771066e-005 0.76734793 -0.44061905
1245437500 0.71214116 -0.5632394 0.00033175462 -2.7480593e-005 0.00035580335 2.2709407e-006 0.63615674 -0.60458964
1252925000 0.55819952 -0.7049861 0.00037570752 8.3069062e-005 0.00029713227 0.00030364862 0.47410607 -0.72649521
1260412500 0.38132769 -0.80410171 7.892678e-005 -3.5330384e-005 -0.00034384715 2.6670759e-005 0.296904 -0.80692875
1267900000 0.19335103 -0.86089104 -0.0001191776 8.3387262e-005 6.0112197e-005 -0.00045309501 0.11360355 -0.84615588
1275387500 0.0013570073 -0.8783077 -0.00015546753 2.2812721e-005 -0.0002002164 5.9727507e-005 -0.068914592 -0.84823334
1282875000 -0.18860905 -0.85822898 -0.00013968446 5.0201506e-005 -8.5044579e-005 -1.759115e-005 -0.24787989 -0.81538004
1290362500 -0.37349033 -0.80056363 0.00030767868 -2.0897531e-005 0.00019541358 0.00025765441 -0.42100769 -0.74888772
1297850000 -0.54764748 -0.70328844 -0.00022387493 -4.0126681e-005 -7.8859244e-005 -0.00014287296 -0.58047104 -0.64549291
1305337500 -0.7004981 -0.56575769 -7.3492015e-006 -6.9574189e-006 8.0196362e-005 -0.00028752224 -0.71784592 -0.50390244
1312825000 -0.82065892 -0.39084312 -5.0757575e-005 -0.00025433311 -0.00017555019 -2.4933084e-005 -0.82220894 -0.32754549
1320312500 -0.89601171 -0.18588705 2.7012254e-006 8.9571397e-005 -0.00020785161 -9.3107637e-006 -0.87868553 -0.12563075
1327800000 -0.91452491 0.034992952 1.6297967e-005 0.00011537968 -6.9441412e-005 -0.00023576879 -0.87980431 0.085565604
1335287500 -0.87596941 0.25222105 7.0078604e-005 0.00016208172 -2.5274769e-005 0.00017925033 -0.82700324 0.28785068
1342775000 -0.78518742 0.44815564 -6.0135193e-005 0.0004619094 5.851925e-005 4.9966104e-005 -0.72777551 0.46523231
1350262500 -0.65314966 0.61077774 -0.00040301721 -6.908473e-005 2.407226e-006 -0.00032033215 -0.59387839 0.60813075
1357750000 -0.49303544 0.73634988 -0.00033556047 -0.00012311387 6.6748027e-005 -2.3381872e-005 -0.43856472 0.71510291
1365237500 -0.31552789 0.82274544 0.00036861183 -0.00014674151 4.3803539e-005 6.4754808e-005 -0.26952824 0.78791559
1372725000 -0.12655658 0.87121058 8.3375337e-005 4.5242774e-005 0.00014678788 -0.00022644993 -0.09136568 0.82664287
1380212500 0.069185682 0.88197857 -0.00033309168 -4.2510103e-005 -0.00010947265 0.00015337094 0.092754163 0.83177078
1387700000 0.26724732 0.85182476 9.0128589e-005 0.00022058877 0.00016127933 3.7729198e-005 0.2793434 0.79860675
1395187500 0.46023056 0.77754486 0.00015083005 2.7189972e-006 0.00016526809 -2.7983046e-005 0.46234176 0.72394031
1402675000 0.6358602 0.6558165 2.5316858e-005 0.00018850973 -4.3226115e-005 -0.00023712612 0.63102907 0.60412812
1410162500 0.78080463 0.4888562 7.6367272e-005 0.00038264564 2.9335923e-005 0.00022714297 0.76921672 0.43854952
1417650000 0.87780446 0.28588709 -2.4454592e-005 -2.5136496e-005 8.3153427e-005 -3.8080638e-005 0.86106455 0.23702469
1425137500 0.91683406 0.064405069 -0.00024541467 0.00018726286 2.9226068e-005 0.00011589389 0.89367324 0.017225699
1432625000 0.89691359 -0.15544195 -2.8920333e-005 6.8169669e-005 0.00010450362 0.00021076728 0.86664778 -0.20062496
1440112500 0.82387495 -0.35552713 0.0001197022 -4.1247975e-005 0.00023129162 0.00014419851 0.78429568 -0.39744455
1447600000 0.71053964 -0.5254516 0.0002873193 -0.0002162305 0.00019920572 -9.0281079e-005 0.66239637 -0.56073195
1455087500 0.56882656 -0.66039819 -0.0002949819 -0.00027788547 0.00021198865 -0.0001871555 0.51198608 -0.68714207
1462575000 0.40830868 -0.7605868 -0.00015556294 7.9555983e-005 0.00024161705 0.00011436713 0.34533408 -0.77570248
1470062500 0.23540017 -0.82667738 0.00035642795 0.00010715741 0.00020685144 0.00013431328 0.16817838 -0.82619095
1477550000 0.052697245 -0.86006373 0.00013359834 -0.00011963107 9.7089112e-005 4.543964e-005 -0.012401624 -0.84061468
1485037500 -0.13613829 -0.85808212 -0.00021467684 2.9829223e-005 0.00030372519 0.00017607897 -0.19413397 -0.82103318
1492525000 -0.32704061 -0.81722009 -1.718284e-005 -1.2809358e-005 -0.00027789662 5.1313717e-005 -0.36992228 -0.7624284
1500012500 -0.51209444 -0.7334131 6.934323e-005 0.00047341347 0.00015895853 0.00011246235 -0.53225994 -0.66540384
1507500000 -0.67641461 -0.60101211 -7.9763973e-005 0.00011556283 -0.0002890084 0.00014907522 -0.67403853 -0.5311535
1514987500 -0.80747324 -0.42663601 5.7980291e-005 -0.00018149495 0.0004774929 -3.8931852e-005 -0.78180623 -0.3631849
1522475000 -0.88785821 -0.2221797 -0.00018418072 2.9206931e-005 0.00033907409 0.00010704318 -0.84672898 -0.171892
1529962500 -0.91184086 -0.0018216975 0.0001043312 0.0004246101 -2.6943577e-005 -0.00014856883 -0.86186743 0.031520236
1537450000 -0.87915134 0.21180017 6.205307e-005 -0.00023466197 -7.624655e-005 6.2067251e-005 -0.82634455 0.23096329
1544937500 -0.7971527 0.40395519 -9.5879062e-005 -0.00030039647 6.6030741e-005 4.9714046e-005 -0.74530488 0.41493148
1552425000 -0.67688453 0.56657708 -5.0725441e-005 -4.0873714e-005 6.1555082e-005 -0.00012587027 -0.6252659 0.57067329
1559912500 -0.53040993 0.69510919 -0.00010618471 -0.00012998852 -0.00031126902 0.00018221425 -0.47698241 0.69402885
1567400000 -0.36580548 0.78840125 -7.5649128e-005 -0.00019066856 0.00029738064 4.5707733e-005 -0.3074961 0.78080708
1574887500 -0.18715146 0.84851068 -5.2344029e-005 0.0002232179 5.8447367e-005 -3.6633926e-005 -0.12497775 0.82965106
1582375000 0.0016138206 0.87266725 0.00032395319 0.00019921918 -0.0001500597 7.7479446e-005 0.06459979 0.84007055
1589862500 0.19537784 0.85762519 0.00012935449 -0.00021661201 0.00016539103 3.4816141e-005 0.25522918 0.81015098
1597350000 0.38775176 0.80046725 -0.00021236062 -9.3613329e-005 -5.2832299e-008 5.2583488e-005 0.43855557 0.736332
1604837500 0.56987917 0.69604349 -0.00034013292 0.00029624216 -3.1255051e-005 -0.00023721493 0.60424423 0.62064922
1612325000 0.72436863 0.5455488 3.8449332e-005 -8.5674066e-005 -4.4577493e-005 -0.00023188784 0.74019575 0.46472201
1619812500 0.83811247 0.3555676 -0.00017834817 0.00022759411 -1.0102331e-005 5.85419e-005 0.83394378 0.27572379
1627300000 0.89763129 0.1406219 0.00038431448 -4.8833317e-005 0.0001540572 -0.00015387873 0.87639445 0.069441445
1634787500 0.89863062 -0.079638422 7.5186959e-005 0.00022084762 5.1550298e-005 -0.00011201872 0.86395156 -0.1393037
1642275000 0.84501708 -0.28929588 6.1802981e-005 -1.9236633e-005 -0.00021403075 -1.3462794e-005 0.80246872 -0.33322379
1649762500 0.74487168 -0.47272152 0.00020567571 5.1810817e-005 -0.00012330164 -0.00017657506 0.69786698 -0.50335699
1657250000 0.61056948 -0.62447226 -4.1988573e-005 1.5174731e-005 -0.00013398117 5.7206613e-005 0.56230277 -0.64065987
1664737500 0.44956291 -0.74194998 -7.8221768e-007 -0.00021928745 -0.00015737452 -0.00021558374 0.40419713 -0.74435699
1672225000 0.27212843 -0.82168961 -0.00025988766 -5.2301617e-005 -1.1643726e-005 -0.00024736812 0.23024933 -0.8108269
1679712500 0.081237756 -0.86411303 -6.7449117e-005 0.00010026844 0.00010648761 0.00024069526 0.046298642 -0.84063119
1687200000 -0.11671393 -0.86551619 0.00035346855 0.00036574592 -5.7573863e-005 -3.4835797e-005 -0.14133541 -0.83144367
1694687500 -0.31545052 -0.82302976 -6.3096348e-005 0.0001260303 -0.00011631024 -0.00015551619 -0.32552037 -0.78001839
1702175000 -0.50224715 -0.73199922 -8.6818138e-005 -3.2669683e-005 -0.0002298375 -0.00022392877 -0.49685991 -0.68622756
1709662500 -0.66393286 -0.59661144 0.00035538271 -0.00015869332 -5.5979861e-005 -6.9321497e-005 -0.64097321 -0.55306089
1717150000 -0.78721249 -0.4241046 -5.0711082e-005 -0.00018427847 0.0001341413 6.433102e-005 -0.75048512 -0.38750815
1724637500 -0.86096609 -0.22767052 -7.2425501e-005 -0.00023998729 -1.73681e-005 4.8515958e-005 -0.81469983 -0.20259775
1732125000 -0.88450235 -0.023601234 0.00027693034 -9.3104769e-005 0.0001264381 0.0001032589 -0.83292043 -0.010554071
1739612500 -0.86032438 0.17442255 0.00021239421 -0.00010476029 -8.9223186e-006 -6.4112801e-006 -0.80856627 0.17607231
1747100000 -0.79573619 0.35716495 0.00010068328 0.00027960143 -5.7151094e-005 0.000113401 -0.74627811 0.34922084
1754587500 -0.69794458 0.51859409 0.00030041658 -0.00018313907 4.1403669e-005 0.00031363932 -0.65162224 0.5055334
1762075000 -0.56995195 0.65724051 -5.0119423e-005 4.0131687e-005 -9.9820281e-005 -2.1068881e-005 -0.52804172 0.6398896
1769562500 -0.41683462 0.76993269 -5.5101333e-005 0.00010817462 -0.00035959063 -2.4119958e-005 -0.37773138 0.75080264
1777050000 -0.23843022 0.85024756 0.00010547879 -0.00019719471 -1.1864621e-005 -0.0002166109 -0.20055126 0.82951653
1784537500 -0.038949516 0.89153624 -0.00022292155 1.8530478e-006 3.5174158e-005 2.6600765e-006 -0.0018542605 0.86905622
1792025000 0.17118794 0.88373721 -3.7504538e-005 -2.8375141e-005 -0.00011777822 0.00027253965 0.21055968 0.85667199
1799512500 0.37968329 0.82078755 -0.00029836959 0.00031719237 8.0821745e-005 0.00017956151 0.41808465 0.78662491
1807000000 0.56594378 0.70346606 -0.00016656083 8.2025203e-005 -0.00026794762 -2.7070069e-005 0.59988707 0.65908253
1814487500 0.71355951 0.54171151 0.00020338802 0.000295748 -0.00010131914 3.7960875e-005 0.73767811 0.487674
1821975000 0.81133002 0.35150486 -4.8433652e-005 -7.5717784e-005 -7.1531518e-005 0.00014981134 0.82070363 0.29342988
1829462500 0.85854328 0.15090927 -7.3470277e-005 -5.1403815e-005 0.00010684557 -0.00023330688 0.84967482 0.093936391
1836950000 0.8593874 -0.048073146 -3.2112624e-005 0.00011325331 0.00026875187 0.00027369932 0.83387768 -0.094560698
1844437500 0.82127213 -0.23763354 -6.102871e-005 -3.6507681e-005 7.9347141e-005 0.0001138457 0.78281981 -0.26747313
1851925000 0.74725491 -0.41388595 -0.00020806625 -0.00033337474 -0.00025073884 0.00038629517 0.70351851 -0.42448863
1859412500 0.64018559 -0.57446808 5.2901036e-005 -2.9298846e-005 -6.4156447e-005 -0.00010354645 0.59860229 -0.56331247
1866900000 0.49882212 -0.7142061 0.00012200884 -4.2340682e-005 -0.00010098697 0.00018158549 0.46734589 -0.6834479
1874387500 0.32328528 -0.82272875 -0.00024684783 0.00028036602 0.00020508774 0.00013305503 0.3088195 -0.7777285
1881875000 0.11672383 -0.88854611 3.6840651e-005 -3.5490524e-005 0.00028967849 0.00017006617 0.12593029 -0.83879584
1889362500 -0.1061841 -0.89784741 -0.00014417106 -0.00012392573 0.00013676533 0.00011809665 -0.075361304 -0.85322994
1896850000 -0.3251313 -0.84412515 3.5236244e-005 -0.00011962386 -0.00045677793 0.00015971244 -0.27996498 -0.81452739
1904337500 -0.51665443 -0.73317128 0.00014334414 0.00011874061 -0.00026756778 4.5364057e-005 -0.46746781 -0.72065258
1911825000 -0.66394955 -0.58108997 -0.00043175151 7.6733573e-005 -0.00031015405 -0.00021337089 -0.62091798 -0.58192825
1919312500 -0.76480478 -0.40782312 0.00028361601 0.00028749721 -2.7418222e-005 -0.0002563048 -0.72897154 -0.41525456
1926800000 -0.81900537 -0.22820409 -1.1620458e-005 1.3902447e-005 4.3933705e-005 0.0004189685 -0.7922107 -0.23488879
1934287500 -0.83696711 -0.052984279 -0.00015203528 7.619294e-005 -0.00019326959 -0.00019467555 -0.81408691 -0.05546765
1941775000 -0.82593095 0.11700151 -4.3308686e-005 2.8271023e-005 -0.0001563962 0.00034488822 -0.80206692 0.11980976
1949262500 -0.78705257 0.28120694 -2.7567135e-005 2.5590465e-005 -1.7372029e-005 -0.00012920744 -0.75809407 0.28763968
1956750000 -0.72146779 0.44155523 -0.00025136996 0.00018192267 7.3877476e-005 -0.00020401324 -0.68572032 0.44636795
1964237500 -0.62462062 0.59521633 -0.00036643638 -0.00017573076 0.00020207922 -0.00024418507 -0.58110172 0.59258223
1971725000 -0.48900974 0.73580045 -6.9346752e-005 6.4016182e-005 -6.5158303e-005 0.00024573904 -0.44256413 0.72023988
1979212500 -0.31028688 0.84843636 -0.00017347878 -0.0001307007 0.00010373982 -0.00022612458 -0.27043223 0.81720161
1986700000 -0.094433695 0.9149313 -0.00017155145 -0.00013030585 8.3305444e-005 -0.00011463987 -0.070483454 0.87114137
1994187500 0.13955538 0.91714984 0.00020066585 2.8475242e-006 2.4369523e-005 -0.00031132382 0.14313416 0.87091762
2001675000 0.36832038 0.84713417 -1.7095816e-005 0.00020021832 0.0002238688 5.4416429e-005 0.35103095 0.81183857
2009162500 0.56341046 0.71483594 -1.1533865e-006 2.8272292e-005 -0.0003444296 0.00029617193 0.53405339 0.70023036
2016650000 0.70741099 0.54014057 0.00047431633 -5.9722148e-005 0.0004221242 1.1817842e-005 0.67787963 0.54794782
2024137500 0.79549938 0.34675363 -0.00011798821 0.00012537553 -3.6888247e-005 -0.00033466393 0.77690017 0.37082839
2031625000 0.83674079 0.14972983 7.5321594e-005 -0.00013812716 8.8971305e-005 0.00027909383 0.83051342 0.18227805
2039112500 0.83530432 -0.040784094 -0.00034522155 8.2268947e-005 -0.00019462602 -0.00060776103 0.84074605 -0.0080042807
2046600000 0.79863995 -0.22268358 -0.00047022413 -0.00012272775 -0.00040203531 0.00028075973 0.81172836 -0.19346127
2054087500 0.72938818 -0.3944836 -3.6786783e-005 0.00015592604 -0.00011450832 -0.00041801142 0.74455047 -0.36807111
2061575000 0.62655765 -0.54972482 3.0441577e-005 0.00020365561 -0.00016202561 -8.9927664e-005 0.64209187 -0.52310514
2069062500 0.49132985 -0.68383372 -6.7300192e-005 -4.7285281e-005 5.5687382e-005 0.00043289119 0.5073269 -0.65330976
2076550000 0.32593054 -0.7868225 -4.9919647e-005 7.6907563e-005 -0.00022417764 -0.00015982264 0.34521928 -0.75124967
2084037500 0.13687077 -0.85057092 3.1108633e-005 -5.2798046e-006 3.7731288e-006 -6.9763992e-005 0.16528922 -0.80936664
2091525000 -0.064169705 -0.86599016 0.0003927635 -0.00036085927 0.00016888566 -0.00023294546 -0.023293395 -0.82611948
2099012500 -0.26421469 -0.83074582 0.00014252006 -0.00025196318 -0.00011173874 -0.00021463523 -0.20996909 -0.79962796
2106500000 -0.44674587 -0.74839723 -0.00010085265 -0.00020107371 0.00010919484 -0.00020597903 -0.38641965 -0.73322868
2113987500 -0.602916 -0.62795866 0.00013013455 -0.00013904322 -0.00038334567 -0.00026399019 -0.54366475 -0.62916601
2121475000 -0.72599101 -0.47785676 0.00014777895 -0.00026319493 0.00022747651 6.3067346e-005 -0.67596948 -0.4931291
2128962500 -0.81149983 -0.30690536 6.6398425e-005 -7.8379177e-005 0.00013101113 -0.00043168568 -0.77617627 -0.32868141
2136450000 -0.85829234 -0.12382142 1.8531651e-005 5.4132415e-005 -0.00033269069 0.00025751779 -0.83762872 -0.14303419
2143937500 -0.86620986 0.066544317 0.00033106707 -4.6668447e-006 0.00018211173 -5.3380958e-005 -0.85423023 0.05408008
2151425000 -0.83192921 0.25606427 -0.00025850898 3.118916e-005 -7.5400145e-005 -0.00023890345 -0.82263011 0.2520411
2158912500 -0.75637174 0.43555793 -3.0787738e-005 -0.00033619363 -4.7758636e-005 0.00010871788 -0.7434842 0.43676201
2166400000 -0.63986164 0.5960471 -2.6538087e-006 0.00010033604 7.8139783e-005 0.00021890854 -0.62225127 0.59528911
2173887500 -0.48678824 0.72704858 0.00017555116 9.5607997e-005 -0.00023432581 -8.5560452e-005 -0.46886599 0.7187252
2181375000 -0.30528912 0.81929082 -5.0494032e-006 -5.3680993e-005 -0.00023386024 0.00031377136 -0.29396191 0.80316585
2188862500 -0.10549242 0.86584699 0.00024201309 -8.6169457e-005 0.00028212002 0.00021158367 -0.10696794 0.84594071
2196350000 0.1012368 0.8639397 0.00012399128 -2.3275215e-005 4.1592062e-005 -0.00024423178 0.083454065 0.84670925
2203837500 0.30305505 0.81598568 0.00018170556 -0.00020073162 -0.00012427574 -0.00010434153 0.26900262 0.80694169
2211325000 0.48874179 0.71933216 -1.1486647e-005 7.8134894e-005 -0.00038423896 -6.0330865e-005 0.44468799 0.72832787
2218812500 0.64780945 0.57965809 1.0687055e-005 0.00031616801 0.00011397295 5.1432849e-005 0.60049105 0.6096819
2226300000 0.76887381 0.40546486 -2.3575636e-005 -0.00019181392 7.5216958e-005 -0.00041566943 0.72672361 0.45584035
2233787500 0.84298474 0.20481808 0.00022644413 6.9782414e-005 0.00015437936 -0.00024584407 0.81387472 0.27165866
2241275000 0.86537033 -0.0073262909 -0.00014441856 -1.1824924e-005 -3.2478241e-005 -0.0001736282 0.85267842 0.070133872
2248762500 0.83406341 -0.21587144 9.1627611e-005 -0.0003138583 0.00015848721 0.00022879631 0.83953387 -0.13445574
2256250000 0.7534517 -0.40488994 -0.00021141968 0.00017084851 -0.00015122717 -3.7878633e-006 0.77573901 -0.32748657
2263737500 0.63375503 -0.56488663 -7.5060634e-005 -0.00019617322 -0.0002199568 -0.00032758803 0.66952217 -0.49537051
2271225000 0.48640573 -0.68837345 -0.00012488765 -0.00019268559 0.00023555251 -0.00029896788 0.53108525 -0.62890619
2278712500 0.32131633 -0.77359658 0.00011354531 0.00056172145 -0.00031884812 0.00022296494 0.37086573 -0.72724545
2286200000 0.14699854 -0.82280147 1.4835587e-005 -0.0003356486 0.00024933848 -5.1382471e-005 0.19707097 -0.78822815
2293687500 -0.029195201 -0.83784467 -0.00015685811 0.00023049265 0.00028498171 -0.00027529203 0.016120559 -0.81243312
2301175000 -0.20473364 -0.81704319 -0.00028337407 -0.00039875341 -8.5218482e-005 -9.1883332e-005 -0.16601709 -0.79913318
2308662500 -0.37494791 -0.76321602 4.8033009e-005 0.00017697325 -0.00011018662 1.8566769e-005 -0.34376159 -0.74698782
2316150000 -0.53345948 -0.67601037 2.3871105e-005 0.00017361982 -0.00028681211 0.00040761242 -0.50892252 -0.65773082
2323637500 -0.67608541 -0.55301636 -6.3775129e-005 2.0500855e-005 4.5839915e-005 -0.0002216435 -0.65156537 -0.52926505
2331125000 -0.79040581 -0.39548647 3.8367114e-005 -0.00010275088 0.00013539474 0.00019481831 -0.76330441 -0.36957064
2338612500 -0.86959326 -0.20973754 0.00031256734 8.7018838e-005 0.00010708124 1.9877957e-007 -0.83322704 -0.18476515
2346100000 -0.90052432 -0.0055123232 0.00024917669 -0.00031827303 4.9155737e-005 0.0001321804 -0.85691845 0.010451525
2353587500 -0.87975436 0.20545132 -7.6138764e-005 -0.00015895492 -0.0002985193 -8.3847854e-006 -0.83470666 0.20637079
2361075000 -0.80558413 0.40590009 0.00028519332 -9.2352348e-005 -0.0001546409 9.286197e-005 -0.76691484 0.38964286
2368562500 -0.68195266 0.58207405 0.00013524356 -9.8071367e-005 5.3051626e-005 -7.607357e-006 -0.66053379 0.55330241
2376050000 -0.5190118 0.72215468 0.00047593552 0.00010817282 0.0001337446 -1.2585753e-005 -0.51857042 0.68741167
2383537500 -0.32704344 0.81546479 0.00029954687 -9.3680326e-005 -4.7172052e-005 -0.00014904197 -0.35008952 0.78720105
2391025000 -0.12166322 0.85889941 0.00024560082 -1.9830602e-005 0.00024151795 -5.2111034e-005 -0.16220999 0.84616411
2398512500 0.085707545 0.85168588 9.1644697e-006 -3.2312975e-005 0.00032934072 -0.00016731741 0.036029104 0.85950208
2406000000 0.28126344 0.79674649 -8.2279126e-005 0.00057025859 -0.00014701053 -9.9038123e-005 0.23269545 0.82379812
2413487500 0.45587236 0.70020533 -7.2940951e-005 5.4285978e-005 -8.41855e-005 0.00016116766 0.41596755 0.74272847
2420975000 0.60179824 0.57148385 -1.106893e-005 9.029037e-005 0.00039962135 0.00050077162 0.57147944 0.62003821
2428462500 0.71432257 0.41480026 5.2630836e-005 7.3303541e-005 0.00012394425 0.00013278039 0.69269621 0.46497735
2435950000 0.79086369 0.24203268 5.3767203e-006 -9.0636113e-006 8.4785395e-005 -0.00030889548 0.77286297 0.28992513
2443437500 0.8303858 0.056487598 -0.00018129784 -0.00013072231 -4.7221474e-005 -0.00032055294 0.81129187 0.10363088
2450925000 0.8305434 -0.1341563 0.00022785788 -6.4261105e-005 -0.00028019043 -7.3460673e-005 0.80908459 -0.08361125
2458412500 0.78991312 -0.32334933 -4.9071288e-005 0.00028302579 -6.4979577e-005 -0.00011185747 0.76579517 -0.26586729
2465900000 0.70640123 -0.50459701 -0.00016228032 0.00012881176 0.00033144452 0.00021639426 0.68676019 -0.43513933
2473387500 0.57919067 -0.66424447 -0.00012361056 -0.0001094614 1.8718953e-005 0.00021095909 0.56970859 -0.58427614
2480875000 0.41252747 -0.79088545 1.7685932e-005 -4.7985104e-005 -0.00016043638 -0.00046649115 0.41996282 -0.70658976
2488362500 0.21759447 -0.8715021 0.0003739814 0.0003481587 1.5641272e-005 -0.00060785271 0.24288024 -0.78978878
2495850000 0.0098576182 -0.89698333 0.00013829845 0.00024513638 0.00030625516 0.00014853166 0.049133297 -0.82941645
2503337500 -0.1938929 -0.87063658 -5.985067e-005 -0.00046207767 5.9027225e-005 0.00011547929 -0.14828086 -0.81973958
2510825000 -0.37811205 -0.79640013 -0.00021154716 0.00017803273 -0.00026601463 -0.00026384965 -0.33637112 -0.76221865
2518312500 -0.53377265 -0.68764162 2.2295893e-005 -0.00013720024 0.00038089781 -0.00021213268 -0.50214076 -0.66270596
2525800000 -0.65987611 -0.55348182 -0.00015038087 -0.00039871209 0.00012124823 -0.00011434271 -0.63808316 -0.53155887
2533287500 -0.75438148 -0.4019857 4.5039109e-005 0.00012398641 0.00015110764 -0.00017294064 -0.73960757 -0.37565023
2540775000 -0.81879854 -0.23561575 -0.0004287448 0.00014389821 0.00014875256 -2.9314309e-005 -0.80439013 -0.2038964
2548262500 -0.85263067 -0.058494955 -0.00036160942 -0.00017097263 -0.00014770788 -5.8066839e-006 -0.83171237 -0.024014603
2555750000 -0.85146081 0.1286979 4.1380157e-005 -4.3245313e-005 -0.00023631299 -0.00025467816 -0.82118136 0.15913193
2563237500 -0.80883253 0.32103997 0.00011215689 8.0612823e-005 0.00035286826 -3.4001812e-005 -0.76925671 0.33781257
2570725000 -0.71704972 0.50652647 0.00013504819 3.5793695e-005 -0.00020936278 0.00014291807 -0.67689812 0.5025357
2578212500 -0.5752719 0.66903389 5.6727273e-005 -0.00055697002 -0.00043581036 -0.00017581454 -0.54666823 0.64469278
2585700000 -0.39036727 0.79104608 -0.00017404479 -0.00048020924 0.00013352917 -0.0002816912 -0.38467494 0.75189042
2593187500 -0.17664574 0.85688895 7.015263e-005 -0.000132043 0.00032874511 0.0003611602 -0.20160031 0.81687695
2600675000 0.041804135 0.86364597 -6.1522886e-005 -3.3749733e-005 -0.00028225116 -7.7757308e-005 -0.0080234641 0.83437598
2608162500 0.24660425 0.81481302 0.00027954916 -0.000127058 0.00013054312 0.00041959248 0.18285818 0.80689132
2615650000 0.42698219 0.72314817 -0.00014355163 8.2101942e-005 -0.00012931296 3.2010663e-005 0.35879356 0.738307
2623137500 0.57628369 0.60011435 0.00033146737 -1.1287651e-005 -0.00014144603 0.00027021309 0.51565558 0.630997
2630625000 0.69448996 0.45245162 3.8311606e-005 -0.00010136397 4.1887793e-005 6.2785184e-005 0.64368033 0.4937351
2638112500 0.78106606 0.2878859 2.7464535e-005 0.00028336229 -0.00045595889 0.0002410309 0.73811281 0.3286005
2645600000 0.83319914 0.1077015 0.00010015979 -0.00035282446 0.00019327617 -0.00013301373 0.79458511 0.14628534
2653087500 0.84743071 -0.081386231 4.8644393e-005 -0.00015128481 0.00029700124 -0.00014571831 0.80610543 -0.04608896
2660575000 0.81976551 -0.27403238 0.00033550977 6.8762718e-005 0.00056170369 0.00027871944 0.77149791 -0.23762794
2668062500 0.74516892 -0.45816725 -0.0001350095 3.8229933e-005 3.6323287e-005 -0.00022010934 0.69116712 -0.41477442
2675550000 0.62794083 -0.62074471 -0.00033562648 0.00022344713 0.00024232133 2.3454266e-005 0.57170761 -0.56646138
2683037500 0.47506103 -0.75166333 5.7106474e-005 0.00035644486 -7.8246296e-005 3.681222e-005 0.42101443 -0.68281811
2690525000 0.29482105 -0.83885944 4.0651372e-005 -0.00031693807 0.00012174933 -0.00055107241 0.25130862 -0.76087576
2698012500 0.10238446 -0.88150299 9.1337424e-005 -9.4505951e-005 0.00029538968 -0.00017092824 0.072153933 -0.79795253
2705500000 -0.091077216 -0.87904865 0.00051280763 5.78871e-005 0.00020438044 0.00028815662 -0.10863002 -0.79658782
2712987500 -0.2763105 -0.83422655 -0.00028690684 -0.00030401343 0.00016848458 7.3523297e-005 -0.28463951 -0.75647688
2720475000 -0.44681245 -0.75293046 0.00019631442 -4.0378045e-006 0.00017674905 0.00019263625 -0.44907421 -0.68004519
2727962500 -0.59785217 -0.63671136 -0.00012194707 0.00024734758 1.1087805e-005 -1.8177118e-006 -0.59574425 -0.56778592
2735450000 -0.72103906 -0.48815596 -0.00018009484 0.00012639019 -2.551656e-005 -4.6408804e-005 -0.71459025 -0.42229691
2742937500 -0.80984551 -0.31415021 -9.3041948e-005 9.524515e-006 -0.00026925432 -3.6554004e-005 -0.79691368 -0.24979044
2750425000 -0.85630697 -0.12051854 9.3662864e-005 -9.3991192e-005 0.00041615681 2.9087212e-005 -0.83453792 -0.061495833
2757912500 -0.85633045 0.081052251 4.8835602e-005 4.4880042e-007 -0.00010925283 -0.00011124713 -0.82392466 0.13159876
2765400000 -0.80687249 0.27712181 2.2299228e-005 0.00020629162 0.00030552095 0.00010205197 -0.76715958 0.31223074
2772887500 -0.7131536 0.45481005 1.8248815e-005 -0.00024602321 -0.0002108271 0.00025656089 -0.670609 0.47155344
2780375000 -0.58111358 0.60576349 0.00022649788 -0.00026287235 0.00020613715 -0.00022183417 -0.5447976 0.60210389
2787862500 -0.42032471 0.72137177 -0.00014015297 -0.00014390242 -0.00014196044 -0.000226505 -0.39550021 0.70097631
2795350000 -0.23831673 0.79836768 8.3554449e-005 9.1184862e-005 -0.00014783994 0.00015240372 -0.2315582 0.76632398
2802837500 -0.043734744 0.83434439 0.00014270787 -0.00014889092 -0.0002210267 -0.00020392286 -0.056327268 0.79827923
2810325000 0.15722479 0.82565343 0.00018320431 -3.4033361e-005 0.0001928924 0.00036408246 0.12574853 0.79199874
2817812500 0.35346398 0.77038801 -0.0001712768 0.00019669272 -6.803115e-005 -0.00015468743 0.30655783 0.74498051
2825300000 0.53378105 0.66748857 -0.00018441067 0.00019729022 -2.127436e-005 0.00018406379 0.47624707 0.65445817
2832787500 0.68393171 0.52212083 -0.00012341612 -0.00018204801 0.00021065293 0.00015081932 0.62100291 0.52154833
2840275000 0.79144633 0.3437117 0.00026573351 -0.00015312467 -9.3133283e-005 0.00014554888 0.72974277 0.35393041
2847762500 0.84946167 0.1477008 0.00056052214 -3.3280437e-005 7.887149e-005 0.00048184535 0.79136986 0.16377655
2855250000 0.85764712 -0.051642239 -0.00036780952 5.947571e-006 -0.00013268445 -0.00018686843 0.80160457 -0.032163937
2862737500 0.81927627 -0.2384702 -0.00018546295 -0.0001790934 6.7413297e-005 -3.0813135e-005 0.76515907 -0.2193469
2870225000 0.74496889 -0.40818322 5.9056838e-005 0.00027771608 -0.00015504957 -4.472784e-005 0.68927848 -0.3884179
2877712500 0.6412189 -0.5549674 0.00028540246 3.1019677e-005 -2.7683926e-005 0.00014432479 0.58056504 -0.53317332
2885200000 0.51300281 -0.67640042 -0.00014595255 0.00027736794 0.00026580482 2.4084104e-005 0.44722909 -0.64953184
2892687500 0.36307976 -0.77148598 0.00038665024 -0.0001439887 0.00034128025 3.8453163e-005 0.29401475 -0.73617327
2900175000 0.19395101 -0.83600396 -0.00028253891 4.1991207e-005 -9.9592457e-005 0.00031758915 0.123913 -0.78980696
2907662500 0.010585643 -0.8646338 0.00019672177 0.00011595515 -0.00017519359 1.4037098e-005 -0.056607537 -0.80506331
2915150000 -0.18112442 -0.85251331 -1.7412534e-005 -0.00012558166 8.9912282e-005 3.8668368e-005 -0.23845129 -0.77882898
2922637500 -0.36913663 -0.79244453 0.00027862555 0.00030767175 -3.1861342e-005 0.00028328126 -0.41158348 -0.70978367
2930125000 -0.54102743 -0.68695492 1.2027949e-005 -8.7364999e-005 -0.00018468178 0.00012416916 -0.56491607 -0.59946179
2937612500 -0.68225032 -0.54078203 -0.00013712651 5.2416173e-005 0.00011450197 5.5743789e-005 -0.68534684 -0.45602137
2945100000 -0.78270084 -0.36389941 6.105889e-005 -0.00052221888 -0.00014213513 3.7921316e-005 -0.76760983 -0.28935406
2952587500 -0.83876091 -0.1707232 8.5041529e-006 -0.00014500585 0.00015262491 6.6693625e-005 -0.80870897 -0.11034976
2960075000 -0.84772897 0.027418625 -0.00014703463 -0.0003950418 -2.1852409e-005 0.00012484983 -0.80938846 0.06996613
2967562500 -0.81298494 0.22219031 -9.754458e-005 -0.00014212163 -7.0917609e-005 3.8693775e-005 -0.77137679 0.24416825
2975050000 -0.73797911 0.40568212 -1.2153983e-007 0.0003632833 4.3078773e-005 -0.0003925215 -0.69652665 0.40813351
2982537500 -0.62226146 0.56860697 -6.9158661e-005 -0.00014211045 0.00035301657 -0.00016983754 -0.58878738 0.55356514
2990025000 -0.47091001 0.70312548 0.00027290697 -7.6521777e-005 5.7542718e-005 -0.00017718067 -0.44818294 0.67467153
2997512500 -0.28918996 0.80115581 -0.00021422241 -0.00013817345 -0.00047660372 -0.00010625523 -0.27968267 0.76111287
3005000000 -0.08646863 0.85353863 0.00014977668 0.00013693771 -9.3109702e-005 -0.00029749444 -0.090454355 0.80521905
3012487500 0.12509461 0.85129797 0.00011053302 -0.00030163815 0.00026869882 0.00014365127 0.10621858 0.80209279
3019975000 0.32515207 0.79647118 -7.3653777e-005 -0.00042796208 -0.00010547615 0.00021626127 0.29576951 0.74809366
3027462500 0.50252306 0.69443673 0.00011386288 5.2451464e-006 0.00020177165 0.00015349827 0.46330488 0.65044534
3034950000 0.64518452 0.55683625 8.1533639e-005 -0.0001757994 0.00025125287 6.9180962e-005 0.60012126 0.51699412
3042437500 0.74965483 0.39663735 0.00024198859 0.00015283763 1.3445118e-005 -0.00032369175 0.69943136 0.35999766
3049925000 0.81469268 0.22312628 7.8789664e-005 -8.3392872e-005 0.0001056196 -0.00033033139 0.76080662 0.18904422
3057412500 0.84252656 0.045366053 -0.00024632295 -0.00014660685 -0.00026954239 -0.00021004958 0.78341502 0.010876252
3064900000 0.83451653 -0.13268913 0.0001992664 -9.6989766e-005 4.1919797e-005 4.6087789e-005 0.76963675 -0.1671057
3072387500 0.79176646 -0.30496708 -6.6956556e-005 -0.00022139095 0.00015932927 -1.8836712e-005 0.71902686 -0.33901489
3079875000 0.71372765 -0.46820655 -0.00021441805 0.00044994813 -0.00057578291 -0.00019066085 0.6302129 -0.49937102
3087362500 0.60235077 -0.61361754 0.00013410511 -1.8348754e-005 0.00025185524 -0.00012073984 0.50464016 -0.63805604
3094850000 0.4586353 -0.73403567 0.00019139261 -6.1824881e-005 -9.9541692e-005 -0.00017521936 0.3471083 -0.74564344
3102337500 0.28678048 -0.82034743 -0.00052652089 0.00014802726 0.00030937005 0.00019006756 0.16599818 -0.81079924
3109825000 0.096548036 -0.86447155 -0.00011950961 0.0004664482 -0.00019085509 -0.00014295644 -0.026758738 -0.82933086
3117312500 -0.10164218 -0.86130589 0.00011007432 0.00020284348 -0.00012739451 3.3851836e-007 -0.21638064 -0.79826468
3124800000 -0.29438046 -0.8124823 -6.2142324e-005 0.00027199002 -3.8449558e-005 -0.00033509484 -0.38878015 -0.72387707
3132287500 -0.46975267 -0.71890503 -9.1458038e-005 -0.00017099541 4.9680841e-007 0.00012708201 -0.53570163 -0.61407727
3139775000 -0.61760175 -0.58643574 -9.2731803e-005 -8.6138294e-005 -0.000203812 -0.00018439104 -0.65009671 -0.47818217
3147262500 -0.73162723 -0.42494583 0.00027025997 0.00014500388 7.2269526e-005 0.00027348194 -0.73231405 -0.3236703
3154750000 -0.80557442 -0.24234149 -0.00012709154 0.00014125355 -0.00067711837 9.0447706e-005 -0.78108752 -0.15886286
3162237500 -0.83572477 -0.046547756 6.7027402e-005 -0.00014894272 0.00017682344 -0.00018536419 -0.79435909 0.013120714
3169725000 -0.82047009 0.15076908 0.00018497542 -0.00023388903 1.0515043e-005 0.00021185691 -0.77364534 0.1870815
3177212500 -0.76022691 0.33999521 -0.00036817245 5.5445522e-005 -0.00036147868 -7.903589e-005 -0.71646196 0.35716027
3184700000 -0.65851927 0.51034313 -0.00013332927 -0.00014975446 -0.00013982314 0.00043936187 -0.61862636 0.51476091
3192187500 -0.51857626 0.65283525 0.00035214832 -0.00012811534 -0.00028946964 -0.00044745894 -0.48336321 0.65041536
3199675000 -0.35149342 0.7578581 0.0004183744 0.00011677334 -0.00021595755 -0.00010094381 -0.31310344 0.75182557
3207162500 -0.16571863 0.81975061 9.8532901e-006 -0.00012674961 -0.00025243388 -0.00019289707 -0.11915891 0.8048377
3214650000 0.027707664 0.83597308 0.00033211568 -0.00010290699 0.00019907454 0.00016536376 0.084222294 0.80561852
3222137500 0.21817566 0.80942994 7.8682671e-005 -1.623244e-005 -9.5306728e-005 0.00013237172 0.27763823 0.75418603
3229625000 0.39372623 0.74253601 0.00021076915 -0.00029180085 -8.7151951e-005 0.00030416527 0.44849381 0.65754265
3237112500 0.54966766 0.63874286 -0.00020535375 0.00020766153 0.00016437931 0.00037800375 0.58483285 0.52557433
3244600000 0.67845529 0.5062362 -0.00023543468 -1.8837536e-005 -0.0001054794 -1.0799503e-005 0.68451387 0.37203208
3252087500 0.7762354 0.35013753 5.8524678e-005 -3.3067696e-005 0.00013740278 -8.9745685e-005 0.74740583 0.20663121
3259575000 0.84003448 0.17509016 -0.00016209822 5.0281589e-005 4.7872882e-006 -8.0047517e-005 0.77401727 0.035642456
3267062500 0.86560011 -0.011258978 0.00019735638 -6.6600558e-005 0.00024288522 0.00046387911 0.76724619 -0.13668436
3274550000 0.84854388 -0.20340435 0.00048201362 -0.00020586987 0.00021459792 -6.9852533e-005 0.72712272 -0.30519652
3282037500 0.78796881 -0.39045596 0.00034048193 4.1824129e-007 0.00012435119 6.3839609e-005 0.65128863 -0.46687701
3289525000 0.6812222 -0.56292903 0.00018467729 -3.4886358e-005 0.00030491501 -1.3874773e-005 0.53866142 -0.61444342
3297012500 0.53181291 -0.70575452 -0.00015415026 -4.722246e-005 -0.00012517891 -0.00010700899 0.38793629 -0.73384351
3304500000 0.34953067 -0.80617583 0.00019333461 1.4875282e-005 -0.00035963647 9.0678484e-005 0.20716828 -0.81384629
3311987500 0.14790425 -0.8561756 8.6599153e-005 -0.00016034124 5.5868509e-006 -0.00011010875 0.0075473445 -0.84315085
3319475000 -0.055017538 -0.85334027 0.00013331891 -2.9496679e-005 -0.00021125285 -0.00032080529 -0.1915668 -0.81685197
3326962500 -0.24505325 -0.8019951 0.00016967939 -9.8237673e-005 -0.00019735284 -0.00018673119 -0.37232417 -0.74164587
3334450000 -0.41297513 -0.71309626 -4.7785152e-006 0.0002037511 -0.00036633934 -0.00029032709 -0.52145714 -0.62708926
3341937500 -0.55199128 -0.5946278 -9.1110298e-005 -4.762653e-005 0.00013962157 0.00021073248 -0.63484365 -0.48795214
3349425000 -0.66387761 -0.45497885 -0.00023293772 -0.00012166907 0.00033455226 -0.00013861849 -0.71304238 -0.335188
3356912500 -0.74703491 -0.29812485 -0.00044069768 -8.2478989e-005 0.0001406527 0.00039468703 -0.75896174 -0.17602549
3364400000 -0.80058986 -0.12568058 -0.0002601766 -2.3656949e-005 0.00011681086 -0.00032932207 -0.77585703 -0.013112141
3371887500 -0.82079273 0.060795128 0.00024015747 -3.8818755e-005 0.00044468217 -0.00016474255 -0.76192576 0.15281551
3379375000 -0.79844397 0.25607497 9.0056841e-005 -0.0001098869 -0.00011224671 0.00010561798 -0.71733034 0.31844851
3386862500 -0.72589022 0.45072982 0.00022015235 0.00024831877 0.00020809326 -0.00047146648 -0.63424021 0.47907227
3394350000 -0.59744471 0.62490934 1.7300175e-005 -0.00014930255 1.6064299e-005 5.2699826e-005 -0.50939882 0.62343204
3401837500 -0.42256552 0.75691193 6.4572109e-006 0.00024075877 1.1621426e-005 0.00019007729 -0.34556133 0.73528028
3409325000 -0.21979907 0.83265954 6.7487104e-005 0.00018023276 -0.00019363398 -0.00023420611 -0.15237072 0.80036896
3416812500 -0.014709584 0.84649587 0.00010924816 -9.4031151e-005 0.00038622163 -0.00042098912 0.050986547 0.8099069
3424300000 0.17314465 0.81138492 -5.0279021e-005 -0.00020145622 -4.7631256e-005 0.0003823592 0.24492277 0.76574397
3431787500 0.33649066 0.74111497 -0.00061521051 0.00020980685 -0.00011283439 -0.00016460466 0.41464055 0.67849636
3439275000 0.47353223 0.64971358 0.00024892075 0.0001253644 1.7193131e-005 -0.00024420366 0.55445457 0.56015402
3446762500 0.59015989 0.54242498 4.5083776e-005 2.1456835e-005 0.00019751389 -9.8594443e-005 0.66325319 0.42110381
3454250000 0.69105184 0.41952205 -0.00020603059 -2.8272327e-005 -0.00012552062 -6.6774264e-005 0.7423839 0.26516825
3461737500 0.77607358 0.27740118 0.00029124357 1.2673927e-005 -0.00023722356 0.00027782324 0.79094285 0.095080353
3469225000 0.83987647 0.11040583 -0.00013394987 -0.00010864346 0.0001797436 8.2903098e-006 0.80573791 -0.086595446
3476712500 0.86842656 -0.084852867 -0.00014828877 -0.00042755756 -7.388588e-005 0.00015260777 0.77674818 -0.27483517
3484200000 0.84413117 -0.29889661 3.4690929e-005 0.00017249539 -0.00016920541 0.00015756239 0.69966686 -0.45892349
3491687500 0.74900746 -0.51116705 0.00011322152 0.00018130601 -0.00029631887 0.00025586138 0.571235 -0.61898029
3499175000 0.58660316 -0.68589878 -5.2747e-005 7.9396174e-005 -0.00045121371 -0.00013209015 0.4019382 -0.73695374
3506662500 0.37962621 -0.79583001 7.4993652e-005 8.3124731e-005 -0.00015774883 -0.00022305213 0.2111771 -0.8006568
3514150000 0.16594377 -0.8338986 7.8489084e-006 8.2815704e-006 -0.00020453696 0.00023030616 0.020450857 -0.81075585
3521637500 -0.030660257 -0.81625128 0.00011215984 -0.00018231246 2.59511e-005 -7.745577e-005 -0.1557931 -0.77785081
3529125000 -0.19901134 -0.76216716 0.00022826214 0.00010713284 -0.00035025072 -2.0719148e-005 -0.31127551 -0.71366912
3536612500 -0.34288913 -0.68752128 0.00051229645 -0.00019072772 -0.00024352949 -0.00019238454 -0.44627196 -0.62652832
3544100000 -0.46730551 -0.59824437 -7.461365e-005 -7.8389523e-005 0.00027337024 0.00019098251 -0.56333017 -0.52049363
3551587500 -0.57944143 -0.49566513 0.00017212075 -0.00025391346 8.9065557e-005 -2.6955554e-006 -0.66339058 -0.3944025
3559075000 -0.6812796 -0.37374753 1.293328e-005 0.00010381938 -0.00020879113 -0.0001329612 -0.74290699 -0.2455872
3566562500 -0.76914752 -0.22672434 0.00031929382 -3.6922345e-005 0.00015386923 -0.00019822847 -0.79409564 -0.073505849
3574050000 -0.83050346 -0.04857656 -0.00032623447 0.00026386516 -7.6695607e-005 -0.00029254842 -0.80306721 0.11831774
3581537500 -0.84651691 0.1590087 -2.7538501e-005 0.0001172947 -8.9138732e-005 2.9716934e-005 -0.75779659 0.31627086
3589025000 -0.79918826 0.37732837 -9.7342156e-005 0.00013430913 9.149297e-005 6.5534099e-005 -0.65462852 0.49794745
3596512500 -0.68183458 0.57715452 -0.00024893502 0.00037339071 -3.6494705e-005 5.7320617e-006 -0.50360113 0.63997078
3604000000 -0.51008087 0.7297675 6.1149462e-005 0.00022518859 7.7561039e-005 0.00023713733 -0.32778385 0.73039031
3611487500 -0.31112012 0.82028419 0.00011113713 3.6622052e-005 -0.00020148304 1.7456293e-006 -0.14534305 0.77159971
3618975000 -0.10938106 0.85281479 -9.659896e-005 -0.00010148494 -3.2293949e-006 -1.4879223e-006 0.029508675 0.77270257
3626462500 0.081565358 0.84134704 0.00015723139 8.7163884e-005 0.0001830555 0.00017911651 0.19306719 0.7421968
3633950000 0.25640079 0.79472744 -4.6440331e-005 -9.8483506e-005 0.00044681388 0.00012864049 0.34640491 0.68653566
3641437500 0.41790089 0.72075021 4.5630048e-005 9.8090481e-005 0.000120934 0.00017204873 0.49127045 0.60566908
3648925000 0.5656752 0.61687243 -4.7926431e-005 2.1964408e-005 0.00049682066 -0.00013902104 0.62558722 0.49368384
3656412500 0.69469589 0.48123741 -0.00010166495 -7.4978569e-005 5.8388687e-005 0.00053671043 0.74000996 0.34672341
3663900000 0.79489917 0.31071651 0.00014338862 -5.2886713e-005 -0.00014247176 -0.00019587683 0.82142735 0.16312902
3671387500 0.85121912 0.11259221 0.00010304641 1.8055114e-005 0.00032334612 8.4276231e-005 0.84837604 -0.047075205
3678875000 0.84983563 -0.098584577 0.00028113573 6.1379033e-005 0.00018400919 -4.0490355e-005 0.81027353 -0.25969523
3686362500 0.79029053 -0.29859218 0.00029445114 4.0741637e-005 5.5791238e-006 8.3742045e-005 0.71096694 -0.4472464
3693850000 0.68240124 -0.46876457 -0.00018345845 -0.00020007585 0.00043173553 0.00011166352 0.56913149 -0.59066772
3701337500 0.54381275 -0.59779489 -6.1782441e-005 0.00012081823 0.00042820559 0.00015835457 0.40891802 -0.68491882
3708825000 0.3908377 -0.68808407 -0.00012019165 0.00015705339 -5.3365802e-005 -0.00021349892 0.24435712 -0.73710591
3716312500 0.23293276 -0.74557495 0.00014862345 1.060608e-005 -0.00014861209 9.7984775e-005 0.085592151 -0.75691986
3723800000 0.072638839 -0.7763207 0.00013592883 -5.0641556e-005 0.0001165374 0.00039861849 -0.068793409 -0.75064844
3731287500 -0.090742417 -0.7809298 6.9984635e-005 0.00019663641 -0.00014483403 -0.00024656468 -0.21902275 -0.72214937
3738775000 -0.26053721 -0.75749135 0.00031155944 -6.6445564e-006 -1.2104592e-005 -0.00037720462 -0.36724275 -0.66749471
3746262500 -0.43203458 -0.69944155 0.00056139159 4.6176308e-005 0.0001694325 0.00026244912 -0.51106417 -0.5832904
3753750000 -0.59873092 -0.5954349 -7.9704289e-005 -9.0754424e-005 -0.00052652805 -0.00023999438 -0.64300764 -0.46310273
3761237500 -0.74217564 -0.4428097 5.4988479e-005 -5.9059035e-005 -7.3537645e-005 -6.4784443e-005 -0.74864501 -0.30303028
3768725000 -0.83979428 -0.24780256 0.0002370391 -0.00014261394 -0.0002428515 7.002717e-005 -0.81056911 -0.11160302
3776212500 -0.87628543 -0.02968017 0.00031789998 0.00016255902 -0.0003393699 1.5047523e-005 -0.81659359 0.094468065
3783700000 -0.84770864 0.18332507 -3.6264046e-005 6.4291693e-005 5.249364e-005 0.00030557936 -0.76372093 0.29277271
3791187500 -0.76614553 0.37126568 0.0001272009 -0.0001466018 6.9918089e-005 0.00046241406 -0.6626938 0.46486902
3798675000 -0.65057439 0.52217561 -0.00010027383 -1.1178291e-005 0.00020420476 0.00038774131 -0.52716154 0.5990088
3806162500 -0.51402283 0.63889658 0.00022101267 -0.00013349878 -0.00019448137 -0.00026246347 -0.37243867 0.69506323
3813650000 -0.36554715 0.72551095 0.00023972918 0.00010024638 0.00018702024 -4.0002855e-005 -0.20817669 0.75448012
3821137500 -0.20684396 0.78516692 9.551792e-005 -0.00047342628 9.6574018e-005 0.00042881057 -0.037647616 0.78221315
3828625000 -0.036280617 0.81743371 -0.00016526916 3.0777734e-005 9.4577619e-005 0.00033013438 0.13476594 0.77523512
3836112500 0.14610389 0.81752503 0.00019976024 0.00025186891 -2.9289915e-005 -1.6682558e-005 0.30644035 0.73371345
3843600000 0.336202 0.7767815 -0.00014932353 0.00023607764 2.2570417e-005 -6.5491295e-005 0.47048712 0.65308803
3851087500 0.5218612 0.68292946 0.00018804758 -0.00016592714 -0.00043769911 -0.00010565811 0.61593854 0.53196627
3858575000 0.683056 0.53385115 0.00028396404 0.00010504117 -8.9605644e-005 -0.00018736481 0.7290448 0.37473014
3866062500 0.79413581 0.3411817 0.00013058969 7.4472351e-005 -0.00030831952 -0.00035788529 0.79801649 0.19019243
3873550000 0.84421086 0.12614773 8.8016022e-005 0.00017127294 0.00047199411 -0.00013079779 0.81539625 -0.0034914776
3881037500 0.83068329 -0.085161291 -2.5056977e-005 1.4517404e-005 -0.00044976798 -1.8731429e-005 0.78477496 -0.19135946
3888525000 0.7677657 -0.27251768 0.00013401586 0.00017908683 -3.7427308e-005 8.4921841e-005 0.71092093 -0.36120778
3896012500 0.6706996 -0.42921558 4.1756863e-005 -9.8838529e-005 0.00023404631 0.00020963467 0.60387367 -0.50521851
3903500000 0.55324286 -0.55609703 -2.2998523e-005 -0.00022072597 -0.00010236433 0.00017921381 0.47334132 -0.61893588
3910987500 0.42051399 -0.65593958 -0.0001449811 -0.00011665803 -7.2535172e-006 0.00012766232 0.32435411 -0.70266521
3918475000 0.27618688 -0.73200005 -0.00020810527 8.9741734e-005 0.0002527803 -0.000274366 0.16340673 -0.75459522
3925962500 0.11845148 -0.78571075 0.00028493194 -0.00015341911 0.0002303537 9.8580706e-005 -0.0065165609 -0.77355015
3933450000 -0.053149909 -0.81159776 0.00029463632 -9.0848596e-005 4.6486322e-005 7.5971286e-005 -0.18033335 -0.75604069
3940937500 -0.23772119 -0.80068731 -0.00010386531 7.0595347e-006 -5.2474621e-005 -5.8013284e-005 -0.34800252 -0.69987261
3948425000 -0.4279272 -0.74488771 5.4989679e-005 5.5749966e-005 0.00018640493 0.00024181402 -0.50295591 -0.60421658
3955912500 -0.60740578 -0.63681978 -9.9840236e-006 -3.9599181e-005 0.00027374021 0.00013975929 -0.63197535 -0.47333291
3963400000 -0.75704509 -0.47556767 -0.00016810025 -4.395231e-005 -0.00028277951 -4.4180877e-005 -0.72637182 -0.31396425
3970887500 -0.85353559 -0.27385166 -0.00029586611 0.00037864741 -9.9013894e-005 -0.00017881127 -0.77970862 -0.13722979
3978375000 -0.88735831 -0.055805396 -1.4206517e-005 -0.00036097711 0.00039480816 8.9343797e-005 -0.79066682 0.044553861
3985862500 -0.85917777 0.15591708 2.36101e-005 4.0489795e-005 0.00024503516 6.9685615e-005 -0.75887191 0.22312939
3993350000 -0.78153795 0.3425537 0.00026018629 0.00026672237 -0.00014403145 -0.00034705386 -0.68980235 0.38817644
4000837500 -0.67268252 0.49580801 -0.00014408678 -0.00011551598 2.2993201e-005 0.00043289232 -0.58639526 0.53461647
4008325000 -0.53685063 0.6158219 0.00027843134 6.2601692e-005 0.00018736029 -5.7206507e-005 -0.45355806 0.65490723
4015812500 -0.38708755 0.70433211 0.00018436475 0.00010977265 -2.6603235e-005 0.00023021035 -0.2965934 0.7459262
4023300000 -0.22705676 0.76279044 6.339117e-005 0.00024931229 -6.6093155e-005 -0.00013535649 -0.11932327 0.79837614
4030787500 -0.058028087 0.79110652 7.5905766e-005 -7.4460215e-005 -9.0228401e-005 -0.00013769223 0.066779487 0.80946189
4038275000 0.11706124 0.78774804 0.00014163434 -0.0002846783 9.6203548e-005 0.00026712113 0.25319633 0.77344596
4045762500 0.29437581 0.74770719 1.2920859e-005 0.00024030688 0.00028902051 -4.0965206e-005 0.42479298 0.69148201
4053250000 0.46398863 0.66540736 -1.1330803e-007 0.00045652638 -0.00038351116 -0.0001802662 0.57029021 0.57078242
4060737500 0.61504549 0.5391531 6.7173445e-005 -0.00058566604 4.618863e-005 -0.00032446519 0.67982447 0.41966239
4068225000 0.73262358 0.37620738 -3.7698977e-005 0.00030766541 -0.00032285592 -4.701873e-006 0.74817038 0.25332102
4075712500 0.80653459 0.18607126 -3.9114086e-005 -7.6643351e-005 -0.00033625463 0.00053404324 0.77645427 0.079323962
4083200000 0.8288644 -0.017290225 7.3008005e-007 -7.9208599e-005 0.00040846728 -2.1271837e-005 0.76915312 -0.092795059
4090687500 0.79837722 -0.21753062 4.7489342e-005 0.00022661715 -4.9302984e-005 -0.00016727294 0.7258206 -0.25584272
4098175000 0.72240883 -0.39866799 0.00029038207 3.4433665e-006 0.00037251099 0.00014274691 0.65290999 -0.40816209
4105662500 0.60871285 -0.55399847 -0.00013731467 -0.00059240905 0.00025566685 -3.7364069e-005 0.54925621 -0.54454845
4113150000 0.46636507 -0.67831737 9.8594413e-005 -0.00036642954 4.2961787e-005 -0.00020788203 0.416668 -0.65938574
4120637500 0.30298433 -0.76719826 8.7552049e-005 -1.8721512e-005 4.1916552e-005 0.00023066404 0.25693199 -0.74536967
4128125000 0.12559564 -0.81943822 6.3191037e-006 0.00024519104 -7.1435337e-005 0.00015621958 0.074829146 -0.79355133
4135612500 -0.059433717 -0.83094794 2.6565217e-006 -0.00029431534 -7.0474525e-005 5.0931128e-005 -0.11793769 -0.79353273
4143100000 -0.2426869 -0.80114025 0.00013066687 -0.00014169798 -3.0890756e-006 0.00022324049 -0.30717707 -0.74265003
4150587500 -0.41566858 -0.73041332 0.00016431652 7.5631746e-005 1.8731545e-005 -0.00034204792 -0.4753423 -0.64568061
4158075000 -0.56923646 -0.62170708 0.00010735286 -5.3041804e-005 -0.00011717395 -0.000373013 -0.60800451 -0.51069003
4165562500 -0.69478166 -0.47958529 6.8672547e-005 0.00022952133 -0.00024709443 -9.4589996e-005 -0.70199323 -0.35404214
4173050000 -0.78281081 -0.31418952 -0.00025268365 0.00031191716 -6.0481372e-005 -0.00013809213 -0.75521547 -0.18531898
4180537500 -0.82998407 -0.13104317 -0.00066799688 0.00023618767 -2.4985029e-005 7.0130183e-005 -0.7717697 -0.017323369
4188025000 -0.83533657 0.057404447 -0.00033902354 0.00020228913 0.00022643738 7.4609401e-005 -0.7551257 0.14699551
4195512500 -0.797916 0.24162787 -0.00010403199 0.00030873367 0.00013930832 -0.00026706207 -0.70871842 0.30288324
4203000000 -0.72040737 0.41453686 0.00011895329 0.00029960906 0.00012895465 -8.6631386e-005 -0.63245893 0.45040053
4210487500 -0.60464603 0.56771773 -6.2598197e-006 0.00012062704 1.4873734e-005 -0.00063155772 -0.52684551 0.58244866
4217975000 -0.45448643 0.69263059 9.1036702e-005 0.00017055738 0.00014017681 -0.00024720671 -0.39100626 0.69422156
4225462500 -0.27594045 0.77887231 0.00013898918 -0.00015970199 -9.8512472e-005 0.00010743899 -0.2259174 0.77466089
4232950000 -0.077928178 0.82220298 9.277332e-005 -0.00029048783 -0.0001303743 -6.6977133e-005 -0.039920662 0.81399888
4240437500 0.12379143 0.81375462 2.8997185e-005 0.0001310072 -0.0002667174 -0.00041421424 0.15605673 0.80299449
4247925000 0.31889611 0.75473171 -3.137095e-005 3.2908989e-005 -0.00031417466 -5.888634e-005 0.34347525 0.74109882
4255412500 0.49115372 0.64974433 0.00023582541 -0.00043150387 -0.00024762453 0.00014414654 0.50651169 0.63233221
4262900000 0.63069421 0.50913078 -0.00034352118 3.8584003e-005 -4.2663058e-005 -4.8358437e-005 0.63302118 0.48775586
4270387500 0.72996825 0.34169468 -3.7797916e-005 -0.0002439042 0.0001809223 -5.125644e-005 0.71854335 0.32251662
4277875000 0.78782636 0.16123816 -0.00011187512 -3.4289667e-005 0.00016027082 -5.7489215e-005 0.76226145 0.14677909
4285362500 0.80345541 -0.023890242 -5.5709319e-005 -3.1631225e-005 0.00020836981 -0.00038853471 0.76750958 -0.029035538
4292850000 0.78096801 -0.20545866 -6.7733679e-005 0.00022099876 -1.0887319e-005 -0.00022726318 0.73598063 -0.19874327
4300337500 0.71987414 -0.37707293 0.00015727502 0.00018467657 -0.00033758211 4.7621608e-005 0.67064661 -0.35905248
4307825000 0.62381536 -0.53401697 0.0003160628 -0.00010908282 -6.3165942e-005 -0.00032864817 0.5739162 -0.50182134
4315312500 0.49493462 -0.66542202 -0.00025826483 6.6736291e-005 7.5042415e-005 8.0868056e-005 0.44552916 -0.62368369
4322800000 0.33623591 -0.76441759 2.5706606e-005 3.5451209e-005 0.00018393132 7.9869524e-006 0.29195735 -0.7150023
4330287500 0.15903044 -0.82530951 2.6774325e-005 0.00017500034 3.2922246e-005 0.0004020425 0.11880819 -0.76901412
4337775000 -0.029836087 -0.84128088 0.00012796208 -2.0645768e-005 3.4785895e-005 -0.00019571056 -0.063744113 -0.78069848
4345262500 -0.2150687 -0.81252223 6.4682907e-005 7.7745142e-005 0.00017801093 0.0001127866 -0.24460022 -0.74834639
4352750000 -0.38616756 -0.74028379 0.00014517325 -0.00041613294 0.00018365176 8.4781939e-005 -0.41104844 -0.67409772
4360237500 -0.53267974 -0.63307995 0.0003517548 3.7650792e-005 -0.00017378552 0.00037602213 -0.55499649 -0.5635761
4367725000 -0.65125942 -0.49818608 -3.804245e-005 -0.00014543203 0.00023606177 -0.00012563863 -0.66809684 -0.42494556
4375212500 -0.7361393 -0.34420684 0.00014636325 0.0001672693 -3.9878785e-005 0.00022513577 -0.7466746 -0.2667847
4382700000 -0.78865772 -0.17594828 -0.00019427057 0.00033589124 0.00012700453 -7.7324665e-005 -0.7890929 -0.096776791
4390187500 -0.80644363 0.00085010007 0.00024570897 -2.6197826e-005 -0.000134139 3.7039987e-005 -0.79246134 0.07840734
4397675000 -0.78709519 0.18192597 -8.1072445e-005 -0.00012008385 -0.00020997209 0.00014400308 -0.75679576 0.25088966
4405162500 -0.72753048 0.3588182 0.00027644032 -0.00016079341 0.00029012968 -0.00030848663 -0.68426144 0.41227955
4412650000 -0.62559134 0.52661192 -6.6695968e-005 -1.8614714e-005 0.00021911044 -0.00018352602 -0.576217 0.55364799
4420137500 -0.47959673 0.66767836 0.00017357693 9.5960888e-005 -4.7254351e-005 -4.6772959e-005 -0.43786973 0.66588748
4427625000 -0.29671222 0.77103156 -4.3137959e-005 3.1502339e-005 0.00010181578 -0.0004056849 -0.27680531 0.74444801
4435112500 -0.088951863 0.82353258 -5.0275121e-005 -9.7338852e-005 -0.0001169735 -0.00012879189 -0.10142095 0.78340828
4442600000 0.12379338 0.81710494 -0.00016832534 -4.6144563e-005 -0.00030743441 -0.00010942805 0.075444482 0.78120196
4450087500 0.3253018 0.75508624 0.00041719395 5.2810137e-005 7.3386313e-005 0.00031434299 0.24778287 0.74004138
4457575000 0.49887308 0.64673686 -0.0001670917 6.2718042e-005 4.7004258e-005 -7.0658687e-005 0.40689135 0.66171438
4465062500 0.63576686 0.50626576 -8.0136007e-005 0.00028052603 6.3498825e-005 -0.00015526683 0.54611456 0.55111063
4472550000 0.73288196 0.34289497 -2.3531236e-005 -0.00018982397 0.00018033167 4.3616477e-005 0.6592719 0.41092849
4480037500 0.79172063 0.16786376 0.00036080429 -0.00021870366 0.00024433224 1.9610206e-005 0.73979199 0.24581867
4487525000 0.81149721 -0.010023045 -5.1086834e-005 9.4770785e-006 9.531543e-005 3.3242373e-005 0.78075451 0.062842377
4495012500 0.79539865 -0.18721795 0.00025453299 -0.00015134316 1.013098e-005 0.00010430928 0.77653027 -0.12833384
4502500000 0.74183905 -0.35557827 0.00016298957 -4.5084606e-005 -6.4773369e-005 -0.00032026684 0.7229681 -0.31515783
4509987500 0.65504599 -0.51087964 -0.00014221987 0.00015199676 -0.00010200372 -2.0739559e-005 0.62448364 -0.48297244
4517475000 0.53643626 -0.64532745 -5.6675861e-005 0.00023603451 -4.164693e-005 0.00015773173 0.48771515 -0.61704832
4524962500 0.38907453 -0.74993676 0.00037654061 -2.7156726e-005 8.7108179e-005 -0.00024822154 0.32486191 -0.71115154
4532450000 0.22143669 -0.82161474 8.6922664e-005 -0.00015463486 -7.6729346e-005 0.0002419612 0.15127529 -0.76255238
4539937500 0.038617522 -0.85188693 -1.7873777e-005 0.00023350955 5.4596454e-005 -9.1070673e-005 -0.023644678 -0.77256227
4547425000 -0.14792606 -0.84113014 6.2575127e-005 -0.00010716853 -0.00010316326 9.8543853e-005 -0.19048496 -0.74647737
4554912500 -0.32976294 -0.78832889 -0.0002180001 8.0979233e-005 0.00027382781 -3.4061217e-005 -0.34551516 -0.68820816
4562400000 -0.49706382 -0.69370079 0.0001018555 6.1486404e-005 1.9318417e-005 -3.7412552e-005 -0.484965 -0.60338187
4569887500 -0.63991833 -0.55944538 -0.00013887144 5.6829529e-005 -0.00016686865 -0.00012858158 -0.60522175 -0.49249768
4577375000 -0.74940127 -0.39039671 -3.9550541e-005 -6.836767e-005 -0.00018462347 3.8909307e-005 -0.7039125 -0.35761356
4584862500 -0.81377113 -0.1971786 4.0601328e-005 0.00020301245 -0.00014952381 -6.7188455e-005 -0.77282709 -0.20072143
4592350000 -0.82853031 0.0080756824 4.068009e-005 -0.00015468057 -5.40571e-006 5.5332919e-005 -0.80684972 -0.026898231
4599837500 -0.78773266 0.21196702 -0.00027659463 -0.00017508829 -4.1288782e-005 -0.00012502853 -0.79874456 0.15480824
4607325000 -0.69793725 0.39470851 -0.00020446326 3.9141025e-005 7.2758212e-006 -7.2529183e-005 -0.74618042 0.33269101
4614812500 -0.56820989 0.54593784 -0.00012902595 5.3220174e-005 -0.00010612047 -3.7009173e-005 -0.64862955 0.49356472
4622300000 -0.41113979 0.65895975 -2.0578605e-006 -0.00019566524 8.6705833e-005 -0.00030659651 -0.51382768 0.62513554
4629787500 -0.23785014 0.73022014 -8.3793588e-005 -0.000108796 -5.8460984e-005 0.00026727602 -0.35271332 0.71903545
4637275000 -0.058039408 0.76256716 0.00030781826 0.00010290853 -4.9595965e-005 0.0002456565 -0.17711581 0.77147967
4644762500 0.12269431 0.75619763 1.5626774e-005 0.00018789675 0.00027033867 -0.00023980923 0.004030339 0.78219795
4652250000 0.29656422 0.71421194 1.1889829e-005 -7.9084872e-005 0.0001759224 -0.00028686656 0.18192664 0.75270116
4659737500 0.46053144 0.63628292 -7.8069361e-006 3.0956264e-005 0.00040004376 -0.00010132893 0.34871402 0.68563265
4667225000 0.60521501 0.52201176 0.00024552474 2.7166521e-005 0.00016810013 0.00010355881 0.49751201 0.58277822
4674712500 0.72173691 0.37442666 -0.0001066565 5.3839241e-005 0.00018222349 0.00019064333 0.62018424 0.44759518
4682200000 0.79927635 0.20190912 -1.784656e-006 0.00017591003 -0.00036814841 -0.00010333875 0.70985681 0.2861976
4689687500 0.83141375 0.013962649 -9.2521106e-005 -2.2608274e-005 0.00015112202 3.3976361e-005 0.75799459 0.10717725
4697175000 0.81548029 -0.17249912 -8.435657e-006 3.5108787e-005 6.5929795e-005 -0.00019351843 0.76294118 -0.078916624
4704662500 0.75622696 -0.34543848 -9.7894554e-005 3.7141417e-005 2.1417931e-005 -1.5811873e-005 0.72299665 -0.25962752
4712150000 0.66238034 -0.49444136 -0.00020581206 0.00013257825 -0.00016473093 7.2894167e-005 0.64367265 -0.42328808
4719637500 0.5439285 -0.61550689 1.9382414e-005 1.2377182e-005 0.00046596688 -6.1850405e-005 0.53095311 -0.5637098
4727125000 0.40699309 -0.70798779 0.00011324199 -1.6438777e-005 -0.00025931976 -0.00027697813 0.39051595 -0.67410511
4734612500 0.25688073 -0.77379245 -0.00014728137 -0.00020515939 -0.00013553392 0.0001397872 0.22934851 -0.75120634
4742100000 0.093952656 -0.811463 -9.3928473e-005 0.00023108172 -7.9808844e-005 0.00036743449 0.055779852 -0.79176271
4749587500 -0.077587947 -0.81835544 -0.00042042369 -0.00021471876 3.9941373e-005 -0.00024942221 -0.124643 -0.79267764
4757075000 -0.25676271 -0.78831947 0.00010293478 0.00011827298 8.9016001e-005 0.00012175368 -0.30142632 -0.75150424
4764562500 -0.43426317 -0.71276373 -0.00026897257 0.00028997965 0.00017193092 -6.5774781e-005 -0.46584988 -0.66842127
4772050000 -0.59654778 -0.58924848 -0.00015605504 0.00028871253 0.00021406214 0.00025952142 -0.60440171 -0.54826796
4779537500 -0.72277933 -0.41840184 0.00020037193 -0.00014776341 -6.7303903e-005 0.0001135585 -0.70913911 -0.39928117
4787025000 -0.79761213 -0.21447083 0.0001685337 -5.9628153e-005 5.8658228e-005 4.3435724e-005 -0.77316964 -0.23199522
4794512500 -0.81012613 -0.00031143153 0.00024343895 -0.00010227092 -0.00019492631 -0.00023574517 -0.79583848 -0.058943927
4802000000 -0.76465958 0.20229203 -0.00021611206 1.8528573e-005 -0.00034472885 -6.5106622e-005 -0.78242862 0.11020445
4809487500 -0.67392397 0.3786895 7.0657668e-005 0.0002227588 0.00031259141 -2.254231e-005 -0.73462063 0.27048427
4816975000 -0.54985785 0.52135539 0.00044096948 0.00021132598 -0.00022624037 -0.00013901341 -0.65652466 0.41832194
4824462500 -0.40537903 0.62919921 1.7075421e-005 0.0002394631 0.00012615144 -1.1172629e-005 -0.54933673 0.54849797
4831950000 -0.24686927 0.70341313 0.00022221431 -6.5876804e-005 3.3996639e-005 -1.9607935e-005 -0.41608679 0.65777755
4839437500 -0.081064135 0.74510336 -5.6151577e-005 0.00012087398 -3.8254489e-005 2.9333698e-005 -0.25579435 0.73731869
4846925000 0.089695059 0.7532922 2.9309016e-005 -4.0454521e-005 -6.7273279e-005 3.5004283e-005 -0.074239261 0.78035438
4854412500 0.26161024 0.72737008 -0.0002032062 -0.00023848395 -0.00010267876 -0.00013834308 0.11861362 0.77628404
4861900000 0.42664877 0.66367799 -2.5819722e-006 -0.00011272343 -0.00023131956 0.00015229706 0.30768672 0.72015107
4869387500 0.57625097 0.5639292 5.9121518e-005 -0.00018531979 0.00010426425 0.0002525434 0.47513315 0.61569929
4876875000 0.70077097 0.43062192 -0.00015103904 -2.8424236e-005 0.00015800804 4.3831664e-005 0.60685545 0.47401214
4884362500 0.79254079 0.26741111 4.7944577e-005 3.6598751e-005 0.00010161776 -0.00018427119 0.69604379 0.30836105
4891850000 0.84234607 0.086703606 -0.00010535329 7.356656e-005 -3.2785167e-005 0.00013367711 0.74284875 0.13331273
4899337500 0.84775245 -0.10200325 4.2937427e-005 -7.2909679e-005 3.2957283e-005 -0.00018201541 0.74980348 -0.040802263
4906825000 0.80649424 -0.28656447 -0.00017277291 -0.00029358937 0.00032351044 9.1037538e-005 0.72257978 -0.20960154
4914312500 0.72334766 -0.45546243 -0.00010906506 -0.00014199359 0.00013697289 9.3432944e-005 0.66243643 -0.36752492
4921800000 0.60275334 -0.59975374 -2.4459803e-005 -0.00010926367 -0.00024472762 -2.2641078e-005 0.57218367 -0.5114494
4929287500 0.4515866 -0.71047872 -6.0557331e-006 4.8618738e-005 -0.00024353369 -0.00012421033 0.45089191 -0.6359551
4936775000 0.27987018 -0.78244692 -2.3587989e-005 -6.7720241e-005 3.0147592e-005 7.0440219e-005 0.30233929 -0.73195279
4944262500 0.09746974 -0.81086624 2.9595418e-005 -0.0003081254 0.00024832258 2.1680293e-005 0.13208631 -0.79316324
4951750000 -0.084607646 -0.79839784 -3.6806985e-005 5.7091409e-005 0.00015652584 -1.417438e-005 -0.051211894 -0.81070817
4959237500 -0.25763297 -0.74473488 -8.1876351e-005 0.00021602909 -0.00031864739 -0.000120795 -0.2343318 -0.78308511
4966725000 -0.41364789 -0.65441239 -4.1120813e-005 8.4940395e-005 -0.00020757345 0.0001344616 -0.40488657 -0.71168059
4974212500 -0.54531157 -0.53343922 -7.5430027e-005 5.5305412e-005 8.6059379e-005 9.358579e-005 -0.55098945 -0.60143936
4981700000 -0.64792889 -0.38683498 -1.9293075e-005 7.4453164e-005 -0.00014945147 0.00021545519 -0.66528124 -0.46217725
4989187500 -0.71585029 -0.22004907 0.00011431157 0.00015206807 -0.00014054783 -0.00021027248 -0.74408531 -0.3022812
4996675000 -0.74585325 -0.040615838 -1.2403433e-005 0.00010657551 0.00018755801 0.00019896537 -0.78324646 -0.13061598
5004162500 -0.73346764 0.1414547 -7.0611299e-005 0.00021736395 9.5698e-005 5.3082265e-005 -0.78371394 0.04453237
5011650000 -0.67964405 0.31774455 7.8207529e-005 -2.5802785e-005 -0.00038952468 0.00017277098 -0.74526197 0.21365257
5019137500 -0.58593082 0.47533056 -6.4949396e-005 -0.00013396097 5.4560714e-006 -0.00020704248 -0.67051238 0.36965162
5026625000 -0.46029261 0.6068356 6.5412343e-005 -2.609476e-005 -0.00027930498 0.0002028602 -0.56398755 0.50481594
5034112500 -0.30910251 0.70688421 -0.0001138646 -7.2590587e-006 -0.00039916724 -9.043749e-005 -0.43016449 0.6125387
5041600000 -0.14090922 0.76999009 -1.3124401e-005 4.3560336e-005 -0.00025307786 -0.00011422433 -0.27738723 0.68981832
5049087500 0.037140202 0.79534549 0.00012853803 0.00028877141 -0.00012262765 0.00015469654 -0.1107871 0.73202819
5056575000 0.21753936 0.78291118 -0.00010487966 0.00015490677 -0.00019344995 -0.0001343545 0.062659614 0.73890048
5064062500 0.39333504 0.72957301 -0.00011366496 -2.136713e-005 -1.6117056e-005 9.6103431e-005 0.23691744 0.70786029
5071550000 0.55769897 0.63659292 0.00015488907 6.2906467e-005 0.00013999286 0.00018637109 0.40543112 0.6375972
5079037500 0.69674343 0.50280273 -0.00027168437 0.00015328426 -2.412408e-005 -6.6104898e-005 0.55646414 0.52562243
5086525000 0.79987681 0.33545136 7.9114689e-005 -8.5030842e-005 -3.2416625e-005 9.969287e-006 0.67875677 0.37601277
5094012500 0.85415685 0.14525819 -6.9896014e-005 -9.7539007e-005 0.00022286287 -0.00018276804 0.75864631 0.19564691
5101500000 0.85783976 -0.049777962 5.1442566e-005 -0.00035745502 0.00019818798 2.9895296e-005 0.78729278 0.0020619524
5108987500 0.81280214 -0.23319477 -0.00012360323 -9.763689e-005 0.00028747341 0.00021150561 0.7646873 -0.188986
5116475000 0.72826928 -0.39441073 5.7184196e-005 0.00014921707 -5.4496224e-005 -3.6085246e-005 0.69623405 -0.36211669
5123962500 0.61544901 -0.52664137 3.685811e-005 -9.361923e-005 6.1418352e-005 0.00016242081 0.59340042 -0.50675613
5131450000 0.48280996 -0.63094133 -2.9851479e-005 3.3358618e-005 0.00020965777 -0.00029897975 0.46806648 -0.62166691
5138937500 0.33578581 -0.70754236 -1.2329481e-005 6.7935114e-005 1.4542422e-005 4.8087728e-005 0.3264555 -0.70678043
5146425000 0.17606792 -0.75777817 -7.9451675e-006 -7.5822674e-005 0.00014343249 -5.8962461e-005 0.17415142 -0.76210314
5153912500 0.0035558955 -0.77722108 -2.7358336e-005 -3.4566667e-005 -0.00010444744 6.9335249e-005 0.012061629 -0.78817844
5161400000 -0.17914806 -0.75971997 -3.7254438e-005 0.0003417453 -6.6122062e-005 0.00010080489 -0.15682651 -0.78224576
5168887500 -0.36293712 -0.69587743 -0.00016339841 2.119817e-005 -0.00015888452 7.0515932e-007 -0.32715079 -0.73732209
5176375000 -0.53176934 -0.57966769 -4.227952e-005 -0.00019622578 -0.00014524107 1.0825685e-005 -0.48729992 -0.64952868
5183862500 -0.66424608 -0.41598549 -8.9312249e-005 -5.9171478e-005 6.9377247e-006 0.00030706884 -0.62273788 -0.51955032
5191350000 -0.74263036 -0.22257231 1.5365114e-005 7.7655292e-005 5.2345062e-005 0.00015838702 -0.71960396 -0.35706225
5198837500 -0.76251709 -0.022724204 -0.00014965887 8.4214735e-005 -0.00016328658 -0.00017249011 -0.76800913 -0.17695861
5206325000 -0.7339375 0.16300222 -0.00014575679 1.2147218e-005 0.00014697626 0.00028228579 -0.76960945 0.0024686938
5213812500 -0.66832155 0.32721421 -0.00020971541 1.502684e-006 -0.00010218546 -6.823989e-005 -0.73179621 0.17024115
5221300000 -0.57897264 0.46656486 -4.1030416e-005 0.0001306396 -0.00017159081 -7.2255563e-005 -0.66252458 0.31934091
5228787500 -0.47051996 0.58571583 0.00012819927 0.0001045821 6.5305263e-005 9.7943557e-005 -0.56917816 0.44931063
5236275000 -0.34394926 0.68784106 0.00020741248 -9.5917829e-005 0.00018528651 -0.00010465612 -0.45499521 0.56005847
5243762500 -0.1957705 0.77060622 7.4127362e-005 -5.6393008e-005 -5.5956694e-005 -7.683174e-005 -0.31936315 0.65075463
5251250000 -0.021526651 0.82494998 -3.5422599e-005 -3.2095595e-005 -0.00012963178 -8.4573381e-005 -0.16231778 0.71574813
5258737500 0.17597991 0.83636945 -7.7266859e-006 0.00024362581 -3.7286054e-006 0.00014814427 0.014859799 0.74628669
5266225000 0.3810758 0.78945583 7.4192227e-005 -8.1993647e-005 -0.00027614794 0.00032108449 0.20274362 0.73194242
5273712500 0.56798375 0.67794728 -3.0655661e-005 -0.00011249598 9.8610981e-005 -0.00014461971 0.38559136 0.6644541
5281200000 0.70763874 0.5138008 -3.4605288e-005 -2.7171034e-006 -1.8235886e-006 -9.9822704e-005 0.54496914 0.54924244
5288687500 0.78592771 0.32690355 0.00018760964 -0.00018318216 0.00014606507 0.00014104047 0.66468966 0.39733317
5296175000 0.80812997 0.14241375 -0.0002212128 -0.00045605638 -2.2377679e-005 0.00022408707 0.73962957 0.22471531
5303662500 0.78991908 -0.024435004 -7.2153787e-005 -0.00022279544 4.5538847e-005 8.4123545e-005 0.76982278 0.048741352
5311150000 0.74525881 -0.17160004 -0.00010705271 0.00010878018 0.00019944664 -0.00013231397 0.76288199 -0.12406021
5318637500 0.68404895 -0.30236843 0.00029754799 -0.00012088946 0.00023138605 8.1913189e-005 0.72173673 -0.28978026
5326125000 0.60598397 -0.422672 -7.5573975e-005 4.8868656e-005 0.00011143193 0.00021396136 0.64892161 -0.44370183
5333612500 0.51480216 -0.53773302 6.2214902e-005 -0.00015884888 0.00030928504 0.00016653539 0.54167038 -0.58186245
5341100000 0.39396173 -0.64032888 -0.00012626416 0.00022950683 -0.00027288045 -0.00028083441 0.40262285 -0.69649976
5348587500 0.24302083 -0.72306567 -0.00010084533 -0.00016490649 -0.00015482688 0.00023753973 0.23350118 -0.77558142
5356075000 0.060458906 -0.77328247 -0.0001455085 -0.00017773212 -0.00051252259 -0.00029637871 0.047458347 -0.80725312
5363562500 -0.14190385 -0.77224094 -0.00024876828 3.4667963e-005 -0.00033829952 -4.4574284e-005 -0.13840547 -0.78663969
5371050000 -0.34259161 -0.70884508 8.9127083e-005 0.0002448663 0.00026708009 0.00016316879 -0.30589396 -0.71993119
5378537500 -0.51596773 -0.58860195 -6.8033813e-005 3.1925312e-005 -8.4103922e-005 -7.4595831e-005 -0.44437271 -0.61853832
5386025000 -0.64288247 -0.43050373 0.00012811529 6.9577975e-005 2.42142e-005 -0.00022907625 -0.55114472 -0.49650452
5393512500 -0.72131807 -0.25492629 6.7117588e-005 9.3796181e-005 -0.00019077849 -0.00012687517 -0.62942421 -0.36484438
5401000000 -0.75667477 -0.076310813 -0.00026262671 -0.00027335904 0.00018049439 -0.00014865671 -0.68124634 -0.22592831
5408487500 -0.75735795 0.098990202 7.4907919e-005 0.00035146461 0.00020774461 -5.3722048e-005 -0.7116155 -0.07916376
5415975000 -0.72681755 0.26894957 0.00026695486 0.00028363391 -0.00010072639 -7.6077478e-005 -0.71633387 0.074486308
5423462500 -0.66135079 0.43443558 0.0001929336 -0.00016382494 -0.00013038103 -0.00038244957 -0.69181031 0.23699445
5430950000 -0.56103557 0.58789694 -0.00036657639 -0.00016554503 5.6187055e-005 6.0451512e-005 -0.62720412 0.40195528
5438437500 -0.42018163 0.72091842 -8.6288899e-005 -4.2321211e-005 -0.00018431916 0.00017391455 -0.51628095 0.5552001
5445925000 -0.24203356 0.81569821 0.0001534911 -0.00027885885 7.1384806e-005 -0.00020722779 -0.35940057 0.6774345
5453412500 -0.040738735 0.85768872 -6.3427877e-005 -4.6966845e-005 0.00017527318 -7.2316427e-005 -0.17048857 0.75040984
5460900000 0.16077869 0.84028053 -1.3910938e-005 0.00035836702 0.000121636 6.961888e-005 0.029584102 0.76507467
5468387500 0.34229746 0.7696979 -3.6481837e-005 -0.00011278998 6.1494109e-005 0.00018352921 0.21709159 0.72594059
5475875000 0.49112788 0.66187507 0.0001350228 -0.0001308614 -6.8221365e-005 3.8118596e-005 0.38032293 0.6463657
5483362500 0.605075 0.53211886 0.00031035393 8.05503e-005 -0.00016813017 -0.00010144428 0.51382101 0.53862363
5490850000 0.68500322 0.39083341 5.988076e-005 -6.4015607e-005 -7.5056661e-005 -1.3235544e-005 0.61948341 0.41175419
5498337500 0.73759985 0.2421485 2.8851753e-005 -3.3461962e-005 0.00048713724 0.00018314811 0.69945347 0.2703391
5505825000 0.76472187 0.089249223 0.00011887783 0.000282794 0.00013002772 -2.6098252e-005 0.75148529 0.11436945
5513312500 0.76492751 -0.070360653 0.00032205743 0.00030098509 4.7130521e-005 0.00036754718 0.77170867 -0.05365127
5520800000 0.73380834 -0.23372664 0.00055036944 -8.2470877e-005 0.00014654058 -7.5809592e-005 0.7536208 -0.22880694
5528287500 0.66636401 -0.39577141 7.5900934e-005 -0.0001832316 8.8601228e-005 0.00013910377 0.69153666 -0.40118697
5535775000 0.55700266 -0.54531842 9.9137367e-005 8.3871266e-005 -2.1721984e-005 0.00019235106 0.58252966 -0.55497032
5543262500 0.40626776 -0.66825497 -9.5562311e-005 -0.00010138622 0.00032793474 0.00023762097 0.43605915 -0.67427099
5550750000 0.22535717 -0.74885106 0.00020966261 -0.00028844678 -6.4778331e-005 0.0003596913 0.26696223 -0.74877322
5558237500 0.025597531 -0.77809048 -4.1247324e-005 -2.3217938e-006 0.00017340713 0.00019506612 0.088348255 -0.7760908
5565725000 -0.17083719 -0.75444174 0.00015734782 -0.00013666213 0.0006406235 0.00012386567 -0.083721854 -0.76168877
5573212500 -0.35127068 -0.68228477 -0.00036321447 -2.1842519e-005 -9.3461043e-005 -6.2853258e-005 -0.24165516 -0.71084905
5580700000 -0.50529432 -0.57417184 0.00027447505 8.5312386e-005 -0.00022847475 0.0006161012 -0.382471 -0.63216275
5588187500 -0.62704676 -0.43688732 0.00033217142 -1.7803433e-005 5.1882776e-005 4.8792393e-005 -0.50289953 -0.52912176
5595675000 -0.71451503 -0.27886286 -6.7317892e-006 -0.00024896674 -0.00018951952 -0.00019725318 -0.60125172 -0.40403894
5603162500 -0.76388121 -0.10864821 -0.00010609553 -0.00037285508 0.00027687397 -3.2225318e-005 -0.67414004 -0.26097566
5610650000 -0.77578634 0.066595703 0.00049872982 2.3215278e-005 -0.00015271713 -0.00016214105 -0.71631849 -0.1024928
5618137500 -0.74959356 0.23896669 0.000241435 -6.5089385e-005 -8.1542341e-005 1.7852926e-005 -0.7244398 0.066998929
5625625000 -0.68669748 0.4014847 -0.00023182351 -0.00014429011 5.5017063e-005 -6.8221743e-005 -0.69190818 0.23678814
5633112500 -0.59012592 0.54548967 -0.00011889252 0.00024595976 1.3922871e-005 0.00012091445 -0.6197207 0.39940181
5640600000 -0.46457797 0.6660732 5.4928252e-005 -0.00015833959 5.108109e-005 -0.00037140885 -0.50765097 0.54174304
5648087500 -0.31400925 0.75650305 0.00015761313 0.00033806011 0.00023134123 2.9522193e-005 -0.36367866 0.65545332
5655575000 -0.14532581 0.81072599 -7.8321056e-005 -9.051607e-005 -0.00015169974 -0.00035064516 -0.19498111 0.73024487
5663062500 0.033430956 0.8269152 -7.1968476e-005 -0.00019749413 0.00028911742 6.800582e-006 -0.012582539 0.76177895
5670550000 0.21252026 0.80063522 0.00021418814 -0.0001708989 -0.0003613591 -1.2037509e-005 0.17236486 0.74782544
5678037500 0.38284686 0.73283643 -0.00029571832 7.8055527e-005 3.400023e-005 -7.4464774e-006 0.34788853 0.68922997
5685525000 0.53274387 0.62345016 6.2265179e-005 -0.00022462258 -6.0588663e-005 0.00015469018 0.50151932 0.5916208
5693012500 0.65195072 0.48231003 -0.00011285948 -0.00012274271 0.0002746461 -0.00010863918 0.62652153 0.46059132
5700500000 0.7323221 0.31718361 0.00021246551 -0.00030003936 8.7911962e-005 -0.00051324815 0.71560508 0.30687574
5707987500 0.77256161 0.14119096 0.00027138495 0.00014689659 -7.7808581e-005 -2.451515e-005 0.76633424 0.13887137
5715475000 0.77224636 -0.03696052 -0.00038075066 0.00014265276 0.00029300395 3.2584197e-005 0.77804154 -0.033255905
5722962500 0.73367047 -0.20891777 -7.7795346e-005 1.9445353e-005 0.0003742277 -5.0583596e-005 0.75230378 -0.20302691
5730450000 0.66060555 -0.36843777 -8.0706908e-005 8.5359919e-005 0.00015860426 0.00049042562 0.68971384 -0.36205044
5737937500 0.55454105 -0.51054287 0.00012645555 -1.4070742e-005 5.5349719e-005 -2.5683796e-005 0.59260237 -0.50364143
5745425000 0.41896275 -0.62900776 -0.00023926937 0.00018283198 0.00026551378 -1.5241021e-005 0.46500546 -0.61985821
5752912500 0.25652531 -0.71583235 -0.00019373315 -5.5907544e-006 0.00012969425 0.00020040356 0.31456915 -0.70418721
5760400000 0.074356727 -0.7625652 -0.00012594844 0.00024731591 -0.00024820273 0.000442057 0.14810415 -0.75080019
5767887500 -0.11620748 -0.76322556 7.5994001e-005 -0.00014183688 3.137458e-006 0.00013972832 -0.023685375 -0.75582165
5775375000 -0.30170035 -0.71625578 -3.2899956e-005 -0.00011826841 -0.00026733839 -1.6971391e-005 -0.18939415 -0.72364241
5782862500 -0.46841666 -0.6261121 -7.4233758e-005 6.6380628e-005 4.2535171e-006 0.00025992442 -0.34215465 -0.65469301
5790350000 -0.60531163 -0.49999583 0.0002738823 -2.5388799e-005 -0.00031464401 -0.00016365992 -0.47539636 -0.55704743
5797837500 -0.70666665 -0.34880239 -1.6251412e-005 3.2903215e-005 -0.00014728104 0.00015910676 -0.58462399 -0.43481529
5805325000 -0.77144492 -0.18293239 -7.7198521e-005 5.731847e-005 -0.00025082423 -0.00019477302 -0.66766143 -0.2918261
5812812500 -0.79827476 -0.0087595917 -8.1279817e-005 -0.00019114804 -0.00021981377 -3.8538288e-005 -0.72047728 -0.13127795
5820300000 -0.78875536 0.16816807 -6.5395652e-005 8.1324775e-005 -2.4249519e-005 0.00014948909 -0.73854595 0.042484727
5827787500 -0.7409901 0.34049231 4.380606e-005 -6.062465e-005 0.00027693537 -0.00026730128 -0.71431714 0.22075915
5835275000 -0.65388417 0.50006729 0.0001032041 -0.00037890972 -0.00017564246 0.0002128405 -0.64447308 0.39265746
5842762500 -0.52763051 0.63640505 -6.6281445e-006 -0.0005608502 -0.00015115563 0.00018272408 -0.53076297 0.54412276
5850250000 -0.3708455 0.73837823 0.00011849115 0.00015834559 0.00010029428 1.8202085e-005 -0.3803955 0.65855569
5857737500 -0.19349489 0.79706669 -0.00043808622 -0.00019744146 -9.9428376e-005 4.2249681e-005 -0.20983547 0.72931916
5865225000 -0.0097697154 0.8095569 -0.00030077845 0.00029583753 0.00035488178 -0.00016501851 -0.031833731 0.75405765
5872712500 0.16662461 0.77845871 -2.5711262e-005 2.3401159e-005 0.00013515295 -0.00015846765 0.13899992 0.73851174
5880200000 0.32725081 0.71157527 -0.00026721571 0.00014557737 0.00014848939 0.00041161166 0.2981447 0.68822086
5887687500 0.4667953 0.61437893 -1.7997145e-005 -0.00026097291 -5.1848994e-005 -0.00028999546 0.44117472 0.60841781
5895175000 0.58375078 0.49311545 0.00025116847 -0.00024975068 -9.8790202e-005 -0.00022988423 0.56577438 0.50352997
5902662500 0.67554814 0.35012639 0.00034231413 -0.00053166604 -7.8540841e-005 -0.00043205114 0.66959453 0.3725965
5910150000 0.7379632 0.18833785 -0.00019420251 -0.00010755325 -5.3392076e-005 -7.7692363e-005 0.74600405 0.21884826
5917637500 0.76579183 0.010310911 0.00035120646 0.00015332583 0.0002783417 -0.00018295382 0.78603524 0.043385945
5925125000 0.74963057 -0.17662409 -0.00026787005 0.00027243336 -0.00021360768 0.00019115541 0.77990204 -0.14131045
5932612500 0.68393826 -0.35810813 0.00052850047 0.00019003858 0.0002701366 0.00012273728 0.72383392 -0.32159457
5940100000 0.57209861 -0.51746148 0.00015220432 -0.00058053317 -4.9370214e-005 2.1681875e-005 0.6212703 -0.48019141
5947587500 0.42293698 -0.63986689 -0.00015319583 0.00019834048 0.00010494175 -0.00027315767 0.4837229 -0.6029253
5955075000 0.25409952 -0.71573812 0.00014152622 -0.00019340319 -6.0322647e-005 2.0962128e-005 0.32631627 -0.68312001
5962562500 0.080253243 -0.74776745 -0.00027642326 0.000195455 -0.00012236685 -0.00016082404 0.16192086 -0.72422749
5970050000 -0.088401727 -0.7415393 1.0017175e-005 -1.3554321e-005 0.00045424403 0.00033888334 -0.00062412804 -0.72882926
5977537500 -0.24547684 -0.7047416 -1.9787717e-006 -0.00011040274 -0.00027280231 0.00028454317 -0.15648767 -0.70287466
5985025000 -0.3897799 -0.6419673 -0.00021014365 -8.3559271e-006 -0.00017958495 -0.00022222984 -0.30498281 -0.6488682
5992512500 -0.52222049 -0.55530638 0.00014622539 -6.7593421e-005 2.9435891e-005 -6.07601e-005 -0.44158721 -0.56624073
6000000000 -0.64018059 -0.44254306 0.00018502861 8.1315899e-005 -0.00026473668 0.00011904109 -0.56234628 -0.45564428
