!Keysight Technologies,N5245B,MY52501319,Z.13.01.242
!Date: Monday, February 16, 2026 14:45:36
!Correction: S11(Off) 
!S21(Off) 
!S12(Off) 
!S22(Off) 
!S2P File: Measurements: S11, S21, S12, S22:
# Hz S  RI   R 50
10000000 -0.93814415 0.43888393 -0.00074048934 0.0017246659 -0.00059818523 -0.00013888074 0.87714487 -0.16753066
17487500 -0.84562445 0.57574755 -0.00011562547 -2.1776286e-005 0.0012052481 -0.0012213017 0.79817265 -0.41425422
24975000 -0.71930474 0.74240232 -0.00018004497 -0.00018279697 0.00024623083 8.7828157e-006 0.65540022 -0.59810638
32462500 -0.53976357 0.88256288 0.00075744733 0.00014929126 -0.00094317662 -0.00022616537 0.49407437 -0.73825115
39950000 -0.32048616 0.96788096 0.00061117642 -0.00049235666 -0.0006344968 0.0003551917 0.30968714 -0.83539748
47437500 -0.085425526 0.99394244 -0.00022631769 -0.00060479651 -0.00029008227 0.00016122662 0.10223491 -0.89758086
54925000 0.14047566 0.96757942 3.2047948e-005 0.00026174245 4.1523821e-005 0.00025144484 -0.11657088 -0.90651822
62412500 0.34409398 0.89705026 -0.00088729791 -0.00031486986 -0.00016198188 3.0611223e-005 -0.33112529 -0.8627491
69900000 0.52785236 0.7894327 -0.00025530375 -6.7658999e-005 -0.0013280585 -0.0016546785 -0.52753866 -0.76593107
77387500 0.68901259 0.64665723 0.00028763892 0.00049688551 0.001826006 0.0007845189 -0.69159567 -0.62367839
84875000 0.8164053 0.47282425 -0.00057602272 -0.00028635733 -0.00047827401 0.0001020924 -0.81470686 -0.44587585
92362500 0.90637141 0.26917213 -0.00010134437 -0.00043620722 -0.00028709043 -0.00031579958 -0.89084494 -0.24931514
99850000 0.95044994 0.047393691 0.00048880914 -6.9303605e-005 0.00051051041 -3.6556492e-006 -0.92214453 -0.045576818
107337500 0.93775779 -0.18428698 -0.0003782839 0.00072826189 0.0003237577 -0.00043759955 -0.90972024 0.16181916
114825000 0.86585999 -0.40765113 1.3863061e-005 0.0003727267 0.00029008882 -0.00048989832 -0.84927845 0.35693565
122312500 0.74202138 -0.60709941 0.0005769626 -0.00056252838 0.0001123675 0.00019446044 -0.7500686 0.53862333
129800000 0.57316452 -0.76694983 -9.347844e-005 -1.1185518e-005 -0.00014967429 -0.0007168607 -0.61347574 0.69282669
137287500 0.37282506 -0.87684172 -8.8181077e-005 -0.00079374039 -0.00033933847 -7.8411009e-005 -0.44171217 0.81391883
144775000 0.15875146 -0.93329704 0.00018555489 -0.00038793878 0.00027810066 -0.00050854817 -0.24672513 0.89504844
152262500 -0.059739802 -0.94511825 -0.00045614532 -0.00032585816 -5.5723762e-005 -0.00039498493 -0.035616841 0.92450738
159750000 -0.27141362 -0.90766644 -0.00083660125 0.0004647458 -0.00081120664 0.00015482507 0.17524664 0.90477264
167237500 -0.46854779 -0.82587224 0.00050356978 -2.3087379e-005 -0.00029558726 -0.0002667426 0.3744722 0.84022719
174725000 -0.64383644 -0.70225883 -0.00075244636 -0.00045666599 -0.00044008452 0.00057361356 0.55552906 0.7304911
182212500 -0.78854781 -0.54260445 -6.9382811e-005 -0.0002726588 -0.0007652585 -3.5093597e-006 0.7072469 0.5830124
189700000 -0.89503545 -0.35549736 -0.00042115533 -0.00023317372 -0.00056463334 -1.0542551e-005 0.82073277 0.40363541
197187500 -0.95414275 -0.1440835 -0.00025167578 0.00025571717 7.1956478e-005 6.2910069e-005 0.89116889 0.20065056
204675000 -0.96723348 0.073447086 -0.00018816347 -0.00065598678 0.00035128367 0.00028959982 0.915223 -0.014774533
212162500 -0.9213075 0.28735319 0.00015044569 0.00022166982 -0.00084145798 0.00042533685 0.88443124 -0.23038782
219650000 -0.83055633 0.48450369 9.0607035e-005 8.2246246e-005 -0.00038761972 -0.00024503225 0.80183488 -0.43362868
227137500 -0.69998544 0.65278006 -0.00031677933 -0.0007283825 0.00019424177 0.0006329639 0.67190146 -0.61312127
234625000 -0.5339219 0.78835106 -0.00019659768 -0.00034644545 0.00032090681 0.00077256036 0.5074439 -0.75162154
242112500 -0.34472471 0.88484305 -0.00033706677 -0.00027682038 -0.0004125321 -0.00028440636 0.31620756 -0.84672058
249600000 -0.14169812 0.93629867 0.00027111583 0.0003059234 -0.00017052868 0.00024726946 0.11073879 -0.88931763
257087500 0.07187096 0.94215775 3.3970198e-005 -0.00025429612 -0.00017621389 0.00058786094 -0.095179401 -0.89571989
264575000 0.28436133 0.89883101 -3.2622618e-005 -0.00034056109 -0.00033893395 -0.00026161477 -0.29791957 -0.85021907
272062500 0.48239794 0.8102814 0.0010803379 -0.00056285947 0.00094787101 -0.00020437135 -0.48465121 -0.76163751
279550000 0.65570623 0.67610812 -0.0006628377 0.00024817509 0.0010960831 -4.5248953e-007 -0.64829326 -0.63371325
287037500 0.79587024 0.50403678 -0.00057562906 -0.00059230311 0.0004516163 -0.00064183545 -0.77701014 -0.47244948
294525000 0.89104009 0.30173519 0.00063710927 0.00013968168 -0.00010928265 -8.4220585e-005 -0.86639827 -0.28248322
302012500 0.93754232 0.084823698 0.00023117341 0.00033280073 0.00058270642 -0.00083304348 -0.90810925 -0.079630867
309500000 0.93228614 -0.13737218 -0.00033856067 1.1215872e-006 0.00019723129 -0.00012125295 -0.90208513 0.1291679
316987500 0.87394553 -0.35253835 0.00010107662 0.00025966996 0.00056337367 -0.00044032774 -0.84682906 0.32649708
324475000 0.76950115 -0.54922402 -0.00079362473 0.00027546377 -0.00022264829 -0.00011759699 -0.75068969 0.50184721
331962500 0.61978334 -0.71409822 -0.00021319138 2.013405e-006 0.00049873331 9.0471141e-005 -0.62174743 0.65335226
339450000 0.43520656 -0.83758807 -0.00033305466 -0.00014694459 -0.00047967079 0.00017860901 -0.46229485 0.77199602
346937500 0.2299571 -0.91608244 -0.00054480805 -0.00011485386 -0.00053302175 -0.00017490047 -0.28392085 0.85693014
354425000 0.011715472 -0.9411099 0.00041977272 0.00022336451 0.00058718777 0.00052793126 -0.088265441 0.90311795
361912500 -0.20033275 -0.91679376 -0.00028754718 0.00043538207 -2.2708242e-005 -0.00020520047 0.11934928 0.90584475
369400000 -0.3977527 -0.84447902 -0.00014861362 0.00010799708 -0.00013272747 -7.0944749e-005 0.32639533 0.86118966
376887500 -0.57209104 -0.73258597 -0.00073755544 -0.00042419633 -0.00012095904 5.4240681e-005 0.52482426 0.76398122
384375000 -0.71810097 -0.58972532 -0.00016677046 -6.5927132e-005 -0.00029398577 -0.00012933317 0.69448024 0.61743522
391862500 -0.82918537 -0.42107248 -0.00020289021 0.00024208055 -0.00039076406 4.5208642e-005 0.81962973 0.42738765
399350000 -0.9036265 -0.23278368 0.00044955127 -0.00069615681 0.0011195473 0.00018804702 0.89290702 0.21167167
406837500 -0.93784708 -0.029005006 0.00044955671 -2.6947924e-005 0.00060490315 0.00038992838 0.90528381 -0.0092822528
414325000 -0.92544866 0.17989138 -0.00013135644 2.8380109e-005 0.00043249922 0.0012447027 0.86675841 -0.22007614
421812500 -0.86760372 0.3835977 0.00018993135 -0.00088747975 -8.1423997e-005 -0.00062609091 0.78172344 -0.41141322
429300000 -0.76040536 0.57196426 1.3935903e-005 -0.00034735334 -0.00026458295 0.00054329005 0.66001678 -0.57448006
436787500 -0.60833973 0.73045796 -0.00021524106 7.5463708e-005 0.00020477072 -0.0002752232 0.51186758 -0.70827079
444275000 -0.41970643 0.84806085 -8.1168902e-005 9.1731927e-005 0.00052869046 0.00010366082 0.33924091 -0.80819005
451762500 -0.21043169 0.91911924 0.00022394584 0.00019120214 -0.00047437171 -0.00029897632 0.1477517 -0.86916918
459250000 0.0094437618 0.93521255 -0.00046839615 -0.00059021625 0.00061440968 -0.00025671435 -0.055262458 -0.88635665
466737500 0.22297533 0.90024436 7.3151707e-005 -0.00085589802 -0.00011156994 0.00031268728 -0.25939739 -0.85903245
474225000 0.42189491 0.82077765 -0.00015509326 -0.0002442408 -0.00057520636 -0.00017402219 -0.45349401 -0.77958322
481712500 0.59935981 0.69849396 0.0002531425 0.0002062635 -0.00011245079 -0.0004511227 -0.62423533 -0.65643859
489200000 0.74483782 0.54199356 -6.3364772e-005 -0.00027705421 -0.00012234118 1.6931879e-005 -0.75688648 -0.49330875
496687500 0.85197866 0.35487127 -0.00043435386 0.00025701098 -3.6032605e-005 0.00054389611 -0.84821606 -0.30972937
504175000 0.92041576 0.14637253 -7.87424e-005 0.00022980857 -0.00057743781 5.6434037e-005 -0.88848597 -0.11378195
511662500 0.93238026 -0.075860165 -0.00011793441 -1.5768746e-005 0.00022617394 0.00018217639 -0.89073473 0.085532516
519150000 0.88997787 -0.29444948 -0.00012848931 8.7847198e-005 -0.00040263039 0.00011596296 -0.85120094 0.27789506
526637500 0.79319686 -0.49834824 6.2796003e-005 2.4440418e-005 -0.00027484939 -0.0001612812 -0.77165204 0.45898145
534125000 0.65385365 -0.66869414 -0.00021775377 0.00049228594 0.00045421452 0.00012453676 -0.65518546 0.61977237
541612500 0.48013505 -0.80069369 -0.00012210615 -0.00081325194 -0.00018894009 0.0001399904 -0.50174254 0.75419587
549100000 0.28207231 -0.88555974 -3.4926827e-005 0.00027318471 0.00016204941 2.2700218e-005 -0.31963167 0.85084426
556587500 0.074629724 -0.92505664 -0.00033065426 -0.00056712923 -4.502754e-005 0.0006041851 -0.11659963 0.90122682
564075000 -0.13325219 -0.91672552 0.00051618757 -0.00018118582 -0.0001119744 -0.00025891064 0.095873736 0.9022153
571562500 -0.33450913 -0.86553454 0.00011997121 -4.6783516e-005 -0.00013900158 0.00017519543 0.30165085 0.84921694
579050000 -0.51904327 -0.77192342 -0.0001824616 -0.00034085516 0.0004035786 -0.0001352254 0.48726326 0.75116926
586537500 -0.67889154 -0.63958758 -0.0004818594 3.0089039e-005 7.9067278e-005 -2.2580782e-005 0.64268953 0.61115837
594025000 -0.80561876 -0.47339469 -0.00010272914 -0.00014789103 -0.0001169692 -1.5268704e-005 0.76084793 0.44323307
601512500 -0.89184707 -0.28228757 -0.0007589453 -0.00011127105 -0.00030587308 -4.4112319e-005 0.83928895 0.25314149
609000000 -0.93156952 -0.074577369 0.00015212336 0.00010823922 2.8888142e-005 0.00028759957 0.87309003 0.049349725
616487500 -0.92251468 0.13368867 -0.00030058608 1.6933525e-005 0.00012501939 8.6199805e-005 0.86224484 -0.15541789
623975000 -0.86763144 0.33555716 0.00021629498 0.00028393135 -0.00033816899 2.6990538e-005 0.80272394 -0.35496935
631462500 -0.75837481 0.53311032 0.00041743377 5.6120807e-005 2.8317299e-005 0.00017382611 0.70793515 -0.52384067
638950000 -0.61897123 0.68569738 -0.00025346017 -0.0006093859 -0.0002965676 -4.9278748e-005 0.56456667 -0.68048334
646437500 -0.44794619 0.80469286 -5.0413313e-005 0.0002676149 -0.00031932112 -0.00052831974 0.38635197 -0.79784447
653925000 -0.25614837 0.88462955 -9.0327914e-005 -0.00035099298 0.00033360216 0.00031142755 0.18660182 -0.86607051
661412500 -0.049727082 0.92199171 -0.00012378738 0.00042203511 4.9340055e-005 -0.00014382978 -0.02184264 -0.88665783
668900000 0.16508834 0.91143858 -0.00047043557 -0.00035638639 0.00012493176 0.00026184649 -0.22507448 -0.85671836
676387500 0.3761794 0.85172635 1.2944119e-005 0.00024553118 -0.00019806709 0.00029367628 -0.41285402 -0.78228468
683875000 0.56942874 0.74024713 -0.00030368217 -0.00016398773 8.7972563e-005 4.1335992e-005 -0.57797354 -0.66986328
691362500 0.73010254 0.58294892 -0.00039325366 0.00025525081 9.5581388e-005 -2.0173977e-005 -0.71421421 -0.52718937
698850000 0.84637231 0.38976672 9.0542315e-005 -2.7084181e-005 -0.00021615939 -0.0003960375 -0.81520772 -0.35784289
706337500 0.91164339 0.17645031 -0.00010693001 0.00034112539 -0.00013617947 -0.00010451554 -0.8786158 -0.16994113
713825000 0.92139655 -0.042649768 -0.00019297427 -0.00025321735 0.00015885361 0.00010568075 -0.89851809 0.028603191
721312500 0.88064665 -0.25360376 -6.5029839e-005 -4.181785e-005 1.6527787e-005 2.3980849e-005 -0.87296152 0.23023361
728800000 0.79659814 -0.44528216 -0.0004713597 -0.00011872911 -1.2582003e-005 -0.00031144635 -0.80025601 0.42091447
736287500 0.67460054 -0.61138898 4.8648722e-005 -0.00018155541 0.00015290528 -0.00020572447 -0.6826452 0.58984697
743775000 0.5220626 -0.74664295 -0.00019681136 0.00010134881 -0.00041701141 -7.8277095e-005 -0.53016758 0.72621965
751262500 0.34419429 -0.84494871 0.00011605841 9.3394752e-005 0.000324742 -0.00016785804 -0.35151169 0.82251072
758750000 0.1482906 -0.90551108 0.00018468246 -0.00029698946 -0.00014806248 -9.1197609e-005 -0.1576682 0.87501818
766237500 -0.058654666 -0.92142284 -0.00012266586 -0.00012999009 0.00023410931 0.00017323231 0.04254172 0.88220006
773725000 -0.26747382 -0.88944775 0.00024764682 -0.0002411834 -0.00023219659 8.8139612e-005 0.23955041 0.8453474
781212500 -0.46547195 -0.80793577 0.00014606102 -0.00028127557 0.00035909942 0.00015707011 0.42340481 0.76792538
788700000 -0.63917851 -0.68108684 -0.00013731558 -0.00012718566 0.00014919025 7.4332493e-005 0.58863074 0.65129787
796187500 -0.7777155 -0.51551038 0.0001053184 0.00013740661 -0.00028545622 -0.00020385745 0.72387809 0.4983272
803675000 -0.87224525 -0.32213634 0.00023246573 6.32214e-005 -0.00010545558 -3.4173576e-005 0.82114506 0.31604397
811162500 -0.91786402 -0.11459734 -0.00017836815 -2.1488275e-005 -0.00020309698 0.0001480803 0.87373263 0.11418454
818650000 -0.91349381 0.09607958 0.00033999098 -0.00029271308 4.58051e-005 0.00015717585 0.87719464 -0.097545974
826137500 -0.86205679 0.29702228 8.9389585e-005 -0.00026957979 0.00017286446 0.00030321316 0.83015436 -0.30501673
833625000 -0.76906013 0.47944123 -5.0782124e-005 -1.1082955e-005 1.4712829e-005 -0.00016001862 0.73470289 -0.4942449
841112500 -0.6403721 0.63678873 -5.6885121e-005 -9.5734424e-005 0.00015108596 5.347018e-006 0.59675539 -0.65452349
848600000 -0.4798311 0.76337987 -0.00018153152 0.00013086062 -9.3753988e-006 -0.00025469792 0.42737153 -0.77535009
856087500 -0.29521483 0.8530975 -3.2788714e-005 0.00046109408 -1.2699854e-007 -6.8039612e-005 0.23378873 -0.85199088
863575000 -0.093563631 0.90034622 -0.00016957495 3.2983164e-005 0.00011593596 -0.00026199713 0.029363655 -0.88082117
871062500 0.11794823 0.90216267 -4.3669832e-005 -0.00012544796 0.00038365359 0.00022064589 -0.17184773 -0.86188853
878550000 0.32822815 0.85501456 0.00020661406 1.8867066e-005 0.00026756208 -0.00014051433 -0.36059108 -0.79913408
886037500 0.52426279 0.75804549 0.00016837612 -0.00014021696 -3.3688215e-005 -0.00011801113 -0.52680779 -0.69813734
893525000 0.69339985 0.61330527 5.7970097e-005 -0.00011576083 0.00035968554 -0.00047364991 -0.66382825 -0.56548095
901012500 0.82140547 0.43058717 0.00013724141 -5.95866e-005 4.8381393e-005 4.9073024e-005 -0.76921171 -0.4080357
908500000 0.90016478 0.22088176 -0.00016568859 -0.00030630457 -0.00014323217 -4.9787111e-005 -0.83947003 -0.22975133
915987500 0.92389435 -0.00063605304 7.8616169e-005 -2.6706136e-006 -0.00012223712 -0.00022443969 -0.8686381 -0.042525589
923475000 0.89370245 -0.21682103 0.00014109342 0.0002020129 -1.1651814e-006 -0.00026521613 -0.85885733 0.14520669
930962500 0.81345135 -0.41378197 0.00013045628 -8.6685686e-005 0.00028013703 -0.00011772251 -0.80924952 0.32825452
938450000 0.69428247 -0.58160204 4.1576986e-005 0.00024129372 -6.0052412e-006 0.00010415388 -0.71977055 0.50154477
945937500 0.54510027 -0.71629304 -2.742226e-005 -7.1015245e-005 0.00022684102 -0.00010894531 -0.59162247 0.65454131
953425000 0.37438214 -0.81742692 -5.6021512e-005 -9.2161288e-005 -0.00018764836 0.00011552086 -0.4264259 0.77579516
960912500 0.18708965 -0.88096046 -0.0002122759 -0.00027793433 -0.00024771414 1.4031927e-005 -0.23340324 0.85672587
968400000 -0.0079683224 -0.90361726 0.00023259412 -4.1153162e-005 0.00018155752 -0.00021024476 -0.024921587 0.88534766
975887500 -0.20632012 -0.88584793 -7.3104187e-005 -0.00030315036 0.00025775828 -0.00032792942 0.18469884 0.86142081
983375000 -0.40131107 -0.82462943 4.5385201e-005 -0.00026125531 -6.7431989e-005 -0.00024610234 0.38026917 0.78653938
990862500 -0.58153313 -0.71820837 -1.9025249e-005 0.00011320067 0.0002514463 -3.320535e-005 0.54997152 0.67009389
998350000 -0.73363316 -0.56847453 0.0002370478 5.0594816e-005 4.5141107e-005 -2.8292225e-005 0.68579817 0.52020264
1005837500 -0.84135437 -0.40135422 5.4556705e-005 -7.318757e-005 6.2590691e-005 0.00010975207 0.7922762 0.33231893
1013325000 -0.91102791 -0.19487621 0.00020865303 -0.00025292407 -0.00025554412 0.00015968093 0.84903139 0.14306822
1020812500 -0.92681891 0.021626869 -0.00024515935 -4.0972485e-005 -4.9699895e-005 -3.8190698e-005 0.86576444 -0.055603974
1028300000 -0.89059585 0.23157233 -9.2079979e-005 -0.00020185068 -0.00015059109 1.4943072e-005 0.83742917 -0.25921342
1035787500 -0.8076269 0.42403924 0.00014556252 0.00048441652 -0.00016262056 0.00021416748 0.76046777 -0.45462275
1043275000 -0.68789983 0.58998144 0.00039353172 -0.00016638379 -0.00013301446 -4.6710778e-005 0.63479197 -0.63059312
1050762500 -0.53780568 0.72568953 -4.9588893e-005 -4.4013945e-005 3.9936847e-005 0.00032576695 0.46466926 -0.76969659
1058250000 -0.36364999 0.83024168 0.00030531909 -0.0003115432 0.00018614564 -0.00029053394 0.26585472 -0.85892653
1065737500 -0.16826667 0.89691693 -0.00014127132 -0.00011034802 -0.0002665114 -0.00019052776 0.054543994 -0.89243436
1073225000 0.04362645 0.92211026 -0.00013635724 -5.8491001e-005 0.00017139195 -0.00014576917 -0.15115434 -0.87210131
1080712500 0.26097187 0.89401895 0.00056982151 6.5001368e-005 0.00019578684 -3.6503225e-005 -0.33926803 -0.80568802
1088200000 0.47065687 0.81217843 -6.1947794e-005 -0.00012438939 0.00017208062 0.00041725882 -0.50036991 -0.70491302
1095687500 0.65540969 0.67647475 4.0342762e-005 -0.0001837835 -0.00025093314 0.00029755055 -0.63434196 -0.57770771
1103175000 0.79892933 0.49654076 0.0002811696 -7.4364754e-005 -0.00021767773 0.00031446811 -0.74002796 -0.43023428
1110662500 0.89142567 0.28602639 -0.00016483568 0.00045506266 0.00017025392 0.00011070548 -0.81580019 -0.26580617
1118150000 0.92498487 0.06412416 0.00015952 0.00044573785 0.00025520939 0.00022073844 -0.85932016 -0.085976392
1125637500 0.90301055 -0.15036845 0.00019638847 0.00017203766 -2.7474329e-005 0.00021815342 -0.86429954 0.10423905
1133125000 0.83545077 -0.34602439 -0.00025814708 0.00023110646 0.00016781563 9.6579261e-006 -0.82600027 0.29744598
1140612500 0.7327072 -0.51710784 0.00029821985 -0.000162942 7.5757634e-005 0.00030605154 -0.73977917 0.4818368
1148100000 0.60067463 -0.6609686 0.0001126876 5.4048112e-005 0.00015662661 1.4518807e-005 -0.60789049 0.64239085
1155587500 0.44216949 -0.77609563 0.00016348422 7.9317477e-005 -0.00016227724 0.0001127664 -0.438324 0.76568115
1163075000 0.26125541 -0.85666555 -7.6089607e-005 4.0424882e-005 0.0001816071 -0.00013383318 -0.24431483 0.84244728
1170562500 0.063167632 -0.89761901 7.059722e-005 0.00017141881 -8.9758054e-005 2.2927683e-005 -0.041590042 0.86920369
1178050000 -0.14268576 -0.89295459 -4.2778909e-005 0.00015147476 -0.00028651673 -0.00041733505 0.15885955 0.85041469
1185537500 -0.3445408 -0.84018928 -0.000333973 0.00021894327 9.8937371e-006 -9.3677962e-005 0.34812114 0.78807962
1193025000 -0.52893937 -0.73777956 0.00016236119 6.0203281e-005 0.00012953312 -0.00033862112 0.51974744 0.68804568
1200512500 -0.68194556 -0.59482247 -7.2517672e-005 -3.353905e-005 1.6215658e-005 -0.00019391703 0.66833293 0.55253977
1208000000 -0.79390514 -0.42085969 -0.00011870925 -0.00020542889 8.0309059e-005 -8.526451e-005 0.78502584 0.38330892
1215487500 -0.86201763 -0.23003244 0.00014788809 6.4583182e-005 -0.00019114306 8.1053098e-005 0.86108637 0.18593185
1222975000 -0.88716626 -0.032891832 -0.00038900651 1.7997684e-007 0.00030468346 0.00011542201 0.88593465 -0.027696054
1230462500 -0.87199247 0.16349389 -7.4608965e-006 -0.00013244753 2.6251508e-005 0.0002852738 0.85457599 -0.24339834
1237950000 -0.81789494 0.35286754 -0.00043451122 -0.00016931255 -2.0070669e-005 -0.00022261788 0.76673394 -0.44052199
1245437500 -0.7240597 0.53027165 -0.00011481452 0.0003177622 0.00029843327 -0.00014366004 0.63525677 -0.60469389
1252925000 -0.59122443 0.68818766 0.00025148666 0.00019706339 8.3096042e-005 -3.4938806e-005 0.47412008 -0.72732508
1260412500 -0.41928354 0.8164165 0.00017388363 -8.3762498e-005 2.9979979e-005 -0.00021359188 0.29704943 -0.80662477
1267900000 -0.21676083 0.90016943 0.00023936333 -0.00015350073 0.00015330935 -0.00028005161 0.11322578 -0.84508365
1275387500 0.0067350361 0.93066454 -3.5033663e-005 -0.00011529848 -0.00010719641 -0.00022075501 -0.069073103 -0.84723216
1282875000 0.23151727 0.90068537 0.00020058331 -0.00014650178 -9.2940798e-005 0.00023165654 -0.24888019 -0.81553662
1290362500 0.43767083 0.81521463 -0.00012436985 -1.2608616e-005 -7.613597e-005 0.0001454085 -0.42087957 -0.74910504
1297850000 0.61058515 0.68283921 0.00010632107 -8.2390878e-005 -6.8545429e-005 2.597606e-005 -0.57999557 -0.64543438
1305337500 0.74364257 0.51899862 0.0002393523 2.9918896e-005 9.000759e-005 0.00013856053 -0.71830183 -0.50332105
1312825000 0.83263189 0.336804 -2.3502407e-005 0.0001355033 0.00029171223 -0.00031741726 -0.82171851 -0.32734972
1320312500 0.88106769 0.14490439 -0.00012138353 -0.00025831061 -7.0817288e-005 2.7930819e-005 -0.87811375 -0.1253664
1327800000 0.89111269 -0.051032197 1.4309442e-005 -0.00010234729 -4.6214642e-005 -0.0002063771 -0.87956691 0.085622586
1335287500 0.86163628 -0.2457556 -0.00020864805 -0.00029404912 0.00031342785 3.416881e-005 -0.82629412 0.28743282
1342775000 0.79188502 -0.43492329 0.00015537304 -1.2200941e-005 -1.2285077e-005 -0.00016169764 -0.72731137 0.46443632
1350262500 0.67975289 -0.6088987 6.4171247e-005 3.3901728e-005 -0.00010263857 0.00010145483 -0.59435862 0.60801542
1357750000 0.52421349 -0.75604993 -5.0571311e-005 -2.7893029e-005 3.6831927e-005 -1.4143827e-005 -0.43917033 0.71574908
1365237500 0.33255014 -0.86366671 0.00015754405 -0.00015760383 5.7557205e-005 -3.0213969e-005 -0.26934057 0.78780109
1372725000 0.11746829 -0.9184503 -6.5911081e-005 3.6509504e-005 0.00022818518 4.6936628e-005 -0.091664925 0.82690185
1380212500 -0.10364729 -0.91413677 -0.00011182045 -7.4027776e-005 3.1039002e-005 6.4448177e-005 0.092492439 0.83098125
1387700000 -0.31043652 -0.8550458 7.2556315e-005 -5.1490824e-005 -3.4147444e-005 -0.00024323337 0.28002077 0.79858822
1395187500 -0.49229953 -0.7523632 -6.6032953e-005 9.508559e-005 -0.00024245566 -0.00029107137 0.46219769 0.72401667
1402675000 -0.6395793 -0.61661279 -0.00024443321 -0.00037677572 0.00021259818 7.0972106e-005 0.63084722 0.60372066
1410162500 -0.75214362 -0.45800397 -0.00010486462 0.00014752384 -5.0282397e-005 -2.2084087e-005 0.76890296 0.43847686
1417650000 -0.83004409 -0.2839762 -2.1373055e-006 -5.4764376e-005 0.00011834996 -0.00028864853 0.86063159 0.23757882
1425137500 -0.87471855 -0.099319622 -2.2837783e-005 -0.00010929041 -0.00010460427 0.00012997769 0.89386111 0.017301079
1432625000 -0.88309532 0.094317511 -0.00010380931 0.00011302339 -0.00022080955 -5.3861597e-005 0.86602038 -0.20078744
1440112500 -0.85048634 0.29110521 -0.00033644668 5.966971e-005 0.00030481163 0.00031632974 0.78459865 -0.39675882
1447600000 -0.77390391 0.48383495 0.00023804847 0.00031762692 -0.00020499845 -0.00011650099 0.66210783 -0.56048185
1455087500 -0.64864492 0.65985769 0.00026300453 -0.00013840974 -1.9317409e-005 1.8195029e-006 0.51215339 -0.68704009
1462575000 -0.47704056 0.80394036 -0.0001678213 -2.1265625e-005 8.7999346e-005 0.00022003066 0.34506169 -0.77460128
1470062500 -0.26936093 0.89789855 0.00013035967 -0.00019841915 -1.1229111e-005 0.0001094081 0.16853701 -0.82568669
1477550000 -0.043226559 0.93355846 -4.6464193e-005 -0.00028810569 -0.00042484235 0.00022052893 -0.012653543 -0.84048319
1485037500 0.17935199 0.90894514 -6.6994253e-005 -0.00028594385 -0.00014560102 -9.4904914e-005 -0.19304936 -0.81995535
1492525000 0.38131237 0.83098096 -0.00034415215 6.5347354e-005 1.8076269e-005 7.4765958e-005 -0.3696295 -0.76232016
1500012500 0.55360198 0.71287936 -0.00029611681 -0.00011415298 0.00029106005 0.00017982551 -0.53288949 -0.66531336
1507500000 0.68941182 0.564403 -2.7118011e-005 -4.6525714e-005 -0.00018807313 6.8195834e-005 -0.67360288 -0.53128248
1514987500 0.78964669 0.39725354 -9.4928102e-005 1.188746e-005 -0.00015899491 9.4316536e-005 -0.78153259 -0.36356285
1522475000 0.85325032 0.21618526 -1.8620591e-005 -2.5606081e-005 9.0412752e-005 -0.00017209588 -0.84607148 -0.17161874
1529962500 0.88223207 0.025718529 -0.00016504775 -0.00013160758 0.00013655973 0.00010961235 -0.86181194 0.031573642
1537450000 0.87377053 -0.17034733 -3.9095547e-005 0.00014707565 0.00022923402 -0.00012088788 -0.82706589 0.23098364
1544937500 0.82140762 -0.36654627 -0.00022142958 -0.00019940842 6.940544e-005 1.3796831e-005 -0.74539602 0.41450089
1552425000 0.72333306 -0.55318469 9.2532639e-005 -0.00016761635 1.6580168e-005 -0.00019816228 -0.62551767 0.5706526
1559912500 0.57818311 -0.71690798 -0.00016328563 -1.692847e-005 0.00027437662 3.4730558e-005 -0.47665602 0.69354051
1567400000 0.39149052 -0.83942169 2.2323709e-005 -0.0001525511 -0.00028664834 -0.00012932516 -0.3070862 0.78079283
1574887500 0.17649592 -0.90953112 0.00010361267 0.00026121392 0.00010105957 0.00010445133 -0.12465148 0.82932091
1582375000 -0.047529466 -0.92088747 0.00024805366 0.00030409161 6.4648506e-005 0.00016791337 0.064609155 0.84014839
1589862500 -0.26262221 -0.87496752 8.4418934e-005 8.4595216e-005 0.00036204053 8.8305555e-005 0.2556695 0.81017137
1597350000 -0.45224139 -0.78122532 0.00011288027 -0.00012317146 0.0002722526 0.00018167996 0.43883091 0.73675197
1604837500 -0.60997891 -0.65195113 0.00013169402 0.00014062374 -9.2108021e-005 0.00024920134 0.60435277 0.62071055
1612325000 -0.73165011 -0.49714363 -4.0495062e-005 0.00012336785 -9.2449045e-005 -0.00035378727 0.74025875 0.46506175
1619812500 -0.81918013 -0.32486174 -7.8426172e-005 0.00010624952 1.9328421e-005 0.00035412866 0.83394754 0.27636656
1627300000 -0.87064666 -0.14094323 0.00017219434 6.0399158e-005 -0.00014614155 0.00010980434 0.87604636 0.069666475
1634787500 -0.88634777 0.051557455 -1.0134883e-006 -0.00015725623 -0.00019119955 -0.00019482475 0.8644045 -0.13881209
1642275000 -0.86294699 0.24664277 -0.00038148646 0.00025935913 7.9542377e-007 0.00037810873 0.80158871 -0.33319542
1649762500 -0.79475921 0.4385803 -6.9163936e-005 9.045437e-005 -6.8127782e-005 0.00026127204 0.69797713 -0.50302857
1657250000 -0.6809994 0.6154325 3.010314e-005 2.1356496e-005 -0.00028429792 4.3934291e-005 0.56253213 -0.64095974
1664737500 -0.52377492 0.76244944 7.839399e-005 -1.2266312e-005 -0.00015662005 -0.00014687623 0.40373239 -0.74376327
1672225000 -0.33047119 0.86568332 -0.00016165116 0.00013217254 -7.6622928e-005 6.8248912e-005 0.22937286 -0.81072527
1679712500 -0.1177849 0.91772425 -0.00041777783 -0.00011018772 9.4154593e-006 -0.00010291178 0.046135288 -0.84061867
1687200000 0.098737307 0.91379547 4.5533852e-005 -0.00014140672 5.5033852e-005 0.00040493981 -0.14150703 -0.83099848
1694687500 0.30338299 0.85995501 -0.0001721274 0.00020433651 0.00013252848 2.273292e-005 -0.32569036 -0.78020877
1702175000 0.48596495 0.76252741 3.3194199e-005 6.330925e-005 -0.00020106327 -0.00013756123 -0.4964633 -0.68618578
1709662500 0.64171994 0.63132256 0.0001146393 0.00012866239 5.5142566e-005 0.00043925806 -0.64146781 -0.55318713
1717150000 0.76471972 0.47082368 -6.8349647e-005 0.00017491728 1.9610183e-005 -0.000112676 -0.74990702 -0.38741085
1724637500 0.85226327 0.28654474 -0.00019114715 -0.00067300518 -0.00022572518 -0.00010960932 -0.8143661 -0.20277517
1732125000 0.89933068 0.084860109 -0.00017067028 -9.0888156e-005 -2.6932552e-005 -0.00015378483 -0.83278406 -0.010921749
1739612500 0.8997798 -0.12734023 0.0002288277 -5.814169e-005 0.00018908281 2.2081993e-005 -0.80815589 0.17544498
1747100000 0.84788156 -0.3386521 -0.00014568862 -0.00013710184 -0.00011193336 -0.00022872326 -0.74601579 0.34973264
1754587500 0.74266535 -0.5337227 -5.5080982e-005 -5.000192e-005 0.00010920821 -0.00018919627 -0.65097845 0.50507051
1762075000 0.59099203 -0.69606936 2.834616e-005 -1.4241802e-005 -3.1621007e-006 0.00017671756 -0.52753121 0.6397199
1769562500 0.40358233 -0.81094903 -8.2680199e-005 -0.00035066193 -0.00042467323 0.00060031447 -0.37737101 0.74973232
1777050000 0.20020317 -0.87489951 -0.00021339262 -0.00029529506 0.00013270919 -7.3017822e-005 -0.20044678 0.82912636
1784537500 -0.0052221492 -0.88849473 2.277064e-005 5.7623532e-005 0.00013306882 -1.2816619e-005 -0.0018948425 0.86798793
1792025000 -0.20132263 -0.85776669 2.8706881e-005 -0.00014737144 -0.00012316646 -0.0002947243 0.21025462 0.85660625
1799512500 -0.38349426 -0.79027319 0.00010388288 -8.6270484e-005 -0.00045771524 -0.00034584786 0.41889578 0.7865665
1807000000 -0.54545289 -0.68981022 -0.00019994567 7.8344194e-005 -0.00012082864 0.00014182905 0.60027272 0.65852386
1814487500 -0.68745118 -0.55920583 -3.8600515e-006 9.864512e-005 2.8443831e-006 0.00024249178 0.73753697 0.48722437
1821975000 -0.80422413 -0.39956573 8.1913742e-005 2.4750521e-005 0.00018578694 -0.00032717813 0.81998074 0.29309103
1829462500 -0.88518471 -0.2099352 0.00026773187 0.0003875221 0.00029371062 9.1342721e-005 0.84933072 0.094726697
1836950000 -0.9211787 -0.00075963815 0.00013621699 9.7569457e-005 -0.00011067551 6.694928e-005 0.83385623 -0.094857067
1844437500 -0.90187216 0.21796459 -0.00036575759 -0.00035085634 -0.00018563904 0.00022067773 0.78397369 -0.2681731
1851925000 -0.82416755 0.42490831 -0.00012572574 -0.00019923356 8.7611588e-005 -0.00011263414 0.70372766 -0.42428315
1859412500 -0.69618094 0.60251671 -1.4885196e-005 0.00016543745 -0.00020530155 5.64523e-005 0.59812486 -0.56320232
1866900000 -0.53099626 0.73691469 6.6229368e-005 0.00012140623 6.0842212e-006 0.00014883031 0.46721041 -0.68275332
1874387500 -0.34668869 0.82524389 0.00014456997 0.00013520378 0.00026171203 -0.00011896975 0.3082296 -0.77758998
1881875000 -0.15575205 0.8679294 -2.8508239e-005 -1.250559e-005 3.4817705e-005 0.00024299456 0.12527455 -0.83854973
1889362500 0.03376827 0.87392271 3.1219413e-005 0.00013886044 -0.00021381702 0.00018198542 -0.075937614 -0.85332483
1896850000 0.21824296 0.84555405 1.3933465e-005 -0.00017817866 0.0003175872 -2.7072263e-005 -0.28010339 -0.81408566
1904337500 0.39729643 0.78327948 -0.00011916634 -0.00030838951 -5.950643e-005 -0.00040728686 -0.46692199 -0.72051889
1911825000 0.56918526 0.68593031 5.0117251e-005 0.00018847361 -0.00019693111 -9.1217953e-005 -0.62034124 -0.5822292
1919312500 0.72599727 0.54670721 -4.0380008e-005 0.0001297274 6.6247019e-005 -3.0526066e-005 -0.72913575 -0.41465032
1926800000 0.85376215 0.36156681 -0.00018455774 -0.00026403743 -0.00015312477 0.00011599826 -0.79168451 -0.2349517
1934287500 0.93176156 0.13691187 -0.00014123537 -0.00013503034 -0.0001635075 0.00034798554 -0.81431413 -0.054829054
1941775000 0.94189709 -0.1116626 -9.1482274e-005 -8.108477e-005 -0.00047685756 -2.4805739e-005 -0.80172288 0.11967035
1949262500 0.87412167 -0.35235098 9.2627262e-005 0.00022129258 0.0001676118 -0.00020473776 -0.75856102 0.28746367
1956750000 0.74116302 -0.55535191 0.00026224772 -5.4740267e-005 0.00015005117 0.00018142781 -0.68501538 0.44667384
1964237500 0.56799841 -0.70381528 -7.4549069e-005 0.00013762874 0.00022267082 0.00029364438 -0.58132136 0.59280616
1971725000 0.37731206 -0.79642624 0.00020961533 -0.00018676475 8.2729803e-006 0.0002302322 -0.4424305 0.71956563
1979212500 0.18567608 -0.84048438 -0.00030723572 -0.00011341657 -0.00033910241 2.0137502e-005 -0.27127251 0.81679064
1986700000 0.002498291 -0.84729159 0.0001063009 0.00017915913 -0.00018400273 0.00023638191 -0.070004009 0.87087291
1994187500 -0.16847904 -0.82491219 -4.0549945e-005 -2.101998e-005 -0.00016017568 0.00035285033 0.1439123 0.87093461
2001675000 -0.3337298 -0.77540225 3.4276214e-005 4.7954613e-006 0.00010867683 -0.00024408044 0.35133675 0.8116653
2009162500 -0.49210143 -0.69744295 -0.00020509417 7.9777237e-005 1.7139837e-005 -0.00026637112 0.53367162 0.69978243
2016650000 -0.63850671 -0.58940369 0.00019916908 6.0763505e-005 0.00010976049 0.00032922582 0.67797124 0.54811805
2024137500 -0.7671293 -0.4463028 0.00037937125 3.6928905e-005 0.0001618102 0.00013003757 0.77619308 0.37128037
2031625000 -0.86565608 -0.26683664 0.00012849004 -0.00015241318 5.7267771e-005 -4.4384309e-005 0.82946002 0.18245894
2039112500 -0.91831028 -0.060429741 -7.4890035e-005 -0.00027213784 -0.00034437468 8.4803884e-005 0.84070897 -0.0085517317
2046600000 -0.91399521 0.15936726 -0.00031281041 -0.00024004024 -3.8108021e-005 -0.0001883361 0.8117249 -0.19294064
2054087500 -0.8504532 0.37168223 3.8580787e-005 -2.9493727e-005 -0.00010767014 0.00019864774 0.74470919 -0.36720768
2061575000 -0.733334 0.55793065 -0.00024269521 0.00034891526 -0.00024032014 -0.00012568623 0.64160371 -0.52376068
2069062500 -0.57901013 0.70546895 0.0001223195 -0.00022967371 -3.6057775e-006 0.0001559017 0.50676578 -0.65342933
2076550000 -0.39812607 0.8085745 -5.8569738e-005 8.0198206e-006 -0.00014187263 -0.00012347614 0.34526497 -0.75117993
2084037500 -0.20337035 0.86829031 -3.7939495e-005 0.00010679254 -0.00034275153 0.00018671836 0.16546753 -0.80929881
2091525000 -0.003724033 0.88473421 5.586728e-005 2.3165014e-006 -0.00032777889 -0.00011615907 -0.022921879 -0.82483065
2099012500 0.19566751 0.85951942 0.00041285736 -0.00011154677 -0.00034408862 -0.00019436762 -0.20962942 -0.79983026
2106500000 0.38610139 0.79227197 0.00013221693 0.00017246143 0.00015071752 -0.0001795998 -0.3859753 -0.73320478
2113987500 0.56075323 0.68205684 9.3978852e-005 -0.00011418718 0.00042127754 5.5737732e-005 -0.54361123 -0.62900829
2121475000 0.70812261 0.53114086 -4.5836361e-005 2.9922618e-005 -0.00016383416 -0.00023975743 -0.67603099 -0.49273375
2128962500 0.81740332 0.3461853 -0.0003274034 0.0005252168 9.0962618e-005 -4.0968374e-005 -0.7757585 -0.32838649
2136450000 0.876674 0.13850701 0.00029879264 0.00022464237 0.00023148624 6.3001324e-005 -0.83764488 -0.14334501
2143937500 0.88292861 -0.076697059 -0.00015735772 0.00014538463 -3.7921196e-005 0.00036805362 -0.85336697 0.053897616
2151425000 0.83635753 -0.28556797 -3.919383e-005 -0.00030304989 5.7778117e-005 0.00014213353 -0.82226819 0.2518408
2158912500 0.74337935 -0.47337362 4.4300163e-005 -0.0002924088 0.00010206712 -0.00024472439 -0.74250448 0.436708
2166400000 0.61099082 -0.63133341 0.00026757806 -0.00040358232 -5.4947673e-006 6.7910638e-005 -0.62264109 0.59522671
2173887500 0.44934624 -0.75551361 9.8695069e-005 2.1034792e-005 0.00023258828 0.00015349741 -0.46868628 0.71927154
2181375000 0.26578856 -0.83795726 4.7150068e-005 3.0359544e-005 0.00015905175 -0.00017939336 -0.29396352 0.80287737
2188862500 0.070746414 -0.87777805 0.00037824802 4.4956541e-005 -3.5982935e-006 0.00013086501 -0.10723047 0.84563494
2196350000 -0.12726237 -0.87319565 0.00019342751 -0.00014598084 8.1157532e-006 6.8680433e-006 0.083561994 0.84720498
2203837500 -0.31918246 -0.8258689 0.00022677175 -3.8927599e-005 1.7800021e-005 -0.00023824375 0.26921532 0.80752665
2211325000 -0.49237594 -0.73460591 0.00019434345 0.00026140397 0.00026022008 0.00011170352 0.44381377 0.72808957
2218812500 -0.6413933 -0.60891175 8.1459948e-005 0.00043883632 0.00027336614 0.0001038535 0.6000697 0.61012101
2226300000 -0.7579208 -0.45544329 -9.911097e-005 5.6248704e-005 0.00013510186 2.1198628e-005 0.72628438 0.45530334
2233787500 -0.83735764 -0.28156319 0.00018285078 -0.00024407495 0.00030102424 0.00011898201 0.8136149 0.27100924
2241275000 -0.88070923 -0.095629446 -2.3400493e-005 -0.00012642541 7.4971394e-005 0.00021267749 0.85268921 0.069563381
2248762500 -0.8834573 0.097012475 -0.00033534729 -1.0003332e-005 -5.6591987e-005 -0.00014294934 0.83862674 -0.134939
2256250000 -0.84580624 0.28941444 0.00027882733 0.00021699839 -0.00010259019 7.5085023e-005 0.77521366 -0.32766974
2263737500 -0.76549417 0.47210726 -0.00029711961 -0.00011189983 0.00011276911 -6.0942061e-006 0.66909778 -0.49457929
2271225000 -0.64315051 0.63990206 0.0002609753 7.8050849e-005 -2.76058e-005 0.0005663748 0.53074706 -0.62929189
2278712500 -0.47748718 0.77745473 -0.00010513781 0.00024121175 0.00028496078 -0.00020851166 0.37050059 -0.72720861
2286200000 -0.2765241 0.87358356 -0.00014008391 0.00010648508 1.9001956e-005 0.00034109451 0.1972184 -0.7878744
2293687500 -0.053317077 0.91382653 -3.2806525e-005 0.00014192365 -0.0001472896 -0.00041767865 0.016496757 -0.8119542
2301175000 0.17456359 0.89412481 -0.00011305586 -0.00024074163 5.6958248e-005 0.00030466315 -0.16629307 -0.79878223
2308662500 0.38635159 0.81315255 6.6416367e-005 1.9628218e-005 0.00016444142 -7.4852462e-005 -0.34320465 -0.74710268
2316150000 0.56673545 0.68531519 7.3018427e-006 0.00027243013 -0.00015964326 2.496981e-005 -0.50846499 -0.65692371
2323637500 0.70464939 0.5195297 -0.00012337534 0.00015179791 -1.2828681e-005 -0.00024284402 -0.65163291 -0.52928698
2331125000 0.79698539 0.33390528 1.928665e-005 -0.00010528875 -0.00016598305 -1.4343669e-005 -0.76273102 -0.36874351
2338612500 0.84352219 0.13765347 0.00015371678 6.3957828e-005 0.00023107344 0.00016503532 -0.83324707 -0.1848899
2346100000 0.84697086 -0.057333034 5.408212e-005 0.0002806432 -2.1546409e-006 -0.0001405731 -0.85739785 0.010823452
2353587500 0.81103623 -0.24473906 0.00012539304 -0.00012469418 0.0001379672 0.00050802261 -0.83405977 0.2062244
2361075000 0.73843938 -0.41932893 -0.00019291275 0.00037223642 0.00035488053 -3.4280474e-005 -0.76644742 0.39031789
2368562500 0.63178599 -0.57460457 -0.00023415274 -0.00015318838 -0.00035845471 -0.00026490062 -0.66004658 0.55319095
2376050000 0.49526778 -0.7050485 -0.00026580182 -1.5656929e-005 1.9533527e-006 -0.00012375263 -0.51910633 0.68758851
2383537500 0.33350459 -0.80468905 -8.5524451e-005 5.3353302e-005 7.1918497e-005 0.00035050479 -0.35074669 0.78749943
2391025000 0.1516203 -0.86904132 4.364322e-005 -8.7713604e-005 0.00013360532 -0.00031616099 -0.16223916 0.84580839
2398512500 -0.042495444 -0.89187503 -0.00014973264 3.0632145e-005 -9.2202157e-005 -2.6337217e-005 0.035718501 0.85911471
2406000000 -0.24008164 -0.87183446 0.00022779804 -9.2748298e-005 -7.6005599e-005 -0.00012573248 0.23285158 0.82451659
2413487500 -0.43361726 -0.80515808 6.6854554e-005 0.00015673423 6.4123946e-005 6.3233623e-005 0.41548643 0.74214655
2420975000 -0.60964161 -0.69378489 -0.00014166036 5.2857846e-005 -6.7748631e-005 0.00011909445 0.57128233 0.61977601
2428462500 -0.75534236 -0.53824931 9.1922309e-005 0.00011212204 0.00013286722 -6.3489292e-006 0.6923461 0.46516177
2435950000 -0.85988194 -0.35018086 5.1403e-005 7.9274767e-005 -4.6541136e-005 0.00014776437 0.77223665 0.28981748
2443437500 -0.91238362 -0.14038101 6.7664289e-005 2.8589142e-005 7.3012023e-005 0.00036343114 0.81081831 0.10432091
2450925000 -0.91098827 0.074789435 0.00037684027 -0.0002667112 -5.4453249e-005 -9.9542245e-005 0.80852908 -0.08317434
2458412500 -0.8566432 0.27845666 2.4494424e-005 0.00021703774 -3.9429757e-005 -0.00010530793 0.76661897 -0.26551145
2465900000 -0.75799346 0.45838049 0.00011728407 0.00020415812 0.0001023149 0.00032037275 0.68594092 -0.43506065
2473387500 -0.62481886 0.60815477 0.00011255866 0.00023130093 0.00027042814 9.5797513e-005 0.56935805 -0.58457422
2480875000 -0.46632865 0.72238117 -0.00025327329 0.00020257765 -0.00041214612 0.0003402 0.41998613 -0.70591265
2488362500 -0.29107937 0.80125946 0.00030697387 -0.00016294731 8.7837558e-005 5.3959036e-005 0.2430542 -0.78967422
2495850000 -0.10376912 0.84436166 -0.00019438101 -1.8339764e-006 0.00025519624 -0.00018453077 0.049372677 -0.82924932
2503337500 0.09223751 0.84890074 -0.000169543 -9.889363e-005 0.00028716284 0.00026930316 -0.14795922 -0.81882185
2510825000 0.29054102 0.81095195 -0.0001451774 1.9124138e-005 -7.9786107e-005 -0.00027745709 -0.33633989 -0.76244253
2518312500 0.48270074 0.7268067 -7.3023161e-006 -0.00022086436 0.00021134985 -0.00016645037 -0.50258791 -0.66365969
2525800000 0.65411347 0.59307683 -0.00017655191 7.7700955e-005 -9.9263643e-006 0.00018675302 -0.63806474 -0.53149748
2533287500 0.78808773 0.41496804 0.00018932897 2.6053956e-005 -0.00012976349 0.00016575222 -0.73985106 -0.37544861
2540775000 0.86779666 0.20599714 6.7957997e-005 0.00011186675 9.3583141e-005 8.3012907e-005 -0.80416244 -0.20432605
2548262500 0.88853884 -0.014460073 0.00022233413 -0.00027642606 -0.00022688236 -0.00018677268 -0.83213145 -0.024050657
2555750000 0.85316598 -0.2238218 -0.00030696532 6.6270331e-005 0.00038748304 2.4925288e-005 -0.82031602 0.15944909
2563237500 0.77108657 -0.40869451 -0.00023278955 -0.0001667451 -2.5183193e-005 -4.8467614e-006 -0.76976687 0.33778968
2570725000 0.6564939 -0.563932 -0.00012026522 -0.00011328983 -2.3092674e-005 -9.5190908e-006 -0.67674565 0.50282645
2578212500 0.51869982 -0.68670809 0.00017833896 -0.00010076918 0.00061352772 -0.00023041313 -0.54710191 0.6445756
2585700000 0.36590695 -0.78009433 -0.00025102991 2.8718665e-005 -0.00020082915 -0.00014249883 -0.3850069 0.75212777
2593187500 0.19846502 -0.84262729 -1.3933992e-005 -0.00038514636 0.00062001025 0.00017197702 -0.20134619 0.81641221
2600675000 0.019245619 -0.87470037 9.4142313e-005 1.1061969e-005 0.00014764827 -5.7751142e-005 -0.0074507832 0.83450383
2608162500 -0.16849437 -0.87112796 -0.00024596191 1.4915569e-005 -1.9766934e-005 0.00017434004 0.18242225 0.80754453
2615650000 -0.35865507 -0.82421601 -0.00044925924 0.00039690643 -2.4733416e-005 0.0003775334 0.35918644 0.73708034
2623137500 -0.53987938 -0.73113495 1.3102846e-006 -0.00036891495 2.9750074e-005 -0.000338671 0.51506639 0.63068223
2630625000 -0.69763565 -0.5897271 -9.1512738e-005 9.8922521e-007 0.00020017898 -0.00027648229 0.64375889 0.49267197
2638112500 -0.81514531 -0.41104621 -7.6615852e-006 3.7769318e-005 -6.0455728e-005 -0.00025702204 0.73831129 0.32940355
2645600000 -0.88259053 -0.20678189 7.5211487e-005 0.00025331121 6.7316163e-005 0.00017964185 0.79374707 0.1468932
2653087500 -0.89553869 0.0042540105 -0.00010309291 -0.00014857612 0.00027943656 0.00023421997 0.80539525 -0.046084661
2660575000 -0.85746241 0.20954396 9.571929e-005 0.0002772077 0.00014218093 0.00021999492 0.7716158 -0.23819514
2668062500 -0.77683395 0.39666933 -0.00010322296 0.00025732725 -0.00011853009 3.8374612e-005 0.69107139 -0.41456136
2675550000 -0.65763897 0.55861199 0.00017707051 0.00019583634 -0.00036616204 -3.7398251e-005 0.57173157 -0.56666607
2683037500 -0.50555623 0.69187999 0.00012349845 -5.4669545e-005 -5.9771457e-005 -4.2601449e-005 0.4209125 -0.6832937
2690525000 -0.32894924 0.78988004 0.00035657539 0.00029018265 -0.0002062952 0.00018357299 0.25194663 -0.7604087
2698012500 -0.13092987 0.84461653 -3.9552242e-006 -9.0065994e-005 4.8772887e-005 4.8866732e-005 0.072430164 -0.79767287
2705500000 0.076268397 0.85301912 -0.00015941016 4.0236042e-005 0.00051543897 -0.00052615179 -0.10852792 -0.79644334
2712987500 0.2816245 0.81013626 -8.6052532e-005 -8.6718021e-005 0.00024834793 0.00022838138 -0.28400692 -0.75649011
2720475000 0.47136444 0.71948797 0.00042681349 0.00016375659 -6.5970853e-005 0.00013390026 -0.44908398 -0.68035603
2727962500 0.63080895 0.58575994 8.1717946e-005 0.00013058854 -8.4181891e-005 1.3065675e-005 -0.59569943 -0.56716454
2735450000 0.75105673 0.42038548 0.00012812266 -0.00011057441 -0.00023851481 -0.00033244971 -0.71435022 -0.42199817
2742937500 0.82944095 0.23518191 0.00017583744 0.00015786251 0.00019511963 0.00017586896 -0.79684633 -0.25062808
2750425000 0.86459851 0.041007869 -0.00041682436 0.00010523474 -0.00014915182 4.1034898e-005 -0.8342737 -0.061186649
2757912500 0.85611266 -0.155509 -0.0002024797 0.00013272688 0.00040636433 0.00015444116 -0.82374799 0.13020179
2765400000 0.8061825 -0.34471563 5.4207041e-005 -0.00025196592 2.9219038e-005 -4.834677e-005 -0.76679409 0.3118706
2772887500 0.71533149 -0.52004206 4.6174355e-005 7.9114572e-005 0.00040837811 8.4274259e-005 -0.67047936 0.47160912
2780375000 0.58490318 -0.67037392 5.1456278e-005 -0.00015325172 3.8674818e-005 4.6108325e-005 -0.54419225 0.60182661
2787862500 0.42172334 -0.78743088 1.0836257e-005 6.3210959e-005 6.5412358e-005 0.00013725556 -0.39535102 0.70108223
2795350000 0.23538148 -0.86081481 -7.5906508e-005 -6.8962196e-005 -0.00041393316 6.2884916e-005 -0.23122525 0.7659893
2802837500 0.039383408 -0.88707411 -6.4665815e-005 0.00017174742 -5.0281888e-006 -4.9000875e-005 -0.055534132 0.79751605
2810325000 -0.15497866 -0.8649323 -0.00019809166 -1.5629152e-005 -1.4739441e-005 -0.00010829457 0.12562251 0.79147607
2817812500 -0.33349016 -0.80227506 0.00026706656 0.00013947938 0.00022965552 0.00025787152 0.30560833 0.74419963
2825300000 -0.49117792 -0.70574772 -5.3256528e-005 -3.2131247e-005 0.00023466475 2.1267455e-005 0.47564012 0.65409464
2832787500 -0.62406087 -0.57998896 -8.7183435e-005 8.7994253e-005 0.00025112246 -0.0003099879 0.62179416 0.52190042
2840275000 -0.72952259 -0.43225458 -0.00019783538 0.00016015842 7.9793179e-005 -0.00031639403 0.72961688 0.35389847
2847762500 -0.80486733 -0.26456854 0.00031233748 0.00038540523 -6.7034605e-005 0.00040565338 0.79093629 0.16468921
2855250000 -0.84664947 -0.079693258 0.00012476376 0.00011340536 -4.8871483e-005 1.2492284e-005 0.80198854 -0.031924173
2862737500 -0.84854871 0.11730306 3.349184e-005 0.00010035363 -6.2214342e-005 -2.9678553e-005 0.76543027 -0.21964961
2870225000 -0.8017866 0.31780845 5.2864161e-005 0.00023896676 -3.7293787e-005 7.8237266e-005 0.68881047 -0.38847244
2877712500 -0.70330268 0.50577998 -6.2534054e-005 -5.8925729e-005 0.00019042489 0.0006278879 0.5807662 -0.53284222
2885200000 -0.55689269 0.666215 -0.00031119643 0.00026778074 -0.00016192629 -1.8800996e-005 0.44758147 -0.64910024
2892687500 -0.37130326 0.7813409 0.00018849448 5.3567455e-006 0.00033522278 -5.4498061e-005 0.29322454 -0.73620147
2900175000 -0.16572778 0.84278715 0.00012131978 -0.00022534552 -0.00030679617 0.00014666833 0.12361863 -0.78941923
2907662500 0.043888196 0.85066724 0.0001146389 0.0001965237 7.7979603e-005 -6.0297218e-005 -0.056397136 -0.80493766
2915150000 0.24179153 0.81088531 -0.00014680224 -3.6058867e-005 -0.00017448104 -0.00013098365 -0.2389057 -0.77872109
2922637500 0.4222742 0.73033249 -0.00017958471 -9.0370893e-005 -5.8303685e-006 -0.00021591071 -0.41164491 -0.70909119
2930125000 0.57715738 0.61632943 0.00027698281 -0.00035736128 6.0601637e-005 0.00013497376 -0.56471586 -0.59933466
2937612500 0.70303428 0.47321215 3.2441061e-005 -3.730868e-005 -9.4319802e-007 8.8864435e-005 -0.68548542 -0.45597556
2945100000 0.79831159 0.30675951 7.5863252e-005 -4.1380277e-005 -0.000404277 -0.00033447478 -0.76774561 -0.289125
2952587500 0.85477006 0.12196759 -7.2169416e-005 -7.4179334e-005 -0.00012554535 3.8451042e-005 -0.80870646 -0.11111224
2960075000 0.86814225 -0.073115595 -4.6351495e-005 -0.00038080604 -5.0700324e-005 -0.00038948181 -0.80863965 0.069228664
2967562500 0.83468705 -0.26746771 -0.00017892457 3.5691417e-005 -0.00021261332 -0.00023236683 -0.77115113 0.2444364
2975050000 0.75626051 -0.44835573 6.8819551e-005 -2.6715985e-005 0.0001938083 0.00025551123 -0.69717127 0.40746
2982537500 0.63621926 -0.60389131 -0.00031839448 -8.3067695e-005 -9.7731274e-005 -7.780086e-006 -0.58905876 0.55269009
2990025000 0.48572776 -0.72613382 8.2285114e-005 -2.0620626e-005 8.1681239e-005 8.2434897e-005 -0.44889665 0.67450076
2997512500 0.31465125 -0.8083936 8.3919171e-005 8.8332468e-005 -0.00025968105 -0.00040937215 -0.28036422 0.76242638
3005000000 0.13425304 -0.85241973 1.3147564e-005 -0.00015712858 -0.00019306227 -0.00033853378 -0.090862647 0.80609554
3012487500 -0.050828964 -0.85746247 -0.00036084614 0.00041763851 -0.00016263899 9.1552729e-006 0.105697 0.8018682
3019975000 -0.23367001 -0.82439917 0.00014321647 -0.00016401018 -9.4630901e-005 -0.00017351021 0.29579535 0.74800563
3027462500 -0.40846229 -0.75350052 0.00021054508 0.00015602414 -0.00010583395 -0.00021939151 0.46341655 0.65025145
3034950000 -0.56734037 -0.64442098 -8.9722904e-005 -0.00013120273 -0.00015310576 -3.4251764e-006 0.5996846 0.51713061
3042437500 -0.70213062 -0.49865001 0.00018523737 7.3130715e-005 8.0865299e-005 -0.00010797009 0.698928 0.35988283
3049925000 -0.80201203 -0.31792459 -0.00018196879 0.00029882285 -7.96569e-005 0.00031334872 0.75971121 0.18882462
3057412500 -0.8545872 -0.11383435 -0.00016603345 1.9353407e-005 -0.00031857719 2.699216e-005 0.78346545 0.011133276
3064900000 -0.8540225 0.099472113 0.00019223031 -0.00026888045 1.5417618e-005 -0.00021379956 0.76890224 -0.16608086
3072387500 -0.7986623 0.30503431 0.00019844067 -0.00016464584 -4.7574226e-006 -0.00025693537 0.7180137 -0.3390809
3079875000 -0.69301075 0.48735461 9.9360484e-005 3.7253852e-005 -0.00018012356 -0.00010399237 0.62992811 -0.49938568
3087362500 -0.54868865 0.63543475 6.8070323e-005 -4.633475e-005 -0.00034904169 -3.4152486e-005 0.50457382 -0.63725609
3094850000 -0.37861651 0.74158412 -0.00016396609 9.57179e-005 -0.00017953811 -8.4604064e-005 0.34721807 -0.74502271
3102337500 -0.19349961 0.80569285 -0.0001184846 0.00012828266 -4.0614217e-005 0.00020022811 0.16608307 -0.81123739
3109825000 -0.0021796385 0.82696187 -0.00010991934 -0.00013063542 8.6127693e-005 -0.00021559237 -0.027123164 -0.82878441
3117312500 0.1854488 0.80651647 5.9888302e-005 -0.00036834381 -0.000696651 3.4470515e-005 -0.21631531 -0.79844034
3124800000 0.36402899 0.74779993 8.0220503e-005 -0.00030105683 -7.7429133e-005 0.00018947963 -0.38886788 -0.72407955
3132287500 0.52546418 0.65089339 -0.00025553894 0.00020599921 -0.00042162728 9.4943985e-005 -0.53525966 -0.6142109
3139775000 0.66168982 0.52172971 -0.00019071654 -2.0262945e-005 -0.00013949584 -4.806084e-005 -0.65008825 -0.47741324
3147262500 0.76570874 0.36558053 -7.3535877e-005 -0.00014448201 -0.00022111782 0.00043403968 -0.731987 -0.32403916
3154750000 0.83216327 0.18830392 6.0135037e-005 0.0001692973 -0.00011822965 -0.00019137193 -0.77943116 -0.15870844
3162237500 0.85648459 0.0012595621 0.00010991787 -0.00016307329 -0.00052175194 -0.00011211076 -0.79472548 0.013402035
3169725000 0.83839488 -0.18598893 6.8636429e-005 0.00010269896 3.8590293e-005 -0.00010673931 -0.77403706 0.18672626
3177212500 0.77891552 -0.36471251 -0.00036063197 6.6995955e-005 3.0196261e-005 0.00019415989 -0.71597701 0.35628879
3184700000 0.68237728 -0.52549618 0.00027454234 4.3355067e-005 -0.00033702623 0.000162497 -0.61910677 0.51453429
3192187500 0.55067235 -0.66073465 0.00025231027 0.00023283789 -1.8202805e-005 2.5686893e-005 -0.48284119 0.65068161
3199675000 0.3922241 -0.76587778 0.00013076267 0.0002178945 -7.2587673e-006 6.2247185e-005 -0.31211248 0.75087655
3207162500 0.21290448 -0.83352417 8.8018394e-005 -2.0315916e-005 -0.0001357204 -8.15151e-005 -0.11864321 0.80522758
3214650000 0.020127505 -0.85948765 7.8025732e-006 -0.00031055245 4.8234397e-005 0.00022867799 0.084020428 0.80590105
3222137500 -0.17574888 -0.84006077 -0.00028208052 5.8425947e-005 0.0002953533 0.00025356808 0.27765435 0.75439161
3229625000 -0.36471424 -0.77462655 0.00025633039 -0.00011638532 -0.00010728686 0.00028043592 0.44828278 0.65719414
3237112500 -0.53585559 -0.66447473 1.8274977e-005 -8.6242238e-005 -0.00027255985 0.00027013689 0.58465534 0.5253067
3244600000 -0.67550671 -0.51509142 -3.8576213e-006 0.00026605334 -6.0812796e-005 -9.3310649e-005 0.68454838 0.37227395
3252087500 -0.77472979 -0.33520314 6.9395246e-005 -6.2865918e-005 8.994111e-005 1.3203757e-005 0.7469309 0.2064013
3259575000 -0.82483661 -0.13737366 -8.0054946e-005 -4.9681988e-005 4.3601864e-005 -0.00027666261 0.77358305 0.035196234
3267062500 -0.8261382 0.064036585 -0.00013569173 0.00022752536 0.00020468142 0.00032038617 0.76716638 -0.13673007
3274550000 -0.77999979 0.25387543 -0.00033503532 -0.00014357497 -0.00011594519 9.6283853e-005 0.72709769 -0.30614123
3282037500 -0.69409966 0.42478806 0.00010533108 -0.00011289815 0.00026839631 0.00022954756 0.65138185 -0.46708629
3289525000 -0.57591695 0.56924903 0.00024013205 -0.00047463703 0.00018665454 -0.00013898294 0.5385229 -0.61371458
3297012500 -0.43403402 0.68439072 0.00018427934 3.155267e-005 -0.00015690847 0.00020519325 0.38860998 -0.73355561
3304500000 -0.27211341 0.76739883 -4.0842355e-005 -0.0002749711 0.00022875093 -0.00019441257 0.20650727 -0.81304288
3311987500 -0.097765632 0.81715244 -3.4416724e-005 0.00026013394 -0.00024169224 -0.00013935295 0.0075876024 -0.84279495
3319475000 0.087314405 0.83154589 -0.00013248876 -7.7981231e-006 2.8066605e-005 -6.5749911e-005 -0.19135855 -0.81636786
3326962500 0.27709231 0.80520898 5.512403e-005 2.8619324e-005 -1.409694e-005 -0.00045542914 -0.37188101 -0.7411257
3334450000 0.4633598 0.73256218 -0.00020657448 7.6394892e-005 7.6900469e-005 -0.00042609524 -0.52118599 -0.62683529
3341937500 0.63118505 0.61197394 -5.0975235e-005 4.5106051e-005 2.3414525e-005 -0.00029457902 -0.63458067 -0.488038
3349425000 0.76387048 0.44686961 0.00014248212 4.6193218e-005 -0.0003049412 0.00027672848 -0.71249318 -0.33511171
3356912500 0.84659201 0.25093332 0.00029161814 -0.00023435225 0.00041889612 0.0001941849 -0.75894356 -0.17625512
3364400000 0.87199342 0.043347239 0.00052608823 -0.00015942419 0.00019025008 2.3237359e-005 -0.77571708 -0.013431094
3371887500 0.84264559 -0.15406784 -0.00010198268 4.7174046e-005 -0.0004688449 3.3533372e-005 -0.76259786 0.1522444
3379375000 0.77126431 -0.32956955 -6.1427731e-005 2.6379335e-005 0.00022511477 -7.7397999e-005 -0.71748567 0.31838194
3386862500 0.66989529 -0.4764657 5.3630632e-005 -0.00033983961 -5.0328996e-005 0.00018604752 -0.63467884 0.47838989
3394350000 0.54789656 -0.59555686 3.6312635e-005 6.1680941e-005 8.8362722e-005 -6.8432222e-005 -0.50963783 0.62317687
3401837500 0.41108224 -0.69017184 0.0003349694 3.5517351e-007 -0.00022379437 -0.00014387006 -0.34588194 0.73506594
3409325000 0.25928366 -0.76247561 0.00019794036 -0.00019421398 -0.00018566419 -0.00038353703 -0.15224451 0.80074722
3416812500 0.091090031 -0.80920929 -2.7526172e-005 0.00027970658 4.0771123e-005 0.00011398375 0.050331347 0.80979943
3424300000 -0.09473078 -0.82261038 -5.8427871e-005 0.0001468457 0.00015073665 -0.00014161464 0.24445169 0.76578164
3431787500 -0.29266733 -0.79037976 -2.5708146e-006 0.00019551387 0.00012712403 -6.671327e-005 0.41442379 0.67830056
3439275000 -0.48851162 -0.70106804 2.2269005e-005 -6.8433714e-005 0.00027245044 -0.00015849386 0.55415815 0.56031358
3446762500 -0.65468687 -0.55291492 7.4643234e-005 0.00011848522 -0.00020437239 0.00028545086 0.66279548 0.42061713
3454250000 -0.76678199 -0.36104029 0.00030063433 -5.6299246e-005 0.00032275432 5.2921874e-005 0.74187523 0.26512915
3461737500 -0.81492531 -0.15352127 6.7903393e-006 0.00022009107 0.00012155618 0.00030705344 0.79076147 0.095432982
3469225000 -0.80549252 0.043697115 0.00021936081 -0.000130197 5.0600524e-005 8.0806341e-005 0.80523407 -0.086046636
3476712500 -0.75407028 0.21734299 0.00017909717 -0.00022876747 -5.4179891e-005 -0.00014395406 0.7774263 -0.2744931
3484200000 -0.67805427 0.36393753 -0.00010193347 6.2137522e-005 0.00028297052 -3.5350971e-005 0.70016551 -0.4584634
3491687500 -0.58633643 0.48909897 0.00020817562 -2.2479917e-005 -0.00034053714 8.9442903e-005 0.5712586 -0.61899704
3499175000 -0.48146123 0.59917521 -0.00034835891 0.00021904422 -0.00013676568 0.0002431789 0.40148571 -0.73719156
3506662500 -0.35945067 0.69643694 -0.00016411483 0.00018744371 0.0001732028 -0.00028002489 0.21125469 -0.80120337
3514150000 -0.21443588 0.78039384 -4.891896e-006 -0.0001181756 -0.0002553981 -5.2952604e-005 0.020203952 -0.81108463
3521637500 -0.039115634 0.84155488 -2.3168426e-005 -7.9734265e-005 -3.6164398e-005 -0.00024390838 -0.15545078 -0.77821523
3529125000 0.16704597 0.8609513 -3.4604502e-006 0.00026245063 -5.530487e-005 -0.00058038213 -0.31158635 -0.71355313
3536612500 0.39014551 0.81577539 9.9286563e-006 -8.5724612e-005 0.00039471179 -0.00014555051 -0.44604832 -0.62613291
3544100000 0.59825987 0.6937961 2.1936832e-005 0.0001910766 -0.00043052132 -0.0004147228 -0.56287509 -0.5198251
3551587500 0.75351489 0.50953209 -0.00015875972 -0.00011708786 0.00012040102 -0.00021460549 -0.66322803 -0.39411065
3559075000 0.83735937 0.29365128 -0.0001388099 -6.7336482e-006 -0.00019543215 0.00013013883 -0.74263114 -0.24602805
3566562500 0.85341406 0.081909724 -9.1397953e-005 0.00014067543 0.00014883727 7.6866927e-005 -0.793203 -0.073997788
3574050000 0.81953412 -0.10745776 0.00041787265 -2.9314272e-006 -0.00030956368 -0.00029294385 -0.80279458 0.11806929
3581537500 0.7556051 -0.27063915 -0.00031647226 -0.00011977025 -0.00010250093 0.0001426622 -0.75723118 0.3163861
3589025000 0.67132586 -0.41116706 -2.5223955e-005 -0.00010355406 4.8462589e-005 9.5312775e-005 -0.65396351 0.4977009
3596512500 0.56995022 -0.53481847 -0.00017381315 -0.00017207964 0.00013525743 0.00013412836 -0.50402361 0.63977194
3604000000 0.44916856 -0.64370245 -0.00010154793 5.094329e-005 6.9226509e-005 8.4423053e-005 -0.32766855 0.73038739
3611487500 0.30407417 -0.73556012 0.00015940399 -0.00038167823 3.2920696e-005 0.00018270637 -0.14541031 0.77160192
3618975000 0.13245042 -0.79939258 -5.4350941e-005 0.00034713437 -0.00010594037 0.00032001291 0.029696973 0.77216858
3626462500 -0.061686587 -0.82177871 -0.00012437423 0.00015218822 -0.00014316529 -0.00027075823 0.19310285 0.74216139
3633950000 -0.26402757 -0.79054004 -3.7730293e-005 -0.00026920758 0.00019700053 2.2090686e-005 0.34652591 0.68613869
3641437500 -0.45234063 -0.70184988 -7.183625e-005 0.00026879989 -0.00026173753 0.00035105969 0.49144918 0.60559446
3648925000 -0.60596871 -0.56700003 0.0002755805 -0.00036091171 -0.00018275015 -0.00026114457 0.62539583 0.49425676
3656412500 -0.71372741 -0.4027369 -0.00010570789 0.00013055126 -7.8962912e-005 8.620372e-005 0.74049103 0.34744108
3663900000 -0.77724278 -0.22695668 7.6672644e-005 0.00021066696 -0.0001769091 -0.00011328772 0.82105017 0.16312906
3671387500 -0.80243152 -0.051481526 -0.00012672253 3.2618456e-005 0.00016535951 -8.8625216e-005 0.84803635 -0.04687871
3678875000 -0.79539156 0.12078746 0.00012997414 -5.1473303e-006 -0.00018458879 -0.00010840806 0.80963767 -0.25972313
3686362500 -0.75828046 0.29010159 0.00022153951 5.9809969e-005 -6.5339947e-005 2.0606045e-005 0.71065927 -0.44789383
3693850000 -0.68904614 0.45571116 1.7516626e-005 -0.00012759471 -1.1087939e-005 -3.4966866e-005 0.56974757 -0.59098321
3701337500 -0.58029276 0.61194915 -0.00035439432 0.00031879407 0.00028475255 0.00026631626 0.40844136 -0.68516904
3708825000 -0.42828682 0.74672806 -0.00022731909 -2.1664135e-005 -0.00026400218 -0.00044961582 0.24438581 -0.73746479
3716312500 -0.23606625 0.83952409 0.00029821298 -0.00024198971 -0.00038009524 0.00028653484 0.085828803 -0.75660646
3723800000 -0.018884297 0.87387931 -0.00017610939 -7.3633957e-005 -5.62077e-005 6.9620779e-005 -0.068707347 -0.75075704
3731287500 0.19555227 0.84064287 3.4964891e-005 -9.7076525e-005 -0.00014007684 0.00057666964 -0.21907997 -0.72145313
3738775000 0.3841508 0.75211841 -0.00046258382 0.00021770323 -7.0647031e-005 0.00018732449 -0.3675364 -0.66790229
3746262500 0.53271931 0.62649977 -3.8337575e-006 -0.00011220326 -0.00011987535 -6.2958774e-005 -0.51129556 -0.5829435
3753750000 0.64170355 0.48098031 -3.2331987e-005 -0.00028590005 -0.00033636863 0.00021891741 -0.64320993 -0.46281505
3761237500 0.71461511 0.32774714 0.00024054284 0.00010478124 2.1061627e-005 1.9870766e-005 -0.7487843 -0.30292407
3768725000 0.75875407 0.16952972 0.00013506932 -3.0277515e-005 -9.9074416e-005 0.000218456 -0.81119621 -0.11208264
3776212500 0.77851188 0.0072744894 -5.3765994e-005 -0.00016060057 4.3293341e-005 -0.00022729406 -0.81703538 0.094618447
3783700000 0.770495 -0.16024762 -9.9728728e-005 0.00013136449 0.00016528436 4.6036977e-005 -0.7642318 0.29320762
3791187500 0.72835571 -0.3331089 8.1328792e-005 0.0001115386 0.00056369393 0.00040000305 -0.66210276 0.46478122
3798675000 0.64366698 -0.50392526 0.00022069586 -0.00014605373 -8.4536936e-005 0.00027978182 -0.52764779 0.59867162
3806162500 0.51268226 -0.65683204 -0.00010296118 4.743852e-005 5.2949297e-005 0.00027208315 -0.3732501 0.69384843
3813650000 0.33611172 -0.77189428 0.00042042637 2.8957582e-005 0.000148323 8.6230648e-005 -0.20849396 0.75469816
3821137500 0.13177842 -0.83199799 0.0005408728 0.00018334661 -0.00034242537 -0.00027485265 -0.037697319 0.78143573
3828625000 -0.075411268 -0.83139992 0.00024328483 -0.00015538155 -0.00032797561 -5.0916888e-006 0.13437989 0.77511859
3836112500 -0.2669121 -0.7778011 -1.5999158e-005 -8.1487524e-005 0.00025435511 5.9425233e-006 0.3061727 0.73342854
3843600000 -0.42911047 -0.68636715 0.00016102646 -5.8779555e-005 -2.4869601e-005 0.00045165309 0.47072595 0.65320784
3851087500 -0.55986118 -0.56976581 -5.5130035e-006 -0.00028373423 -0.00030406439 0.00018432587 0.61609393 0.53217286
3858575000 -0.66183984 -0.4380334 0.00011383957 0.00010674891 -2.5860278e-005 -0.00015673685 0.72875839 0.37474126
3866062500 -0.7393834 -0.29360956 5.0012128e-005 2.0725873e-005 0.00013937715 -5.7656245e-005 0.79719353 0.1907845
3873550000 -0.79314017 -0.13678493 -0.00014918185 0.00021386099 0.00029194064 0.00013318189 0.8157714 -0.0037056352
3881037500 -0.81927109 0.03381433 0.00015413381 0.00021803587 -0.00016466952 3.9778377e-005 0.78468406 -0.19154717
3888525000 -0.81006747 0.21726939 2.7985023e-005 -7.9689984e-005 0.00016689964 -0.00025958635 0.71084982 -0.36160305
3896012500 -0.7560243 0.40730569 0.0001994022 2.5096013e-005 -0.00045396233 0.00015112522 0.60453683 -0.50477219
3903500000 -0.64703691 0.58879882 0.00011365755 -0.00023075788 -0.00025082318 -9.3672454e-005 0.4723959 -0.61903298
3910987500 -0.48435906 0.73801762 0.00015960229 2.6098673e-005 -9.9434132e-005 -2.5440813e-006 0.3250283 -0.70259917
3918475000 -0.28136808 0.83293146 -0.00011062126 0.00017830209 -0.00011834996 0.00020541037 0.16317597 -0.75523394
3925962500 -0.061231229 0.86378223 -0.00019209429 0.00030103006 0.000190565 7.4010743e-005 -0.0067279916 -0.7730149
3933450000 0.14839922 0.83201259 3.2829816e-005 -0.00020493691 2.9495874e-005 -0.00029726335 -0.17956431 -0.7562232
3940937500 0.33228567 0.7521863 -0.00029536613 0.00033235762 9.0112837e-005 -0.00027674748 -0.34829545 -0.70029211
3948425000 0.48210838 0.63900846 -4.1362069e-005 -2.302157e-005 1.0821232e-005 2.5870684e-005 -0.50244993 -0.6045056
3955912500 0.59865391 0.50483835 -4.4571407e-005 6.2333369e-005 4.7955993e-005 0.00030132572 -0.63174433 -0.47360507
3963400000 0.68412364 0.35740823 0.00045211171 0.00030440115 0.00018328438 0.00018636622 -0.72615868 -0.31412405
3970887500 0.74196655 0.2003289 -5.0153329e-005 -0.00020792696 0.0003696708 6.8188303e-005 -0.77912456 -0.13750224
3978375000 0.76992875 0.034338672 -0.00020385941 0.00012055111 -0.00041677052 0.00034675826 -0.78974438 0.045010291
3985862500 0.76759386 -0.13759369 7.7859768e-005 0.00014682124 -0.00025978507 -1.1145569e-005 -0.75876206 0.22324568
3993350000 0.7288419 -0.31297305 -6.5162014e-005 3.9258248e-005 -7.922351e-006 -9.4560728e-006 -0.68993455 0.38851118
4000837500 0.65095413 -0.48412883 0.00013005199 -9.0903188e-005 0.00016984555 0.0002101664 -0.58567214 0.53413934
4008325000 0.52786303 -0.63747227 0.00018443854 8.98004e-005 -6.799167e-005 8.3791281e-005 -0.45338053 0.65432042
4015812500 0.36414346 -0.75668657 -0.00017818068 -0.00012374965 -8.0884492e-005 6.2782878e-005 -0.29654986 0.7449261
4023300000 0.17040789 -0.82942009 -0.00017110995 0.00025752001 -0.00021577577 -0.00033030449 -0.12066887 0.79855114
4030787500 -0.03469532 -0.84731519 6.8496251e-005 0.0001751597 0.0001465675 -4.5840912e-005 0.066326082 0.80925626
4038275000 -0.2326923 -0.81251591 -0.00013802553 0.00016687972 0.00018058129 -8.6546745e-005 0.25320151 0.77236909
4045762500 -0.41022387 -0.73187047 0.00027237914 4.7490863e-005 -6.381025e-005 9.041818e-005 0.42474863 0.6921187
4053250000 -0.55766815 -0.61541992 -2.8536744e-005 -3.7981114e-005 -0.00020880695 0.00033520663 0.56998485 0.57004875
4060737500 -0.67239469 -0.47441047 -0.00016645197 0.00012416586 -0.00051284424 -0.00035078471 0.67966902 0.4209137
4068225000 -0.75377762 -0.31704044 0.00010658339 -9.5891646e-006 0.00024072794 0.00026113665 0.74859738 0.25313437
4075712500 -0.80041325 -0.14799187 -0.00030228245 8.0941754e-005 -0.00050536392 0.00062985549 0.77710837 0.078969814
4083200000 -0.81300116 0.026693424 3.8446986e-005 -9.684862e-005 7.5526797e-005 0.00017086283 0.7681095 -0.092073493
4090687500 -0.78839952 0.2013554 -1.197417e-005 -0.00017050125 0.00011801709 0.00013210268 0.7254743 -0.2555697
4098175000 -0.72547495 0.37223276 0.00023863924 0.00010201948 0.00026900406 6.2249281e-005 0.65244365 -0.40802905
4105662500 -0.62390566 0.5256772 0.00042288628 -5.7726334e-005 6.8119232e-005 4.9656519e-005 0.54872161 -0.544559
4113150000 -0.48761839 0.65554625 -0.00012579195 0.00014896867 6.6260975e-005 7.0799935e-005 0.4158527 -0.65896106
4120637500 -0.32084748 0.75045091 0.00026666804 -0.00013236506 -0.00016351194 0.00034055175 0.25662488 -0.74531865
4128125000 -0.13506797 0.80341119 0.00012107773 0.00021205364 -0.00023535808 0.00047309371 0.074516192 -0.79290342
4135612500 0.05890571 0.81002277 -0.00020903148 0.0003892151 -0.0002503914 0.00010491019 -0.11811347 -0.7932018
4143100000 0.24945423 0.77066886 -3.0044886e-005 -0.00031682372 1.3592498e-005 1.8138331e-005 -0.30686539 -0.74182838
4150587500 0.4238309 0.68661195 -0.00011607853 0.00016149426 -0.00026951791 3.9371163e-005 -0.4743152 -0.64503831
4158075000 0.57578051 0.56512141 -0.00031848843 -0.00015350942 0.00030477648 -0.00010740259 -0.60790449 -0.51037163
4165562500 0.69596189 0.41143581 -0.00015424842 -0.00032615781 3.0263118e-005 0.00010183926 -0.70122802 -0.35374102
4173050000 0.77601922 0.23501426 0.00021624748 -0.000497506 0.00035469318 -0.00012238833 -0.75387621 -0.18529549
4180537500 0.81318718 0.042252813 -3.4938002e-005 -0.00010598994 9.7125565e-005 -0.00014011373 -0.77120614 -0.017151821
4188025000 0.80413759 -0.15256798 0.00014408231 6.3986015e-005 -5.9643507e-006 0.00024430497 -0.75467157 0.14734364
4195512500 0.74775481 -0.3392376 -0.00039474556 -0.00011857062 -4.4788299e-005 -0.00016250898 -0.70808542 0.30320677
4203000000 0.64849311 -0.50562334 0.00019731576 -0.00022876612 -1.7175246e-007 -0.00011921153 -0.63220745 0.44963184
4210487500 0.51587838 -0.64117074 -9.4626099e-005 2.8662467e-005 0.00026553284 -6.3560248e-005 -0.52688468 0.58270472
4217975000 0.35817572 -0.74185568 -5.73242e-006 7.2563154e-005 -5.8026348e-005 1.3055285e-005 -0.39107648 0.69397998
4225462500 0.18462534 -0.80194712 0.00021139391 0.00022468821 0.00031238 -0.00022535308 -0.22612457 0.77488208
4232950000 0.0062272004 -0.82263547 -0.00018674473 0.0003529354 -0.00017503469 0.00021421741 -0.039690055 0.81375492
4240437500 -0.17118886 -0.80553019 0.00028008007 -0.00014845742 0.00013830001 -0.00032978193 0.15573613 0.80341631
4247925000 -0.34146529 -0.75226057 0.00022100088 -6.2520026e-005 -0.00015738813 0.00020934769 0.34251839 0.74084795
4255412500 -0.4970009 -0.66294581 0.00010464338 0.00017755268 0.00010820373 -0.00015387787 0.50612605 0.63165295
4262900000 -0.63130802 -0.54053569 0.0001273106 7.2025956e-005 -0.000198952 0.00028573765 0.63270074 0.48678866
4270387500 -0.73716152 -0.38783959 -0.00015664654 0.00044634641 0.00016833327 -0.00016918275 0.71797913 0.32180017
4277875000 -0.80652553 -0.21111555 -0.0002087099 -6.7284171e-005 -9.4498922e-005 7.3219351e-005 0.76216131 0.14665784
4285362500 -0.83032352 -0.021901648 -7.5686541e-005 9.8059551e-005 3.419982e-005 0.00032895661 0.76630831 -0.029139092
4292850000 -0.80845195 0.17141974 0.0002884655 0.00020915474 -4.1166627e-006 -0.00023663243 0.73554683 -0.19909509
4300337500 -0.73879534 0.35255423 -0.00022997959 -0.00012409268 1.1487799e-005 -0.00013232233 0.67144328 -0.35886142
4307825000 -0.62747937 0.51037169 -0.00017446662 -0.00024972993 -0.00016800441 -8.7950473e-005 0.57359868 -0.50162572
4315312500 -0.48529899 0.63571352 -8.1633618e-005 -9.0220838e-006 0.00019984743 0.00022983973 0.4459976 -0.62319875
4322800000 -0.31946245 0.72442943 -0.00012331993 -0.00017587238 0.00030034836 -2.6869602e-005 0.29248491 -0.71512282
4330287500 -0.14028977 0.77265304 6.1362232e-005 -0.00020628754 0.00021060828 0.00028139824 0.11856493 -0.76923692
4337775000 0.044727601 0.78171438 1.7006194e-005 -0.0001372235 0.00017079416 -8.2763298e-005 -0.063560411 -0.78082657
4345262500 0.22807208 0.75128496 -0.00010706259 -8.9880799e-005 0.00026266201 8.5628099e-006 -0.24467953 -0.74808687
4352750000 0.40153736 0.6812554 -3.487588e-005 -3.5280267e-005 -7.1272887e-005 0.00032587381 -0.41195649 -0.67303622
4360237500 0.5587346 0.57153708 0.00016459721 -0.00021520258 0.00032278898 -0.00011131463 -0.5547412 -0.56260127
4367725000 0.68759727 0.42517534 -0.00014550348 -0.00035540387 8.1701895e-005 -0.00018103323 -0.66744179 -0.42548186
4375212500 0.77702588 0.24957739 2.795444e-005 -1.9641111e-005 -5.1044437e-005 -0.00029722316 -0.74645847 -0.26656067
4382700000 0.82033724 0.056141209 -0.0001075355 -1.4713166e-005 8.0151229e-005 -2.2141265e-005 -0.78853816 -0.096033499
4390187500 0.81317222 -0.14089857 0.00017997442 -0.00016249724 -7.3231345e-006 -5.2530781e-005 -0.79191381 0.078601323
4397675000 0.75736123 -0.32498354 -6.5501212e-005 4.108658e-005 7.5058251e-006 -6.4250155e-005 -0.7569769 0.2511723
4405162500 0.66157508 -0.48571116 0.00019203975 0.00013586703 0.0006944004 0.00010256471 -0.68454093 0.41165528
4412650000 0.53649282 -0.61486542 -0.00013841597 -3.2262011e-005 0.00010054687 0.00016437922 -0.57655585 0.55293936
4420137500 0.39291555 -0.71126848 -0.00040074834 -5.6057183e-006 -0.00010056975 -0.00020478429 -0.43747017 0.66718483
4427625000 0.23634376 -0.77365297 -2.7986152e-005 -0.00011475292 -0.00026382646 0.00027542928 -0.27617332 0.74402636
4435112500 0.074511103 -0.80566734 0.00016066023 -2.0534955e-005 -0.00018085813 2.8091446e-005 -0.10202487 0.78310871
4442600000 -0.091556735 -0.80682838 0.00010479184 -0.00026183907 -5.0981165e-005 0.00034449287 0.075763159 0.78076905
4450087500 -0.25709495 -0.77557665 -9.2929447e-005 0.00019439848 0.0001165763 0.00018729093 0.2474899 0.7402665
4457575000 -0.41842401 -0.7107107 0.00020843702 -0.00016828955 0.00018208219 -3.1745894e-005 0.40662703 0.6618849
4465062500 -0.56790203 -0.60858852 -4.7460479e-005 -0.00012111175 -0.00035591071 0.00015125173 0.54540056 0.55125433
4472550000 -0.69669276 -0.46879512 -1.4733644e-005 -5.0376282e-005 8.0620179e-005 0.00024474555 0.65882468 0.41128227
4480037500 -0.79176629 -0.29588404 -7.1882845e-005 8.8779219e-005 -0.00018920639 -0.00022500896 0.7395792 0.24573514
4487525000 -0.84200591 -0.097691208 -0.00022780932 0.00018148786 -0.00021218431 0.00012956469 0.78096658 0.062784135
4495012500 -0.839854 0.11207581 6.3149469e-005 -0.00011349689 -7.4939758e-006 -0.00010365771 0.7755903 -0.12848893
4502500000 -0.78009576 0.31709966 -1.630109e-005 -1.3853438e-005 0.0002588465 -8.2415267e-005 0.72330105 -0.31553283
4509987500 -0.66905075 0.49997464 0.00012616738 -3.5698711e-005 6.184377e-005 -0.00056127645 0.62437963 -0.48186141
4517475000 -0.51608384 0.64601499 -0.00012873494 0.00011035764 0.00021734924 -7.2972944e-005 0.48697367 -0.61688083
4524962500 -0.33206019 0.74749547 -0.00026390751 -5.8812271e-005 -7.4249903e-005 0.00010010497 0.32536492 -0.71110958
4532450000 -0.1325558 0.79986638 1.1674845e-005 3.8618648e-005 0.00035733182 -1.9527422e-005 0.15092206 -0.76207793
4539937500 0.069860853 0.80000573 -0.00017349434 0.00019593083 5.8063157e-005 -3.4817986e-005 -0.023225056 -0.77227372
4547425000 0.26159006 0.75375861 0.00012509809 -1.9732819e-005 -3.0945219e-005 -0.0001879932 -0.19044198 -0.74587339
4554912500 0.43313196 0.66616929 0.00022236745 -0.00026101389 0.00021443698 6.3361236e-005 -0.34497309 -0.68822199
4562400000 0.57364237 0.54387963 0.00014899585 -0.00013016921 1.8824245e-005 -0.00025222861 -0.48436436 -0.60334194
4569887500 0.68098801 0.39925995 -6.78859e-005 0.00014661565 -0.00024385253 0.00013315177 -0.60526717 -0.49184096
4577375000 0.75322479 0.24083298 0.00015743582 0.00013135966 -5.1391722e-005 -0.00012164716 -0.7033577 -0.35734439
4584862500 0.79068065 0.073835939 0.00013362977 0.00016683695 0.00033992992 -9.7831231e-005 -0.77290541 -0.20056942
4592350000 0.79563391 -0.094699927 0.00013369022 -1.3453306e-005 0.00016398335 -0.00012497109 -0.80605662 -0.027344231
4599837500 0.76644486 -0.25993195 -0.00014058463 0.00032777796 1.5294123e-006 6.9877948e-005 -0.79905492 0.15482512
4607325000 0.70584768 -0.4205431 0.00010382877 -0.00019435026 -7.9625359e-005 -0.0001266274 -0.74558038 0.33351651
4614812500 0.61037326 -0.56714898 1.7311722e-005 0.00021077904 0.00024782482 -3.939067e-005 -0.64845651 0.49346575
4622300000 0.48171672 -0.6943993 -0.00024745235 -9.1950033e-006 -0.00048640571 0.00020378725 -0.51416218 0.62526172
4629787500 0.32073763 -0.78915906 0.00042965502 -0.00013856572 6.6517554e-005 4.6346147e-005 -0.35275552 0.71890604
4637275000 0.13820346 -0.84464848 -1.6363958e-005 -0.00017665447 -0.00014288667 0.00049537502 -0.17654327 0.7711547
4644762500 -0.055488028 -0.85005683 0.00015561703 -6.5753869e-005 -3.9385875e-005 6.8691385e-005 0.0047391127 0.78205329
4652250000 -0.24308746 -0.80702406 0.00015881473 1.0810165e-005 -3.5795326e-006 7.9814796e-005 0.18184958 0.75266123
4659737500 -0.41160953 -0.71932715 -4.2503671e-005 0.00021656303 1.7728027e-005 0.00023001344 0.34875688 0.68566036
4667225000 -0.55159771 -0.59836841 -0.00014721826 0.0001213187 -4.2199492e-005 -5.4506192e-005 0.49690849 0.58242345
4674712500 -0.65833092 -0.45228869 0.0001548264 -9.4853218e-005 -2.6938829e-005 0.00016029282 0.62009984 0.44769824
4682200000 -0.73205602 -0.29002911 -0.00010369132 0.00024173989 -0.00039622613 2.1626009e-005 0.70925212 0.28581873
4689687500 -0.77152348 -0.11571568 0.00012483353 -5.4762793e-005 -9.8506767e-005 2.0190821e-005 0.75853187 0.1070311
4697175000 -0.77623683 0.06581711 4.8533431e-005 -0.00016944831 -9.4318442e-005 0.00017018702 0.76297623 -0.078597702
4704662500 -0.7403782 0.25064802 -1.2610805e-005 -0.00015195395 -6.8523768e-005 -0.00017014418 0.72320771 -0.25843814
4712150000 -0.66021246 0.4294526 -0.00031173788 0.0002377169 -4.0657062e-005 -2.4267641e-005 0.64382112 -0.42363426
4719637500 -0.532067 0.58886319 0.00016431265 -6.088521e-005 6.5913162e-005 -0.00015035018 0.53043288 -0.56388122
4727125000 -0.36192575 0.71130669 0.00013112166 0.00022227089 4.4943568e-005 -0.00042140402 0.39043206 -0.67411101
4734612500 -0.16383193 0.78205836 -0.00028944036 -2.3466117e-005 5.311357e-005 0.00022510135 0.22968039 -0.75115812
4742100000 0.042525236 0.79350775 -0.00013585819 -1.039055e-005 3.6699996e-005 -5.0875173e-005 0.056117665 -0.79167795
4749587500 0.23483707 0.75180954 2.9493907e-005 -0.00017694921 0.0001474171 -6.2629493e-005 -0.12434795 -0.79201877
4757075000 0.40144277 0.66904593 4.9820879e-005 -0.00024379279 2.5379981e-005 0.0001539911 -0.30149952 -0.75157559
4764562500 0.53661096 0.55905998 0.00014100493 0.00014308888 -6.6072345e-005 -0.00015488623 -0.46514702 -0.66922528
4772050000 0.64118308 0.43183342 0.00028801741 -7.9997284e-005 0.00014657607 0.00012914937 -0.60428214 -0.5488385
4779537500 0.71944171 0.2924217 -0.00011923539 -0.00022063525 7.3472314e-005 7.8947764e-005 -0.7082516 -0.39928535
4787025000 0.77223092 0.14504768 -0.00012840553 0.00018125839 1.2549834e-005 -3.746253e-006 -0.77244633 -0.23126395
4794512500 0.79998446 -0.011840471 -2.8887232e-005 -2.1601631e-005 1.3156703e-005 -7.0954331e-005 -0.79627085 -0.05918308
4802000000 0.79839814 -0.17656066 3.4495064e-005 0.00014888504 -0.00013722401 5.8582598e-005 -0.78276515 0.11061681
4809487500 0.76186889 -0.34711519 0.00018152656 4.6323771e-006 5.0510382e-005 -8.2815503e-005 -0.73431748 0.27078563
4816975000 0.6829403 -0.51394629 -0.00020009912 -0.00016430051 -0.00014991681 -0.00013758701 -0.65626138 0.41762924
4824462500 0.56001502 -0.66227961 9.811356e-005 -8.1321123e-005 -8.9128014e-005 -0.00030682489 -0.54997391 0.54851913
4831950000 0.39552608 -0.7787925 5.4984724e-007 -0.00023090471 0.00019172608 4.2926433e-005 -0.41564634 0.65712953
4839437500 0.20284408 -0.84645808 -3.2287568e-005 -8.2341547e-005 -3.6915477e-005 1.1442499e-005 -0.25609517 0.73758119
4846925000 -0.0029582116 -0.85937101 -0.000116433 -0.0002020048 -7.0252366e-007 -9.4349678e-005 -0.074553542 0.77928185
4854412500 -0.20040789 -0.81897056 -9.0572983e-005 8.701357e-005 5.4376731e-005 1.3230806e-005 0.11854976 0.77543759
4861900000 -0.37599364 -0.73217571 -0.00016333236 -5.7338202e-005 -0.00016134523 -2.1296961e-005 0.30761263 0.71989042
4869387500 -0.52263486 -0.60938483 -2.5218184e-005 -7.5519834e-005 -0.00022710754 -0.00010031605 0.47467411 0.61563182
4876875000 -0.63522482 -0.46023771 -9.5403542e-005 -9.055531e-005 1.6485479e-005 0.00015236516 0.60639232 0.47403318
4884362500 -0.71086621 -0.29404721 0.00023715438 -1.2165012e-005 0.0002605484 0.00011708576 0.69555861 0.30849406
4891850000 -0.74876899 -0.11715832 2.4520277e-005 0.0001502612 -4.3045759e-005 -0.00018258861 0.74201298 0.13356563
4899337500 -0.74768126 0.063534267 7.5670905e-005 0.00010957939 -0.00018239267 0.00022961679 0.75006336 -0.04139813
4906825000 -0.70767856 0.23910697 6.1157967e-005 -9.8261291e-005 -0.00010842246 0.00013067485 0.72185016 -0.20999825
4914312500 -0.63014436 0.40312085 0.00014913306 3.2043037e-005 1.4186741e-005 -0.00014227716 0.66227305 -0.36854586
4921800000 -0.51636112 0.54697365 -0.00019143985 0.00013014831 -5.5795426e-005 -2.9361092e-005 0.57073635 -0.51150012
4929287500 -0.37276435 0.66063362 0.00015933477 -0.00014221831 -0.00017066323 -5.1011739e-005 0.45034701 -0.63534677
4936775000 -0.20784068 0.73876637 -0.00011415953 0.00024511732 0.00023360406 5.2762505e-005 0.30197453 -0.73198986
4944262500 -0.028213134 0.77763677 -0.00010248164 -3.6305693e-005 -0.00014349508 0.00017699316 0.1319398 -0.79311717
4951750000 0.15587856 0.77472222 0.00010878543 9.5189343e-008 -0.00010763929 0.00025362053 -0.051014062 -0.81099308
4959237500 0.33332512 0.72898978 -1.084911e-005 1.5080184e-005 3.0323608e-005 0.00011039552 -0.2343898 -0.78324258
4966725000 0.495965 0.64379328 -8.803427e-005 -9.4553041e-005 6.2907522e-005 1.7802282e-005 -0.40391451 -0.71087676
4974212500 0.63328153 0.52259612 0.00010978155 -0.00021394553 -7.2537798e-005 -9.0776433e-005 -0.55121595 -0.60175252
4981700000 0.73860013 0.37496883 -0.00019802083 0.00019640391 0.00032941281 -0.00011063883 -0.6656211 -0.46181393
4989187500 0.80676299 0.20822372 -9.4377487e-005 -7.0125789e-005 -0.00010482447 -8.2389553e-005 -0.74329907 -0.3018952
4996675000 0.83569783 0.03094358 0.00010175856 -0.00019343117 -1.0666342e-005 -0.00011234952 -0.78305447 -0.1303336
5004162500 0.82457078 -0.14775638 4.5913617e-005 -7.1696435e-005 -1.741092e-006 0.00037141141 -0.78354567 0.044049956
5011650000 0.77420926 -0.31929129 7.5933742e-005 -0.00016805253 0.00035855034 0.0001993319 -0.74544322 0.21413697
5019137500 0.68618047 -0.47746009 -0.00024726105 0.000133679 1.8886141e-005 -0.00033184642 -0.6705246 0.36904073
5026625000 0.56183153 -0.61281627 -9.9314624e-005 5.1205319e-005 -7.9003505e-005 -0.00011138878 -0.56410515 0.50369966
5034112500 0.40871668 -0.71625882 -6.7504305e-005 -0.0001023001 0.00010760857 -6.8273548e-005 -0.43067521 0.61259782
5041600000 0.23311564 -0.78056264 -5.1360812e-006 0.00019276229 0.00013692859 0.00010935702 -0.27746052 0.68907452
5049087500 0.046711966 -0.80093014 6.7587876e-005 3.204251e-005 1.3376258e-005 3.4994636e-007 -0.11138488 0.73190957
5056575000 -0.13737662 -0.7755127 2.2172328e-006 8.9253976e-005 0.00014966085 1.7764682e-005 0.062434189 0.73880905
5064062500 -0.3075633 -0.70706379 -0.00015312467 -0.00010835426 7.4327625e-005 -0.00016292407 0.2369768 0.70804113
5071550000 -0.45545414 -0.60487795 9.457508e-005 0.00017599404 9.2368122e-005 6.1176812e-005 0.40534878 0.63714552
5079037500 -0.57588035 -0.47535974 0.00011095161 -4.2654712e-005 -5.6625475e-005 -3.7744845e-005 0.55665314 0.5255444
5086525000 -0.66703641 -0.3259435 0.00016326345 -2.9784564e-005 -7.8092904e-005 -0.00020027631 0.678913 0.37536827
5094012500 -0.72703284 -0.16080993 2.600054e-005 -0.00014902331 0.00010516751 -0.00011168923 0.75857604 0.1958819
5101500000 -0.75329405 0.017313922 -5.5278349e-005 -0.00013279043 0.00020606983 0.00011179407 0.78710645 0.0019805878
5108987500 -0.74125814 0.20303486 4.6915731e-005 -0.00014241683 3.1969754e-005 -1.5168538e-005 0.76445675 -0.18941914
5116475000 -0.68532252 0.39031211 8.5773805e-005 0.00020188124 6.4612272e-005 -8.5352927e-005 0.69585699 -0.36166993
5123962500 -0.57880753 0.5640654 -9.6379532e-005 0.00018236162 0.00028164417 0.00025068547 0.59325939 -0.50759757
5131450000 -0.42541277 0.70750594 0.00021686281 0.00026199917 -4.6918063e-005 -8.5671789e-005 0.46832612 -0.62180567
5138937500 -0.23536475 0.8017149 -6.4639637e-005 -0.00014325019 -6.2298524e-005 -0.000142668 0.32635012 -0.70642442
5146425000 -0.031055374 0.83650017 8.9083333e-005 0.00029794875 -0.00017335051 0.00012937027 0.17394768 -0.76201528
5153912500 0.16579209 0.81548703 -8.5447347e-005 -1.7769167e-005 0.00010090713 0.00011943564 0.01251879 -0.78774363
5161400000 0.33879825 0.75126451 3.2606153e-005 -0.00016498398 -3.1229883e-005 -0.00011294903 -0.15689768 -0.78166604
5168887500 0.48376605 0.65738612 4.3205873e-005 -6.6692141e-005 -0.00020649254 -8.0777561e-008 -0.32693228 -0.73763806
5176375000 0.60158634 0.54472667 0.00015292228 0.00022680324 -0.00013610008 -8.5083004e-005 -0.4872978 -0.64900553
5183862500 0.69622689 0.41885272 -0.00012222743 5.9842918e-005 -0.00030717108 -0.00023552752 -0.62276345 -0.5190556
5191350000 0.77028835 0.27806559 -0.0002366925 0.00033058817 -0.0002667048 2.6445938e-005 -0.719549 -0.35637939
5198837500 0.82238877 0.12063398 -0.00019452114 8.2390194e-005 8.8112181e-005 0.00012636253 -0.76793629 -0.17675288
5206325000 0.84175611 -0.056131002 1.0368599e-005 5.3221582e-005 2.1736034e-005 -8.8694091e-005 -0.76913744 0.002946222
5213812500 0.81852847 -0.24635057 -0.00016285623 6.6558743e-005 -0.00025831599 -0.00011816787 -0.73162019 0.17015705
5221300000 0.73913902 -0.43453225 0.0001026227 -5.6090641e-005 8.554243e-005 0.00024583613 -0.66199714 0.31888983
5228787500 0.60356253 -0.59600657 -3.4717854e-005 0.00029924448 7.201957e-006 -0.00018325275 -0.56869298 0.44921479
5236275000 0.42551118 -0.70742494 3.0399622e-005 0.00019666369 -8.6382635e-005 -0.0001243131 -0.45486766 0.56020617
5243762500 0.23301269 -0.75874484 -0.00025283213 8.8866618e-005 -0.00018464346 4.1214321e-006 -0.31995243 0.65076512
5251250000 0.047832072 -0.75765437 -2.4817205e-005 -0.00011601116 -0.00011986902 -0.00016085574 -0.16245466 0.71614069
5258737500 -0.11688323 -0.71924198 5.5062774e-005 -3.7420516e-006 0.00010537526 0.00019199075 0.014287062 0.7461862
5266225000 -0.2610794 -0.65803015 5.0099035e-005 -0.00024190589 0.00021388785 -3.5606437e-005 0.20253043 0.73120004
5273712500 -0.38910753 -0.57937664 2.928602e-005 -3.6592792e-005 -4.8201811e-005 -0.00012556676 0.3855277 0.66437519
5281200000 -0.50529897 -0.48449802 0.00010007804 1.6918088e-005 4.0351762e-005 -0.00017616582 0.54459566 0.54919589
5288687500 -0.61194456 -0.36879247 7.7564102e-005 0.00010378358 -0.00016911489 -1.209941e-006 0.66458052 0.39699662
5296175000 -0.70615387 -0.22613938 0.00023904305 -0.00024371983 -0.00017977052 5.3238255e-005 0.73881012 0.22534052
5303662500 -0.77287215 -0.048214369 -0.00015685905 -0.0001953352 -0.00011262175 -0.00018997717 0.76973516 0.049074601
5311150000 -0.79101104 0.16062333 0.00017197909 -3.0787091e-005 4.1852109e-005 -6.9611215e-006 0.76212764 -0.12405248
5318637500 -0.74210733 0.37943608 0.00018666475 0.00029212446 -0.00027660845 -0.0002404526 0.72105122 -0.28942046
5326125000 -0.62144887 0.57443845 4.2949625e-005 -6.7754081e-005 0.0001951208 1.3762074e-006 0.6491183 -0.44377044
5333612500 -0.45210838 0.71863931 -0.00031740696 -1.5232674e-005 9.3889421e-006 -4.7453643e-005 0.54186285 -0.58150804
5341100000 -0.25887641 0.79550618 0.00055281719 4.3865031e-005 -0.00016451514 0.00032506092 0.40267608 -0.69647634
5348587500 -0.070858821 0.81709713 6.1559964e-005 5.2621694e-005 0.00016215236 1.805293e-005 0.2341826 -0.77528727
5356075000 0.09979365 0.8003971 -8.9350287e-005 0.0001946281 2.8865761e-005 0.0003748787 0.047320649 -0.8063969
5363562500 0.2543005 0.75697881 -0.00018146395 4.5018976e-005 4.3926135e-005 5.8295576e-005 -0.1375947 -0.78658885
5371050000 0.39403182 0.69283503 -0.0001923665 7.579341e-005 -0.00017573677 -7.4802992e-005 -0.30596048 -0.71937084
5378537500 0.52543938 0.60770017 -7.0058239e-005 0.00010789926 0.0002774875 -4.83287e-005 -0.44419986 -0.61886883
5386025000 0.64357388 0.4966462 -5.0474505e-006 -0.00016769083 0.00014367125 6.9298185e-005 -0.55114675 -0.49730021
5393512500 0.74397272 0.35545105 0.00012573277 -0.00018926307 0.00031358722 -0.00021585975 -0.62898648 -0.36541075
5401000000 0.811786 0.18284871 -5.1738894e-005 0.00010123655 -0.0002792984 0.00017082648 -0.68097526 -0.22536159
5408487500 0.83332241 -0.0087067559 -0.00022924466 0.00010364816 -0.00022754895 0.0002103955 -0.71112639 -0.079484023
5415975000 0.79890472 -0.20286696 -8.9355184e-005 -3.1772775e-005 -7.1306371e-005 9.9595665e-005 -0.71614379 0.074729793
5423462500 0.71360731 -0.37774134 9.1911192e-005 -0.00012651141 5.7574005e-005 -5.3377546e-005 -0.69106132 0.23698862
5430950000 0.59048539 -0.51971227 0.00013805399 0.0001485453 0.00037045139 0.00021287703 -0.62693596 0.40085113
5438437500 0.44373772 -0.62329674 0.00023785635 0.00026063275 -0.00050466479 -3.3072673e-005 -0.51679218 0.55476928
5445925000 0.28729275 -0.69158304 1.1104178e-005 -0.00029126805 -0.00015174902 8.5395783e-005 -0.36008981 0.67782527
5453412500 0.12491498 -0.72867644 -0.00021703023 0.00036648769 0.00045250807 -0.00023892469 -0.1706132 0.75024402
5460900000 -0.042873807 -0.73763657 0.00016782511 -6.4307201e-006 3.2579184e-005 -0.00034549998 0.029340608 0.76521826
5468387500 -0.21352321 -0.71469295 0.00017082636 0.00010192997 -0.00029530111 -0.0004051034 0.21715234 0.72569191
5475875000 -0.38480181 -0.6557343 -0.00011711162 -7.1938404e-005 -0.00021338624 0.00015863815 0.38037562 0.64537519
5483362500 -0.54748654 -0.55374974 -6.8486363e-005 5.2492949e-005 -5.4941418e-005 0.00018315914 0.51354241 0.5385375
5490850000 -0.68620694 -0.40505525 -0.0001484909 5.8139753e-006 0.0001294114 0.00024453748 0.61965096 0.41152683
5498337500 -0.78306198 -0.21760456 -8.8297493e-005 7.4546151e-005 3.3803783e-005 0.0002050328 0.69841492 0.26963052
5505825000 -0.8209275 -0.0077766888 -0.00010508727 2.2224904e-005 7.4173673e-005 6.5098582e-005 0.75064588 0.11472116
5513312500 -0.79695946 0.19942415 -0.0001097794 7.7948825e-005 -0.0003716576 5.740188e-006 0.77143139 -0.053844552
5520800000 -0.7219367 0.3843683 0.00013369942 -3.3452063e-005 -3.3613745e-005 3.4189965e-005 0.75388962 -0.22839117
5528287500 -0.6087814 0.53623044 -8.2055332e-005 -6.609402e-005 0.00014086359 5.8787489e-005 0.6909532 -0.4010199
5535775000 -0.47329536 0.65164375 -0.0001106002 3.9082614e-005 -0.0001188346 -0.00032884066 0.5833832 -0.55470186
5543262500 -0.32430199 0.73250103 5.35135e-005 -0.00052262971 -5.0694576e-005 7.2717834e-005 0.43605649 -0.6735996
5550750000 -0.16580221 0.78202581 0.00031880126 0.00037060064 6.7229681e-005 -0.00036956478 0.26525775 -0.74820369
5558237500 -0.003238068 0.80024874 -0.00029372339 -5.7435689e-005 0.00015570963 -0.00028828174 0.088170879 -0.77616674
5565725000 0.16132917 0.78608102 -6.8925408e-005 0.00023772425 -0.00018805655 7.9984769e-005 -0.083765738 -0.7605145
5573212500 0.32120228 0.73868042 9.4870724e-005 -6.5830616e-005 5.6054872e-005 -0.00031697575 -0.24193245 -0.7108736
5580700000 0.47024816 0.65638876 -9.7536744e-005 -2.3329427e-005 0.00018220817 -2.040837e-005 -0.38222352 -0.63161463
5588187500 0.60089505 0.54036772 7.8806566e-005 5.9086975e-005 2.8162904e-005 8.629592e-005 -0.50252622 -0.52820706
5595675000 0.70235497 0.3946701 0.00042169678 6.6395754e-005 -0.00039589714 9.1419359e-005 -0.60089159 -0.40436113
5603162500 0.76955336 0.2267984 8.3199942e-005 -0.00026942763 0.00023781155 0.00044637176 -0.67416209 -0.26126343
5610650000 0.79484302 0.045785118 -7.0897717e-005 5.7203164e-005 -0.00026568456 5.8455247e-005 -0.71709764 -0.10242666
5618137500 0.77734846 -0.13827874 0.00010715008 -2.6725831e-005 -6.9423244e-005 0.0002477165 -0.72411013 0.066438578
5625625000 0.71630692 -0.31411713 0.00017689 2.2086759e-005 -9.9070981e-005 0.00020014457 -0.69225478 0.23754929
5633112500 0.61436975 -0.47135943 3.90159e-005 -0.00030258944 0.00033882543 -0.00022917894 -0.61974376 0.39965162
5640600000 0.4780995 -0.60051811 0.00018141622 0.00030127016 2.7033637e-005 -0.00019828018 -0.50748593 0.54217905
5648087500 0.31516242 -0.69218743 0.00026565106 -0.0001612562 -0.00022969201 7.5466842e-006 -0.36380687 0.65512943
5655575000 0.13588114 -0.74381548 8.0138107e-006 -5.6017521e-005 0.00013302705 4.5904024e-005 -0.194906 0.72971332
5663062500 -0.047598407 -0.75121713 -0.0002867126 0.00011426629 0.00019689217 0.00035067156 -0.012023139 0.76155573
5670550000 -0.22489965 -0.7181946 -5.5895821e-006 -0.00028037722 -2.7193846e-005 -4.0095434e-005 0.17214824 0.74630255
5678037500 -0.39073855 -0.64774889 -6.3232816e-005 -4.8444534e-005 0.00041046567 -0.0002816281 0.34761035 0.68944985
5685525000 -0.53639066 -0.54330516 0.00018352327 9.7922464e-005 0.00018862098 -6.1007162e-005 0.50101292 0.59033352
5693012500 -0.65612787 -0.40980563 9.2171191e-005 0.00011851612 0.00025674517 0.00020518553 0.62572706 0.46078905
5700500000 -0.74484438 -0.25215414 0.00043845721 0.00028513823 -0.0003408643 -0.00010407801 0.71575028 0.30682755
5707987500 -0.79709661 -0.075493395 0.0001671685 -9.783524e-005 1.4987008e-005 -0.00040135998 0.76628822 0.1392324
5715475000 -0.80612785 0.1123061 -0.00014030783 0.0002630555 -0.00062564306 0.00017300957 0.77785116 -0.033444762
5722962500 -0.76885504 0.2978982 -2.838673e-005 -0.00013903782 -0.00013498758 0.00033485965 0.75186688 -0.2030929
5730450000 -0.68569404 0.46924907 6.2235199e-007 0.0001211248 0.00010682386 3.4795354e-005 0.68923587 -0.36194587
5737937500 -0.56383264 0.61207354 0.00014659177 8.9551693e-005 0.00010885126 0.00010799764 0.59207052 -0.50360805
5745425000 -0.41158763 0.72020787 0.0001924423 -2.9455938e-005 5.7330966e-005 -0.00014925256 0.46514347 -0.61949682
5752912500 -0.24243815 0.78793836 5.0232116e-005 0.00013153706 0.00017016057 3.5694564e-005 0.31488165 -0.70420104
5760400000 -0.067598112 0.81611317 -0.00039596841 0.00053147192 0.00037863874 0.00014080494 0.14809205 -0.74990553
5767887500 0.10848266 0.80545503 -0.00021987065 7.153245e-005 5.7945712e-005 0.00010858541 -0.02357443 -0.75609839
5775375000 0.27587312 0.75773335 0.00016453807 -7.0719296e-005 0.00027086705 -0.00039244216 -0.18947431 -0.72294003
5782862500 0.43144643 0.67661697 6.7499648e-005 -6.6945839e-005 0.00048041367 8.3902924e-005 -0.34147251 -0.65507209
5790350000 0.56812167 0.56085116 -0.0001858879 -5.0068349e-005 -0.00013149853 0.00015872922 -0.47531891 -0.55727249
5797837500 0.67657918 0.41459057 -0.00013223974 0.00018836325 -8.9196517e-005 -0.00016759016 -0.58430862 -0.43495768
5805325000 0.74910849 0.24362712 0.00015591367 0.00026895027 0.00010692283 -3.8278351e-005 -0.66767019 -0.29165083
5812812500 0.77758312 0.058324076 1.3479974e-005 0.00015099603 -0.00018438054 5.3452837e-005 -0.72042251 -0.13126843
5820300000 0.76068795 -0.12764342 -5.6223589e-006 -0.00011879431 0.0002388992 -0.00024071879 -0.73839754 0.042096391
5827787500 0.69871461 -0.30210036 2.4879149e-005 -0.00046872449 -0.00043175768 -0.00019793381 -0.71434081 0.22082864
5835275000 0.60094726 -0.45376775 0.00039346924 -0.00012799984 -4.422251e-005 0.00055658363 -0.64396489 0.39347205
5842762500 0.47433671 -0.57781005 -2.0435691e-005 -6.4965156e-005 -0.00010359824 -3.8657236e-005 -0.53029329 0.5438571
5850250000 0.32604784 -0.67225683 0.00017916375 3.6668116e-005 -2.9635246e-005 0.00016781397 -0.38073835 0.65854728
5857737500 0.16248657 -0.73338354 8.1618586e-005 0.00020276081 7.115765e-005 -0.00021926715 -0.20968755 0.72832346
5865225000 -0.012642849 -0.75951988 0.00016615166 -0.00013400865 0.0001174422 2.0714588e-006 -0.032166835 0.75410354
5872712500 -0.19436264 -0.7458086 -3.1157593e-005 0.00057128264 0.00016253589 -0.0001368018 0.13914363 0.73833275
5880200000 -0.3705 -0.68958157 0.00029817384 -9.0611029e-005 0.00027097602 1.9796546e-005 0.29839501 0.68777055
5887687500 -0.53081417 -0.58906984 -0.00016748729 4.5010205e-005 8.4339113e-008 -0.00012988521 0.44088745 0.60885257
5895175000 -0.66103864 -0.4503223 0.00025687271 -0.00029151226 0.00012199665 0.00035951543 0.56597298 0.50346553
5902662500 -0.74922287 -0.28495005 -7.1866314e-005 5.9796177e-005 4.8045295e-005 0.00014764757 0.66977489 0.37361506
5910150000 -0.79210597 -0.10648278 0.00020995441 0.00018030488 0.00033963946 -0.00014329958 0.74602604 0.21873239
5917637500 -0.79148865 0.068577275 0.00013432124 -0.00012005568 -3.4350349e-005 -0.00014236088 0.78548443 0.043804381
5925125000 -0.75435722 0.23398577 -0.00028515881 4.7511505e-005 0.0002484429 6.8501642e-005 0.78014821 -0.14159252
5932612500 -0.68869978 0.38523164 0.00040766405 5.1535069e-005 8.6836255e-005 0.00027887404 0.72283608 -0.32160297
5940100000 -0.59524518 0.51988947 -0.00022201531 -6.5188928e-005 0.00015593269 0.00017631562 0.62119776 -0.48009476
5947587500 -0.47745934 0.63707167 7.0734804e-006 -5.9404614e-005 -2.8532499e-005 7.4832002e-005 0.48392826 -0.60229391
5955075000 -0.33287588 0.73201144 -0.00030470136 0.00022371256 0.00015374471 -0.00024542317 0.32629365 -0.68271589
5962562500 -0.16330302 0.79678828 0.00034387864 0.000204663 -0.00010198804 -0.00012927248 0.16217032 -0.72381032
5970050000 0.028065778 0.81854767 -4.2036387e-005 0.00013196097 -3.0629235e-005 -0.00036747244 5.7780246e-005 -0.72897458
5977537500 0.22587742 0.78890115 0.00012685188 5.54503e-006 0.00013742001 7.2935902e-005 -0.15656997 -0.70277631
5985025000 0.41118634 0.7027486 2.9999695e-005 8.038176e-005 1.5284342e-005 -7.3674324e-005 -0.3047922 -0.64888215
5992512500 0.56316358 0.56905168 -0.00013579425 -3.8287068e-005 -0.00029218604 -3.7160517e-006 -0.44128066 -0.56613934
6000000000 0.66918558 0.40312004 3.0596368e-006 6.8033216e-005 0.00017642535 8.2572617e-005 -0.56200641 -0.45538214
