!Keysight Technologies,N5245B,MY52501319,Z.13.01.242
!Date: Monday, February 16, 2026 14:44:21
!Correction: S11(Off) 
!S21(Off) 
!S12(Off) 
!S22(Off) 
!S2P File: Measurements: S11, S21, S12, S22:
# Hz S  RI   R 50
10000000 0.83370608 -0.45638141 0.00034712875 -0.0006970049 -0.0029977986 0.0039407169 -0.041796263 0.032501038
17487500 0.72451514 -0.56511337 -0.00035697204 -0.00012906959 0.00040704882 3.1118343e-005 -0.025928074 0.029043229
24975000 0.60878998 -0.69741428 0.0010046117 -0.0010275288 -0.0019187618 0.00033894752 -0.020343099 0.024235763
32462500 0.45555422 -0.81059366 -0.00086020236 -0.00014366645 8.6528569e-005 0.00048224395 -0.015356475 0.019511666
39950000 0.27611765 -0.89822155 6.661885e-005 -0.00018394779 -0.00033046652 9.750246e-005 -0.013349295 0.014931339
47437500 0.072560959 -0.94778913 0.00020320345 -0.00061374455 0.00061301695 4.5233846e-005 -0.012889065 0.012941576
54925000 -0.14707696 -0.94767576 -0.0017049264 0.00056620507 0.00010097608 -0.00038566659 -0.012205157 0.0098380977
62412500 -0.36345926 -0.90345979 9.7121847e-005 3.9442984e-006 0.00048740016 -0.00085115957 -0.01253855 0.0072509148
69900000 -0.56726003 -0.80802643 -3.7381342e-005 -0.00095325243 -0.001227323 -0.00085867953 -0.013079974 0.0064395731
77387500 -0.74224985 -0.65776861 5.6247922e-005 5.3569733e-005 -0.00037309722 0.00022418029 -0.015119771 0.0049732141
84875000 -0.87288284 -0.46776879 0.0011673002 7.2472416e-005 0.00075598824 -0.0002415966 -0.015935425 0.0047621289
92362500 -0.95124394 -0.25881493 0.00016765918 0.00035208772 -0.00021821214 0.00058629469 -0.016579788 0.0037448793
99850000 -0.97831571 -0.043141268 0.00016308797 0.0003653311 5.7470923e-005 0.00012419572 -0.018707937 0.0050582387
107337500 -0.95552492 0.16492353 -0.00014261852 0.00051472976 0.00072149088 -8.4418651e-005 -0.019249074 0.0068422272
114825000 -0.89490265 0.36038119 -0.00055877655 -0.0002821252 -0.00044635957 -4.7993941e-005 -0.021007665 0.0073698456
122312500 -0.79896772 0.53870475 -0.00021509035 -0.00012768881 0.00012421183 0.00017415721 -0.020389169 0.0083284918
129800000 -0.66785419 0.69886363 -0.00021068088 -5.6858036e-005 0.00047128327 0.00072335603 -0.020549418 0.010516461
137287500 -0.50596076 0.82831913 0.00016254606 -0.00018976412 0.00024043953 -7.0300361e-005 -0.019971875 0.012289666
144775000 -0.31307915 0.91905683 -0.00020814259 -0.00046358223 -0.00013108345 0.00019267511 -0.018796954 0.012497151
152262500 -0.097606577 0.96994048 -0.00049175601 0.00053867098 0.00016295735 0.00045510556 -0.018230053 0.01548529
159750000 0.12519228 0.96676248 6.587994e-005 -0.00055000471 0.0010262834 0.00011741865 -0.016438367 0.015842754
167237500 0.34525988 0.90920496 -4.8522168e-005 0.00076211954 0.00052307936 1.5401958e-005 -0.014685214 0.017061215
174725000 0.54397184 0.79828095 -0.00026716758 -5.9509024e-005 0.00018288546 0.00011253552 -0.012986882 0.017369557
182212500 0.70913386 0.64679581 -0.00027951589 -0.00040247731 -0.00046748549 -7.1796247e-005 -0.011464992 0.016443685
189700000 0.83233625 0.46029413 -0.00013139402 -0.000124264 -0.00024347134 0.00047820562 -0.0085935025 0.015997898
197187500 0.91157889 0.25615343 0.00066706043 -7.1764422e-005 5.8812453e-005 8.9888796e-005 -0.0074978266 0.015037518
204675000 0.94630396 0.041732203 -0.00033700699 -0.00068942015 -9.656289e-006 -9.2191629e-005 -0.0056584547 0.014053323
212162500 0.92801833 -0.1765276 0.00012201169 0.0002056068 -0.00066641974 -0.00044470755 -0.0059064659 0.010674397
219650000 0.8658728 -0.38478824 0.00038457455 0.00059096381 8.9968278e-005 -0.00033927325 -0.0030163752 0.009508526
227137500 0.75571847 -0.57381558 -0.00068059843 -0.00031039503 -5.7962147e-006 -0.00045782485 -0.0035059105 0.0077182525
234625000 0.6041432 -0.73525828 0.0002364972 -0.001137789 3.5541772e-005 0.00047514163 -0.0029382643 0.0061414335
242112500 0.41932157 -0.86123937 -0.00051913242 -0.00093096244 -0.00014148408 0.00020628775 -0.0039178203 0.0029195396
249600000 0.21131073 -0.93828994 1.5716274e-005 -8.3857325e-005 0.00066327921 0.00027337056 -0.0050500007 0.0011894726
257087500 -0.011839642 -0.96146405 -0.00018780712 5.8804017e-005 0.00099561631 -0.0004519358 -0.0065212701 -0.00033210489
264575000 -0.23120943 -0.93556088 -0.00056377827 0.00010646194 -0.00013536913 7.4628424e-006 -0.0096719721 -0.0020079697
272062500 -0.43341312 -0.85845143 0.00018946646 0.0010579919 -2.8012975e-005 0.00035903568 -0.011417799 -0.0029203733
279550000 -0.61515492 -0.73877394 0.00023270422 0.00081529317 -0.00027722612 2.8972321e-005 -0.01404397 -0.0036384745
287037500 -0.76187027 -0.5834015 0.0010146946 -0.00052935723 -7.8051817e-005 -0.00032044493 -0.017496027 -0.0036696193
294525000 -0.8707487 -0.40070185 0.00016495535 -0.00012288564 -0.00032561636 0.00092117448 -0.018867575 -0.0017772355
302012500 -0.93367553 -0.20277917 0.00030776105 0.00033869463 0.00050698512 0.00018170994 -0.020784236 -0.0012812964
309500000 -0.95471507 0.0029757046 0.00036968206 0.00044847972 9.8028635e-005 0.00037921194 -0.023485662 0.00016197895
316987500 -0.93149811 0.21027228 -0.00010053372 0.00042301946 -0.00068931718 0.00075338251 -0.024689501 0.0028480338
324475000 -0.86139965 0.40354615 -0.00032958828 -0.00047456301 -0.0001476225 0.00010116852 -0.025864711 0.0046976828
331962500 -0.7544052 0.58104336 -4.2717078e-005 8.2854502e-005 -0.00037411958 -0.00013260316 -0.02725591 0.0072375657
339450000 -0.61000705 0.73050767 2.0635731e-005 0.00032390715 -0.00053515885 -0.00015144197 -0.026810937 0.0099616665
346937500 -0.43632445 0.84722263 0.00011692593 8.6132735e-005 0.00043178731 0.00078988023 -0.02643563 0.012146671
354425000 -0.23759398 0.92532241 0.00014745184 -0.00034853647 0.00052330544 -0.00049548817 -0.025257196 0.014425294
361912500 -0.024147006 0.95776701 2.7768741e-005 -4.5430115e-005 0.00047439954 0.00039049282 -0.024642667 0.016494811
369400000 0.19705458 0.93911695 0.00034079864 -0.00020155047 -0.00064520672 -0.00067255273 -0.022443775 0.018133825
376887500 0.41015327 0.86851162 0.00025544269 0.0003488212 5.7535406e-005 -2.9640958e-006 -0.020318566 0.020143691
384375000 0.60343063 0.74811405 2.7969727e-005 -0.00019886781 -0.00011807583 -0.00034531869 -0.017999399 0.020273807
391862500 0.76260161 0.58274037 -0.00018537325 5.3291045e-005 -0.00083768967 -0.00023143673 -0.015511766 0.020739056
399350000 0.87648451 0.38601089 0.00021019376 -0.00026594839 -0.00010453549 -9.8964119e-006 -0.012714357 0.020276148
406837500 0.93706501 0.16639659 -0.00048066516 -0.00033359069 -0.00065485871 0.00021427208 -0.01037096 0.019609585
414325000 0.94464105 -0.057372533 -0.00062771293 -0.00053623813 0.00037669027 -0.00037831362 -0.0084427511 0.01846076
421812500 0.90158772 -0.271088 -0.00047701228 0.00049559731 0.00014090058 -0.00010008392 -0.0066739228 0.015593953
429300000 0.81173873 -0.46684486 6.5612701e-005 0.00082210754 0.00022374453 0.00059616182 -0.0054186606 0.013941349
436787500 0.68329442 -0.63717508 -6.9532376e-005 -0.00011328798 -0.00038172182 -0.00043999296 -0.0047881687 0.012205957
444275000 0.52511889 -0.77459943 0.00015670946 5.1850326e-005 6.0471917e-005 2.7632901e-005 -0.0048970762 0.0087165358
451762500 0.34027237 -0.87506557 -0.00037841228 -0.00024762345 0.00028225422 0.00054067723 -0.0048722452 0.006231619
459250000 0.13542467 -0.93231702 2.7175698e-005 4.1978332e-005 -0.00013782967 -3.8603379e-005 -0.005285372 0.003762075
466737500 -0.078302719 -0.94283253 -0.0003508837 7.1829752e-005 -0.00020011065 0.0004816993 -0.0073150392 0.0021817873
474225000 -0.29085827 -0.9041273 -0.00062798063 -9.913231e-005 0.00029473598 0.00011957304 -0.0090010921 -0.00050535199
481712500 -0.48812762 -0.81845504 0.00022938465 -0.00016072985 0.00052258826 0.00047895979 -0.011309485 -0.0016025463
489200000 -0.66185093 -0.68829215 0.00043539377 -0.00017593741 2.8937699e-005 -4.2873555e-005 -0.013753368 -0.0021641676
496687500 -0.79732054 -0.5227319 -0.00045829787 -0.00038744573 -0.00099840888 0.00038651039 -0.016461981 -0.0027692751
504175000 -0.89472896 -0.33458346 4.2312178e-005 -0.00022970192 7.5773583e-005 -0.00026440807 -0.019416509 -0.0024753555
511662500 -0.94227248 -0.13124849 0.00014867957 -0.00051890645 7.5949785e-005 3.5084729e-005 -0.021452956 -0.0016983348
519150000 -0.94619769 0.075235754 -3.8900733e-005 -0.00029161395 2.2507076e-005 0.00068683759 -0.023722472 -0.0010171389
526637500 -0.90600407 0.27777559 0.00029511139 0.00073588995 -0.00033604924 0.00042445221 -0.026163578 0.0011263805
534125000 -0.82323408 0.46631321 0.00034221119 0.00022755688 7.1268099e-005 0.00016304074 -0.027172493 0.0033384615
541612500 -0.70181322 0.63648951 -0.00034920409 0.00015048539 0.00042439031 -0.00034272744 -0.028176818 0.0050830878
549100000 -0.54446095 0.77966332 -0.00048661372 -0.00080275786 -0.00016698134 0.0005272791 -0.028301241 0.007370566
556587500 -0.35490012 0.88450289 0.0001032357 1.0928961e-005 0.00030193682 -9.2790207e-005 -0.028293839 0.0099510839
564075000 -0.14288653 0.94460613 -0.00023270208 -0.00018073588 -0.00021853991 -0.00045668861 -0.027599357 0.012345494
571562500 0.080439627 0.95038348 0.00034040533 -0.00048943079 7.0979499e-005 -0.00035093116 -0.026714114 0.014399251
579050000 0.29822275 0.90252477 0.00010146018 -0.00063432119 0.00054914033 -0.00016945743 -0.024778057 0.015599188
586537500 0.49696007 0.80459052 -0.00045155629 -0.00055659853 6.7000787e-005 0.00044541701 -0.022863287 0.016941689
594025000 0.6666522 0.66659802 0.00026060906 0.00060628116 -0.00026905807 0.00056870829 -0.020180354 0.017682925
601512500 0.79687226 0.49495843 8.9081354e-005 -0.00030923198 -0.00013870385 0.00015365469 -0.017511405 0.018055862
609000000 0.88744861 0.29996109 -0.00030076999 -0.00015969212 -9.52255e-005 -0.00077620911 -0.014785055 0.017534675
616487500 0.93203574 0.090997539 -0.00042607138 0.0001257746 0.00030955664 8.2420964e-005 -0.012824924 0.016579483
623975000 0.93190402 -0.12259977 0.00017906442 0.00012911326 -7.2385847e-005 -0.0005774548 -0.010934045 0.015001998
631462500 0.87488306 -0.35044453 0.00017100376 3.8915128e-005 -0.00022137094 -8.6723667e-005 -0.0091577293 0.012881064
638950000 0.77421319 -0.5433839 0.00053124828 -3.1357602e-005 -9.2562252e-005 0.00015872576 -0.007767491 0.010591321
646437500 0.6297673 -0.70726514 3.5844238e-005 0.00011271948 -0.00043833489 0.00039747966 -0.0070285257 0.0077210804
653925000 0.45076513 -0.83292705 3.0938772e-005 7.8043922e-005 0.00012458314 0.00028358604 -0.0071684872 0.0055616912
661412500 0.24775194 -0.912404 0.00017365375 0.00048945053 4.1058778e-005 -0.00016555563 -0.0069770007 0.0022357397
668900000 0.036113508 -0.9414314 3.9588642e-005 -3.9764698e-005 -0.00018110013 0.00061147043 -0.008655305 0.00023132349
676387500 -0.1732886 -0.92024213 0.00020385641 -0.00011046552 0.00011604025 -0.00053563213 -0.0099156443 -0.0021474413
683875000 -0.36875698 -0.8552447 -0.00017483295 -7.8665165e-005 0.00015837225 9.9618104e-005 -0.011667478 -0.003717086
691362500 -0.54269069 -0.75342202 0.00026341624 -4.7440382e-005 -0.00018838877 -0.00014665196 -0.01381543 -0.0059727319
698850000 -0.69040984 -0.61912227 -3.5628404e-005 -9.7627773e-005 0.0003139438 6.4080719e-005 -0.016638488 -0.0062834858
706337500 -0.80824864 -0.45710444 8.5959306e-005 -0.00026650916 0.00025986243 0.00020892351 -0.01906025 -0.0067774951
713825000 -0.8911494 -0.27361888 0.00012563351 0.00021170215 -5.5248904e-005 -0.00017837033 -0.022219699 -0.0063595502
721312500 -0.93490458 -0.072230481 -0.00027351402 -7.653256e-005 5.1739687e-005 0.00030274896 -0.02402615 -0.0060573155
728800000 -0.93424249 0.13753785 -7.0800554e-005 0.00028605244 -0.0003561576 -0.00033433008 -0.026617782 -0.004448771
736287500 -0.88289213 0.34760264 0.00042610182 0.00023555259 1.976462e-006 0.00011858606 -0.028651057 -0.0031831213
743775000 -0.78153771 0.54256892 0.00042589859 -4.2938045e-005 3.3978129e-005 0.00039034034 -0.029662665 -0.00087081903
751262500 -0.63333678 0.70888054 -0.00035620917 3.9404076e-005 -0.00015039089 9.3791359e-006 -0.030701196 0.0013731582
758750000 -0.44966337 0.8345741 0.00010152085 -4.8745125e-005 -1.647395e-005 -0.00014008798 -0.031144261 0.0041740346
766237500 -0.24183431 0.91048497 5.1836167e-005 -0.00017337193 0.00013322804 -6.1245853e-005 -0.030045297 0.0064858487
773725000 -0.024042452 0.93467599 0.00037164634 6.10918e-005 -0.00054873736 0.00025452508 -0.029318966 0.0088757044
781212500 0.19015448 0.91008443 -0.00028610474 0.00023273613 0.00020257337 -0.00029747703 -0.027922153 0.010843739
788700000 0.3893953 0.83741373 -0.0001391051 4.2775675e-005 0.00010384698 0.00022168475 -0.025581982 0.012994685
796187500 0.56795126 0.72406489 2.7297427e-005 0.00014513034 0.00022588274 -2.6316407e-005 -0.023952225 0.013871494
803675000 0.71701908 0.57611781 0.00011959676 -4.9575392e-005 -0.0002961217 3.2934789e-005 -0.02103444 0.014613393
811162500 0.83086747 0.39991337 -0.00011636925 7.3007628e-005 -0.0003171904 6.3795424e-006 -0.017951358 0.014387815
818650000 0.9025054 0.19981772 -0.0001306612 0.00014578892 -0.00045511179 -0.00024149661 -0.015174029 0.013853427
826137500 0.92793286 -0.012560667 4.9251008e-005 -0.00030698421 -0.00012931196 0.00021060363 -0.012781071 0.012916341
833625000 0.90438288 -0.22699168 0.00017022309 5.37614e-005 -8.5409018e-005 0.00020664226 -0.01023149 0.011096091
841112500 0.83085316 -0.43291581 -0.00016281904 7.9932588e-006 4.6812129e-005 0.00017215607 -0.0082458211 0.0090253493
848600000 0.70960438 -0.61527771 -5.5386143e-005 -0.00014787921 -0.00039845123 -6.1563544e-005 -0.0067364681 0.0061244504
856087500 0.54842609 -0.76298547 -2.7131777e-005 0.00057051575 -1.6620766e-005 -5.9730319e-005 -0.0050749765 0.0034484093
863575000 0.35595143 -0.86696839 0.0004206264 7.5281168e-005 3.5533274e-006 -0.00013461664 -0.0050330092 0.00063767837
871062500 0.14871877 -0.92073643 0.00015844405 0.00045930373 0.00047666908 6.3332095e-006 -0.0051378352 -0.0027682267
878550000 -0.06326922 -0.9263286 0.0002921088 -3.0291536e-005 -4.8172522e-005 9.5517316e-006 -0.0057296166 -0.0054693026
886037500 -0.26625052 -0.88286573 -7.3562704e-005 4.6513764e-005 -0.00018728663 0.00014553494 -0.0069331527 -0.008474756
893525000 -0.45055008 -0.79879284 6.3551852e-005 0.00019051356 -0.0002333765 -4.2876451e-005 -0.0091153653 -0.01052556
901012500 -0.60973328 -0.67792535 3.9109207e-005 6.9073205e-005 0.00029026039 -0.00011182142 -0.010899918 -0.0124395
908500000 -0.73966265 -0.52913094 0.00012279616 -0.00012093602 -8.0924183e-005 -0.00015086475 -0.013497317 -0.013784168
915987500 -0.83652347 -0.3560549 -0.00021543872 -0.00014555927 3.0356034e-005 -0.0002794434 -0.016436396 -0.0146121
923475000 -0.89685655 -0.16714929 -0.00012389623 -1.7038508e-005 1.4013953e-006 0.0001634934 -0.019140821 -0.014758672
930962500 -0.91431612 0.031896889 0.00021408962 0.00038607628 0.00012382689 -0.00011193843 -0.021298034 -0.01423079
938450000 -0.89034265 0.23457333 -1.4001711e-005 0.00013062934 -0.00014411465 -7.8517463e-005 -0.023650682 -0.013101428
945937500 -0.82071257 0.43221524 -4.7338996e-005 0.00013395713 9.2790229e-005 0.00028197528 -0.026161667 -0.0114122
953425000 -0.70370632 0.61255503 -6.1888932e-005 7.8731406e-005 -3.3313499e-005 -1.6089994e-005 -0.027308535 -0.0099369399
960912500 -0.54352772 0.76387721 -0.0001240548 -0.00012950134 -0.000125381 3.7182617e-005 -0.028800171 -0.0075589172
968400000 -0.34952632 0.86991978 0.00011234958 9.6893848e-005 0.00022262141 -0.00018721972 -0.029419001 -0.005060147
975887500 -0.13617381 0.92414784 9.2751325e-006 0.00015864597 2.926118e-006 -3.2979187e-005 -0.029523216 -0.0027885523
983375000 0.082150407 0.92514116 -9.8394412e-005 9.2714865e-005 -0.00015753735 5.0179784e-005 -0.028782783 2.5254549e-005
990862500 0.28944498 0.87539649 0.00022704816 8.0905113e-005 0.00013893421 -0.00014719827 -0.027025498 0.0024323384
998350000 0.47746816 0.78157192 5.7590103e-005 7.5124066e-005 -0.000187884 0.00019850006 -0.025635278 0.0044355118
1005837500 0.62543076 0.66681039 -0.00029397744 9.8487562e-006 -8.0461388e-005 -8.7108368e-005 -0.023193572 0.0062738024
1013325000 0.7588799 0.51304525 -0.00025601147 0.00019873318 -1.8486431e-005 -0.00035409335 -0.020524463 0.0076135602
1020812500 0.85793036 0.33378997 0.00011365709 -0.00028612462 9.4815026e-005 -0.00021206267 -0.017182799 0.0079121264
1028300000 0.91727525 0.13496363 -5.8461344e-005 -0.00010910167 -5.123677e-005 -0.00036379736 -0.01426048 0.0079282392
1035787500 0.93215173 -0.077184439 -6.6112101e-005 -7.0184826e-005 -0.00026081013 -0.00022186348 -0.0123416 0.0069232532
1043275000 0.89654982 -0.29204932 -0.00024731475 0.00010984103 0.00029176305 5.4109882e-005 -0.0094067603 0.0050476347
1050762500 0.80728972 -0.49534249 -0.00023207506 -1.6926557e-005 7.4405934e-006 3.8727117e-005 -0.0075791939 0.0030341523
1058250000 0.67097449 -0.67434865 -0.00010944726 0.00019883181 8.1865619e-005 -0.00013944473 -0.0052970871 0.0011744348
1065737500 0.49182427 -0.81161022 8.1271282e-005 -2.4331775e-005 0.00010592437 -8.427084e-005 -0.0040367921 -0.00207658
1073225000 0.28797981 -0.89702958 -0.0001563432 5.2175519e-006 0.00012832052 3.6365462e-005 -0.0032340079 -0.0041525005
1080712500 0.075688548 -0.92824572 -0.00015388899 -0.00014436865 0.00013759026 -0.00016732846 -0.0032563279 -0.0072672376
1088200000 -0.13157977 -0.91015267 -0.00043262233 3.2388663e-005 0.00019562483 0.00023731339 -0.0035897689 -0.010143251
1095687500 -0.32202914 -0.8491509 -0.00015855303 -9.7772827e-005 0.00018445309 9.4825511e-005 -0.0046657478 -0.012714006
1103175000 -0.49361864 -0.75443065 3.1390169e-005 5.714448e-005 -3.3885866e-005 -0.0002060704 -0.0064941756 -0.01447953
1110662500 -0.64329368 -0.62896496 0.00020733263 9.5365649e-005 -4.9496808e-005 0.0001873671 -0.0081525464 -0.016947743
1118150000 -0.76526934 -0.47635657 2.0688021e-005 6.0350591e-005 9.224681e-005 9.9059391e-005 -0.010315367 -0.01794965
1125637500 -0.85592514 -0.29846695 6.3340347e-005 6.6792862e-005 0.00011801977 9.3879942e-005 -0.012613893 -0.018840278
1133125000 -0.90693259 -0.10020275 6.2754618e-005 0.00029741661 0.00026360751 0.00037487922 -0.015370567 -0.018617226
1140612500 -0.91134053 0.10849143 4.6312412e-005 0.0002998999 0.00049065636 -7.2559679e-008 -0.017356681 -0.018118192
1148100000 -0.86598742 0.31744993 -0.00016365244 -0.00018979842 2.3787909e-005 1.3163282e-005 -0.019534051 -0.016804546
1155587500 -0.76757598 0.51136428 0.00014408233 0.00019248688 5.050698e-005 0.00016939179 -0.02152225 -0.015573418
1163075000 -0.62358874 0.67460948 0.00013482341 -8.1395105e-005 -0.00042513484 0.00020830553 -0.022723546 -0.013671261
1170562500 -0.4471035 0.79467565 0.00017808746 -7.1546609e-005 0.00011340919 -7.1437753e-005 -0.02390358 -0.011654901
1178050000 -0.25287858 0.86874992 0.00035540777 7.2094983e-005 9.7922442e-005 -0.00011898354 -0.023829862 -0.0086537972
1185537500 -0.05166224 0.89775521 -2.2910348e-005 9.9779994e-005 9.8504795e-005 0.00018210012 -0.023821464 -0.006399319
1193025000 0.14750086 0.88512874 -9.2527909e-005 -0.00023404474 -0.00018855033 -2.7946064e-005 -0.023051826 -0.0036759207
1200512500 0.33834797 0.83366925 -5.5384985e-006 -0.00017245326 -8.5788881e-005 0.00021396963 -0.021648152 -0.0015648153
1208000000 0.51718968 0.73968101 -3.0228664e-005 0.00021539944 -0.00010025343 3.2923836e-005 -0.01973645 0.00057065504
1215487500 0.67454833 0.60910332 -6.5685381e-006 7.8150442e-005 -0.0002354951 -0.00016205433 -0.016945709 0.0015648192
1222975000 0.80160123 0.44284707 -0.00038345112 2.8379956e-005 -0.00028573052 -1.3501002e-005 -0.014267864 0.0027911097
1230462500 0.88810724 0.24588595 0.00027712603 6.8074543e-005 -0.00013887235 1.4895156e-005 -0.011968363 0.003609634
1237950000 0.92453235 0.030970126 -2.8493541e-005 0.00010855632 -3.2198975e-007 -0.00032729629 -0.0088627376 0.0035142198
1245437500 0.90402478 -0.18602756 -0.000260954 6.9410577e-005 0.00022213138 -0.00020818548 -0.0059030536 0.0026094059
1252925000 0.83063352 -0.38768134 7.7682766e-005 1.9506733e-005 7.6115552e-006 -0.00014331922 -0.0035090251 0.0014769164
1260412500 0.71354526 -0.5596981 0.00021617327 0.00034973837 3.0755615e-005 -0.00016750478 -0.0013494034 -0.00052228523
1267900000 0.56550211 -0.69615215 -0.00029710977 0.00022853019 7.1854716e-005 0.0001428969 0.00095117843 -0.0025963224
1275387500 0.39672121 -0.79613817 3.9674956e-005 1.185883e-005 0.00015155344 -0.00011655287 0.0021513989 -0.00484632
1282875000 0.21576177 -0.85874128 5.2037599e-006 -0.00015194131 -0.00016734962 3.5329111e-005 0.0031138104 -0.0076386807
1290362500 0.027222054 -0.88483739 0.00011977123 -1.7561279e-005 1.5865543e-006 2.9157829e-005 0.0031714088 -0.010683032
1297850000 -0.16517831 -0.87510967 -1.0272392e-005 0.00017544997 -8.4501116e-005 -8.8362678e-005 0.0031092677 -0.012918425
1305337500 -0.35642174 -0.82449454 0.00018359585 0.00017386413 -0.00010710037 4.8061058e-005 0.0026003532 -0.01553189
1312825000 -0.53841424 -0.73125231 0.00013591969 0.000140416 -4.3457621e-005 -0.00010403145 0.0006104451 -0.017894499
1320312500 -0.6987887 -0.59310442 5.5956752e-006 -9.208914e-006 -2.1131591e-005 -1.2147476e-005 -0.0010271656 -0.019692389
1327800000 -0.82364231 -0.41469067 0.00024214704 0.00021380803 -9.091894e-005 -2.1661821e-005 -0.0027795627 -0.020728756
1335287500 -0.89792919 -0.20886797 -0.00019215973 -0.00023145878 0.00024503662 -3.3100274e-005 -0.0057581305 -0.021782104
1342775000 -0.91675627 0.0099747004 0.00029318812 8.9065557e-005 0.00011809298 8.9759496e-006 -0.0083658174 -0.021739144
1350262500 -0.88165921 0.22156014 0.00024102729 3.9460458e-005 0.00021389143 -0.0003078173 -0.010654004 -0.021267233
1357750000 -0.79967165 0.4118841 -0.00013362801 -3.6389501e-006 -0.00011576412 0.00011513237 -0.012842244 -0.019931659
1365237500 -0.68177068 0.57416552 -0.00015235545 2.607336e-006 -3.7201382e-005 0.00013634033 -0.014697609 -0.018337389
1372725000 -0.53660017 0.70581901 -4.9839364e-005 3.8155453e-005 -8.69945e-005 8.0355931e-005 -0.016195487 -0.016335987
1380212500 -0.37013519 0.80545902 -0.00019020231 -8.8454355e-005 8.2887636e-005 -0.00023297136 -0.017247681 -0.013817075
1387700000 -0.18737423 0.86995673 -0.00017151624 -0.00023246459 -0.00012254824 6.6483371e-005 -0.017832184 -0.011423294
1395187500 0.0097453659 0.89851707 -0.0004060767 3.811167e-005 -9.2439608e-005 -0.00012347991 -0.017826952 -0.008480262
1402675000 0.21419121 0.88350689 3.2406624e-005 -9.7201715e-005 2.511504e-005 -3.3538872e-005 -0.016737914 -0.0060479636
1410162500 0.41702515 0.82018632 0.00025162491 -8.5601161e-005 -3.8416667e-005 -0.00017888368 -0.015651243 -0.0029731411
1417650000 0.6039747 0.70496619 -9.5617281e-005 0.00014809892 -0.00021338924 0.00043372551 -0.013967859 -0.00084476307
1425137500 0.75825596 0.54169524 0.00051356031 -0.0001104181 -5.9786973e-005 -0.00013982266 -0.011733502 0.00086687633
1432625000 0.86392152 0.34257483 -0.00023503244 -3.213172e-005 -0.00012345554 6.3489635e-005 -0.0093441876 0.0022566775
1440112500 0.91207755 0.12698188 0.00023404371 -5.2567098e-005 0.0001071163 7.8153236e-005 -0.0061727958 0.0033291862
1447600000 0.90338916 -0.0879227 -0.0001747896 -0.00022791851 -6.088079e-005 0.00021757235 -0.0033770101 0.0034427152
1455087500 0.84696651 -0.28548306 -9.0977946e-006 0.00021845617 0.00013517628 -6.7774713e-006 -0.00015807417 0.0034128737
1462575000 0.75277072 -0.45790574 0.00014825426 0.00014052645 -0.00012404911 0.00012781451 0.0024990076 0.0027287868
1470062500 0.63017875 -0.60281116 -6.4856598e-005 0.0004069428 0.0001087484 0.00012563614 0.005345983 0.0011007617
1477550000 0.4855994 -0.71892983 0.00012051483 -0.00035089886 -3.4948076e-005 -0.0001856192 0.0072205341 -0.00089364301
1485037500 0.32235962 -0.80630976 -4.7780344e-005 -0.00011755985 -6.4656444e-005 6.7197841e-005 0.0088046538 -0.0029235932
1492525000 0.14399493 -0.86373675 0.00020365368 0.000118426 -8.7571912e-005 0.00014588459 0.010193651 -0.0053775576
1500012500 -0.047403987 -0.88485146 5.9818427e-005 0.00026258273 -9.6291849e-005 -0.00020995086 0.010503597 -0.0082649607
1507500000 -0.24837038 -0.86257696 -0.00023104543 -0.00012168463 0.00045035075 -4.9498809e-005 0.010716538 -0.010869466
1514987500 -0.44473764 -0.79345 -0.00014039032 -5.6116762e-005 -0.00017625882 -6.4873318e-005 0.0097979745 -0.013264973
1522475000 -0.62385911 -0.67380309 4.1175394e-005 -0.00010182725 4.9574461e-005 -0.00011909082 0.0081308251 -0.0152721
1529962500 -0.76856154 -0.50821251 9.1053465e-005 -6.4419095e-005 -0.00012813768 -0.00014273415 0.0069611338 -0.017242396
1537450000 -0.86578465 -0.31100047 0.0002388396 -7.0771589e-006 -0.00025024204 -0.00015150066 0.0044909618 -0.018687868
1544937500 -0.90730703 -0.098635852 -0.00012697691 -0.00022978787 -0.00017652372 6.6246998e-006 0.0022997686 -0.019485179
1552425000 -0.89615321 0.1114468 -0.00024867905 0.00010542723 -8.750389e-005 -1.2299155e-005 -0.00045018242 -0.019543849
1559912500 -0.83848619 0.30499545 0.00027241747 -0.00019000312 -0.00011292414 1.3824027e-005 -0.0027353948 -0.019173773
1567400000 -0.74418765 0.47576964 3.7868052e-005 -2.3877201e-005 0.00018006169 3.584829e-005 -0.0055767447 -0.018123807
1574887500 -0.62058169 0.61965841 4.6189365e-005 -7.5323864e-005 -0.00014004701 -2.017654e-005 -0.0078237485 -0.016367888
1582375000 -0.47374982 0.73642069 0.00015522944 -0.00014934439 0.00025257797 -0.00013811188 -0.009611073 -0.014647293
1589862500 -0.30744573 0.82233483 8.9986876e-005 2.5147141e-005 8.8996261e-005 0.00019905518 -0.010583513 -0.011810577
1597350000 -0.12345961 0.87617064 0.00028958192 7.3789794e-005 -0.0001993778 -0.00023100912 -0.011732186 -0.0088716727
1604837500 0.073768385 0.89118022 -0.00021137709 -5.8324851e-005 0.00020831423 -3.2743781e-005 -0.011739272 -0.0056448374
1612325000 0.27659899 0.86118543 -6.725765e-005 -9.2748196e-005 0.00017293001 4.9268787e-005 -0.011385133 -0.0030450821
1619812500 0.47356465 0.77960783 -0.00030029396 -8.7349028e-005 2.2838038e-005 6.9063535e-005 -0.010159357 9.496868e-005
1627300000 0.64875108 0.6498282 -0.00010985718 -0.00010234778 0.00012638599 5.6801724e-005 -0.0084433444 0.0030292228
1634787500 0.7857365 0.47588304 -2.7595848e-005 9.9661724e-005 -2.8080587e-005 0.0002910021 -0.0061639296 0.0052509992
1642275000 0.87150759 0.27286741 -2.1059013e-005 7.0792041e-005 6.1392202e-005 0.00019105924 -0.0038753969 0.007103099
1649762500 0.90291369 0.059440393 0.00010959284 -0.00014519962 -0.00027185972 -0.00012982562 -0.00053115119 0.0083203688
1657250000 0.88211828 -0.15061675 -8.1182385e-005 0.00028381145 -0.00034914879 -0.00018308392 0.0020659019 0.0091666607
1664737500 0.81601679 -0.34402502 2.507584e-005 -0.00022423815 -9.9228135e-005 -0.00032237434 0.0055458415 0.0092631131
1672225000 0.71230805 -0.51376396 0.000112532 -6.3467696e-006 -0.00027878757 0.0001129094 0.0087252511 0.0085849306
1679712500 0.57772577 -0.65681571 -0.00022050773 -8.7610752e-006 -0.00042244417 -5.3556385e-005 0.011563641 0.0077286181
1687200000 0.41741422 -0.77017748 -2.5616524e-005 0.00039208296 -1.3318802e-006 -0.00028515005 0.014204793 0.0056720348
1694687500 0.23488332 -0.84930319 0.00023527094 0.00025835849 0.0001716228 0.00026608878 0.01596438 0.0038214484
1702175000 0.036052175 -0.88703763 -5.1938699e-005 1.5923084e-005 0.0001608669 0.00012628711 0.017516837 0.00078524213
1709662500 -0.17177865 -0.87764496 0.00015944161 0.00021584713 7.4298267e-005 6.4821208e-005 0.018312789 -0.0019275858
1717150000 -0.37425736 -0.81722653 0.00013189518 0.00013702815 0.00010276589 -1.5058517e-005 0.018677631 -0.0045437962
1724637500 -0.55628526 -0.70690805 -6.5339089e-005 3.5542067e-005 1.2014281e-005 -0.00010298414 0.018080229 -0.0076043839
1732125000 -0.70218211 -0.55674493 -0.0002343424 -9.0836227e-005 -0.00022646786 0.00025343825 0.016745649 -0.0098331552
1739612500 -0.80554575 -0.37866938 -7.9374237e-005 0.00051123585 7.3236464e-005 6.963583e-006 0.015410361 -0.012715912
1747100000 -0.86213571 -0.18804598 -1.2971253e-005 -0.00019855503 6.9805363e-005 0.00031164329 0.013126737 -0.014608534
1754587500 -0.87580812 0.0041017458 0.00043833663 6.0101869e-005 -0.0003341077 -0.00032833632 0.010737974 -0.015938573
1762075000 -0.85173404 0.19063939 -5.4410662e-005 0.00040371073 0.00018501494 -8.2569401e-005 0.0078834388 -0.016734431
1769562500 -0.79248607 0.36707988 0.00016775004 -0.00026202205 -1.5963324e-005 -0.00015613947 0.0048432839 -0.016972108
1777050000 -0.70010096 0.53051108 -0.00011351243 2.5094891e-005 -6.0718914e-005 0.00011608394 0.0016149631 -0.016431641
1784537500 -0.57407105 0.67584735 0.00019459651 0.00023580229 -6.3244479e-005 -0.00022765764 -0.0015334634 -0.015095828
1792025000 -0.41445675 0.79511213 0.00011878285 -0.00025768721 0.00023741442 0.00033525133 -0.0036101914 -0.013593134
1799512500 -0.22478366 0.87815034 -0.00028568035 -3.9167247e-005 -0.00010365402 0.00011352127 -0.0060211536 -0.011660344
1807000000 -0.014353813 0.91234308 0.00012791953 -2.5462243e-005 0.00031982237 0.00010793787 -0.007525743 -0.0085643427
1814487500 0.20378083 0.88994759 -2.2823773e-005 -0.00018915559 -6.7325885e-007 7.1716087e-005 -0.0089045875 -0.0056401663
1821975000 0.40735605 0.81071824 4.6378616e-005 -0.00026602027 0.00010384554 -3.5298122e-005 -0.009422509 -0.0021966284
1829462500 0.5796392 0.68395519 -2.3391149e-005 0.00021429136 8.6284104e-005 0.00014713431 -0.0094616609 0.00088701723
1836950000 0.71143419 0.52448082 7.97264e-005 0.00030370062 0.00012154666 -1.5199828e-005 -0.0086788936 0.0041430765
1844437500 0.80007297 0.34492087 2.3114992e-005 9.531278e-006 -2.8019931e-005 0.00015555232 -0.0073846397 0.0067811296
1851925000 0.84815061 0.15802652 -8.1287231e-005 0.00031906748 0.00012673443 5.8979025e-005 -0.0053355424 0.0095779318
1859412500 0.85930598 -0.030944996 6.6913977e-005 0.00026453772 0.00018879584 0.00028754762 -0.0033392911 0.011672444
1866900000 0.83555502 -0.22051288 -0.00023975268 0.00015310021 9.4570496e-005 -0.00023816329 -0.00031906477 0.013083406
1874387500 0.77432078 -0.40594208 0.0003697979 0.00035253671 4.0219467e-005 2.0685975e-006 0.002327298 0.013577847
1881875000 0.66870546 -0.58252245 -0.00032215044 1.8883851e-006 0.00013253116 0.00022686389 0.0053854887 0.013947818
1889362500 0.5196231 -0.73714262 0.00034628215 0.00032577437 3.4751724e-006 0.00015680327 0.00823736 0.013650322
1896850000 0.32722157 -0.85174102 -7.1825612e-005 -6.3723433e-005 -0.00018618669 -0.00020647155 0.010604793 0.012536377
1904337500 0.10551746 -0.9091571 -0.00012083926 1.2324383e-005 3.6480804e-005 -6.0844599e-005 0.012633784 0.011066549
1911825000 -0.12201748 -0.90295994 3.6312733e-005 -0.00038788407 8.4788087e-005 -3.0778559e-005 0.014548403 0.009039904
1919312500 -0.33146712 -0.83439934 -0.00035146187 -0.00011970956 -8.9613473e-005 0.00013662718 0.016201971 0.0064449473
1926800000 -0.50458878 -0.71966618 0.00016929084 0.00022192069 -0.0003466612 8.0473925e-005 0.017028954 0.0035751802
1934287500 -0.63624394 -0.57923895 -0.00021759544 -0.00021703824 5.5703087e-005 -0.00033650227 0.016430968 0.0014348975
1941775000 -0.73072541 -0.42433903 0.00022308706 -3.9356521e-005 0.00024763908 -3.7917994e-007 0.015851708 -0.0013321923
1949262500 -0.79348749 -0.26488283 -0.00028500592 -7.8126548e-005 0.00010737617 0.00015695607 0.014616352 -0.003932857
1956750000 -0.82806122 -0.10318375 0.00014552916 0.00012014716 -8.603648e-006 0.00012654011 0.012563653 -0.0063756653
1964237500 -0.83710271 0.064112656 -0.00012985167 0.00022694326 -0.00014783833 -3.3251548e-005 0.010418344 -0.0080176145
1971725000 -0.81965542 0.23471613 -2.4792254e-005 -0.00021678994 -0.00034398324 -3.6332058e-005 0.0075010718 -0.009162344
1979212500 -0.76906991 0.41169536 0.00027234672 -2.8505512e-005 -0.00015289962 0.00013682483 0.0046382486 -0.0098263882
1986700000 -0.6753602 0.58485705 -9.5022142e-006 1.8208892e-005 3.6286609e-005 -0.00012027702 0.0013139463 -0.010076079
1994187500 -0.53556931 0.74054307 -0.00013035059 0.00017325138 -0.00037522943 0.00034889756 -0.0016704096 -0.0092224237
2001675000 -0.34508204 0.86060017 -9.4636489e-005 -0.00035442293 9.5580144e-005 -0.0001728091 -0.0047095609 -0.0081574786
2009162500 -0.12055979 0.92351174 -4.4722921e-007 -4.4432072e-005 -4.89433e-005 0.00022551369 -0.0072450074 -0.0064217071
2016650000 0.11346985 0.91807061 -0.00020754483 -6.1310267e-005 -7.4037998e-005 -0.00057903177 -0.0094257444 -0.0038327149
2024137500 0.33042255 0.84810668 -4.4472395e-006 -9.738106e-005 0.00019258965 -0.00025756561 -0.011111555 -0.0012641924
2031625000 0.51375163 0.72726309 -0.00011230192 -0.00036709261 -1.9034325e-005 -3.6779405e-005 -0.012486832 0.0017664861
2039112500 0.65513957 0.57506907 -0.00032553126 1.1832018e-005 -0.00012790655 3.917611e-005 -0.01302311 0.0046729953
2046600000 0.753663 0.40427145 0.00010954534 1.5487229e-005 -9.967004e-005 0.00023825312 -0.013030495 0.0081942305
2054087500 0.81425911 0.22330895 -7.1503862e-005 -0.00026584079 -0.00016058706 -3.8804235e-005 -0.012654464 0.010936123
2061575000 0.83804041 0.037726786 0.00020113372 -0.00043074728 9.4505114e-005 -4.3255866e-005 -0.011422509 0.013813854
2069062500 0.82679075 -0.14894231 -2.4200337e-005 0.00042227691 0.00021269974 0.00025367719 -0.0093407976 0.01615959
2076550000 0.77585834 -0.33331189 -1.9000296e-005 2.8911749e-005 -0.00010674771 0.00026964801 -0.0069943299 0.01809236
2084037500 0.68584412 -0.50538403 0.00010790145 0.00027305962 -0.0003710764 9.9266334e-005 -0.0047624009 0.019442184
2091525000 0.55507576 -0.65538943 -0.00013679366 6.8747402e-005 -3.4335255e-005 -0.00031783045 -0.0021053986 0.020070765
2099012500 0.39106265 -0.77265424 0.00012120968 -3.4347617e-005 0.00013724327 -9.59881e-005 0.00086387084 0.019967064
2106500000 0.20220551 -0.84569126 0.00014128553 -0.0001272691 7.1581388e-005 -0.00010196197 0.0034232058 0.019634314
2113987500 0.0027598806 -0.87055004 -4.2960888e-005 4.3162538e-005 -0.00011676085 -0.00040334946 0.0056282212 0.018380316
2121475000 -0.19482559 -0.8486194 -9.1420901e-005 0.00017117307 -0.00030539875 0.0003493457 0.0077306358 0.01636482
2128962500 -0.37722194 -0.78298956 0.00030374195 -2.7956683e-005 6.7658999e-005 -1.9942516e-005 0.0091814147 0.014202243
2136450000 -0.53788465 -0.68060541 -0.00011088105 0.00010161218 -6.8287598e-005 0.0004349502 0.010354166 0.011759498
2143937500 -0.67287177 -0.54810709 -0.00010324234 -0.0001005235 -0.00013022298 -0.00023102024 0.010468138 0.0090828901
2151425000 -0.7764852 -0.39166468 -5.7872177e-005 9.2691975e-005 0.00016240738 9.2987328e-005 0.010353503 0.0058258479
2158912500 -0.84408444 -0.21583495 -5.7556063e-005 1.254143e-007 8.5936721e-005 0.00041814987 0.0094219893 0.003208939
2166400000 -0.87397462 -0.028442238 0.00033931618 5.500764e-006 0.0001130328 -6.9476257e-005 0.0076932446 0.00031562106
2173887500 -0.860533 0.16404642 -8.0763193e-006 1.7418331e-005 -0.00020213315 0.00021702345 0.0057829455 -0.0013226051
2181375000 -0.80590171 0.35044742 -5.2375261e-005 -0.00016400244 -0.00028148649 -6.6945337e-005 0.0027390718 -0.00346116
2188862500 -0.70739567 0.52061343 -0.00023392909 0.00023753339 0.00018347912 -7.106295e-006 0.00014524307 -0.0047679474
2196350000 -0.57218844 0.66573387 0.00025329861 -0.00034007037 7.7826626e-005 -0.00012220634 -0.0029985982 -0.0050708689
2203837500 -0.40598899 0.77813572 3.7721282e-005 6.3252424e-005 1.9290657e-005 0.00014362669 -0.0064989477 -0.005257817
2211325000 -0.21828663 0.84944296 4.3087894e-005 -0.00013545479 -1.2991083e-005 0.00011408089 -0.0099406717 -0.0042906478
2218812500 -0.01507687 0.87732565 9.3068353e-005 0.00024410167 -7.0018687e-005 1.3493226e-005 -0.013194614 -0.0029124806
2226300000 0.19072296 0.85695904 -3.4663321e-005 0.00030854516 -0.00046779416 -0.00019021776 -0.015611266 -0.0010469371
2233787500 0.38973963 0.78732497 -0.00028170113 0.00017616905 3.9860763e-005 -2.6117497e-005 -0.017757721 0.0013279316
2241275000 0.56912023 0.66939205 -0.00022714208 0.0002762478 -7.5519674e-005 -0.00012980004 -0.019477623 0.0037491487
2248762500 0.71406364 0.50976992 6.2250392e-006 -3.4004341e-005 8.5975618e-005 -4.5195917e-005 -0.02064722 0.0067542475
2256250000 0.81351405 0.31857121 -0.00011374782 -7.4201803e-006 0.00018562756 -4.3386361e-005 -0.021079525 0.0095371474
2263737500 0.86075413 0.11160983 -3.8696904e-005 0.00035448364 -0.00020301658 0.00024099661 -0.020586807 0.012470469
2271225000 0.853558 -0.096224964 -0.0001844634 -4.8856262e-005 -6.4310123e-005 5.333982e-005 -0.019559409 0.015496003
2278712500 0.80112398 -0.28981248 0.00010018165 -2.2054184e-005 -0.00031553974 -0.00019766868 -0.018408976 0.017838702
2286200000 0.70596975 -0.4593173 1.3894495e-005 6.3131603e-007 -3.6294561e-005 2.6978991e-005 -0.016393786 0.019977139
2293687500 0.58308601 -0.59974837 0.0001396978 -0.00016663724 0.00030733203 -0.00023380973 -0.014073586 0.022075538
2301175000 0.43873614 -0.70898432 -0.00021102084 -0.00025884289 5.2511619e-005 -0.00036530683 -0.011787644 0.022898782
2308662500 0.27944413 -0.78660125 0.00018578756 -1.8836845e-005 0.00016289705 0.00019748823 -0.0084287263 0.023137679
2316150000 0.10985954 -0.83197027 -0.0001292567 -4.104355e-005 5.456249e-005 -0.00015114527 -0.0063076308 0.022809215
2323637500 -0.066197917 -0.84457403 -0.00026254976 0.00018508795 -6.1055376e-005 4.2815198e-005 -0.0034097414 0.021828353
2331125000 -0.24428511 -0.82196075 -5.8027716e-005 -0.00022009478 -0.00014336192 5.6219342e-005 -0.0010415876 0.019456826
2338612500 -0.4190816 -0.76099098 -0.00011569633 -0.00025142843 -2.9946956e-005 0.00013300945 0.00075745763 0.017403809
2346100000 -0.58089703 -0.66108602 -0.0002238322 -0.00011730083 -9.4934592e-005 -0.00010828624 0.0021329049 0.015196542
2353587500 -0.71954006 -0.52543861 3.9344512e-005 0.00024933141 -0.0001821913 9.786673e-005 0.0028593254 0.011996364
2361075000 -0.82553977 -0.35555238 -1.8208898e-006 -7.7472287e-005 0.00033615675 0.00031985439 0.0024835358 0.0084786369
2368562500 -0.88912833 -0.16087791 0.00017047026 5.7238361e-005 1.5747039e-005 -9.6501666e-005 0.0021728426 0.0052786414
2376050000 -0.90384316 0.047131147 0.00033712026 0.00017835414 8.4232146e-005 -2.917713e-005 0.00089754071 0.00218789
2383537500 -0.86824125 0.25328332 9.72903e-005 -0.00027214168 -0.00017118105 0.00030868658 -0.0010952674 -0.00019058636
2391025000 -0.7808736 0.44612479 -3.4008819e-005 0.00012631186 -0.00018136673 0.0002026079 -0.003739289 -0.0026348387
2398512500 -0.64875787 0.61050367 2.4578403e-005 -0.00027213385 0.0002175156 0.00021182805 -0.0065085604 -0.0043399623
2406000000 -0.48101303 0.73819315 7.5250522e-005 0.00026529212 4.5167784e-005 -2.8543993e-005 -0.01025724 -0.0054614185
2413487500 -0.28999263 0.81944197 -2.2508262e-005 -0.0001467863 -1.5159254e-005 0.00016736409 -0.013311733 -0.0056813089
2420975000 -0.089065388 0.85193801 -1.2122379e-005 0.00012347962 -0.0001242338 -0.00018817362 -0.016843596 -0.0055718184
2428462500 0.11080657 0.83642906 -0.00015385653 -0.0001503696 -2.4254055e-005 -0.00014228567 -0.02012334 -0.0053228107
2435950000 0.29682541 0.78052878 0.00017843801 -0.00036321304 0.00024233434 -0.00035574325 -0.023157004 -0.0034581358
2443437500 0.46338302 0.68647456 -0.00064220128 -0.00033249182 1.1196504e-005 -8.2007238e-005 -0.025418965 -0.0015166857
2450925000 0.60537535 0.56261808 0.0001946038 -9.3731993e-005 -0.00021686233 9.9325582e-005 -0.027758267 0.00068378303
2458412500 0.71958369 0.41283694 -0.00010163501 7.8287638e-005 -3.3902936e-005 -1.2808694e-005 -0.029249867 0.0037486604
2465900000 0.80102307 0.24032468 -0.00012231081 0.00019629387 -5.7746445e-005 -0.00013238128 -0.030042831 0.006503033
2473387500 0.84559101 0.052420165 -0.00022414258 0.00012556674 -0.00045213563 0.00035392962 -0.029827019 0.0093236957
2480875000 0.84845388 -0.14638147 6.2665393e-005 -3.1429441e-005 -0.00036179784 7.5305739e-005 -0.029136648 0.012450287
2488362500 0.80309069 -0.34616074 -0.00033477569 -0.00018224448 0.00012962903 7.819161e-005 -0.028501825 0.01500724
2495850000 0.70702976 -0.53178996 0.00023210638 -0.00027858419 -6.0586302e-005 0.00031080077 -0.026570866 0.017939441
2503337500 0.56534332 -0.6874423 0.00017314043 0.00039283498 -0.00027092005 -0.00012933149 -0.02426788 0.019111997
2510825000 0.38969457 -0.80014801 -0.00040850337 -0.00035913568 5.8508816e-005 -4.1131561e-006 -0.021749189 0.02023997
2518312500 0.19646001 -0.86157548 -0.0003138399 -0.00010305098 -0.00018109591 0.00013685666 -0.019154778 0.021226853
2525800000 0.0019839723 -0.87539357 -0.00023435734 0.00029721772 2.9115858e-005 -9.4021867e-005 -0.016183181 0.020622602
2533287500 -0.18258938 -0.84632176 -3.8215028e-005 -0.00013546784 9.3550865e-005 0.00022348369 -0.013140204 0.019892374
2540775000 -0.35094133 -0.78368831 0.00018935399 2.4023926e-005 0.00019835116 -3.8992985e-005 -0.010534734 0.01866447
2548262500 -0.50027895 -0.69198644 5.119207e-005 0.00013207711 1.2070438e-005 0.00019229877 -0.008413923 0.016475242
2555750000 -0.62966186 -0.57651842 -9.4067662e-005 -0.00012663112 -0.0003582002 1.5563988e-005 -0.0067766327 0.013917893
2563237500 -0.7384696 -0.43813664 -8.0459511e-005 0.00022999747 0.00012740762 9.6262716e-005 -0.0057636639 0.010851778
2570725000 -0.82156485 -0.27513984 0.00014614372 -0.00015023985 0.00021724796 -0.00018909425 -0.0047386205 0.0076853801
2578212500 -0.87028074 -0.089101151 0.00041271804 0.00029373539 -0.00010836152 -0.00011400032 -0.005298872 0.0046435548
2585700000 -0.87583071 0.11338902 0.00016127784 -0.00012937389 7.0496644e-005 -0.00025458785 -0.0061752433 0.0014853301
2593187500 -0.82888651 0.31895846 -5.6278266e-005 -0.00016284816 -0.00028119341 -8.8202949e-005 -0.0077433917 -0.0016468799
2600675000 -0.72533113 0.50890136 4.1595897e-005 2.9397504e-005 -0.00030879624 -5.9676524e-005 -0.0095868111 -0.0043247347
2608162500 -0.57387024 0.66566396 -7.1819726e-005 -0.00041637366 0.00016251231 0.00017632918 -0.011947594 -0.006535993
2615650000 -0.38846827 0.77491957 -0.00029008728 -6.0953993e-005 -0.00019194253 5.1508894e-005 -0.015030286 -0.0078111454
2623137500 -0.18805593 0.83282828 -1.7492579e-005 -1.7960887e-005 -2.3147339e-005 0.00030005333 -0.017996708 -0.0087285051
2630625000 0.011877233 0.84150577 -7.8486381e-005 0.00024981031 8.2218161e-005 9.6657699e-005 -0.021211017 -0.0086156121
2638112500 0.2034632 0.80728376 0.00021938345 -0.00020759596 -5.9803882e-005 -1.6210198e-006 -0.024357069 -0.008337494
2645600000 0.38017297 0.73643976 -0.0001262085 0.00010555491 0.00018229251 0.0001043474 -0.026797613 -0.0073609571
2653087500 0.53737873 0.63314301 0.00012159217 0.00012647361 -0.00015513111 -0.00028536256 -0.029711969 -0.0053235642
2660575000 0.67157549 0.49771413 0.00024023907 0.00014759805 -9.6548711e-006 0.00012148135 -0.031598628 -0.0030282594
2668062500 0.77531922 0.33495283 7.0118789e-005 0.00019440315 -0.00012468171 -0.00014907453 -0.033278655 -0.00064125768
2675550000 0.84143108 0.1508441 0.00031876829 -0.00019156568 0.00043616982 0.00010411064 -0.033898368 0.0023422199
2683037500 0.8622632 -0.046805397 4.1688003e-005 -0.00012439759 0.00035342301 -0.00016288055 -0.034106322 0.0054926369
2690525000 0.83538729 -0.24491476 -0.00013224094 -7.8179022e-005 -0.00024930251 0.00038130404 -0.033379197 0.0087532215
2698012500 0.76192153 -0.42987624 -0.00010019458 -0.00026015303 -2.2440076e-005 8.4715284e-005 -0.032121737 0.010840445
2705500000 0.64750594 -0.58897674 -7.4244985e-005 -0.00010658355 0.00037547463 -0.00013096858 -0.03040183 0.013556836
2712987500 0.50282264 -0.71652442 8.15085e-005 -0.00033129609 -0.00023818195 -0.00012803196 -0.027633525 0.01546206
2720475000 0.33799285 -0.80644894 -9.9190314e-005 0.00029530152 0.00018483782 -1.3228407e-005 -0.024774032 0.016730914
2727962500 0.15938704 -0.85874414 -0.0002457638 0.00023093137 0.00015402865 -9.4433133e-005 -0.021437217 0.016996713
2735450000 -0.025507847 -0.87365741 -0.00026998544 0.00041273714 0.00034359691 0.00017569373 -0.017864736 0.017438291
2742937500 -0.21053238 -0.84873539 0.00017974299 4.9990012e-005 3.1281093e-006 0.00011778859 -0.014708433 0.016452268
2750425000 -0.38757429 -0.78377569 -4.4493718e-005 2.5144457e-006 -8.4698462e-005 0.00022881097 -0.011190314 0.01495079
2757912500 -0.54895562 -0.67962515 -0.00019487277 -0.00011484094 0.00053976732 8.6452179e-005 -0.0084291678 0.012649325
2765400000 -0.68451124 -0.5396921 -0.00018579431 0.00026269304 0.00050865021 5.6092973e-005 -0.0060058679 0.010446165
2772887500 -0.78334898 -0.37049842 0.00017262677 2.2912247e-005 -0.00019611226 0.00025586298 -0.0039076949 0.0071172249
2780375000 -0.83819604 -0.18255082 -0.00016028254 -0.00024155395 -8.5153726e-005 0.00021199441 -0.002799527 0.0036987057
2787862500 -0.84866512 0.011619261 0.00024271649 -0.00024581098 9.2409085e-005 8.3074614e-005 -0.0022370289 -0.00012924425
2795350000 -0.81594288 0.19944051 9.638031e-005 1.8690729e-005 -8.532732e-006 0.00033856332 -0.0025370342 -0.003714696
2802837500 -0.74357241 0.37612855 8.5948552e-005 0.0002467265 -3.9093025e-005 7.4850643e-005 -0.0034391799 -0.0073159547
2810325000 -0.63550061 0.53198922 -2.2098495e-005 -4.2657088e-005 -7.1566057e-005 0.00027811309 -0.0048237983 -0.01063709
2817812500 -0.49644464 0.66319132 -0.00027246069 0.00012331283 -0.00025136216 -0.00034470615 -0.0068387981 -0.01320669
2825300000 -0.32949722 0.76479685 -0.00015801782 -4.6196659e-005 0.00023181037 -0.00018273683 -0.0092552826 -0.015749613
2832787500 -0.13974077 0.82730508 -0.0001355409 -0.00010378055 5.311007e-005 6.8920613e-006 -0.013089467 -0.017991891
2840275000 0.064671732 0.84238499 -5.5553344e-005 -6.4687997e-006 -0.00011941999 0.00023621188 -0.01497385 -0.018370433
2847762500 0.26897675 0.80703259 2.663679e-005 2.5653864e-005 -9.8608652e-005 -3.7059875e-005 -0.018616673 -0.019051297
2855250000 0.45940799 0.71991712 0.00018498261 -0.00014854944 8.9393252e-005 -7.6194352e-005 -0.021581208 -0.018844081
2862737500 0.61831927 0.58788383 -1.8014383e-005 5.7550296e-005 -0.00016737434 -0.00040258738 -0.024309702 -0.017461887
2870225000 0.73662704 0.424968 0.00032773489 0.00025227241 -0.00016384223 0.00014224075 -0.026930409 -0.01614259
2877712500 0.8106187 0.24481784 7.6441691e-005 -5.5335418e-005 -0.00046997215 0.00027921668 -0.029395886 -0.013363135
2885200000 0.8399421 0.060446922 -0.00014306208 0.00011436394 -0.00033116204 0.00012855232 -0.029989824 -0.010844067
2892687500 0.83272213 -0.12159285 -0.00033822106 -0.00021633302 -3.3850949e-005 8.6674918e-005 -0.030621357 -0.0088224774
2900175000 0.78899717 -0.29429662 -0.00022661395 -1.3550345e-005 0.00015749587 -0.00016915365 -0.030707054 -0.0056171692
2907662500 0.71429646 -0.45484698 0.00026861051 -5.215059e-005 -0.00020138713 0.00025648513 -0.030132709 -0.0026443501
2915150000 0.6071294 -0.59871978 -0.00025546816 0.00025400613 -6.2465275e-005 4.1575415e-005 -0.029056387 -0.00038961065
2922637500 0.47121876 -0.72011834 9.9978657e-005 -7.6654396e-005 -0.00011850462 -1.0510728e-005 -0.026863405 0.0016450683
2930125000 0.3079223 -0.81050831 -0.00012111168 -1.516768e-005 2.9839053e-005 -0.00022584408 -0.024235835 0.0037832959
2937612500 0.12338019 -0.86273909 -0.00016456557 -1.4905298e-005 6.1706342e-005 2.7502459e-005 -0.02122019 0.0050513493
2945100000 -0.071013227 -0.86859 0.00030729952 -0.00013716628 -0.00017504294 4.6522011e-005 -0.018212732 0.0052498602
2952587500 -0.2617504 -0.82884848 -0.00024712851 -1.2765319e-005 0.00031247191 0.00036144795 -0.01483376 0.0051271473
2960075000 -0.43741068 -0.74408472 -1.14185e-005 -0.00014520521 -0.00024458717 -2.6303174e-005 -0.011287558 0.0043019215
2967562500 -0.58712244 -0.62342644 -0.00021809571 9.111387e-005 0.00039589702 0.00027478751 -0.0078747598 0.0031285912
2975050000 -0.70586437 -0.47276405 0.00014072288 -4.0283689e-005 -0.00015295946 0.00016397377 -0.005402464 0.00066083076
2982537500 -0.78829759 -0.30079162 -4.2019219e-005 -0.00018806347 -7.5184631e-005 3.7121419e-005 -0.0031943975 -0.0017372926
2990025000 -0.83404958 -0.11466458 0.0001105647 -0.00021982013 4.6006999e-006 -0.00020701432 -0.0013253964 -0.005002067
2997512500 -0.83706129 0.079179645 -5.2341849e-005 0.0001032279 0.00021181841 -3.3875011e-005 -0.00024802372 -0.0083017172
3005000000 -0.79919249 0.27391505 -0.0001129356 0.00025724916 -4.9702441e-005 -0.00024102943 0.00097515469 -0.011724506
3012487500 -0.71304393 0.45776883 -4.6462061e-005 -0.00020629703 0.00012751683 -0.00014494652 0.00057313498 -0.015331184
3019975000 -0.58344322 0.61920559 0.00012736692 0.00028229004 7.2912379e-005 -0.00016933373 -0.00033124394 -0.018182717
3027462500 -0.4148294 0.74363005 -0.00018606607 -2.3513203e-005 -1.6127795e-005 -2.2035194e-005 -0.0019088075 -0.02125477
3034950000 -0.21996224 0.82100493 -0.0004020535 -0.00025059289 0.00018659618 -0.00019482079 -0.0035554154 -0.023976263
3042437500 -0.016253939 0.84540898 0.00020021287 -2.8319821e-005 -1.7705306e-006 -0.00011007865 -0.0057517304 -0.025934393
3049925000 0.18172716 0.82108003 -0.00013493867 0.00016199466 7.1994436e-005 6.0997198e-005 -0.0088964878 -0.02706654
3057412500 0.36335137 0.75273883 -0.00016767548 -0.0002553525 -0.00034743932 5.5192824e-005 -0.011467893 -0.028349321
3064900000 0.52072865 0.6492312 -0.00028212907 -0.00011373617 -0.00027357377 -0.00024130756 -0.014402601 -0.028353114
3072387500 0.64772809 0.51989174 4.4969802e-006 -9.6257092e-005 -2.8189004e-005 0.00010462176 -0.016960572 -0.028080929
3079875000 0.74457133 0.36975649 0.00027242611 -0.00017103872 0.0002875815 7.4484175e-005 -0.019210255 -0.026621839
3087362500 0.80947495 0.20509158 9.1785485e-005 0.00011531793 6.712597e-005 1.1354612e-006 -0.021340486 -0.025289929
3094850000 0.84067798 0.030310318 -0.00024413936 -0.00018152116 0.00036950698 8.9367124e-005 -0.022590937 -0.022903576
3102337500 0.83403271 -0.14956774 0.00024369384 8.3092391e-006 0.00022455648 -6.4835724e-005 -0.02388831 -0.020944398
3109825000 0.78861386 -0.32533813 -0.00033150692 0.00034560479 0.00019398745 -5.6566783e-005 -0.024355331 -0.018302808
3117312500 0.70405263 -0.48928088 0.00013901314 -4.4502925e-005 -0.0004436344 0.00042172335 -0.023983356 -0.015561251
3124800000 0.5842399 -0.63256407 0.00043421137 -7.0553557e-005 -0.00019575919 4.2885309e-005 -0.022862243 -0.012884854
3132287500 0.43329138 -0.74546272 -6.205888e-006 6.6995017e-005 9.0565773e-005 0.0001504661 -0.021861974 -0.010809403
3139775000 0.25958964 -0.82009828 -0.00015321605 -0.00011481096 9.3016453e-005 -8.3626066e-005 -0.01962688 -0.0089771133
3147262500 0.072407842 -0.85559738 0.00016080143 -0.0001802429 -0.00025751887 -5.0730268e-005 -0.017268088 -0.0074801855
3154750000 -0.11740625 -0.8458907 3.8999201e-006 6.0023402e-005 0.00022379262 -0.00018019867 -0.014651288 -0.0069072233
3162237500 -0.3013131 -0.79411364 -0.00018742443 -6.208878e-005 0.00015020117 0.00019683744 -0.012118203 -0.0062873904
3169725000 -0.46947128 -0.70275676 -3.3095403e-005 -0.00014968379 -0.00014087719 -0.0001563064 -0.0094558401 -0.0069900407
3177212500 -0.61406171 -0.57456404 -0.00020868279 -0.00030756017 -0.00043891612 0.0001634818 -0.0066902284 -0.0076953019
3184700000 -0.72716272 -0.41712281 0.00017596515 -6.753589e-005 -0.00034323914 -0.00015688229 -0.0040132063 -0.0090534147
3192187500 -0.80205971 -0.23647536 -0.00018118834 0.00051599997 -0.00015170126 0.0001272107 -0.0023918469 -0.011192395
3199675000 -0.83349997 -0.041375365 0.00016976648 -0.00010889806 -0.00036931154 -7.440817e-005 -0.00022496481 -0.013521447
3207162500 -0.8180483 0.15510023 1.5951999e-005 0.00017757286 -0.00015659326 -7.7831726e-005 0.0002264887 -0.015858976
3214650000 -0.75695521 0.34402645 0.00017227656 8.4545878e-005 -8.2761631e-005 5.4509859e-005 0.00083673402 -0.018998932
3222137500 -0.65187657 0.51170629 -0.00029059328 0.00010807168 -0.00018128366 -0.00028804192 0.00093147013 -0.021355154
3229625000 -0.51331764 0.64793092 -0.00034855143 -1.100883e-005 0.00015200235 -6.2822655e-005 0.00041810444 -0.023819724
3237112500 -0.34881556 0.74736744 0.00017342482 6.1631113e-006 0.00017488057 0.00028795598 -0.00096407282 -0.025939943
3244600000 -0.16980529 0.80635488 -1.420264e-005 6.9838272e-005 0.00054196309 0.00018491149 -0.0028913976 -0.027743801
3252087500 0.0151364 0.82329077 4.5898341e-005 -0.00025916556 7.3471063e-005 4.1442734e-005 -0.004654848 -0.029382186
3259575000 0.19602819 0.80240625 -0.00027772132 0.00010737659 3.1510317e-005 -4.4962591e-005 -0.0071908263 -0.029941428
3267062500 0.36677226 0.743981 -0.00013175014 3.5552606e-005 -0.00012412683 -0.0001487307 -0.0095656738 -0.030207122
3274550000 0.52222472 0.65271962 6.7382905e-005 -0.00014064214 1.5158245e-005 0.00063289952 -0.01213772 -0.030294355
3282037500 0.65695989 0.53154385 0.00030919339 0.00028704811 1.9440649e-005 0.00017409831 -0.014603708 -0.028877076
3289525000 0.76494259 0.38207749 3.1764819e-005 8.1363105e-005 -8.2739607e-005 0.00036185695 -0.016659502 -0.027704038
3297012500 0.84036571 0.20766592 2.5518623e-006 -0.00017881989 0.00031027239 6.4630447e-005 -0.018158149 -0.025574524
3304500000 0.87497413 0.015066793 -0.00021948396 0.00031341327 -3.6081474e-005 1.2128531e-005 -0.019306211 -0.023216937
3311987500 0.86074758 -0.1851141 1.4963223e-006 0.00024617781 8.3119012e-005 -6.1814295e-005 -0.019991582 -0.020916749
3319475000 0.79731774 -0.37966281 -0.00029664894 0.0004048454 -0.00017716893 0.00018187928 -0.020021513 -0.017562481
3326962500 0.68338782 -0.55081922 0.00038609578 0.00011882942 0.00025507226 -1.1720937e-005 -0.019685939 -0.014887614
3334450000 0.53084451 -0.68428385 -0.00018579158 0.0001148802 0.00015830282 -0.00023058969 -0.018223178 -0.012224648
3341937500 0.35443211 -0.77320039 0.00036970456 0.00019363895 3.9910188e-005 0.00041170223 -0.016979914 -0.0093969395
3349425000 0.17046468 -0.81593204 9.2733455e-005 0.00025676686 2.4097273e-005 1.1633309e-005 -0.014846123 -0.0075301449
3356912500 -0.010545097 -0.81749284 -1.5214223e-005 -0.00020306473 -6.2002073e-005 -0.00018378545 -0.01214368 -0.0057217455
3364400000 -0.18226965 -0.78497195 0.00034561139 0.00020315776 0.00021075681 7.0951712e-005 -0.0092874244 -0.0045860312
3371887500 -0.34187043 -0.72276086 -8.5861342e-005 1.6974125e-005 -0.0003589988 0.00042774208 -0.0061704642 -0.0038954299
3379375000 -0.48893559 -0.63432598 0.0001391197 8.9119894e-005 0.00010186825 0.00010172078 -0.0033970892 -0.0036251259
3386862500 -0.6220091 -0.51647103 -0.0003276655 0.00035656145 0.00024108206 -0.00014224082 -0.0006463289 -0.0042278543
3394350000 -0.73339975 -0.36802527 -6.6527318e-005 -4.8787162e-005 -0.00015633451 -0.00017192586 0.0025775281 -0.0056695021
3401837500 -0.81266844 -0.18747564 -7.5918098e-005 0.00017477546 -8.8709297e-005 -0.00038695248 0.0046785721 -0.0071176686
3409325000 -0.84677559 0.017306739 -0.00014841346 -0.00034891747 0.00013432789 -7.1056587e-005 0.0069509032 -0.0089811496
3416812500 -0.82078648 0.23144348 -8.9170309e-005 0.00023918164 9.7808603e-005 -0.00013555528 0.0080368686 -0.01131828
3424300000 -0.73232502 0.42795554 -6.4184096e-005 -1.6901366e-005 -9.8020151e-005 -4.3884003e-005 0.0092295017 -0.013348691
3431787500 -0.59659874 0.58611143 -0.00017510992 0.00025169956 -0.00012788354 -0.00013555122 0.0093911327 -0.016127169
3439275000 -0.43516263 0.69506228 -0.00025112959 -3.1310487e-005 7.2418647e-005 0.00015111151 0.0093702432 -0.018390818
3446762500 -0.26599282 0.75782388 -0.00019332515 0.00015270349 0.00047017552 0.00023981827 0.0084451567 -0.02058937
3454250000 -0.10145003 0.78403175 0.00027397356 8.3014427e-005 -0.00022980302 -7.7046403e-005 0.0070475964 -0.022607559
3461737500 0.056174155 0.78254694 -2.1346685e-005 6.6415283e-005 0.00016610771 0.00016829738 0.0054088808 -0.02396464
3469225000 0.20706598 0.7607289 9.5739078e-006 0.00016906361 1.1878866e-005 -0.00013313328 0.0032644449 -0.024899513
3476712500 0.35686067 0.71737218 -0.00010316001 1.5629081e-005 -0.00024608101 -3.4833829e-005 0.0010439222 -0.025096627
3484200000 0.50759888 0.64852333 0.00014224586 -8.6149244e-005 -0.00021857572 0.00027660403 -0.0014022264 -0.025191449
3491687500 0.65508968 0.54288876 -2.6152544e-005 0.00013625629 0.00011549407 -7.7901837e-005 -0.0039734566 -0.024790479
3499175000 0.78925991 0.39148596 0.00031356627 -8.5840751e-005 -0.00027483318 0.00016787786 -0.0059717409 -0.023593219
3506662500 0.88415325 0.19076145 -6.6804942e-006 5.8832706e-005 0.00018317858 -8.19907e-005 -0.0071639991 -0.0217626
3514150000 0.91211802 -0.04237137 0.0001113934 2.2646209e-005 0.00026222473 -0.00016319056 -0.0088307234 -0.019357607
3521637500 0.86154824 -0.27503204 -4.8729675e-005 0.0002572177 -0.00019837367 0.00021702814 -0.0091978144 -0.016779125
3529125000 0.74375141 -0.47020265 0.00010417393 8.6605629e-005 0.00027954552 5.09071e-005 -0.0099231238 -0.013969048
3536612500 0.58682811 -0.61047149 9.5999501e-005 -8.4925887e-006 -0.00051528635 8.4911109e-005 -0.0097506661 -0.011636191
3544100000 0.41956136 -0.69690293 -2.2684544e-005 -0.00021536289 0.00034218363 4.5609675e-005 -0.0090501746 -0.0087512676
3551587500 0.25557977 -0.74296826 0.00023077488 -2.1694321e-005 7.6253367e-005 6.869225e-005 -0.0078914184 -0.0061662593
3559075000 0.098498665 -0.76188904 5.2876025e-005 -1.9953215e-005 8.450821e-005 0.00024775355 -0.0062295548 -0.0041729887
3566562500 -0.052881688 -0.7604003 -0.00011973173 9.0313479e-005 -8.8108682e-005 -7.4343588e-005 -0.0039223991 -0.0021912004
3574050000 -0.20403548 -0.73888141 0.00029745916 0.0001509345 2.4548672e-005 0.00049205287 -0.0015556233 -0.00066319446
3581537500 -0.35820812 -0.69372433 0.00012191039 9.650973e-006 0.00021877758 -1.4525318e-005 0.0011515069 0.00036587042
3589025000 -0.5128926 -0.61583596 -0.00021177043 -6.8606787e-005 -0.00016250632 -0.00016740611 0.0037322091 0.00019521404
3596512500 -0.65995306 -0.49663922 6.2626183e-005 -2.5235799e-005 0.00027679387 -6.058532e-005 0.0061359201 0.00052711472
3604000000 -0.77989256 -0.33013543 -0.00016690027 -0.00012216825 3.3849854e-005 8.8172928e-005 0.0088752983 -0.00066010637
3611487500 -0.85088325 -0.1279406 -0.00040441184 -6.105395e-005 -3.9623392e-005 -0.00029391798 0.011647174 -0.0017432494
3618975000 -0.858926 0.089285538 4.2790733e-005 -0.00013441291 0.00025358371 -7.1818606e-005 0.013000812 -0.0024787704
3626462500 -0.80620944 0.29355851 1.2544965e-005 0.00017447952 -0.0001567844 0.0004431507 0.014132462 -0.0044600605
3633950000 -0.70523375 0.46869335 0.00019626321 0.00024042773 -2.2198768e-005 -0.00023950024 0.015170205 -0.0065234075
3641437500 -0.57536966 0.60607374 -0.00011085587 0.00020211974 -0.00014064673 0.00030717455 0.015502355 -0.0084461346
3648925000 -0.42721954 0.71107703 -2.0353875e-005 -4.0153383e-005 0.00041477356 0.00018297734 0.015647938 -0.010688818
3656412500 -0.26690987 0.78336656 3.2173422e-005 0.00017882354 9.0192814e-005 -9.1912669e-005 0.014727416 -0.012754539
3663900000 -0.095092826 0.82790071 0.00022567304 5.3207605e-005 0.00017706849 0.00027988569 0.01371533 -0.014405689
3671387500 0.088211961 0.83875632 -0.00027646357 4.0802217e-005 0.00042672845 9.9759673e-006 0.012586316 -0.016055351
3678875000 0.2783123 0.80821759 -0.00028454824 0.00013605911 -0.00020897298 -0.00027442112 0.010363567 -0.01650165
3686362500 0.46557608 0.72820836 -3.0962767e-007 4.4679338e-005 -9.2215458e-005 0.00025181123 0.0084965546 -0.017114704
3693850000 0.62925774 0.5962376 -6.6954359e-005 0.00043875104 9.6485128e-005 -0.0002281014 0.0064587584 -0.017140249
3701337500 0.7485345 0.42026412 -0.00015446452 0.00026165022 -0.00025769669 0.00022890007 0.0041547124 -0.016863575
3708825000 0.81329274 0.22494605 -0.00030966385 -3.8751798e-005 6.5006352e-005 0.00041787268 0.0025313371 -0.015583024
3716312500 0.82275343 0.029802011 0.00010538292 9.4925876e-005 -4.7745169e-005 0.00040637504 0.00017183837 -0.014293091
3723800000 0.78803176 -0.1492613 0.00012814612 0.00022356689 -0.00016899391 0.00020502234 -0.00081107591 -0.012546126
3731287500 0.72291607 -0.30711097 0.0003028244 -5.510317e-005 0.00017420189 -0.00011380998 -0.0023663486 -0.0099871317
3738775000 0.6356461 -0.44456866 -5.1702747e-005 -0.00022824628 8.2779434e-006 -0.00014841899 -0.0029453342 -0.0081128757
3746262500 0.52968585 -0.56402254 5.2946038e-005 -9.6795236e-005 0.00021175299 -0.00024684306 -0.0032477947 -0.005672744
3753750000 0.40603453 -0.66655701 0.0003519993 -0.00017461153 -0.00022661986 0.00049477391 -0.0025713283 -0.0030423009
3761237500 0.25950387 -0.7520389 8.6622626e-005 0.00033779108 3.5709476e-005 0.00017279257 -0.0023374003 -0.0011531499
3768725000 0.088688374 -0.80980271 -0.00031547956 8.4188599e-005 -6.3691339e-005 -0.00015144529 -0.0015290657 0.0010562104
3776212500 -0.10499151 -0.8281256 -0.00015020285 0.00016703979 0.00016024573 -0.0002174417 0.00023577998 0.0029292568
3783700000 -0.30766866 -0.79379302 -0.00033876093 2.8964299e-005 0.00037624355 0.00020306585 0.0020114111 0.0045667882
3791187500 -0.4989374 -0.70078486 0.00015416314 -0.00021775153 -4.0272994e-006 -0.00014618206 0.004117995 0.0052150851
3798675000 -0.65429783 -0.55522835 0.00014035765 -3.141892e-005 -3.7705631e-005 -7.782883e-005 0.006208627 0.0057790042
3806162500 -0.75923073 -0.37944746 -5.8601243e-005 0.0002353904 -8.5225656e-005 -3.0320023e-005 0.0081112804 0.0060020243
3813650000 -0.81171697 -0.19240475 -0.0003110457 -8.8622714e-005 4.7680682e-005 -6.0306709e-005 0.010099037 0.0058353562
3821137500 -0.8214376 -0.010297224 -3.6178662e-005 -0.00038022915 0.00015965635 -0.00024056375 0.011608641 0.0047765374
3828625000 -0.79564768 0.16018927 -0.00010581766 0.0001043561 -0.00048768704 -0.00034979123 0.013066553 0.0030369393
3836112500 -0.74347317 0.31858858 3.206536e-005 -0.00027154229 0.00037369665 -0.00051332853 0.014063261 0.0021229028
3843600000 -0.66507715 0.46593103 8.9912748e-005 0.00014151842 0.00054693467 -8.2321276e-005 0.014428277 0.00027329981
3851087500 -0.56082535 0.601004 -3.5515153e-005 0.0004229295 -0.00031711053 -0.00019928656 0.01454421 -0.0015586714
3858575000 -0.4247463 0.72083288 -2.5329344e-005 -0.00012535161 -0.00018851685 0.00031300262 0.014122676 -0.0032271044
3866062500 -0.25570261 0.81376731 5.159128e-005 0.00010762661 -8.6980137e-005 -0.00022367177 0.01310136 -0.0048166476
3873550000 -0.056292541 0.86527234 0.0001700759 0.00012406548 -0.00027142878 6.5872126e-005 0.011872853 -0.0065755099
3881037500 0.16076586 0.85925061 -3.074935e-005 -0.00014678483 5.2452437e-005 -2.6558517e-005 0.010588941 -0.0076432996
3888525000 0.37208381 0.78924549 -1.8095147e-005 -0.00014929887 0.00035681287 -5.3167241e-006 0.0080355546 -0.0086596049
3896012500 0.54994923 0.66136277 4.3611966e-005 -3.5794201e-005 -0.00019745677 0.00018418947 0.0061542727 -0.0087331338
3903500000 0.67955631 0.49497733 0.00015980598 0.00013807775 0.00012756175 9.9310069e-005 0.0036103248 -0.0088091819
3910987500 0.75675559 0.31162944 -0.00022062754 -0.00010493878 0.00022872364 -0.00036427716 0.0012563596 -0.0083624553
3918475000 0.78756273 0.12904347 -0.00012643762 -3.1448282e-005 0.00010651888 -6.0942853e-006 -0.0010791712 -0.0073424471
3925962500 0.78257412 -0.045180734 -4.5223183e-005 -1.018838e-006 0.00016001909 0.00023305847 -0.0032965802 -0.0058876807
3933450000 0.74666351 -0.20893943 0.00023941942 0.00041214877 0.00031604021 0.00017986668 -0.0051144012 -0.0040093721
3940937500 0.68575579 -0.36065525 -0.00025731258 -3.614906e-005 4.2253061e-005 0.0001043458 -0.0062823705 -0.0014714403
3948425000 0.59945428 -0.50197017 -0.00018875554 -3.9012913e-005 -6.0469087e-005 0.00018126263 -0.0074834158 0.00051271112
3955912500 0.48614228 -0.62915999 5.5677683e-005 -0.00014764603 -0.00019477808 0.00011535363 -0.0085925311 0.0035109494
3963400000 0.34298804 -0.73711902 -1.8635335e-005 -3.6579837e-005 0.00011431509 6.4504864e-005 -0.0087246234 0.0063902247
3970887500 0.17102392 -0.8161906 -8.3628191e-005 -0.00017603076 -6.1175873e-005 -0.00053205405 -0.0085058631 0.0091267396
3978375000 -0.025177982 -0.85179889 -4.8038062e-005 -0.00011784529 -4.5700846e-005 -0.00015746812 -0.0074235424 0.011210097
3985862500 -0.23193681 -0.83465654 0.00015318222 0.00021834009 -0.00036010385 0.00023577179 -0.0061446819 0.013543941
3993350000 -0.43002608 -0.76036662 0.00019018429 0.00018929409 -4.3935859e-005 3.9090766e-005 -0.0047114026 0.015394164
4000837500 -0.59986228 -0.63734174 0.00023516818 0.00053135055 4.042422e-005 1.0927954e-005 -0.0023742297 0.016622888
4008325000 -0.72616434 -0.47385213 -0.00017480437 -0.00020599637 -1.8152161e-005 0.00015021682 -0.00034908217 0.017863225
4015812500 -0.80260688 -0.29178396 -0.000308377 0.00025568123 0.00028907522 2.7917846e-005 0.002109352 0.018321821
4023300000 -0.83308959 -0.10638092 -0.00026451988 0.00010507355 0.0006307484 0.00016697244 0.0040632286 0.018267004
4030787500 -0.8234961 0.074063912 0.0001555644 -9.9037228e-005 4.7491729e-005 0.00011203532 0.0060766679 0.017594866
4038275000 -0.78053689 0.24231631 0.00018225439 0.00027975769 0.00018319133 0.00039038173 0.0086453548 0.016433846
4045762500 -0.70619643 0.39657846 0.0003171514 6.2042942e-005 -0.00017146491 5.8484955e-005 0.010128882 0.015298056
4053250000 -0.604716 0.53448766 4.9575272e-005 -0.00023647743 -0.00042838609 -0.00035396955 0.011497158 0.013611855
4060737500 -0.47657219 0.65238237 -0.00017151183 -7.8458463e-005 -0.00020710281 -0.00013451569 0.012061467 0.011709844
4068225000 -0.32208803 0.74316168 -2.8596471e-005 -0.0002188764 0.00044852166 0.00011885407 0.012509511 0.0089637795
4075712500 -0.14743863 0.79945612 2.8152997e-005 0.00023510963 -0.00027196133 -9.6703108e-005 0.012524481 0.0064308895
4083200000 0.041129805 0.81556612 4.4168872e-005 -0.00016112067 0.0003053887 -0.00011911326 0.011987397 0.0044416096
4090687500 0.23194148 0.78511578 -0.00012059478 6.6593362e-005 8.8729787e-005 0.00027487153 0.010751609 0.0021959189
4098175000 0.4121694 0.70820296 -2.5972101e-006 -0.00018087342 0.00023828412 -0.00013804792 0.0088072307 0.00024705156
4105662500 0.56961602 0.58797055 -3.5706988e-005 6.0436869e-005 -0.00017174498 -0.00021386521 0.007544213 -0.0010671659
4113150000 0.69264007 0.43421656 0.00013061205 0.00019206318 -0.00019609023 -5.0408373e-005 0.0052764397 -0.0028243775
4120637500 0.77394223 0.25758913 0.00031527685 5.0673403e-005 8.6163427e-006 -8.1769867e-006 0.0028911829 -0.0040320707
4128125000 0.81210279 0.069590688 0.00025174904 0.00019270694 0.00021971512 -0.00022420177 0.00037985036 -0.00462433
4135612500 0.80601025 -0.12037371 0.00026615625 0.00027981229 0.00045820713 -0.00027398206 -0.0024359562 -0.0046833619
4143100000 0.75956821 -0.30345333 0.00019736227 5.8866404e-005 0.00028092781 -0.0003668736 -0.0051952596 -0.0042125811
4150587500 0.67381799 -0.47234687 6.5699816e-005 -0.00015667247 5.7582856e-005 -7.360179e-005 -0.0076923328 -0.0030686012
4158075000 0.55272686 -0.61560732 -0.00025687765 -0.00015528187 0.00026452349 -3.5902598e-005 -0.0096424855 -0.0020152754
4165562500 0.40144086 -0.72966194 2.6590955e-005 0.00039170519 8.1756181e-005 -9.5913521e-005 -0.011690783 -0.00043113795
4173050000 0.22750908 -0.8045581 -0.000237381 -0.00051540899 6.9311129e-005 0.00030835715 -0.013373223 0.0012308692
4180537500 0.043488119 -0.83817023 3.4208068e-005 0.00027654361 0.00038777871 -1.2920504e-005 -0.014716327 0.0028388109
4188025000 -0.14318961 -0.82790196 9.8930432e-005 -0.00010206248 0.00015752758 -1.0869375e-005 -0.015379402 0.0054513547
4195512500 -0.32033673 -0.77621657 0.00024188509 6.2967934e-005 0.0001230386 0.00010508156 -0.015967997 0.0069777272
4203000000 -0.47942385 -0.6879136 4.8557529e-005 -0.000124358 0.00012046431 -0.00017108054 -0.015670069 0.009251629
4210487500 -0.61482155 -0.56759173 -0.00013211415 -8.9612222e-005 3.0366989e-005 1.7385133e-005 -0.015705202 0.010872575
4217975000 -0.72144562 -0.42153627 -5.3626536e-005 -0.00019009272 -0.00010768406 9.6018666e-005 -0.014692811 0.012236752
4225462500 -0.79492247 -0.25636983 -5.2207088e-005 8.3029496e-005 0.00029478059 0.00031144399 -0.013480415 0.013379336
4232950000 -0.83117807 -0.076920353 0.00020431993 0.00014551116 0.0002130408 0.00014446993 -0.012313001 0.01432151
4240437500 -0.82785642 0.10931002 0.0001762598 -0.00010521488 -0.00024828908 9.9376288e-005 -0.011150296 0.014436722
4247925000 -0.78112137 0.29390079 0.00027096213 0.00012753969 -0.0001304925 -6.4978929e-007 -0.010015256 0.014576264
4255412500 -0.69022489 0.4664219 -0.00026546943 5.9095029e-005 -0.00011766746 1.353317e-006 -0.0083338879 0.014280514
4262900000 -0.5590722 0.61312515 -0.00021112291 -0.00029836461 8.7512097e-005 1.9472938e-005 -0.0071371859 0.013513972
4270387500 -0.394795 0.72405428 0.00017786879 -0.00020533735 0.0001272613 8.5629254e-005 -0.0069078566 0.012300731
4277875000 -0.20701623 0.79041797 -0.00010304041 2.7644983e-005 9.7162383e-006 -0.00021286293 -0.0060435426 0.011137364
4285362500 -0.01173748 0.80983037 0.00020882166 6.8066314e-005 -6.7105844e-005 -0.00023220076 -0.0055659143 0.0092780003
4292850000 0.17947792 0.78195125 0.00020290389 -9.5077827e-005 0.00030973472 0.00029886069 -0.0057775704 0.0077562197
4300337500 0.35471869 0.7123 -0.00018701435 -0.00031083208 5.4050015e-005 -0.00010483267 -0.0059920126 0.0063635209
4307825000 0.50948972 0.60909557 -0.00020156767 -0.00018136895 0.00032968185 -5.5353635e-006 -0.0068658637 0.0047906162
4315312500 0.63615495 0.4753457 5.9646358e-005 -3.1575375e-005 0.00017902874 -0.00021369781 -0.0075900098 0.0027205022
4322800000 0.73341215 0.31996602 0.00026502623 0.00032594381 2.6307071e-005 -5.6588719e-006 -0.0090819346 0.0017704434
4330287500 0.79265797 0.14588067 0.00016733231 2.690825e-005 7.9738449e-005 -0.0001277363 -0.010888574 0.00018142677
4337775000 0.81362265 -0.039598804 0.0001940549 -0.00020780359 -0.00011769123 -0.0005042057 -0.012552072 -0.00010830141
4345262500 0.79179478 -0.22719347 0.00034350873 0.00012499662 -0.00027284271 -1.8959603e-005 -0.014667399 -0.0010405151
4352750000 0.72628564 -0.40541053 3.904699e-006 -0.00010106725 -3.8798269e-005 0.0001766083 -0.016623206 -0.0012491549
4360237500 0.61945057 -0.56242555 -9.2322691e-005 6.9220741e-006 0.00010019208 -1.4445124e-005 -0.018310241 -0.001243886
4367725000 0.47829232 -0.68794352 -9.5615114e-006 -0.00015450809 -0.00028868645 0.00032749536 -0.020493533 -0.00066413544
4375212500 0.31468767 -0.77410924 -0.00016118142 0.00021583353 0.00021325388 -3.8618331e-005 -0.022144649 9.8307704e-005
4382700000 0.13916163 -0.81926221 -9.0949918e-008 -8.69055e-005 5.6352117e-005 9.9934216e-005 -0.02378666 0.00099948619
4390187500 -0.035571605 -0.82477993 6.6237422e-005 0.00011561575 0.00018333917 4.1199837e-006 -0.024885718 0.0020819155
4397675000 -0.20476499 -0.79495567 -0.00027991002 -0.00015406842 3.420241e-005 -0.00053248543 -0.025933655 0.0035690782
4405162500 -0.36126211 -0.73184478 5.8843758e-005 -0.00012080122 -2.7915983e-005 -0.00013174416 -0.026386611 0.0050894483
4412650000 -0.50286144 -0.64163315 -0.00016623536 -0.00019416552 -7.233701e-005 3.9908915e-005 -0.026548889 0.0067439657
4420137500 -0.6255576 -0.5246489 0.00023876601 -7.1441944e-005 0.00024781076 -0.00050743367 -0.026467297 0.0081245592
4427625000 -0.72626239 -0.38146091 -0.0001637183 -0.00023609449 0.00015554624 0.0001095558 -0.025574727 0.0097187776
4435112500 -0.79673713 -0.21372567 -0.00011619845 9.3298971e-005 -0.00038011622 -0.00016311224 -0.025271138 0.010387308
4442600000 -0.83044708 -0.028116971 0.00025348569 -0.00016992581 6.5103472e-005 -0.00017222622 -0.023923226 0.011235769
4450087500 -0.81929922 0.17068835 1.2056848e-005 6.985628e-005 9.9975092e-005 0.00013228827 -0.02237465 0.011510052
4457575000 -0.75610739 0.36654997 0.00010881151 -3.0627245e-005 4.2698259e-005 8.4713407e-005 -0.021082705 0.011348952
4465062500 -0.64156467 0.54389614 0.00019149775 0.00013527891 -0.00010854677 -0.0003360644 -0.019717729 0.011004776
4472550000 -0.48198599 0.68473905 9.1440008e-005 0.00025478553 3.8643768e-005 -0.00010018394 -0.017966103 0.010305379
4480037500 -0.29123825 0.77951264 -0.00010838902 0.00018596841 7.1976458e-005 -1.8671495e-005 -0.01664965 0.0089582996
4487525000 -0.086296305 0.82168269 -0.00019049141 -6.656348e-006 -5.0880331e-005 4.3050044e-005 -0.015485966 0.0079709282
4495012500 0.11804843 0.81192094 0.00019992728 -0.00015439 0.00010393393 -0.00023665148 -0.01454841 0.0062533775
4502500000 0.31019092 0.7541194 -4.6877147e-005 0.00016040623 -0.00016334582 0.00022396375 -0.013931704 0.0040728725
4509987500 0.47879761 0.65645695 -0.00025483326 -0.00033395248 0.00033675248 0.0004374347 -0.013556655 0.0019056326
4517475000 0.61796397 0.52591467 -2.7097089e-005 2.4075616e-005 -0.00014455282 -0.0001047019 -0.013674102 -2.8467279e-005
4524962500 0.72295868 0.37088788 0.00032469799 -0.00032616055 3.3206987e-005 0.00015508487 -0.014216509 -0.0026715468
4532450000 0.79062486 0.20048763 -6.6364024e-005 0.00025030304 -0.00019085837 2.7154325e-005 -0.014850258 -0.0048081544
4539937500 0.81662631 0.021441735 3.530944e-005 0.00011980849 6.4590458e-005 -5.6017496e-005 -0.016042672 -0.0067267446
4547425000 0.80507624 -0.15484458 0.00024664315 -4.6955469e-005 0.00028795062 0.00014951626 -0.017223885 -0.0088003185
4554912500 0.75769842 -0.32221413 -0.0001377071 6.4337321e-005 -0.00010619819 -3.1840424e-005 -0.018876512 -0.0097051738
4562400000 0.67660886 -0.47385275 6.2301442e-005 -0.00016364534 -0.0002249181 -0.00023573951 -0.021007981 -0.011372948
4569887500 0.56903738 -0.60629004 -0.00013579191 4.8864538e-005 -0.00023267664 -6.9943446e-005 -0.023321467 -0.012060151
4577375000 0.4356958 -0.71476084 0.00020237504 5.824212e-005 0.00029471473 -0.00020169464 -0.025149075 -0.013188508
4584862500 0.28109029 -0.79383022 -8.2723214e-005 0.00024496531 -0.00025079845 -0.00012301659 -0.027067041 -0.013292955
4592350000 0.11007782 -0.84235364 -7.4396208e-005 0.00023868594 0.00010656211 -0.00038702137 -0.029177882 -0.01312888
4599837500 -0.074425779 -0.85218155 -0.00017765921 9.0263158e-005 0.00022606175 -0.00017917719 -0.030582154 -0.012018707
4607325000 -0.2639634 -0.81698227 0.00012477441 -0.00019095739 -9.5120115e-005 -0.00018944545 -0.03239404 -0.011825007
4614812500 -0.44136333 -0.73448604 -0.0002867716 6.8594061e-005 0.00014982303 -8.953036e-005 -0.033663664 -0.010582007
4622300000 -0.59552443 -0.6069088 0.00019619154 0.00014897333 0.00028184961 -8.9542509e-006 -0.034690619 -0.0098391594
4629787500 -0.71121359 -0.44310358 -5.2949683e-005 -0.00017615149 -2.5132591e-005 -0.00012770981 -0.035128936 -0.0078987712
4637275000 -0.78058285 -0.25755656 -9.2089758e-005 -9.0273774e-005 4.57059e-005 5.9503709e-005 -0.035288803 -0.0070972932
4644762500 -0.80175966 -0.064778551 -3.0639585e-005 -2.1040261e-005 0.00022478805 4.0708258e-007 -0.035190083 -0.0057999347
4652250000 -0.77956098 0.12170383 0.00035559235 -0.00011104921 2.8848308e-005 -4.421479e-005 -0.034617327 -0.0047357925
4659737500 -0.71729511 0.29538977 -0.00026936745 0.00025397592 -0.00034384223 5.6483361e-005 -0.034125365 -0.0031298152
4667225000 -0.62341803 0.45010659 0.00010261702 -2.6933969e-005 -4.5045381e-006 -2.3233275e-005 -0.032907158 -0.0024046125
4674712500 -0.50051564 0.58247095 0.00010039182 -2.6305157e-005 0.00015336806 0.00015063272 -0.031317003 -0.0020785544
4682200000 -0.35046646 0.68943864 -6.025386e-005 0.00011583229 0.00035255167 -0.00014392918 -0.029661594 -0.0018411104
4689687500 -0.17530444 0.76267534 -0.0001135695 -4.2557829e-005 0.00016310925 0.00010744911 -0.028439971 -0.0024490878
4697175000 0.016762827 0.79415619 2.1343991e-005 -0.00016791423 0.00021573238 -8.984442e-005 -0.026493594 -0.0028793309
4704662500 0.21554473 0.77561796 0.00022035725 -3.4461005e-005 0.00014776659 8.7075961e-005 -0.025281316 -0.0039355415
4712150000 0.40452898 0.70514458 9.0308487e-005 0.00014601302 -0.00021294628 0.00017694513 -0.023907898 -0.0049447012
4719637500 0.56390113 0.58888966 -0.00011360287 -0.00040885885 0.00024554128 5.6642664e-005 -0.022896128 -0.0067343344
4727125000 0.6836279 0.4404029 8.367878e-005 6.238409e-005 3.2513344e-005 5.4246175e-005 -0.021653976 -0.0083626332
4734612500 0.76035088 0.27606612 -0.00014956846 -0.00020197012 3.677214e-005 0.00017554995 -0.020993602 -0.010500248
4742100000 0.79657382 0.107154 -0.00010280543 0.00018590617 0.00011245702 0.00014621169 -0.021188024 -0.012111196
4749587500 0.79920286 -0.055891663 7.6456156e-005 -9.4505827e-005 -0.00010003688 0.00010042947 -0.02127653 -0.014219122
4757075000 0.77364594 -0.21125712 0.00024182429 -3.1206328e-006 8.3746781e-005 3.6816808e-005 -0.02122076 -0.016050799
4764562500 0.72264683 -0.35897693 8.1324506e-005 0.00014802393 -4.8947997e-005 0.00021801422 -0.022340218 -0.01780735
4772050000 0.64722395 -0.49812362 -0.00027532203 0.00010753552 0.0001932248 -5.2324842e-005 -0.023079479 -0.01950996
4779537500 0.54414374 -0.62588799 0.00023362505 -3.7543909e-005 3.5822446e-005 -6.7607543e-005 -0.024577172 -0.020685526
4787025000 0.4106634 -0.73835558 0.00027738576 4.4473916e-005 3.2327829e-005 -1.5816937e-005 -0.026045999 -0.021672923
4794512500 0.24460809 -0.82268631 -0.00017394335 2.7468492e-005 -5.8459707e-005 0.00024316309 -0.027343234 -0.02244726
4802000000 0.051552452 -0.86536515 1.1404994e-005 -7.9783902e-005 -9.118444e-005 9.0581387e-005 -0.028681148 -0.022515781
4809487500 -0.15377297 -0.8552264 4.2469142e-005 2.0997511e-005 0.00010021209 -2.2893541e-005 -0.030330332 -0.022977361
4816975000 -0.35388204 -0.78582495 0.00015106972 -0.00014310662 -3.2157473e-005 0.00014574631 -0.03142884 -0.022016186
4824462500 -0.52577049 -0.66332364 0.00011716866 0.00036204944 0.00018710748 6.1365477e-006 -0.032218985 -0.02162037
4831950000 -0.65602291 -0.50314784 -0.00020072161 0.00024525996 -0.00016195225 -4.3042396e-006 -0.033275772 -0.020671912
4839437500 -0.73687488 -0.32025871 -0.00013143521 0.0002405424 0.00013255516 -3.0263789e-006 -0.033749588 -0.019407382
4846925000 -0.77133256 -0.13200422 -0.00020943733 -1.5457175e-005 0.00013861062 0.00010741195 -0.033603936 -0.01784474
4854412500 -0.76378077 0.053267781 0.00013069424 -0.00017272511 -0.00032622356 2.7441216e-005 -0.033483233 -0.016438296
4861900000 -0.71861702 0.2266067 5.7160116e-005 1.9107096e-005 0.00014402777 -1.1742913e-005 -0.032780491 -0.015003523
4869387500 -0.64105111 0.38484016 0.00013571588 7.5064665e-005 0.00016506306 -4.0291823e-005 -0.031589806 -0.014136513
4876875000 -0.53282893 0.52360362 -0.00020016139 0.0001612035 -5.6542824e-005 -9.7978864e-006 -0.030198339 -0.012986538
4884362500 -0.39902607 0.63753396 4.0977608e-005 -5.4131637e-005 4.8557198e-005 -0.00017049068 -0.028339909 -0.011903294
4891850000 -0.2423619 0.7210809 0.00023381136 7.1051662e-005 1.4816783e-006 0.00019029477 -0.026408635 -0.011637667
4899337500 -0.069388345 0.7691642 -3.1372325e-005 -9.8551667e-005 4.1943455e-005 0.0001527507 -0.023806401 -0.011606647
4906825000 0.11176835 0.77835488 0.00025477741 -0.00015430951 -7.7622899e-005 6.678034e-005 -0.021730602 -0.011897421
4914312500 0.29197732 0.74523884 -6.3903084e-005 -5.531693e-005 0.00026719595 -0.00024659032 -0.019151703 -0.012629649
4921800000 0.4607698 0.67038882 -0.00014100813 0.00023894176 0.00015510182 -3.9335668e-005 -0.017442942 -0.013623778
4929287500 0.60773957 0.55910683 4.8377788e-005 -0.00026086171 -9.8813587e-005 6.5087166e-005 -0.015206422 -0.015382303
4936775000 0.72496307 0.41542527 0.00015065695 -5.0341445e-005 -6.2614286e-005 0.00010720715 -0.013609854 -0.017389577
4944262500 0.8049435 0.24796046 -1.8313653e-005 0.00012564732 -0.00021707918 5.9366976e-005 -0.011723305 -0.019205451
4951750000 0.8439061 0.067957662 -0.00041791974 -1.0982566e-005 -8.835717e-005 -0.00012088116 -0.010531316 -0.021610796
4959237500 0.83979142 -0.11458512 -0.0001399371 -7.3618947e-005 0.00017724324 -8.2845756e-005 -0.01007066 -0.024286199
4966725000 0.7938742 -0.28975374 -0.00018059356 -0.00015836372 -3.7504989e-005 0.00015262498 -0.009904868 -0.026662745
4974212500 0.7093032 -0.4491618 2.5650788e-005 9.4703151e-005 4.7420715e-005 0.0002776164 -0.0098062074 -0.029189751
4981700000 0.59344918 -0.58478469 4.9278755e-005 -0.0002073972 -0.00022449638 -0.00021065313 -0.010481172 -0.031457666
4989187500 0.4511649 -0.69025481 -3.4955166e-005 8.829933e-006 -7.2596165e-005 -0.00036769765 -0.011027901 -0.033429738
4996675000 0.28972417 -0.76332462 0.00023591283 -4.480708e-006 -0.00015843053 0.00014952995 -0.012205355 -0.03508161
5004162500 0.11474673 -0.79924899 -0.00010981329 -5.2337076e-005 -0.00029137137 -2.0370766e-005 -0.013611173 -0.036627382
5011650000 -0.065891236 -0.7952354 5.1427611e-005 0.00019802453 0.00014314053 -0.00017661505 -0.015409831 -0.037530921
5019137500 -0.24270335 -0.75094897 -9.6214004e-005 2.1979482e-005 -4.1175168e-005 0.00015891521 -0.017211216 -0.038028136
5026625000 -0.4055517 -0.66479349 -7.9640304e-005 -1.0872069e-005 -0.0001660534 -1.2164587e-006 -0.018737646 -0.038274951
5034112500 -0.54426301 -0.54341578 -0.00010776181 -5.4726544e-005 -7.4798618e-006 -5.7113521e-005 -0.020184372 -0.03816624
5041600000 -0.64949411 -0.39305761 3.1666244e-005 3.2924469e-005 -0.00010213754 -0.00018581662 -0.021711787 -0.037307236
5049087500 -0.71710026 -0.2242952 -0.0002976922 3.392388e-005 0.00013894345 -4.1975458e-005 -0.022897815 -0.035780683
5056575000 -0.74556315 -0.047287948 -0.00012846182 5.3650263e-005 -9.7391749e-005 -9.2502778e-005 -0.023672706 -0.034418985
5064062500 -0.73586011 0.12798759 -9.8794e-005 6.4814594e-005 0.00015507569 -0.00014430525 -0.02397004 -0.032741487
5071550000 -0.69162607 0.29815519 0.00025183032 3.4280791e-005 -3.9677503e-005 5.6782974e-005 -0.023718275 -0.031150252
5079037500 -0.61312544 0.45774516 -2.1051123e-005 -0.00016626787 -7.8700796e-005 -1.6077478e-005 -0.023176555 -0.029386938
5086525000 -0.50205809 0.60074031 0.00011604137 0.00025347073 -4.7933259e-005 -0.00020552974 -0.022159779 -0.027434167
5094012500 -0.35743973 0.72132772 6.0565486e-005 -5.7172711e-005 -0.00010985584 -4.9281782e-005 -0.020736506 -0.026066972
5101500000 -0.18076187 0.80742806 -4.2848995e-005 0.00014791574 0.00033518931 0.00026008161 -0.019088501 -0.024641361
5108987500 0.017644105 0.84764045 0.00018193919 -0.00015186521 0.00017884342 0.00010334431 -0.016891027 -0.023755793
5116475000 0.22404967 0.83167619 2.559444e-005 1.0340902e-005 0.00014806307 -0.00016325664 -0.01465348 -0.02307881
5123962500 0.41611987 0.75936371 7.5242526e-005 -4.5393532e-005 0.00017382771 0.00012288101 -0.012317427 -0.023010671
5131450000 0.57701635 0.64070964 -0.00014931783 0.00011697676 0.00011768031 6.4708285e-005 -0.0096126525 -0.022983149
5138937500 0.69459772 0.49260896 -4.5455792e-005 -0.00020662336 6.2606174e-005 -0.00038072898 -0.0072884583 -0.023624266
5146425000 0.76963913 0.33174992 -0.00018175782 0.000130421 0.0002328291 2.2539725e-005 -0.0050705206 -0.024821024
5153912500 0.80856651 0.16770983 -0.00022551871 -1.306179e-005 -0.00022688272 -8.9433459e-005 -0.0026281893 -0.026236011
5161400000 0.8170321 0.0085675707 -0.00015482643 -8.2265782e-005 8.4552739e-005 -7.1553157e-005 -0.0010101851 -0.027966749
5168887500 0.79935837 -0.14833111 -0.00025860107 9.4312927e-005 -5.1245563e-005 4.741623e-005 0.00030569822 -0.029989222
5176375000 0.7552253 -0.30297598 1.8512321e-005 -3.0781495e-005 0.00013840149 -4.7975745e-006 0.0007698657 -0.031876873
5183862500 0.68213832 -0.45451945 -0.00011745654 3.3604625e-005 0.00013025952 0.00015267197 0.0015358923 -0.034362737
5191350000 0.57142174 -0.59704691 -0.00018335108 -1.4421063e-005 0.00014189059 -0.00020406171 0.0014137152 -0.03631543
5198837500 0.4193252 -0.7161938 9.8677672e-005 0.00011183412 -0.00019079784 -3.3222266e-005 0.0011582589 -0.03837876
5206325000 0.22984429 -0.79419947 0.00011766761 -5.2790223e-005 0.00036304616 7.0678776e-005 0.00014024263 -0.040011697
5213812500 0.021743754 -0.81416607 -5.5160224e-005 3.1916432e-005 -2.6341104e-005 3.6162772e-005 -0.0010464806 -0.041419823
5221300000 -0.17924239 -0.77110493 -4.01545e-005 -5.2141262e-005 -1.4501592e-005 -9.8442957e-005 -0.0027186004 -0.042267844
5228787500 -0.3522498 -0.67896026 -0.00012364564 -2.4044803e-005 -8.5528271e-005 0.0001936152 -0.0041130628 -0.042681649
5236275000 -0.48616105 -0.55697906 -0.0001327278 -0.00023678361 5.884323e-005 0.00019786217 -0.00593183 -0.0426968
5243762500 -0.58399332 -0.42005426 -0.00012146858 -0.00017130043 0.00020710548 7.2917269e-006 -0.007531479 -0.041774955
5251250000 -0.65250033 -0.27703783 -8.664035e-005 -4.6969632e-005 7.1732524e-005 -0.00021785857 -0.009021366 -0.040713813
5258737500 -0.69818312 -0.13019541 -0.00016672345 2.9954852e-005 3.1906391e-005 -0.00010913936 -0.010344716 -0.039395291
5266225000 -0.72440863 0.023658659 -5.9771482e-005 -8.4423089e-005 -0.0002144288 -0.00013986886 -0.011458042 -0.037606508
5273712500 -0.72526312 0.1892796 0.0001371338 0.00018975716 0.00021325072 0.00020792586 -0.011940571 -0.035182603
5281200000 -0.69118458 0.3667987 -5.2908432e-005 0.00015671476 -0.00014855 0.00010852178 -0.01219172 -0.032958712
5288687500 -0.60824442 0.54690194 -0.00019029954 0.00018200726 -3.644923e-005 -1.2003236e-005 -0.011631599 -0.03027923
5296175000 -0.46727544 0.71010607 -0.0001859732 -0.00013124854 -2.3799334e-005 -2.4342784e-005 -0.010684077 -0.027871344
5303662500 -0.27376229 0.82467508 -0.0002710293 0.00012112829 -0.00025184581 0.0002639298 -0.0092800315 -0.025297251
5311150000 -0.054613847 0.86885244 0.00013364057 0.00016334467 -4.6527115e-005 -8.5995329e-005 -0.0070153954 -0.023501061
5318637500 0.15543871 0.84401035 -5.6352776e-005 4.5738187e-005 -0.00015017818 -0.00014311772 -0.0046492876 -0.021572553
5326125000 0.33272171 0.76850802 0.00017225284 -0.00028482958 -0.00013951423 4.0274124e-005 -0.0018462761 -0.020097451
5333612500 0.47609636 0.66990542 8.8208413e-005 4.8235481e-005 -0.00035561962 8.8321445e-005 0.00065944332 -0.019044939
5341100000 0.58417064 0.55069244 0.00022100676 -0.00015490582 -0.00025200946 -0.00011198663 0.0039521893 -0.018704092
5348587500 0.66585416 0.42580739 0.00014023462 0.00014489776 -0.0002647466 3.3572811e-005 0.0070945118 -0.018964369
5356075000 0.72917408 0.29354668 0.0004690075 -0.00028281682 -4.7864196e-005 0.00011209788 0.0097590694 -0.019415783
5363562500 0.77410084 0.15092562 -0.00017340935 0.00011027104 -1.8359209e-005 0.00010138664 0.012838455 -0.020569958
5371050000 0.79641932 -0.0063370364 4.7489202e-006 0.00011040321 6.7614325e-005 -8.4007101e-005 0.015216186 -0.022184195
5378537500 0.78574324 -0.17683452 0.00030359425 0.00043107045 2.4639526e-006 -0.00039761342 0.017204296 -0.024169907
5386025000 0.73164803 -0.35203093 -6.6491419e-005 -4.5627341e-005 0.00023098744 -1.9638619e-005 0.018901585 -0.026089169
5393512500 0.62781298 -0.51545769 0.00021587186 -0.00050720922 0.00027464965 -0.00029225639 0.019645652 -0.028609745
5401000000 0.47790831 -0.64593369 -0.00013397663 -0.00023192518 -0.00042809761 0.00017323316 0.020035502 -0.031360548
5408487500 0.29987097 -0.72990298 -0.0001926504 0.0001967795 7.452377e-005 0.00011645599 0.020292327 -0.033846729
5415975000 0.11343019 -0.76265156 -0.00010249907 0.00016035746 -0.00037610339 -0.00010000257 0.019280883 -0.035658445
5423462500 -0.068269804 -0.75229979 0.00048339283 0.00019347828 1.1713823e-005 0.00015945135 0.018092712 -0.037539873
5430950000 -0.23588385 -0.70614702 3.7213766e-005 8.6947948e-005 8.3767867e-005 0.00042608022 0.016011503 -0.039160211
5438437500 -0.38974836 -0.6307025 -3.0216015e-005 0.00039174757 -8.424632e-005 -7.6146127e-005 0.014320062 -0.039900474
5445925000 -0.52848065 -0.53025144 1.7212189e-005 -7.9230136e-005 -0.00020609469 -8.3902254e-005 0.012544813 -0.040346291
5453412500 -0.6490683 -0.40082961 0.00014490991 -0.00012166967 5.3373689e-005 -7.7135097e-005 0.0096497284 -0.03985709
5460900000 -0.74540889 -0.24091358 -2.9414105e-005 0.00029725567 -0.00020068669 8.5393905e-005 0.0074248109 -0.039136752
5468387500 -0.80361396 -0.052903689 -0.0002787686 0.00011237588 -2.7020138e-005 -8.6710759e-005 0.0056642196 -0.037919309
5475875000 -0.81090397 0.15310392 -0.00028385915 0.00013208135 -0.00019988694 0.00012489552 0.0038805557 -0.036120698
5483362500 -0.75860488 0.35620868 2.046099e-005 -7.2184557e-005 -0.00023811961 1.06064e-005 0.0023861148 -0.033730637
5490850000 -0.65057069 0.5347234 -1.5555221e-005 7.4492207e-005 9.9845762e-005 0.00017659784 0.0014178301 -0.030508386
5498337500 -0.50244027 0.67094696 5.9782185e-005 0.00010953385 0.00011693649 7.6293458e-005 0.0010816094 -0.027768761
5505825000 -0.33378237 0.75895745 0.00041239613 0.0001168276 -0.00016190398 0.00025223865 0.0010592128 -0.024633566
5513312500 -0.16094083 0.80230868 -0.00016397552 8.2071179e-005 -0.00015648663 -0.00021847969 0.0013808658 -0.021469336
5520800000 0.0079143448 0.80807132 0.0001883075 -2.0921067e-005 -0.00023033348 -0.00024010221 0.0026405782 -0.018272802
5528287500 0.1683102 0.78376061 0.0001259891 -0.00024219918 8.9221712e-006 0.00022411122 0.0049589844 -0.015356024
5535775000 0.3181307 0.73230994 7.7445548e-005 1.4654615e-005 -3.4907705e-005 -9.9457036e-005 0.007107575 -0.01313033
5543262500 0.45667148 0.65374464 0.00034485143 5.9550825e-005 -4.9695405e-005 0.00023806184 0.009914754 -0.011147412
5550750000 0.58096236 0.54876816 -0.00028029448 0.00010496625 2.3079576e-005 -0.00015535773 0.012829005 -0.010070462
5558237500 0.68275899 0.41583619 3.2775834e-008 -0.00028617043 -0.00025195596 0.0002097126 0.015909173 -0.0092868004
5565725000 0.75824434 0.25916353 0.0001902722 0.00014983553 -1.9648542e-005 -4.2491996e-005 0.01870949 -0.0085747354
5573212500 0.79529196 0.085117325 0.00018187892 -0.00013601941 0.00024964684 0.00020846129 0.021969775 -0.0094109057
5580700000 0.79017353 -0.098806143 0.00015061628 -1.8930893e-006 0.00023404846 -6.6782377e-005 0.024887823 -0.010439276
5588187500 0.7394495 -0.27645308 2.3727333e-005 -0.00016314238 0.00022396054 -0.00015113165 0.027261635 -0.011727616
5595675000 0.64735359 -0.43873459 -0.0003509174 -0.00038554068 -8.2684666e-005 4.5610865e-005 0.029285086 -0.013291596
5603162500 0.51947027 -0.57528782 -3.7192229e-005 -0.00012126549 0.00023935307 0.0001028268 0.030974021 -0.015632493
5610650000 0.36361527 -0.67595184 2.2863827e-005 -8.1449463e-005 4.2093139e-005 0.00016435279 0.031859729 -0.017995326
5618137500 0.18805191 -0.73907143 0.00010604651 -0.0003374845 0.00019352284 2.4061623e-005 0.031452864 -0.020264223
5625625000 0.0038429287 -0.76016015 -0.0001511657 0.00021543713 -7.2030663e-005 0.00012435256 0.031282075 -0.022496488
5633112500 -0.17826061 -0.73734868 8.580635e-005 0.00016176479 0.00016378009 0.00015448125 0.030521378 -0.024621002
5640600000 -0.34953272 -0.67377061 -0.00029477887 -1.9649624e-005 0.00035433396 0.00017699334 0.029050445 -0.026318543
5648087500 -0.49996415 -0.57492411 1.6686685e-005 9.9577504e-005 -4.0388109e-005 -0.00020223157 0.026961081 -0.027744308
5655575000 -0.62387288 -0.44687626 0.00011724314 0.00019338293 -0.00031341147 -0.00017057397 0.024900328 -0.028474022
5663062500 -0.71647167 -0.29476589 -0.00036028581 -9.1403483e-005 0.00014738573 -7.8704805e-005 0.022479214 -0.028687235
5670550000 -0.77332395 -0.12882715 5.7395158e-005 -0.00011440977 0.00013715446 -9.4406994e-007 0.019320847 -0.028446965
5678037500 -0.79374701 0.047569271 -0.00013513688 -7.7778641e-005 -1.0374159e-005 -0.00030005726 0.017333293 -0.02734552
5685525000 -0.77620476 0.22439659 9.4704119e-005 -0.00012557917 -0.00012822911 0.00016947702 0.014542471 -0.02563099
5693012500 -0.71758127 0.39529884 0.00013910275 0.00023227283 0.00032771585 6.2701722e-005 0.012688112 -0.023597594
5700500000 -0.61989701 0.55104232 -0.00014994713 5.3143332e-005 3.7591526e-005 -0.00020333641 0.011161805 -0.021017114
5707987500 -0.48683929 0.67985064 -0.00032142954 -9.7484726e-006 0.00012622724 -2.5004598e-005 0.0097885653 -0.017743979
5715475000 -0.32600093 0.77281046 3.9396622e-005 -9.904334e-005 4.5279103e-005 -4.6930916e-005 0.0097588208 -0.014863692
5722962500 -0.14672711 0.82337284 -0.00021779333 -0.00027208182 4.3979395e-005 0.00017485626 0.0098085096 -0.011826977
5730450000 0.035987724 0.82860994 0.00017559018 -0.00015188508 5.6893467e-005 0.00026720791 0.0105856 -0.0082354983
5737937500 0.21166568 0.79171056 -0.00011613611 -0.00025120928 -0.00040856982 0.0003360798 0.011195726 -0.0057933112
5745425000 0.37164539 0.71972764 6.5159336e-005 7.0487687e-005 8.3817076e-006 7.9587071e-006 0.013035392 -0.0030264501
5752912500 0.51061791 0.61713845 -7.6401884e-005 -0.00027482802 -4.4115845e-005 -0.00014542685 0.015244296 -0.00086358335
5760400000 0.62544352 0.48764798 -0.00017244174 -0.00013622397 0.00019132528 -8.1760147e-005 0.017821178 0.0010113802
5767887500 0.71120209 0.33639091 -0.00037104037 0.00017609933 7.4302043e-005 -7.7977165e-005 0.020884862 0.0023362234
5775375000 0.76410806 0.16702007 -4.3738999e-007 0.00031649723 0.00020460605 0.00015248616 0.02350604 0.0027815981
5782862500 0.77890921 -0.012963105 2.5928541e-005 7.1235736e-005 0.00011692991 -0.00010322384 0.025968507 0.002723878
5790350000 0.75073379 -0.19452341 5.5525237e-005 8.5229578e-005 -0.00023709721 0.00018338971 0.02906763 0.001820827
5797837500 0.67827731 -0.3667751 -2.9268071e-005 0.00021675671 0.00017109489 -1.9100296e-005 0.031093257 0.00058261666
5805325000 0.56593621 -0.51618493 8.49524e-005 0.0001039042 -1.5114723e-005 4.3003703e-005 0.032679893 -0.0012448154
5812812500 0.42243826 -0.6327517 7.3874697e-005 0.00019457532 8.5761487e-005 -0.00019442732 0.033671185 -0.0030322606
5820300000 0.25950211 -0.71108401 -5.4400675e-006 0.00013845098 -0.00016650747 0.00033738161 0.034519415 -0.0057350928
5827787500 0.085686468 -0.75126094 -7.2972231e-005 -0.00042720963 0.00023911003 -0.00018961249 0.034388676 -0.0076893116
5835275000 -0.090347737 -0.75225234 -0.00018676113 -0.00028917039 -0.00040871481 0.00017549447 0.033718318 -0.0099032829
5842762500 -0.26132101 -0.71869093 -0.00030270437 -0.00017536037 6.1664527e-005 -0.00027614561 0.032367162 -0.012773046
5850250000 -0.4226183 -0.64983863 9.698973e-005 0.00044898211 9.7453369e-005 0.0001416934 0.030665994 -0.014264384
5857737500 -0.56853944 -0.54556775 0.00011160481 0.00028622104 0.0001548689 3.4381294e-005 0.028541712 -0.015978932
5865225000 -0.68873876 -0.40689299 -8.9462919e-005 -0.00022534467 0.00044669883 -0.00018979471 0.025644744 -0.016446659
5872712500 -0.77365619 -0.24133916 -0.00035356579 -6.7485169e-005 -0.00011378732 0.00054282474 0.022380581 -0.016617479
5880200000 -0.81414568 -0.057683606 -5.583129e-005 0.00039027748 -0.00010905986 0.00019375062 0.01920587 -0.016508177
5887687500 -0.80597275 0.12854914 5.9451195e-005 -8.9605664e-006 -0.00021499199 -0.0002273506 0.016202517 -0.016026743
5895175000 -0.75342625 0.30191666 -0.00018937691 -0.00023395204 0.00025606828 -0.00017386497 0.013532016 -0.014444277
5902662500 -0.66470778 0.45440724 -1.1825306e-005 -5.9114394e-005 0.00037195047 8.0163998e-005 0.010986119 -0.012153625
5910150000 -0.54883206 0.57833225 0.00016827707 -2.4565757e-005 1.5956056e-006 -0.00018394264 0.0089073135 -0.0097405445
5917637500 -0.41449913 0.67405379 2.223606e-005 -0.00023567403 -6.6771856e-005 2.8951867e-005 0.0067384318 -0.0067672078
5925125000 -0.26678768 0.74252445 0.00020060281 -0.0002524642 -0.00016358816 -0.00021332206 0.0057735229 -0.0034653745
5932612500 -0.10665995 0.78374088 -0.00021951152 0.0001183512 0.000280387 3.6807516e-005 0.0054065497 -0.00022907526
5940100000 0.063613124 0.79306263 -0.0003172647 3.5307148e-005 0.00033816008 -7.174904e-005 0.0055120056 0.0031231961
5947587500 0.2399523 0.76355153 0.00029851581 -0.00037758102 6.3051782e-005 -9.1892194e-005 0.0062294197 0.0063471603
5955075000 0.41402552 0.69019151 8.1613725e-005 -0.00018226351 0.00017938836 -0.00018669927 0.007686324 0.0089979842
5962562500 0.56951332 0.57018894 -0.00035711238 -0.00012675053 -0.00011349881 -0.0001318049 0.0093983142 0.011091426
5970050000 0.68634433 0.40830356 0.00018968624 4.7436902e-006 0.00029159131 -0.00020296378 0.011684019 0.013178644
5977537500 0.75508571 0.22231846 4.0553014e-006 0.00016679037 -1.5953888e-006 7.8522869e-005 0.014035981 0.01404858
5985025000 0.76972151 0.029969715 0.0001236964 -5.1766241e-005 0.00023272402 3.6021607e-005 0.01701287 0.015084488
5992512500 0.73779947 -0.15007138 8.4976127e-005 -0.00031236163 -0.00041912877 0.0001747662 0.019354571 0.014976332
6000000000 0.67054319 -0.30857915 5.969499e-005 0.00031012771 4.4204731e-005 1.3312918e-005 0.022237023 0.014197479
