!Keysight Technologies,N5245B,MY52501319,Z.13.01.242
!Date: Monday, February 16, 2026 14:41:54
!Correction: S11(Off) 
!S21(Off) 
!S12(Off) 
!S22(Off) 
!S2P File: Measurements: S11, S21, S12, S22:
# Hz S  RI   R 50
10000000 0.83316845 -0.45687309 -0.0027295214 0.0017383642 0.000653303 0.0015456175 0.87921971 -0.16849275
17487500 0.72792023 -0.56657892 -0.0005418291 -0.0021823039 -0.00053284672 0.0016550649 0.79565865 -0.42454836
24975000 0.60738099 -0.69516772 -0.00013360164 -0.0016517007 0.0011956464 0.0014674629 0.64937371 -0.6033963
32462500 0.45488605 -0.81047392 -0.00017599187 0.0010295566 -0.001141066 0.0015357133 0.48684794 -0.74473238
39950000 0.27483344 -0.89946955 -0.0002529216 -0.0014873133 0.00093053275 0.0011234896 0.29670399 -0.83797145
47437500 0.072779484 -0.94848156 0.000274533 0.00015042121 -0.00029208758 0.00026449229 0.087835066 -0.90064728
54925000 -0.14829987 -0.94835699 -0.00059226883 7.7746045e-005 0.00022606678 -0.00080791669 -0.13832773 -0.90251637
62412500 -0.36387339 -0.90504217 0.00079462869 0.0013046388 -0.00038296694 0.00031262622 -0.35000816 -0.85758835
69900000 -0.56880683 -0.80694574 0.00026055067 0.00065632293 -0.00049376563 -0.0005503858 -0.54588991 -0.74980378
77387500 -0.74444193 -0.65567726 -0.00081933104 0.00014612923 -0.00073573069 0.00025156673 -0.7088933 -0.60053337
84875000 -0.87339306 -0.46913096 -0.00040600746 0.00045222326 0.0010115663 -0.00077724672 -0.8281855 -0.42015001
92362500 -0.95031303 -0.2595529 0.00011834917 0.00037404289 -0.00066047331 0.000194062 -0.89841014 -0.2212099
99850000 -0.97831249 -0.042249292 -0.00017057163 4.421531e-005 0.00031415347 4.8142501e-005 -0.92120725 -0.012235151
107337500 -0.95511699 0.16585237 0.00038432289 -0.00019151946 -0.00064718234 0.001296783 -0.89987159 0.19676408
114825000 -0.89589792 0.3606953 0.00088825281 0.00099200045 0.00061485497 5.6644571e-005 -0.83462161 0.39164993
122312500 -0.79975134 0.54060501 -0.00042897277 -2.4115367e-005 0.00028492947 0.00045274335 -0.72709239 0.5687204
129800000 -0.66824615 0.69921285 0.00048519572 -0.00040527986 3.1622694e-005 0.00085514918 -0.58033353 0.72001278
137287500 -0.50523901 0.82700062 7.3222454e-006 0.0014684685 0.00038984904 -0.00010720174 -0.4021855 0.83321446
144775000 -0.31242213 0.91971761 -2.3863964e-005 -0.0002972848 -0.00011547263 -5.2661813e-005 -0.19888867 0.90560913
152262500 -0.097639658 0.97053832 0.00025082694 0.00019311962 6.5981323e-005 1.1313508e-005 0.013797834 0.92522508
159750000 0.12756018 0.96679866 0.00024558973 -0.00010822469 -0.00041511146 0.00022343983 0.22541645 0.89228833
167237500 0.34487593 0.90908974 -0.00020840745 0.00074123649 0.00042218438 0.00078058284 0.42542446 0.8145681
174725000 0.54293656 0.79844499 0.00031978564 -0.00064202165 -8.6465843e-005 2.6877738e-005 0.60156995 0.69376767
182212500 0.70884717 0.64578724 -0.00069270702 0.00019644131 -0.00039750664 -0.00030298255 0.74237037 0.53391117
189700000 0.83294272 0.46137235 -0.00046632611 0.00032356504 -0.00024752525 0.0004512021 0.84686422 0.34529313
197187500 0.91162294 0.25669992 0.00046997322 9.2038048e-005 0.00014690284 -0.00054580881 0.90335429 0.13474868
204675000 0.94752276 0.041405827 0.00015962876 -0.00056256267 0.00086481776 -0.00016636073 0.90938205 -0.084339291
212162500 0.92730647 -0.17563838 4.6383531e-005 0.00044314517 0.00068256364 -0.00019298136 0.86209893 -0.30054724
219650000 0.86447716 -0.3832252 0.00096327357 -0.000798914 -8.5227388e-005 0.00058217108 0.76207829 -0.49734822
227137500 0.75673449 -0.57436168 4.7063499e-005 -0.00043807671 -0.00028383898 3.2870063e-005 0.61686963 -0.66626662
234625000 0.60379046 -0.73570317 -0.00058360514 0.00048303945 -0.0002747406 7.0295602e-005 0.44036102 -0.79282701
242112500 0.41961128 -0.86043543 -3.2137472e-005 -0.00022481296 0.0007748761 0.00046701392 0.23832454 -0.86816406
249600000 0.21086277 -0.93837637 -0.00020661872 -0.00017219232 -8.2681705e-005 0.00025699401 0.02979159 -0.89528602
257087500 -0.011081588 -0.96277523 -0.00028836462 -2.9902012e-005 0.00045735686 0.00048794842 -0.17951314 -0.8821556
264575000 -0.22941662 -0.93337011 -0.00014969736 -9.248047e-005 0.00010816915 -0.00028708336 -0.3771584 -0.81824869
272062500 -0.43639055 -0.85853833 -0.00013776693 0.0002502469 0.00067918171 0.00035912212 -0.55780411 -0.7115581
279550000 -0.61506599 -0.736646 -0.0004015482 -0.00059486477 -0.00014211501 1.5756166e-005 -0.70732349 -0.56706524
287037500 -0.76196438 -0.58277076 -0.00011166453 0.00032772278 0.00015167061 0.00056452578 -0.82109135 -0.39051884
294525000 -0.86858076 -0.40381563 -0.00016435189 -0.00052718463 0.00018292997 -0.00086985959 -0.8914308 -0.19213635
302012500 -0.93621892 -0.2013209 0.00011385664 0.00010316532 0.00011165827 1.8470251e-005 -0.91103184 0.018701654
309500000 -0.95542556 0.0050767395 -0.00022987982 -0.0004830806 -0.00019282478 -0.00012204341 -0.88286638 0.22465669
316987500 -0.92986691 0.21019931 -4.2647589e-005 -7.219745e-005 -0.00025545937 0.00013874091 -0.8039754 0.41647026
324475000 -0.86546099 0.40491202 -6.4187581e-005 1.625766e-005 -0.00047307741 -0.0002729148 -0.68792981 0.58282918
331962500 -0.75461471 0.58213502 0.00029830381 -0.00044336537 9.0617978e-005 -0.00039284152 -0.54104352 0.71922755
339450000 -0.60886806 0.731453 -0.00044970773 -9.2265742e-005 0.00064950815 7.9959354e-005 -0.36845431 0.8214345
346937500 -0.43677935 0.84884816 0.00014785293 -0.00013174461 0.00020553246 -0.00018487452 -0.17796956 0.88571876
354425000 -0.23847301 0.92484391 -0.00029541922 -0.00027218304 0.00070581265 -0.00087072642 0.026722636 0.90820593
361912500 -0.024228724 0.95746988 0.00032325275 4.6339833e-006 -0.00014225503 -0.00050359638 0.2362355 0.88394129
369400000 0.19718903 0.93894374 -0.00032630141 0.0003200355 0.00028838878 0.00041722308 0.44081211 0.80920559
376887500 0.41065469 0.86858964 -0.00032039333 -0.0004404342 -0.00011866963 0.00029805594 0.62627476 0.6814521
384375000 0.60388607 0.74889964 9.5149269e-005 2.6228577e-006 -0.00016097649 -0.00023542561 0.77549499 0.50796247
391862500 0.76345628 0.58292699 0.00033728598 0.0001323719 -0.00031417829 -0.00013076935 0.87215495 0.29976445
399350000 0.87650597 0.38457045 0.00027479875 0.00020327617 -0.00086384226 -2.7650745e-005 0.9081043 0.074032165
406837500 0.93727666 0.1665253 7.4031705e-005 0.00016009323 0.00026374598 -1.17308e-005 0.88828558 -0.14585878
414325000 0.94502151 -0.058122873 -0.0004035423 -0.00052502664 6.5495842e-005 0.00039958084 0.81619859 -0.34986857
421812500 0.90078843 -0.27211887 -0.00018897753 6.1503183e-006 -7.7479439e-005 -0.00046762516 0.7050519 -0.52554667
429300000 0.81260371 -0.46844205 -0.00030076838 -0.00017487655 2.7101594e-005 0.00036055892 0.56008041 -0.67109126
436787500 0.68556112 -0.63725269 -0.00021336575 -0.00078270701 0.00046995914 0.00030134802 0.39262882 -0.78082949
444275000 0.5253244 -0.77402759 6.3087646e-005 1.1631012e-007 -0.0005278028 0.0005315009 0.20370014 -0.85193813
451762500 0.33802819 -0.87626565 -0.00015187816 0.00040349792 0.00022709397 0.00038614988 0.0021317068 -0.88251102
459250000 0.13476542 -0.93238819 0.00038606956 -5.2225842e-005 -0.0012707249 7.3766074e-005 -0.2032721 -0.86648774
466737500 -0.078359351 -0.94322586 9.0315734e-005 -0.0003026801 0.00077322783 -6.3060055e-005 -0.40295973 -0.80373502
474225000 -0.2908985 -0.90500128 -0.00051416986 9.195078e-005 -3.5967183e-005 0.00038043846 -0.58380401 -0.69082141
481712500 -0.48947701 -0.81814182 8.6383452e-006 0.00028370949 0.00069507764 3.1779218e-005 -0.73048586 -0.53788221
489200000 -0.66255301 -0.68845081 -0.00073836575 0.00038704212 7.6395649e-005 0.00029173298 -0.83148474 -0.35418355
496687500 -0.79617131 -0.52123427 -0.00011114607 -0.00025056259 1.2688108e-005 -0.0006097352 -0.8899827 -0.15525156
504175000 -0.89522892 -0.33361527 -0.00017130362 0.00014671085 0.00088165188 0.00037547998 -0.89454639 0.047409803
511662500 -0.94191015 -0.1318797 -0.00041582741 0.00039893933 -0.00035192905 -0.00016733912 -0.85998625 0.24447258
519150000 -0.9449752 0.075416252 -0.00019859166 -0.0003829739 0.00047735561 6.9979433e-005 -0.7862128 0.42951781
526637500 -0.90405267 0.27789849 0.00026473083 -6.5739776e-005 -0.00058725534 -4.9147275e-005 -0.6747517 0.59373349
534125000 -0.82364714 0.46689627 -0.00014412423 1.2719382e-005 -6.1202096e-005 -0.00071041769 -0.52469468 0.73256242
541612500 -0.70290822 0.63742352 -0.00027514575 9.3289564e-005 0.00010437606 2.0131556e-005 -0.34619102 0.83667624
549100000 -0.54437792 0.77925259 -0.0001735863 -0.00016431819 -0.00044937685 4.9165705e-005 -0.14388339 0.89464682
556587500 -0.35471377 0.88391149 -9.3919843e-005 0.00023500901 -0.00023992367 0.00010047434 0.069557726 0.90391237
564075000 -0.14147472 0.94372636 0.00033358796 8.2964216e-005 -0.00041965331 -2.4829675e-005 0.27891824 0.85790181
571562500 0.080531612 0.95016032 0.00047290776 -0.00042195717 -0.00040148894 5.3826785e-005 0.47051728 0.7627486
579050000 0.29725868 0.9021312 0.00026182056 -7.9390076e-005 -0.00022065468 -0.00026440804 0.63222253 0.62494314
586537500 0.49618396 0.8051492 5.5765366e-005 -0.0002410195 -4.1475305e-005 0.00025437571 0.75470477 0.45525584
594025000 0.66575193 0.66568708 0.00056653004 -0.0004356775 -0.00022997985 -9.2311289e-005 0.83520991 0.26304597
601512500 0.79778653 0.4947471 0.00011188366 0.00021087663 -0.00030796253 -8.5625172e-005 0.87127125 0.0588268
609000000 0.88744068 0.29945475 0.00012428818 3.8421418e-005 0.00035550373 0.00010830323 0.85891891 -0.14820251
616487500 0.93219745 0.092009872 0.0001262922 -2.1517706e-005 0.00014326995 -0.0004340735 0.80185586 -0.3496463
623975000 0.93231374 -0.12232748 0.00014933776 6.2638333e-005 -0.00037906464 -8.5801927e-005 0.69590569 -0.53389925
631462500 0.87506801 -0.35021919 0.00057143829 9.1258393e-005 5.5927565e-005 0.00043852473 0.56330472 -0.67738563
638950000 0.77354288 -0.54261023 0.0001350713 4.8872706e-005 -7.7223784e-005 0.00010264778 0.38609797 -0.79550958
646437500 0.62985754 -0.70848626 5.1415143e-005 0.00012467042 -0.00033461317 0.00052584178 0.18374752 -0.86660361
653925000 0.45088047 -0.83375865 4.9400303e-005 2.2918528e-005 0.0002264426 0.00026393312 -0.02866843 -0.88560057
661412500 0.24865113 -0.91140193 -2.5535805e-005 3.4809636e-005 0.00030692955 5.1560313e-005 -0.23472428 -0.8530823
668900000 0.034849472 -0.94117141 0.00010109745 -0.00017923197 6.3486739e-005 0.00016774827 -0.42488551 -0.77598393
676387500 -0.17343949 -0.92022407 -2.229838e-005 0.0006494897 -0.00013585646 0.00023234 -0.58982408 -0.65960616
683875000 -0.36820102 -0.85606986 -0.00032397313 -1.583397e-005 1.3054446e-005 -0.00035268062 -0.72408646 -0.51109117
691362500 -0.54247451 -0.75320905 -0.00017941353 4.7684389e-005 -0.00033765068 -9.0368994e-005 -0.82161933 -0.33732459
698850000 -0.68997872 -0.61950463 0.00014670442 -0.00020258893 0.00036033121 -0.00011296663 -0.8791315 -0.14655519
706337500 -0.80791777 -0.45861968 0.00055641495 0.00032053975 -8.3365412e-006 -0.0002616031 -0.89396966 0.0544682
713825000 -0.89142781 -0.27398756 -0.00027165093 -0.00021669001 -0.00040613243 -1.7641352e-006 -0.86202723 0.25513896
721312500 -0.93527967 -0.072249874 -2.2702992e-005 9.5477226e-005 8.8173205e-005 -0.00061431271 -0.7833482 0.44483072
728800000 -0.93276 0.13651894 0.00018551026 -0.00037932457 0.0004006956 4.70552e-005 -0.6604256 0.61205816
736287500 -0.88204938 0.34796062 -0.0001212879 -0.00013839311 -0.00016159569 7.839707e-006 -0.50110143 0.74417883
743775000 -0.78182518 0.54320735 1.706265e-005 0.00027891612 0.00011846512 0.00054726144 -0.31546474 0.83566159
751262500 -0.63350952 0.70921993 0.00015429423 -0.00037010582 -0.00011231001 1.7386037e-005 -0.11589254 0.880009
758750000 -0.44943991 0.83380723 -0.00047864468 0.00046349561 -6.8486268e-005 -0.00011110186 0.087216064 0.87873077
766237500 -0.24254411 0.910689 0.00038873876 -0.0001058237 0.00064843573 -0.00021642985 0.28380454 0.8308019
773725000 -0.024608532 0.93454909 0.00034151378 -6.0106398e-005 5.172865e-005 -8.1417791e-005 0.4650594 0.74082762
781212500 0.18993838 0.90890497 -9.3413633e-005 -0.00024308794 0.00015246085 5.4562475e-005 0.62301636 0.61230201
788700000 0.39039916 0.83685672 0.0003859406 0.00021348435 5.8798207e-005 -0.00022121167 0.75026226 0.4502627
796187500 0.56822819 0.72370625 -0.00015050158 0.00014223243 0.00012764391 -0.00018200497 0.83731854 0.26121452
803675000 0.71686661 0.57674074 -5.8614998e-005 9.8674325e-005 -0.00017147357 -1.7473129e-005 0.87838614 0.054190926
811162500 0.83015281 0.39878783 -0.00012248465 0.00010777452 -6.0872273e-005 0.0002469657 0.86613053 -0.15856914
818650000 0.90212935 0.19947033 0.00018757024 0.00016583894 0.00014839381 -9.1159702e-005 0.8036623 -0.36279479
826137500 0.92833543 -0.013256275 -0.00010133663 0.00029917815 -0.00049118861 2.5282359e-005 0.694359 -0.54760367
833625000 0.90540034 -0.22744954 -0.00018794254 -0.00019920924 -0.00021389122 -8.864449e-005 0.54222631 -0.69820678
841112500 0.83014083 -0.43237317 -6.6329056e-005 0.00017369901 3.2782824e-005 0.00033640166 0.36047924 -0.80751151
848600000 0.70985293 -0.61508125 -5.7709967e-005 -8.80035e-005 0.00036721144 -0.00024260434 0.16125891 -0.8690486
856087500 0.54706776 -0.76339352 -0.00010586379 0.00037628392 0.0001124098 -1.506533e-005 -0.046124719 -0.8801716
863575000 0.35564262 -0.86678523 6.7948014e-005 -0.00020427656 -0.00014071354 -0.00026631539 -0.24782087 -0.84331149
871062500 0.14831479 -0.92181498 -0.00012469456 -6.1757477e-005 0.00010855557 0.00021550675 -0.43205562 -0.76158178
878550000 -0.063084841 -0.92576855 0.000168527 -0.00012262014 -0.0002663355 -0.00013495829 -0.58988452 -0.64296651
886037500 -0.26539874 -0.8830325 -7.9754464e-006 4.4599765e-006 -9.9180681e-005 -0.0002571909 -0.71686184 -0.49590331
893525000 -0.45037597 -0.79854846 0.00020595944 9.9013807e-005 3.0109935e-005 0.00033235372 -0.80470347 -0.32709882
901012500 -0.60983115 -0.67830157 -5.7438912e-005 0.00021509896 0.0001031167 -0.00027539441 -0.85525662 -0.14391819
908500000 -0.7388981 -0.52884537 -0.00015443025 -0.00024002364 0.00011915639 -0.00050852908 -0.86618918 0.048144739
915987500 -0.83573133 -0.35642073 0.00021677271 -4.0098297e-005 -0.00022894576 -0.00017251076 -0.8348397 0.23696131
923475000 -0.89598751 -0.16686268 8.8973567e-005 0.00024197086 3.3799672e-005 0.00044893127 -0.76446092 0.41481805
930962500 -0.91370153 0.031995051 -4.0725718e-005 0.00016769461 0.00010710493 8.7139393e-005 -0.65530908 0.57687831
938450000 -0.89034408 0.23456813 -0.00025969752 3.9322411e-005 -0.00023809547 -0.00041191926 -0.50934201 0.71303523
945937500 -0.820328 0.43199432 -0.00054433802 -0.000197512 0.00027897776 -0.00022556404 -0.33121359 0.81521362
953425000 -0.70383435 0.61202127 8.4983794e-006 0.00022618122 0.00012731442 -0.00015027964 -0.12940486 0.87301069
960912500 -0.54263932 0.7640937 -0.00024256809 -2.9386041e-005 0.00023532077 -0.00010915947 0.085018553 0.87865436
968400000 -0.34840789 0.86965185 -0.00015040544 -8.9532783e-005 0.00019606679 0.00022168619 0.29253215 0.82831895
975887500 -0.13589893 0.92460746 -3.9197616e-006 -0.00015210737 -8.6184227e-005 0.00012955886 0.47993222 0.72884107
983375000 0.081613094 0.9245289 -0.00013851267 -0.00041096375 0.00021123931 0.00011827809 0.63476634 0.58837444
990862500 0.28957877 0.8755666 -0.00023075365 -7.7017445e-005 -0.00022865683 -9.3385388e-005 0.75133836 0.41877955
998350000 0.47792783 0.78128135 0.00044746467 0.00022257025 -0.00025777082 -0.00021307342 0.82549649 0.22990832
1005837500 0.62537605 0.66728783 0.0001985468 0.00011669457 0.00015224991 -8.6191467e-005 0.8582049 0.014297318
1013325000 0.75857455 0.51307213 -0.00020981113 0.00011834663 -0.00028906335 0.00045707665 0.84293711 -0.18637328
1020812500 0.85703528 0.33377099 -7.8733152e-005 9.2789494e-005 -0.0002496118 0.00024678273 0.78347743 -0.38293079
1028300000 0.91769779 0.13445199 -5.2506246e-005 0.00019938558 7.7244316e-005 -0.00029889162 0.67699152 -0.56417048
1035787500 0.93220788 -0.076902419 -5.9283142e-005 -0.0001542493 0.00031501078 -6.3860156e-005 0.52667451 -0.71851552
1043275000 0.89713931 -0.29189393 0.00016657297 -0.00015124728 3.5511424e-005 -0.00021639082 0.33741358 -0.82861364
1050762500 0.80800134 -0.49599099 0.00034581689 -0.00012123633 8.6421833e-006 4.4731296e-005 0.12629364 -0.88674498
1058250000 0.67085558 -0.67430121 -0.00038216187 -0.0004169996 4.1620013e-005 -8.3832347e-006 -0.089063868 -0.88724065
1065737500 0.49283108 -0.81189382 -7.9658981e-005 -0.00028871061 0.00025063826 0.00013376797 -0.29049531 -0.83353013
1073225000 0.28856412 -0.89675856 -5.7333058e-005 0.00021810192 -0.00011953501 0.00012664549 -0.46583986 -0.73717242
1080712500 0.075562596 -0.92810249 -0.0001614293 8.2223742e-005 2.2135329e-005 -1.7742364e-005 -0.61038637 -0.60977578
1088200000 -0.13184094 -0.90992165 0.00027404429 -9.9090292e-005 0.00023904176 8.5087842e-005 -0.72032112 -0.4600293
1095687500 -0.32224602 -0.84975296 -8.685045e-005 5.3808348e-005 -0.0001596857 4.5772525e-005 -0.79915005 -0.29591981
1103175000 -0.49360955 -0.7545504 -4.3176398e-005 0.00010662884 0.00010019208 -7.224908e-005 -0.84479016 -0.11908755
1110662500 -0.64320081 -0.62915838 4.0822702e-005 -0.00010589712 -1.2875636e-005 0.00044236035 -0.8551017 0.066165708
1118150000 -0.76527232 -0.47637105 -1.4436959e-006 0.0003669906 4.1575946e-005 -2.4296416e-005 -0.82706553 0.25579479
1125637500 -0.85542405 -0.29822144 0.00026334127 -0.00015841723 0.00016100258 -5.251899e-005 -0.75414568 0.44045442
1133125000 -0.90677935 -0.10041038 -0.00018851459 -4.0140458e-005 -0.00031288844 -2.8609209e-005 -0.63543689 0.6080302
1140612500 -0.91191673 0.10806869 2.6733211e-005 -0.00024163187 0.00010769691 -7.4447817e-005 -0.47428766 0.74437034
1148100000 -0.86654836 0.31722003 -0.00037084331 -0.00012469907 -0.00043295833 0.0001410213 -0.27997276 0.83445793
1155587500 -0.76763916 0.51172757 0.00015375536 0.00014955974 4.855256e-005 -0.00020538738 -0.071642175 0.872491
1163075000 -0.62319791 0.67457277 -0.00043021594 0.00012282307 9.4534771e-005 -8.0565442e-005 0.13759033 0.85751295
1170562500 -0.44694155 0.79449385 9.6164789e-005 -0.00028762443 -5.7032634e-005 0.0003226198 0.33280373 0.79583794
1178050000 -0.25275677 0.86838156 0.00029951258 -5.1131163e-005 3.334651e-005 9.4554489e-005 0.5067637 0.69352794
1185537500 -0.051789783 0.89846289 0.00012835854 -0.0002008247 8.4609361e-005 -0.0002559142 0.65461504 0.55622029
1193025000 0.14695731 0.88465083 -1.6255235e-005 0.00026265931 0.00024623764 -5.3062613e-005 0.76915836 0.38939294
1200512500 0.33892724 0.83269912 0.00022652507 -0.00026593014 -0.00022102997 -2.0331829e-005 0.84508097 0.1976911
1208000000 0.51712799 0.73959029 -7.0924839e-006 -2.2176377e-005 -0.00033666618 0.00055956381 0.8749249 -0.011106063
1215487500 0.67482883 0.60916412 -0.00026762966 -7.1409158e-005 -9.2009159e-006 -9.7516968e-005 0.85179967 -0.22507213
1222975000 0.80296862 0.44345433 4.5145822e-005 6.0947084e-005 0.00015995809 2.7417973e-005 0.77230692 -0.4271194
1230462500 0.88821942 0.24544202 0.00036210363 -0.0001888601 -0.00017597381 -0.00030886361 0.64416963 -0.60008001
1237950000 0.92411286 0.031328809 0.00039633634 0.00011365853 0.00015050301 -9.5042145e-005 0.47849029 -0.73054147
1245437500 0.90425694 -0.18611945 0.00012367782 -9.9420307e-005 0.0001896091 0.0001068165 0.29297197 -0.81311595
1252925000 0.83030552 -0.38743708 0.00011271215 1.1217047e-005 0.00018065065 -0.00030536146 0.10123123 -0.8501482
1260412500 0.71312642 -0.56014442 -7.3662275e-005 -0.00010881625 2.2887902e-005 -0.00036644138 -0.086477377 -0.84515935
1267900000 0.56578302 -0.69694096 1.3450222e-005 0.00031612199 0.00015452826 -0.00014738172 -0.26601329 -0.80356252
1275387500 0.39666069 -0.79528552 -0.00017723921 -0.00027768346 -0.00028708897 -0.00013298681 -0.43383813 -0.72940177
1282875000 0.21618894 -0.85900915 -0.00033992907 -0.00035470238 -0.00026441514 0.00024061662 -0.58524549 -0.62170023
1290362500 0.028145211 -0.88495535 -0.00011152611 -0.00022753864 -0.00022623404 0.00039499637 -0.71603185 -0.48197895
1297850000 -0.1657756 -0.87435675 2.0234964e-005 0.00034205511 6.0868115e-006 6.8891095e-005 -0.81507909 -0.31045443
1305337500 -0.35611913 -0.8248722 -0.0002164341 -1.8801877e-005 -0.00015062116 3.5897876e-005 -0.87164205 -0.11254211
1312825000 -0.53826976 -0.73190725 2.5336318e-005 -6.327498e-005 0.00049215136 -0.00011488434 -0.8762362 0.099076927
1320312500 -0.69890594 -0.59290177 0.00015930949 -0.00011342165 -2.4376575e-007 -0.00016143781 -0.82408118 0.3057631
1327800000 -0.82281262 -0.41509524 6.7481036e-005 -0.00024832151 -1.6376238e-005 -2.1259462e-005 -0.71958315 0.48985639
1335287500 -0.89868605 -0.20745517 0.00015641363 -0.00012303263 6.0736154e-005 -0.00016235288 -0.57634115 0.63649338
1342775000 -0.9167856 0.010105869 -2.3103921e-005 0.00013951486 -2.2556234e-005 -0.00024948484 -0.40771568 0.74181616
1350262500 -0.88171244 0.22083077 8.0631507e-005 -1.7305916e-005 -9.6190095e-005 3.5061086e-005 -0.22682981 0.8046546
1357750000 -0.79992467 0.41218698 -0.00017521708 0.00018138558 -0.00042742604 0.00012883288 -0.041379996 0.82858926
1365237500 -0.6817553 0.57450789 -0.00020693892 -8.517057e-005 -3.7960433e-006 -9.0835791e-005 0.1437915 0.81652713
1372725000 -0.53595245 0.70565361 0.00013640389 -0.00014856321 0.00018801892 0.00010561657 0.32478005 0.76900405
1380212500 -0.36967731 0.80400568 -9.4194393e-006 -0.00013815414 -1.08803e-005 -0.00013763418 0.49744225 0.68282908
1387700000 -0.18744114 0.86974704 -0.00013451833 -4.2989897e-005 -0.00040311259 -0.00029295971 0.65295017 0.55697101
1395187500 0.009436829 0.89796925 -0.00034261518 -0.00012394 9.84406e-005 -0.00012885312 0.77909297 0.38907868
1402675000 0.21389899 0.88359177 0.00018177589 -0.00020060947 -4.1828625e-005 -5.2051804e-005 0.86219174 0.18828467
1410162500 0.41661277 0.820144 0.00020820633 -6.0934755e-005 -0.00041816622 -0.00023967464 0.88809282 -0.032839052
1417650000 0.60435307 0.70469803 -0.00035076478 -0.00014686765 5.4446416e-005 4.7378668e-005 0.8516531 -0.25300759
1425137500 0.7587319 0.54134065 -0.0001201861 -0.00023585971 1.4392963e-005 -0.00014120729 0.75826144 -0.45007089
1432625000 0.86395484 0.34304589 -4.6082187e-005 -6.7552224e-005 -0.00013753251 -0.00010785868 0.62051231 -0.61107588
1440112500 0.9121139 0.12672472 -7.5323813e-005 -0.00014836268 -2.2346809e-008 5.0598381e-005 0.4558211 -0.72837412
1447600000 0.90412533 -0.087931618 -0.00021129912 1.5075077e-005 0.00034533758 8.513486e-005 0.27670375 -0.80149966
1455087500 0.84756976 -0.28534114 -0.00015785662 3.175213e-005 0.00011995562 -1.0077771e-005 0.093096629 -0.83387864
1462575000 0.75302196 -0.45796368 0.00028736549 -0.00013165765 -0.00011471441 -0.00016393398 -0.090344377 -0.82972944
1470062500 0.62974215 -0.60261565 -0.00017088193 0.00025452022 4.6590285e-005 -0.00020239058 -0.26708922 -0.7898308
1477550000 0.48588845 -0.71858442 -0.00015199173 -0.00030577771 0.00018704361 4.6315654e-005 -0.43424779 -0.71415454
1485037500 0.32285222 -0.80634344 -7.7720533e-006 -0.00021382218 -0.00025333712 0.00017459293 -0.58529896 -0.60564691
1492525000 0.14425193 -0.86323678 0.00013186612 -4.830103e-005 0.00029066909 0.00011563391 -0.71175593 -0.4612174
1500012500 -0.047783297 -0.88522798 -0.000224524 -0.00010198146 -6.941038e-005 0.00018217687 -0.80444843 -0.28751108
1507500000 -0.24834068 -0.86317092 0.00023586745 6.3610845e-005 0.00010578068 4.8340225e-005 -0.85353702 -0.09089347
1514987500 -0.44514614 -0.79284525 -9.1966967e-006 -4.7122565e-005 -8.4242332e-005 -0.00023508737 -0.85182685 0.1145853
1522475000 -0.62405026 -0.67351252 1.4933146e-005 1.0066189e-005 4.3106429e-005 -0.0001230472 -0.79815966 0.31341806
1529962500 -0.76839113 -0.50842148 0.00011988165 -0.00018798982 3.8580652e-005 0.00010949668 -0.69729984 0.49234071
1537450000 -0.8655501 -0.31059164 0.00021119692 0.00027189939 -0.00028295055 0.00014199922 -0.55738813 0.63874817
1544937500 -0.90775245 -0.098339029 7.5957607e-005 -0.00021409121 -9.286881e-005 -3.9295002e-005 -0.39010811 0.74632174
1552425000 -0.89601129 0.11030771 4.4199023e-005 -0.00013228066 -0.00010980762 -0.00013789797 -0.20592812 0.81292659
1559912500 -0.83829767 0.30522251 2.4948855e-007 0.00011205827 0.00014992226 0.00014650851 -0.014776496 0.83629972
1567400000 -0.74387193 0.47593987 0.00011309379 -0.00014543122 5.9135938e-005 5.4285571e-005 0.17597336 0.81851816
1574887500 -0.62079108 0.62036276 0.0002896681 -2.4594447e-005 -0.0001237213 -2.0167847e-005 0.35975179 0.76081032
1582375000 -0.47406805 0.73670286 -6.7175992e-005 -8.138307e-005 0.00012029122 0.00023114555 0.52946502 0.66248715
1589862500 -0.30695704 0.82275766 0.00016299356 -7.6463235e-005 2.671587e-005 8.074483e-005 0.67561764 0.52576864
1597350000 -0.12345272 0.8766374 -0.00014540258 2.0798518e-005 -6.2669373e-005 0.00033762597 0.78810734 0.35448453
1604837500 0.073737681 0.89130783 -5.1161504e-005 -9.4561168e-005 -0.00011279121 2.6799642e-005 0.85580337 0.15672575
1612325000 0.27664557 0.86069256 -0.00019218749 8.1758306e-005 7.5301781e-005 0.00032550548 0.87147135 -0.053949662
1619812500 0.4736096 0.78035128 -0.00014111151 -6.479826e-005 -5.1032635e-005 5.7953494e-005 0.83208662 -0.26081988
1627300000 0.64796484 0.6502642 -9.3617346e-005 0.00022056185 0.00032302135 0.00012686411 0.74160087 -0.44861153
1634787500 0.78540003 0.47606322 -2.2916423e-005 -6.9511159e-005 -5.7608882e-005 -1.2603688e-005 0.61070776 -0.60344893
1642275000 0.87152833 0.2734836 5.1279258e-006 0.00012815664 -9.4840791e-005 0.0001063516 0.45107388 -0.72007614
1649762500 0.90324372 0.059307035 -0.00020045528 -0.00011653622 5.8416757e-005 2.8018815e-006 0.27499035 -0.79562998
1657250000 0.88191217 -0.15062708 0.00010468064 0.00022580664 -0.00048704288 -0.00027971395 0.09075354 -0.83082354
1664737500 0.81565332 -0.34403357 4.4082048e-005 8.6193628e-005 8.4668449e-005 0.00015835679 -0.095003359 -0.82716936
1672225000 0.71188366 -0.51425058 2.1347003e-005 -5.0293762e-005 -0.00028444771 -7.9024809e-005 -0.27600405 -0.78497505
1679712500 0.57797712 -0.65734023 0.00038744582 3.5722547e-005 -0.00011295747 9.7378484e-005 -0.44569695 -0.70420718
1687200000 0.41808319 -0.77021998 -7.8473997e-005 0.00011265851 -0.00019590023 -0.00016029403 -0.5980863 -0.58604306
1694687500 0.23495333 -0.84831911 -6.5040345e-005 -0.00010655794 -0.00014222894 -0.00031528293 -0.71959025 -0.43289495
1702175000 0.035146799 -0.88665712 0.00018424474 -0.00021452205 0.00025283988 3.8525755e-005 -0.80129904 -0.25282538
1709662500 -0.17188556 -0.87768078 0.00023075326 7.9823127e-005 -0.00010144923 -5.1921565e-005 -0.83588052 -0.056660403
1717150000 -0.37387115 -0.81676579 -0.00013225504 0.00018272383 0.00013678262 -0.00010969661 -0.82280046 0.14106126
1724637500 -0.55554581 -0.70699453 0.00016428411 2.125203e-005 0.00010812694 0.00018343645 -0.76358157 0.32636005
1732125000 -0.70179892 -0.55657351 -8.5132466e-005 -6.486207e-005 -4.3996512e-005 0.00016050899 -0.66512299 0.48977822
1739612500 -0.80530536 -0.37907264 7.2916846e-005 0.00012693524 -0.00010344371 -0.00042861496 -0.53607661 0.62628549
1747100000 -0.86275482 -0.18747208 0.00022051664 -0.00015918458 1.8349925e-005 0.00029032852 -0.38383225 0.73310226
1754587500 -0.87643659 0.0043648547 -0.00027049184 -0.00030039324 -0.00016033977 -0.00022793193 -0.21053602 0.80675805
1762075000 -0.85155076 0.19102027 6.3020176e-005 0.00012690719 -0.00014405893 1.9468713e-005 -0.022473115 0.84435606
1769562500 -0.79238623 0.36754102 -0.00017660903 9.1949027e-005 0.00012778711 0.00024600787 0.17736526 0.83923471
1777050000 -0.6996507 0.53057802 -4.0966592e-005 5.4650896e-005 -0.00020647462 -2.170042e-005 0.37806043 0.78449464
1784537500 -0.57444108 0.67474389 5.9250211e-005 -0.00030365289 -5.8911395e-005 0.00015993608 0.5655185 0.67692113
1792025000 -0.41522223 0.79517674 1.6723096e-005 -0.00012211131 -5.6305464e-005 2.517477e-005 0.71920884 0.51723593
1799512500 -0.22513221 0.87801647 8.5130239e-005 -2.2705062e-005 -5.2952379e-005 0.00032373166 0.82121998 0.32152355
1807000000 -0.013469996 0.91167164 -0.00035764772 -2.5263727e-005 -0.00024225362 0.0001989936 0.86423928 0.10929578
1814487500 0.2037552 0.89012486 -1.069778e-005 5.8354944e-005 3.0422656e-005 -0.00013244539 0.85009819 -0.097072802
1821975000 0.40722007 0.81007951 -0.0001315829 -0.00011335828 -0.00013097064 7.9052719e-005 0.78941107 -0.28257781
1829462500 0.57986796 0.68407845 2.7836961e-005 9.2491746e-006 -0.00011468941 -0.00012031897 0.69651622 -0.44188008
1836950000 0.71129268 0.52342147 4.3493914e-005 0.00012666655 0.00020079478 -8.0081452e-005 0.57769507 -0.57432169
1844437500 0.80015302 0.34485924 -3.9630428e-005 -4.6057623e-005 6.6255852e-005 -0.00022454614 0.44040403 -0.68138647
1851925000 0.84876662 0.15822418 -0.00015948174 0.00031392314 2.5517202e-005 0.00014827114 0.28644928 -0.76189488
1859412500 0.86031044 -0.031480778 -0.00017722235 0.00010274052 -6.0004681e-005 0.00015727249 0.11392141 -0.81370193
1866900000 0.83470839 -0.22017294 5.2449857e-005 8.1616286e-005 -0.00014501694 -0.00017351328 -0.073117629 -0.82946748
1874387500 0.77322888 -0.40585059 -0.00062244595 7.2199698e-005 -3.1405214e-006 0.00013301124 -0.26913697 -0.80038857
1881875000 0.66863078 -0.58246464 0.00018319685 0.00016107832 0.00011574163 0.00013089151 -0.4578023 -0.71979219
1889362500 0.51977724 -0.73645085 -7.6959856e-005 -8.5729967e-005 0.00054653874 0.000215229 -0.62162334 -0.58758992
1896850000 0.32674512 -0.85126108 -0.00027282097 5.3641546e-005 0.00020553393 -0.00025118602 -0.74324435 -0.41606608
1904337500 0.10529076 -0.90950191 3.5873494e-005 -0.00033941629 0.00031956693 -0.00024470798 -0.81320864 -0.22272381
1911825000 -0.122113 -0.90189469 -0.00017898119 -0.00010725455 9.3954724e-005 -0.00028262762 -0.83102262 -0.0253966
1919312500 -0.32993841 -0.83352691 0.00020281035 0.0001834046 -2.7996295e-005 -0.00018859055 -0.8050673 0.16141729
1926800000 -0.50535053 -0.7204597 -3.1699077e-005 0.00017008247 -0.00013330673 0.00013022887 -0.74315244 0.33175966
1934287500 -0.63729978 -0.57896173 -7.9941128e-006 -0.0001969742 0.00018736976 -1.8834953e-005 -0.65182024 0.48347187
1941775000 -0.73096633 -0.42477858 -0.00014313405 0.00047547306 0.00011828115 5.425153e-005 -0.5355438 0.6147753
1949262500 -0.79313022 -0.26588893 -0.00025167668 -6.1268176e-005 -0.00030316762 2.2544409e-005 -0.39318341 0.72477144
1956750000 -0.8279649 -0.10284846 7.4641212e-005 0.000359745 9.8040407e-005 4.8327445e-005 -0.22568353 0.80760044
1964237500 -0.83753222 0.063796245 -0.00018671401 7.2990719e-005 -0.00023275969 4.3961227e-005 -0.034176949 0.85321254
1971725000 -0.82012349 0.23609075 2.4101423e-006 -0.00021023875 -3.8919792e-005 3.73901e-006 0.17261826 0.85166633
1979212500 -0.76878023 0.41124359 -0.00018804974 0.00039956396 0.00038220803 6.4411928e-005 0.37777314 0.7924003
1986700000 -0.67531043 0.58498245 0.00012684554 -0.0001960009 0.0001127112 -0.00021965908 0.56336153 0.67783707
1994187500 -0.53509438 0.7403807 -0.00020528157 -6.1039565e-005 8.7169043e-005 -0.00011240561 0.70869637 0.51623118
2001675000 -0.3445189 0.85978448 8.5674168e-005 0.00016106416 0.00013995428 -9.4839546e-005 0.8036719 0.32521725
2009162500 -0.12118871 0.92318779 8.7388282e-005 9.9272758e-005 0.00024502125 -0.00011659363 0.8449713 0.12469529
2016650000 0.11344328 0.91782677 0.00053082063 -6.5486725e-005 -0.00012828322 0.00014215229 0.83836943 -0.072328247
2024137500 0.33121961 0.84827858 0.00011710569 -8.4332394e-005 1.1043413e-005 0.00024404096 0.7892369 -0.25632656
2031625000 0.51400733 0.72767997 2.0940273e-005 -0.00021251199 -1.8338675e-005 0.0002784307 0.70586014 -0.42276883
2039112500 0.65510339 0.57486528 0.00018373081 0.00017610384 0.00021045448 5.6901343e-005 0.59027898 -0.5656544
2046600000 0.75343943 0.40382844 -0.00011324746 1.9065958e-005 0.00025697643 0.00020343674 0.44753212 -0.68200964
2054087500 0.81355131 0.22387461 0.00010360437 -8.6588698e-005 5.4722847e-007 -0.00020189477 0.28330636 -0.7657764
2061575000 0.83838087 0.037814219 0.00018474499 3.9728243e-006 5.9184353e-005 -0.00023158839 0.10164206 -0.81173468
2069062500 0.82619214 -0.14957717 -7.6739467e-005 8.0017191e-005 0.00040265542 -0.00018165755 -0.088147298 -0.81590444
2076550000 0.77575982 -0.33261207 -0.00010100602 0.00011925559 -0.00017844887 5.5441775e-005 -0.27429238 -0.7764641
2084037500 0.6861406 -0.50543505 0.00011554248 6.9340258e-006 1.1565498e-005 -5.9209506e-005 -0.44688231 -0.69392538
2091525000 0.55549991 -0.65550822 -3.077064e-005 3.6313129e-005 -0.0002960976 -0.00017324262 -0.5968442 -0.57434636
2099012500 0.39142865 -0.77263111 -0.00010232069 -3.0824588e-006 -0.00015357744 2.995437e-007 -0.71567351 -0.42447901
2106500000 0.20197269 -0.84609658 -0.0003035329 -0.00020707854 -0.00017934997 -4.6299076e-005 -0.79861057 -0.25043833
2113987500 0.0025572067 -0.87122303 0.00030081507 -5.8210713e-007 -8.4304032e-005 0.00015201909 -0.84112471 -0.060300279
2121475000 -0.19388014 -0.8483538 -9.0289992e-005 -9.1271402e-005 -0.00012861512 0.00016525108 -0.83873409 0.13627787
2128962500 -0.37768295 -0.7832284 0.00022646799 -6.0919661e-005 -8.6670574e-005 4.968153e-005 -0.79025692 0.33017272
2136450000 -0.53775382 -0.68107182 -0.00011532985 -0.00010534321 0.00026620994 0.00015503944 -0.69442111 0.50726807
2143937500 -0.67302424 -0.54864997 -0.0003054087 0.00030364122 -0.00013347162 -0.00018572099 -0.55772692 0.65746367
2151425000 -0.77620488 -0.39135024 -5.8547725e-005 -0.00011585423 -8.0989783e-005 -6.053047e-005 -0.38823074 0.76953197
2158912500 -0.8441934 -0.21559612 0.0002164239 1.2109219e-005 -2.1882221e-005 -0.00050384796 -0.1991118 0.83577067
2166400000 -0.87384498 -0.028054692 -0.00013380616 0.00013595882 -0.00015936584 -0.00013190803 -0.00112825 0.85485673
2173887500 -0.86093169 0.16417152 0.00028545019 0.00021524356 2.2454898e-005 0.0001600219 0.19270644 0.82855123
2181375000 -0.80527157 0.35067567 0.00011409693 -8.386332e-005 -0.00017594809 0.00022606621 0.37232 0.76040399
2188862500 -0.70748496 0.52087945 -5.5062519e-005 7.8556906e-005 -0.00016507745 0.00015280813 0.53304416 0.65430135
2196350000 -0.57226479 0.66541421 0.00011045406 0.0002201461 -3.9401853e-005 -9.3723946e-005 0.6678614 0.51719069
2203837500 -0.40654138 0.77782261 -8.5951015e-006 -0.00011383354 -0.00018814324 -0.00023654036 0.76906252 0.34999532
2211325000 -0.21788636 0.84906262 0.00012524209 3.6857944e-006 0.00029412218 -7.8998361e-005 0.83106112 0.1615217
2218812500 -0.015012342 0.87598848 6.447122e-005 1.7881923e-005 -0.00027779376 0.00024665831 0.84634739 -0.040362272
2226300000 0.19129553 0.85673243 -8.3951563e-005 0.00011790521 -9.3203373e-005 -0.00010926992 0.81116378 -0.24107072
2233787500 0.39001265 0.78743571 1.4254976e-005 5.8434212e-005 2.7674751e-005 7.2644943e-005 0.7248053 -0.42795059
2241275000 0.56833452 0.67010945 0.00048184939 -1.8401372e-005 -4.1226413e-005 -0.00014873256 0.59616125 -0.58480793
2248762500 0.71447498 0.51000023 -2.8928793e-005 0.000225385 -2.46823e-005 -0.00042089133 0.43701813 -0.70195937
2256250000 0.81329119 0.31853357 0.000306553 -9.6633426e-005 0.00025983201 0.00033162444 0.25787506 -0.77729654
2263737500 0.85980493 0.11156573 -0.00012454927 -0.00018103483 0.00013115708 2.7017819e-005 0.071457699 -0.81025368
2271225000 0.85432988 -0.09624847 -4.8123013e-005 1.7280665e-005 0.00013235836 -2.7981927e-005 -0.11214539 -0.80289406
2278712500 0.79989451 -0.28994885 5.0597528e-006 7.0334157e-005 -0.00011475394 0.00031778161 -0.29003686 -0.75762659
2286200000 0.7065776 -0.45971519 -0.00020873337 -0.00016783239 -0.00023080994 0.00031751589 -0.45462689 -0.67797858
2293687500 0.58335805 -0.60010755 0.00011571906 -2.8393835e-005 0.00049615948 0.00011450252 -0.60070926 -0.56407917
2301175000 0.43926147 -0.70901752 0.0001049636 -4.6648083e-006 0.00012441541 -0.00010268587 -0.72109288 -0.41783726
2308662500 0.28019914 -0.78651112 -5.543593e-006 -0.00028291976 0.00049518404 0.00027713311 -0.80689782 -0.24448827
2316150000 0.110324 -0.83154887 -1.1652116e-005 -0.00012482176 -0.00018226769 -0.00016317952 -0.85114938 -0.052227311
2323637500 -0.066194415 -0.84508002 -0.0001179233 -0.000272554 -5.6703928e-005 -0.00035377603 -0.84696436 0.14907192
2331125000 -0.24484466 -0.82061547 0.00017886901 0.0002105231 -0.00036461616 9.2810769e-005 -0.79214066 0.34383562
2338612500 -0.41847655 -0.76073414 -8.0721016e-005 -8.5375992e-005 0.00011652478 8.2927145e-005 -0.69184214 0.51963675
2346100000 -0.58028781 -0.6625644 -0.00032879523 0.00032692152 0.0001566307 1.4340642e-005 -0.55292124 0.66440552
2353587500 -0.71994597 -0.52535272 0.00012046796 4.8521397e-005 -9.6002732e-005 9.1414244e-005 -0.3846629 0.77102041
2361075000 -0.82609719 -0.35524189 0.00010797127 -0.00026387631 -9.8416662e-005 -1.1035022e-005 -0.19796225 0.83640081
2368562500 -0.88971734 -0.16101244 0.00013773711 7.6259428e-005 -0.00034979457 0.00015487047 -0.00088304613 0.85679376
2376050000 -0.9041003 0.046270099 -0.00027592469 6.3925045e-006 -0.00032713014 -0.00020157314 0.19544348 0.83112711
2383537500 -0.86719859 0.25364965 0.00035725266 8.8396147e-005 4.6200956e-005 0.00030201522 0.38146779 0.76060683
2391025000 -0.78086811 0.44667944 -0.00062158995 -1.7963846e-005 0.00023496542 -5.3562371e-006 0.5465588 0.64627904
2398512500 -0.64785945 0.61092073 7.9013924e-005 -0.00020959858 7.8048688e-006 0.00030157855 0.67945027 0.4963007
2406000000 -0.48168725 0.73795992 9.5358409e-005 0.00033801259 0.0004741142 0.00037634894 0.77075142 0.31921521
2413487500 -0.29060265 0.81913692 -0.00019392632 -2.0282156e-005 8.542298e-005 0.00029836109 0.81678534 0.12699804
2420975000 -0.089052193 0.85161942 -0.00014436198 2.977929e-005 -0.00031894635 -0.00031508907 0.81664032 -0.067667112
2428462500 0.1102806 0.83688807 1.274147e-005 6.3568375e-005 -0.00011448911 0.00031242429 0.77349365 -0.25399771
2435950000 0.29667813 0.78014225 1.2270571e-005 -3.4981149e-005 0.00022520711 0.00026498552 0.69034564 -0.42399952
2443437500 0.46280736 0.68612111 6.9116839e-005 -2.2928045e-005 0.00020682134 0.00019740511 0.57356679 -0.57165468
2450925000 0.6058017 0.56177104 -3.9472168e-005 7.1799652e-005 0.00013213203 0.00053417031 0.42747372 -0.69091541
2458412500 0.71915764 0.41272435 -0.00010135353 -0.00012472457 0.00032671622 0.00033366837 0.25733447 -0.77608669
2465900000 0.80066919 0.24107207 8.5123567e-005 0.00017087419 -0.00024364452 0.00038283953 0.069232576 -0.8214826
2473387500 0.84600943 0.052164719 -0.00047522757 0.00017894625 -0.00012416638 0.00017934923 -0.12711987 -0.8219102
2480875000 0.84825522 -0.14654388 -0.00013556505 0.00013837396 9.7520948e-005 -0.00010688105 -0.31959957 -0.77430654
2488362500 0.80284035 -0.34627828 -0.0001316546 8.6849963e-005 0.00037026787 -0.00026960787 -0.49546677 -0.67922586
2495850000 0.70644933 -0.53155816 -0.00017730211 4.969061e-005 0.00024856901 -0.00018820762 -0.64074063 -0.54501963
2503337500 0.56504101 -0.68685353 2.9738487e-005 -2.1222853e-005 -4.8380298e-005 9.5373427e-005 -0.74918139 -0.38158303
2510825000 0.3894068 -0.79940897 9.9886587e-005 -0.0002091027 -4.0891518e-005 0.00016983337 -0.8138662 -0.20021555
2518312500 0.19689614 -0.86222976 -8.9496294e-005 1.9309689e-005 -0.00021778687 0.00019323602 -0.8361519 -0.01337976
2525800000 0.0017539841 -0.87491208 -0.00044235197 -6.5178341e-005 -1.9829013e-005 0.00032453297 -0.81747174 0.17119883
2533287500 -0.18283746 -0.8469103 1.8516845e-005 -0.00026061988 4.149778e-005 -0.00019446787 -0.75981009 0.34746471
2540775000 -0.35080069 -0.78377324 4.9709819e-005 -3.5701573e-006 -0.00018487734 1.9154832e-005 -0.66525936 0.50721508
2548262500 -0.50083488 -0.69240832 -6.5724265e-010 1.1057758e-005 -0.00013466767 -0.00023149735 -0.53694183 0.6449796
2555750000 -0.62964529 -0.57755232 5.1084808e-005 0.00025034614 -0.00025294113 -5.0708419e-005 -0.37771198 0.75177914
2563237500 -0.73825055 -0.4379831 -1.4691381e-006 -0.00019462936 -2.1295448e-006 -0.00011149496 -0.19458701 0.81968826
2570725000 -0.82129085 -0.27444527 0.0001305819 0.00018552138 0.00019332289 6.3616098e-005 0.0020192321 0.84150374
2578212500 -0.87027717 -0.089089595 -8.0043455e-006 7.6697521e-005 -4.5891325e-006 0.00028156076 0.19949113 0.81365108
2585700000 -0.87530154 0.11264112 1.9190553e-005 0.0002739685 7.8837496e-005 -4.4929235e-005 0.38382381 0.73730236
2593187500 -0.82811642 0.31863615 -8.4861254e-005 1.0148344e-005 1.9801586e-005 0.0003201236 0.54236567 0.61961979
2600675000 -0.72512114 0.50965053 0.00012868328 -0.00011924086 -0.0003070411 0.00018936934 0.66641629 0.47040716
2608162500 -0.57421511 0.6668312 -0.0006304399 3.4242337e-005 0.00040239267 0.00052205025 0.75232673 0.29842675
2615650000 -0.38833946 0.77464187 6.7049245e-005 -4.6764111e-005 -1.3878908e-005 -8.9963869e-005 0.79737508 0.11274461
2623137500 -0.18904708 0.83294427 0.00039857815 -0.00017390121 -7.2507224e-005 -3.8398834e-005 0.79998446 -0.078323275
2630625000 0.011855925 0.84103447 -0.00010146191 5.9842376e-005 7.2191877e-005 -0.00017761919 0.75953591 -0.26549608
2638112500 0.20390365 0.80756277 4.3921824e-005 -0.00015192074 4.2913776e-005 6.7445126e-006 0.67507392 -0.44011849
2645600000 0.37968785 0.73607582 0.00021177158 -9.095281e-005 -0.00010545602 -9.3605806e-005 0.55229264 -0.59072936
2653087500 0.53780532 0.63283014 -1.5477313e-005 0.00049806054 -0.00020180873 0.00029416307 0.39535248 -0.70767742
2660575000 0.67115635 0.49734092 -2.4073812e-005 0.00028662669 -7.2958239e-005 9.3150065e-006 0.21606562 -0.78158283
2668062500 0.77548802 0.33505931 0.00010836114 0.00024959299 -0.00033270384 -0.00035994744 0.025207454 -0.81122631
2675550000 0.84067082 0.15111634 -7.3703581e-005 9.2816277e-005 0.00019497397 -2.7311e-005 -0.16191028 -0.79500204
2683037500 0.86167151 -0.047190897 0.00018789769 -0.00010982272 2.5030595e-005 -5.6451212e-005 -0.33841622 -0.73821056
2690525000 0.83563328 -0.24466029 -9.6999487e-005 -9.3210379e-005 -3.3748781e-006 -0.00012113549 -0.49687704 -0.64514238
2698012500 0.76137179 -0.42973322 -0.00010405706 -0.00012424552 0.00024894354 0.00021780282 -0.63034517 -0.52147371
2705500000 0.64750487 -0.58879745 4.8921422e-005 -7.4389027e-005 -0.00010249424 -0.00031443741 -0.734712 -0.37070009
2712987500 0.50341547 -0.71614969 1.4639856e-005 -0.00022878374 0.00041802003 -0.0007140098 -0.80461937 -0.19882996
2720475000 0.33762848 -0.80675381 0.00031920124 -1.3830369e-005 -9.8777324e-005 0.00018962901 -0.83468878 -0.011961248
2727962500 0.15995647 -0.85879004 -0.00012064513 -0.0001741348 2.3203236e-005 -0.00017027477 -0.81896877 0.18022738
2735450000 -0.025038496 -0.87389475 3.3274217e-005 -8.642688e-005 -0.00013157437 0.00017604661 -0.75587797 0.36418426
2742937500 -0.21022253 -0.84941566 -0.00033108602 -2.849154e-005 -4.4215874e-005 -8.353006e-005 -0.64849973 0.52694356
2750425000 -0.38799533 -0.7841382 -4.4117216e-005 -0.00016941127 -0.00022967387 0.00017133866 -0.50581712 0.6561982
2757912500 -0.54989022 -0.68030882 0.00062141358 -9.8516626e-005 -0.00029506473 -0.00012812775 -0.33792815 0.74679863
2765400000 -0.68418169 -0.53937691 0.00010215199 0.00031470406 6.4784748e-005 -8.8117522e-005 -0.15753485 0.79507989
2772887500 -0.78271866 -0.37087134 0.00026743964 -6.2559975e-006 -0.00059608731 -7.0646944e-005 0.025149602 0.80246538
2780375000 -0.83805567 -0.18311219 5.1252471e-005 -0.00012097464 0.00013494487 -0.0001783232 0.20397307 0.77153647
2787862500 -0.84893489 0.010551366 -0.00010613842 -0.00026790696 0.00031840263 0.00023183429 0.37255093 0.7041468
2795350000 -0.81525826 0.19968489 -3.5156787e-005 -0.0001637423 6.2774299e-005 -0.00041910089 0.52614653 0.60016912
2802837500 -0.74360073 0.37540492 9.9398276e-005 -0.00036879527 -0.00014386361 -0.00016975887 0.65670979 0.46202651
2810325000 -0.63596314 0.53231841 0.00015183249 -0.00030220748 -0.00030212986 0.00016569496 0.75245255 0.29245511
2817812500 -0.49688923 0.66396624 -0.00028698498 0.00010822458 -1.8824005e-005 -0.00013048945 0.80454451 0.099942818
2825300000 -0.32972458 0.76442033 0.00014159975 0.00019837279 -0.00012272591 -0.0001963219 0.80579382 -0.10145921
2832787500 -0.13978638 0.82703608 -3.4373152e-005 6.7401256e-006 -0.00016171028 1.8700683e-006 0.75445056 -0.29635578
2840275000 0.06501548 0.84334201 -0.00034332188 0.00016538182 -0.00013251601 -0.00024998793 0.65692502 -0.46794334
2847762500 0.26949349 0.80759674 -0.00030447895 -0.00012678425 0.00020997295 -0.00015669693 0.52469897 -0.60621685
2855250000 0.45894822 0.72017455 0.00017978075 0.00013449304 -0.00025364818 -7.3879193e-007 0.36914435 -0.70702469
2862737500 0.61897898 0.588319 0.00025587846 -0.00039610421 0.00016798101 0.00045210385 0.19980605 -0.769669
2870225000 0.73602617 0.42504087 -0.00016230812 2.9893536e-005 -0.00045291125 0.00034452096 0.024316935 -0.79622662
2877712500 0.80983847 0.24529159 0.00011788502 3.7381462e-005 6.515858e-005 -0.00015620177 -0.15257537 -0.78560632
2885200000 0.84076267 0.060003713 -0.00016449027 -0.00045350063 -0.00037475763 -7.0318063e-005 -0.32456774 -0.73953867
2892687500 0.83240706 -0.12168042 0.00031594853 -9.2755232e-005 0.00012011413 0.0002641438 -0.48567027 -0.65513718
2900175000 0.78949368 -0.29495198 -0.00029358355 0.00016828337 -0.00015876365 -3.7442125e-005 -0.6268363 -0.53264809
2907662500 0.7141912 -0.45408913 -0.00018722934 -0.00012108716 -0.00025755414 -0.00019358804 -0.73678297 -0.37862328
2915150000 0.60692358 -0.59876066 -7.366408e-005 0.00010097829 6.1274055e-005 -0.00021177015 -0.80579579 -0.19921272
2922637500 0.47106916 -0.71955281 0.00014501082 0.00018779762 -0.00012347879 -1.0855152e-005 -0.82908797 -0.0078538395
2930125000 0.30737299 -0.81026006 -0.00030393378 7.9473706e-005 -0.0002294251 0.00024878446 -0.80455685 0.18148105
2937612500 0.12371595 -0.86206865 -9.4722436e-006 -9.3329465e-005 -0.00016866533 -0.00018305374 -0.73658091 0.3564969
2945100000 -0.070788793 -0.86953294 -0.00016767147 -4.3249118e-005 0.00031244039 -0.00015630083 -0.63174361 0.5102464
2952587500 -0.26110622 -0.82846165 1.7265294e-005 -0.00014492318 0.00029238427 0.00015680534 -0.49729472 0.63589489
2960075000 -0.43684906 -0.74456668 -0.00038794379 7.4948148e-005 -0.00016040607 0.00023108373 -0.33903307 0.72962248
2967562500 -0.58656055 -0.62308311 0.00026242976 9.769704e-005 -0.00030917238 0.00020302292 -0.1627648 0.78751636
2975050000 -0.70527142 -0.47232139 -0.00024510847 -8.920268e-005 0.00016828049 -0.00018152618 0.025750676 0.8061896
2982537500 -0.78894722 -0.30120629 0.00014037294 0.00040433573 0.00013021049 8.6690758e-005 0.2169694 0.77761352
2990025000 -0.83313525 -0.11465918 -0.00026907481 8.3419844e-005 0.00030178708 -0.00018408737 0.40000653 0.70235246
2997512500 -0.83830792 0.07874082 -4.9727412e-005 -0.00034848886 0.00040810907 0.00030140171 0.55918515 0.58353305
3005000000 -0.79980272 0.27397561 0.00041977168 -0.00034450126 4.2369909e-005 -0.00032947006 0.68040109 0.42674169
3012487500 -0.71380645 0.45849633 -0.00010788326 0.00047337735 0.00024491834 -0.00031783851 0.76052874 0.24778712
3019975000 -0.58305049 0.61906481 -0.00020513222 -0.00025604366 -7.1741728e-005 -0.00016700182 0.79270297 0.059316512
3027462500 -0.41498789 0.74345839 0.00025359908 -0.00026857341 -6.2798616e-005 -0.00033298947 0.78167349 -0.1268263
3034950000 -0.22017327 0.82027125 0.00012836209 -0.00010755449 -7.7849334e-005 -0.00016376693 0.73148817 -0.30224049
3042437500 -0.0163907 0.84597903 0.00019637246 -0.00033851678 0.00040712589 -0.0003367984 0.64568377 -0.45965657
3049925000 0.18184865 0.82109845 -0.00015642225 0.00025508809 4.0344104e-005 0.00025566964 0.53053367 -0.59717262
3057412500 0.36352253 0.75276774 -0.00037106042 -1.0146051e-005 0.00017509822 8.3508312e-005 0.38694605 -0.70811427
3064900000 0.51958042 0.64975125 7.5347292e-005 -0.00012552348 -0.00024395462 -6.6029716e-005 0.21947739 -0.78609866
3072387500 0.64731127 0.52068126 -0.00023442891 7.5944983e-005 3.4664592e-006 -0.00027837683 0.035336059 -0.82420802
3079875000 0.74469817 0.37002224 -8.0434205e-005 -2.3522352e-005 -0.0001961385 -0.00011822171 -0.15795299 -0.81746775
3087362500 0.80942881 0.20488168 2.4606594e-005 -6.6935982e-006 6.7980691e-005 7.4588854e-005 -0.34492302 -0.7618202
3094850000 0.84022838 0.030066777 0.00038952869 -0.00034846758 -2.9121179e-006 -0.00044591556 -0.51125938 -0.66043526
3102337500 0.83317727 -0.14880461 8.0797327e-005 -0.00029231078 -0.00011982768 5.0515296e-006 -0.64653015 -0.52188361
3109825000 0.78842688 -0.32485926 -0.00014204808 -0.00024750418 0.00010095425 3.5104586e-005 -0.74167484 -0.35774049
3117312500 0.70477468 -0.48945594 0.00017635572 5.1856332e-006 -0.00010702119 0.00012866544 -0.79470462 -0.17909525
3124800000 0.58472091 -0.63238037 4.7653475e-006 0.00010913425 0.00034752136 3.0665422e-005 -0.80629462 0.0023148332
3132287500 0.43339488 -0.745336 -0.00016890842 -0.00020615984 -0.00016268931 9.713247e-005 -0.77971458 0.17882873
3139775000 0.25981697 -0.82138646 -9.4648938e-005 0.00020237837 0.00027180038 0.00017964614 -0.71751177 0.34561574
3147262500 0.072492212 -0.85533202 -0.00012401505 0.00023162295 0.00017699393 7.2725576e-005 -0.62032789 0.4964956
3154750000 -0.11778919 -0.84624344 -1.2276646e-005 -0.00035882863 0.00014601047 -1.8429431e-005 -0.4924762 0.62711126
3162237500 -0.30114785 -0.79430836 -0.00031136608 -0.00021116028 0.00012923166 0.00010664386 -0.33420366 0.72920889
3169725000 -0.46941358 -0.70302939 -0.00014384884 8.0817095e-005 2.989153e-006 -0.00010872286 -0.14996545 0.79278189
3177212500 -0.61387163 -0.57558054 -0.00020882254 7.1539951e-005 5.6096786e-005 7.94015e-005 0.049249519 0.81100667
3184700000 -0.7269842 -0.41748545 -7.7567041e-005 -1.8364697e-005 -0.00029737005 -7.1109687e-005 0.25114781 0.77535295
3192187500 -0.80159038 -0.23621158 -2.2319824e-005 -8.7941671e-006 -2.9494022e-005 -0.00030369678 0.43863472 0.68741387
3199675000 -0.83287323 -0.042211823 -0.00016855252 0.00011142978 0.00029385384 9.0844376e-005 0.59475917 0.55339217
3207162500 -0.81819153 0.15533203 -0.000283895 0.00015962428 2.2006618e-005 -0.00033008089 0.70687127 0.38726187
3214650000 -0.755862 0.34355509 -3.9293507e-005 0.00024249815 0.00038346025 -0.00036959301 0.7724824 0.20335869
3222137500 -0.65239519 0.51076275 -0.00013680923 0.00031317887 -6.6944551e-005 -0.00010845479 0.79174966 0.016227596
3229625000 -0.51317996 0.64726812 -2.9655588e-005 -0.00011611028 -0.00010185641 -2.565013e-005 0.77052021 -0.16462034
3237112500 -0.34922498 0.74731886 -0.0001583725 0.00030384335 0.00021086355 0.00012144449 0.71347964 -0.33200893
3244600000 -0.16935627 0.80662733 -0.00011159298 6.6382627e-006 -0.00016756817 0.00072461629 0.62539011 -0.4816938
3252087500 0.014689178 0.82420945 0.00020041394 6.8524973e-006 -0.00021915467 0.00020578224 0.50905365 -0.61163241
3259575000 0.19533546 0.8024016 0.00020707274 -0.00021190902 -2.7383912e-005 -0.00016335116 0.36710939 -0.71808499
3267062500 0.36690962 0.74466002 8.1911501e-005 -0.00053369289 -7.3791409e-005 -0.00019883085 0.20087743 -0.79351288
3274550000 0.52196288 0.65262729 0.00030445983 0.00038149251 0.00050037121 0.00025073375 0.014966862 -0.83083123
3282037500 0.65666443 0.53184509 0.00022003443 -0.00046458599 0.00020261807 0.0001678719 -0.18050867 -0.82179582
3289525000 0.765248 0.38162762 5.0855153e-005 0.00025336599 5.5306566e-005 5.740891e-005 -0.37181878 -0.76012367
3297012500 0.84023434 0.20756093 -1.9590188e-005 -4.6135323e-005 -8.8087771e-005 -0.00022505231 -0.5411368 -0.64797175
3304500000 0.87470603 0.016007721 -4.1813626e-005 0.00030668403 0.00032250938 -0.00021194907 -0.6731599 -0.49640423
3311987500 0.86177605 -0.18484822 -0.00011469855 2.2072387e-005 -3.4565976e-005 -0.00032380514 -0.7574845 -0.3207503
3319475000 0.79672647 -0.37888432 0.00013133325 0.00014607649 -0.00016611184 -3.609297e-005 -0.79449129 -0.13797101
3326962500 0.68354326 -0.5510571 0.00029984812 -4.8521142e-005 -4.0983872e-005 -0.00024904453 -0.79119092 0.040878985
3334450000 0.53054798 -0.68368691 -9.197295e-005 -9.7291428e-005 0.00022042709 -0.00037108918 -0.75279272 0.20868307
3341937500 0.35489494 -0.77283841 -0.00029373897 -0.00018852526 -0.00019307515 -0.00012526991 -0.68422359 0.36313638
3349425000 0.17056641 -0.815898 0.0002099524 -0.00018968286 0.00017302102 -4.1671228e-005 -0.58979321 0.50273305
3356912500 -0.010796536 -0.81746179 -0.00011667033 0.00012112695 -9.5620206e-005 -0.00013842467 -0.4669131 0.62511355
3364400000 -0.18257901 -0.78515249 -9.6212847e-005 -3.1051266e-005 -7.337484e-006 -0.00020631956 -0.31581205 0.72511649
3371887500 -0.34184429 -0.72320843 0.00019008461 -0.00012273098 -9.3892631e-005 7.2847673e-005 -0.1375086 0.79175729
3379375000 -0.48926452 -0.63420206 7.9377869e-006 -8.3267594e-005 -6.6293651e-005 0.0002736985 0.062464073 0.81328177
3386862500 -0.62176704 -0.51688248 0.00034312156 -0.00028895034 -8.3895829e-005 -0.00017232831 0.26735476 0.77834237
3394350000 -0.73378998 -0.36777237 -0.00025883855 -0.0004337118 0.00030219846 -0.00016174391 0.45766833 0.6866262
3401837500 -0.81324255 -0.18759522 -0.00010330959 -0.00056508748 9.7193879e-005 -3.0553234e-005 0.61152834 0.54755521
3409325000 -0.8470313 0.017584791 0.00036000545 -5.9502621e-005 0.00023996631 5.3491578e-007 0.72050685 0.37755534
3416812500 -0.82077849 0.23119338 -3.0029403e-005 5.0841605e-005 -3.9834536e-005 2.4915549e-005 0.78111964 0.19557798
3424300000 -0.7327835 0.4288519 5.3776574e-005 0.00011100536 -6.5269167e-005 8.4799161e-005 0.79958999 0.012677672
3431787500 -0.59722823 0.58607686 0.00036981498 7.5695832e-005 -0.00025038139 -0.00018586476 0.78049541 -0.16478838
3439275000 -0.43504888 0.69541496 -0.00023660604 -1.8515311e-005 -9.0642301e-005 0.00023631344 0.72838962 -0.33353445
3446762500 -0.26635823 0.75789255 5.7358233e-005 -2.6348087e-005 0.00010224935 2.3579238e-005 0.64389139 -0.49190134
3454250000 -0.10167146 0.78325564 0.00023149632 -2.9133923e-006 -9.8546276e-005 -7.9098601e-005 0.52385104 -0.63362479
3461737500 0.055176336 0.78182453 -0.00039564678 0.00028722035 -0.00012438538 -5.4484985e-006 0.36755666 -0.74843681
3469225000 0.20644864 0.76030785 -0.0001381352 0.0003347093 -0.00035286514 8.2341619e-005 0.18103549 -0.82176298
3476712500 0.35652179 0.71709877 0.00022546991 -0.00028699471 0.00041452749 0.0002132926 -0.023547318 -0.84171909
3484200000 0.50677961 0.64770365 -6.7798865e-005 9.2405287e-005 0.00037032334 -0.00047460804 -0.22413662 -0.80390197
3491687500 0.65625274 0.54306245 0.00010328826 4.7803158e-005 -0.00010015342 -0.00018238883 -0.40069154 -0.71609867
3499175000 0.78839827 0.39198765 -0.0001893736 0.00034817602 4.8226429e-005 0.0001370142 -0.54216409 -0.59155107
3506662500 0.88298911 0.19109145 5.619568e-005 0.00026231937 0.00010646065 -5.0603616e-005 -0.64570755 -0.44917589
3514150000 0.91222811 -0.042121772 0.00013091127 0.00017432643 -0.00021064139 0.00022832604 -0.71480072 -0.29604971
3521637500 0.86164105 -0.27451858 0.00019934372 -0.00026285631 -0.00014743548 -0.00024536569 -0.75608218 -0.13768241
3529125000 0.74343878 -0.47007155 0.00012661733 -9.5942029e-005 -5.6131698e-006 -0.00017986311 -0.77018595 0.025500724
3536612500 0.5871225 -0.60960633 -8.763318e-006 0.00028382053 -0.00013818835 9.5382005e-005 -0.7542991 0.19439782
3544100000 0.41959056 -0.69704229 -0.00023302417 -8.3554776e-005 -8.6558175e-005 -0.00016557786 -0.70402247 0.36647725
3551587500 0.25522768 -0.74300528 0.00012308071 0.00014761668 0.00038889435 -0.00030139773 -0.60928637 0.53352612
3559075000 0.098869242 -0.76247197 -5.4499014e-006 0.00037763879 -3.5137782e-005 -0.00013952304 -0.46583489 0.68100584
3566562500 -0.052453853 -0.75989211 0.00011789289 0.00033544257 0.00029794319 0.00015441414 -0.27850235 0.78501713
3574050000 -0.20346451 -0.73891562 -0.00035806571 -0.00012732732 0.00017026851 2.3688965e-005 -0.067290977 0.82814926
3581537500 -0.35775149 -0.69344312 0.00014851794 -0.00023079723 -5.2806936e-005 0.00016311624 0.14235055 0.80889881
3589025000 -0.51300883 -0.61609679 -0.00018035484 -2.6504526e-005 0.00013449218 -0.00056809158 0.32723618 0.73699766
3596512500 -0.66040397 -0.4957788 0.00020893148 -0.00022557437 -0.00032482724 -0.00039797355 0.48072991 0.62992334
3604000000 -0.77985632 -0.33099905 -0.00014037461 -0.00017741391 4.8381931e-005 0.00014038062 0.60014689 0.50251657
3611487500 -0.85125732 -0.12881529 1.3283267e-005 0.00012233088 0.00018365234 0.00014146982 0.69164079 0.36044306
3618975000 -0.85958034 0.088368028 0.00018128945 9.1218091e-005 0.00030830395 0.00041371468 0.75753754 0.2063005
3626462500 -0.80596912 0.29430863 -3.3552671e-005 -1.957458e-005 -0.00017764863 8.078795e-006 0.79671663 0.038740858
3633950000 -0.70561361 0.46916211 -6.9622816e-005 -0.00012572994 0.0001107323 -0.00011756043 0.80207729 -0.1437045
3641437500 -0.57587832 0.60720497 -0.00010131058 5.5008291e-005 -0.00019393003 0.0001360633 0.76305246 -0.33487481
3648925000 -0.42676911 0.70999253 6.4990913e-005 0.00042512899 -1.1869035e-006 9.8849778e-006 0.66891354 -0.51962698
3656412500 -0.2667945 0.78367198 -0.0004780046 -6.7341542e-005 -0.00015078227 -0.00027088675 0.51953483 -0.67299467
3663900000 -0.095285185 0.82741433 0.00020608395 -0.00016354381 0.00020207862 0.00020249859 0.33109409 -0.7745688
3671387500 0.08836887 0.8384065 0.0001049725 6.0286329e-005 -5.4549764e-005 0.00032422278 0.12922436 -0.81487352
3678875000 0.27817547 0.80801767 -8.9189416e-006 -1.9257994e-005 -0.00013889535 0.00039256597 -0.062683314 -0.80026275
3686362500 0.46495265 0.72834033 -0.00024837948 0.00023331714 -0.00020649421 -1.6036933e-005 -0.2319361 -0.74466008
3693850000 0.62877482 0.59602952 4.7387213e-005 0.00011167375 0.00019988923 0.00015787716 -0.37505767 -0.66338158
3701337500 0.74921614 0.42132118 0.0002174392 -0.00012451842 -0.00019569385 -0.00048538833 -0.49814779 -0.56536871
3708825000 0.81328243 0.22520222 0.00050482096 -0.00018255477 -1.0125718e-005 9.4803821e-005 -0.60210508 -0.4502193
3716312500 0.82233554 0.030235482 0.00010724306 -6.4882115e-005 -0.00019638224 -0.00028707768 -0.68967104 -0.31788823
3723800000 0.78797221 -0.14911129 0.00022604632 4.5686749e-005 -3.3510729e-005 -0.00027208246 -0.75631595 -0.16493194
3731287500 0.7232489 -0.30730903 -0.00021420006 2.1657163e-005 9.4927316e-005 9.0737121e-005 -0.79356855 0.011867653
3738775000 0.63544232 -0.44432586 0.00012807333 8.621766e-005 9.7438337e-005 -0.00038272663 -0.7871446 0.2071967
3746262500 0.5302521 -0.56362748 4.8534981e-005 0.00014566242 0.00019666013 -0.00048088713 -0.72433031 0.40628347
3753750000 0.40594187 -0.66738909 -7.271592e-005 -0.00013021675 -0.00013770198 0.00032007473 -0.60124713 0.58410376
3761237500 0.25939187 -0.75208741 5.3918102e-005 8.8856745e-005 -0.00030482662 6.7069188e-005 -0.4303669 0.71765411
3768725000 0.08814045 -0.81001806 -9.7631986e-005 8.8931971e-005 0.00051852589 -0.00022072981 -0.23253392 0.79332948
3776212500 -0.10523927 -0.82819688 -6.3127074e-005 -0.00043049813 0.00018190862 7.0144641e-005 -0.033893894 0.81283844
3783700000 -0.3074345 -0.79330873 1.0640269e-005 -0.00032974986 -0.00018468348 -6.3314706e-005 0.15276118 0.78598046
3791187500 -0.49856544 -0.70003277 -8.0615799e-005 7.5511416e-005 -0.0002080454 -0.00022137159 0.32074821 0.7235586
3798675000 -0.65404677 -0.55593449 -6.2390085e-005 -0.00021757184 -1.9139243e-005 -0.00014738354 0.46899754 0.63247192
3806162500 -0.75911325 -0.37885594 0.00032692458 0.00035049836 -5.5585799e-005 -8.8372821e-005 0.59718782 0.51705927
3813650000 -0.81217182 -0.1924561 -8.5391395e-005 -0.00036728688 -0.00017363777 9.59436e-005 0.7022596 0.3754639
3821137500 -0.82122433 -0.010400038 9.3014889e-005 9.3147377e-005 -0.00027487031 0.00037882489 0.77776086 0.20974985
3828625000 -0.79564494 0.15998359 0.00012847554 5.3652555e-005 0.00047129602 -0.00020983061 0.8141982 0.024030197
3836112500 -0.74307251 0.3181515 0.00021513489 -0.00019983224 -0.00014726717 4.0980627e-005 0.80288446 -0.17001991
3843600000 -0.66573501 0.46533683 -4.8758637e-005 0.00011823198 -0.00013220863 -0.00017595416 0.74024266 -0.35840732
3851087500 -0.56081015 0.60072565 -0.00020990851 -5.2212654e-005 0.00010973489 0.00024673785 0.62951708 -0.52241653
3858575000 -0.42568114 0.72060704 -0.00032241829 0.00012173109 0.00029555336 -0.00021307694 0.48295704 -0.64978516
3866062500 -0.25578228 0.81435567 -9.2742397e-005 -0.00014438988 4.54742e-005 -0.00020524036 0.31490034 -0.73420572
3873550000 -0.056080475 0.86605489 0.00017771039 9.4909985e-005 -5.2697254e-005 -0.00040081618 0.13822599 -0.77467197
3881037500 0.16095002 0.85912716 0.00020149074 0.00030647701 7.0278038e-005 3.0624338e-005 -0.036714841 -0.77723694
3888525000 0.37125155 0.78977644 -4.0396379e-005 -0.00027674311 -2.8402992e-005 6.5863082e-005 -0.20587288 -0.74445724
3896012500 0.5501458 0.66154873 -0.00021484768 1.7919923e-005 -4.9642455e-005 -0.0004740459 -0.3639788 -0.68066305
3903500000 0.67947948 0.49422035 0.00013014692 -0.00036305803 0.00014794359 -0.00029067512 -0.50734693 -0.58498394
3910987500 0.7567398 0.31175846 0.00015632092 -0.00015939535 0.00015792841 -5.9751626e-005 -0.63073963 -0.45920479
3918475000 0.78725076 0.12897845 6.437995e-005 -0.00027394565 0.00017964606 0.00024462744 -0.72612095 -0.30520672
3925962500 0.78201121 -0.045449637 8.9939582e-005 -0.00012638298 0.00035166575 7.7945006e-005 -0.78416514 -0.12917039
3933450000 0.74663329 -0.20879751 0.00027713718 -7.5628974e-005 -1.5208042e-005 -0.00018395115 -0.79811716 0.059770837
3940937500 0.68565631 -0.36079577 -0.0001955333 -8.362157e-005 -5.4064098e-005 2.4220682e-005 -0.76475364 0.24828288
3948425000 0.59931439 -0.50167924 4.305437e-005 -0.00014300027 2.7586468e-005 2.857471e-005 -0.68576342 0.42166719
3955912500 0.486803 -0.62887645 0.000241956 -0.00023483927 8.6260981e-005 7.8295716e-006 -0.56717312 0.57016921
3963400000 0.34318712 -0.73717374 -9.5397409e-005 -0.00031474134 -0.00052537315 9.4834861e-005 -0.41968107 0.68439966
3970887500 0.17159158 -0.81556332 9.3501899e-007 -9.7300232e-005 -0.00022358052 -0.00019128657 -0.25179645 0.76142186
3978375000 -0.024780139 -0.85270244 4.1695836e-005 1.0040021e-005 -0.00027287909 -5.8462781e-005 -0.07353887 0.79757392
3985862500 -0.23176478 -0.83456969 0.00027343561 9.4679548e-005 -5.3379576e-005 -5.8323934e-005 0.10836092 0.79535258
3993350000 -0.4292849 -0.76027316 1.0209249e-005 0.00021421378 2.9730192e-005 -2.6790307e-005 0.28642762 0.75252569
4000837500 -0.59979898 -0.63661861 -0.00016394962 -0.0001299448 8.3715177e-006 0.00050758291 0.45163217 0.66886044
4008325000 -0.72571325 -0.47363964 -0.00045315901 0.00010058029 0.00033371453 -0.00013559901 0.59598994 0.54832077
4015812500 -0.80270267 -0.29217336 -0.00019905623 0.00028475726 -0.00014380207 0.00027359556 0.70735842 0.39417437
4023300000 -0.83352286 -0.10705078 0.00026878784 8.6432898e-005 0.00024718078 0.00012245802 0.77720845 0.21725775
4030787500 -0.82271469 0.073526531 -6.6998191e-006 0.00012927782 -4.8068403e-005 -0.00039954332 0.80116361 0.028095776
4038275000 -0.77967888 0.24239019 0.00017452879 -9.2756709e-005 -9.7688491e-005 -3.3468168e-005 0.77911854 -0.1577744
4045762500 -0.70601046 0.39667025 -0.00031608099 -9.8612451e-005 3.0433695e-005 -7.973118e-005 0.71390843 -0.32903445
4053250000 -0.6048882 0.53435224 -6.20379e-005 0.00017116185 6.3698302e-005 -0.00011992875 0.61430454 -0.47768426
4060737500 -0.47659659 0.65135431 0.00024285034 0.00028797679 -3.2097414e-005 0.00012215336 0.48789907 -0.59876174
4068225000 -0.32347721 0.74260449 6.8306006e-005 0.00012559225 -6.3835192e-005 0.00012502732 0.3411251 -0.69039571
4075712500 -0.14810511 0.79960138 -0.00019678629 -0.00032102928 -0.00038479443 -0.00021455777 0.17824636 -0.75006884
4083200000 0.041399483 0.81669188 -0.00014111683 0.0001367591 -0.00015398719 6.977981e-005 0.0038947472 -0.77565461
4090687500 0.23239133 0.78502482 -0.00019320272 4.8561338e-005 -0.000122224 0.00015181825 -0.17625839 -0.7632603
4098175000 0.41229439 0.70771235 7.5140786e-005 -0.00038276802 3.7460548e-005 0.00024054955 -0.35331571 -0.70928931
4105662500 0.56949961 0.5874598 4.1694242e-005 6.0474191e-005 -0.00047313882 -5.3813792e-006 -0.51748806 -0.61059976
4113150000 0.69136429 0.43415514 -0.00034390044 1.6792757e-005 7.7117787e-005 0.00021228165 -0.6551829 -0.47078294
4120637500 0.77343565 0.2581892 -5.5194228e-005 -0.00037668314 0.00016014087 -3.7443297e-005 -0.75112665 -0.29827291
4128125000 0.81124294 0.069181092 0.00024820035 -4.1416984e-005 -4.900054e-005 -0.00013434714 -0.79882246 -0.10794379
4135612500 0.80591184 -0.12040611 1.2574187e-005 -0.00043304433 -0.0002575134 -5.1308907e-005 -0.79496431 0.084325708
4143100000 0.7604692 -0.30407196 -0.00012950649 5.8803817e-005 0.00030786596 -3.1795447e-005 -0.74593008 0.26219499
4150587500 0.67365885 -0.4715775 3.6762674e-005 0.00015021677 0.00032384219 -8.1318089e-005 -0.66102934 0.41939718
4158075000 0.55361021 -0.6171177 -0.00010386451 -0.00025256447 0.00024971014 -8.7125693e-007 -0.54919654 0.54957885
4165562500 0.40142456 -0.7298705 0.00035575443 0.0002132001 8.3907529e-005 0.00021821912 -0.4171817 0.65282941
4173050000 0.22911279 -0.80497527 0.00013197155 -0.00033628041 5.6813556e-006 8.9130466e-005 -0.26636913 0.72973418
4180537500 0.043652639 -0.8380782 0.00013096516 -0.00022959146 0.00018174699 5.4924472e-005 -0.10262391 0.77556014
4188025000 -0.14304055 -0.82786345 -2.560455e-005 8.8837405e-005 0.00010301985 -0.00020122928 0.072970182 0.7872169
4195512500 -0.32006305 -0.77666521 -0.00014502766 0.00010870073 -0.0003350706 -6.1970677e-005 0.25440857 0.7587387
4203000000 -0.48040545 -0.68904364 0.00014326435 -0.00018464937 0.00014835993 0.00018139037 0.42958614 0.68435889
4210487500 -0.61439741 -0.56769359 8.6632761e-005 -0.00016693947 0.00013413731 -4.5561814e-005 0.58683938 0.5636338
4217975000 -0.72144938 -0.42244157 -0.00045578717 6.4887477e-005 6.711857e-005 4.6978224e-005 0.70755982 0.40265068
4225462500 -0.79443312 -0.25612739 0.00030589834 -0.0001483775 -0.00034059887 -2.1180333e-005 0.77967489 0.21496004
4232950000 -0.831487 -0.076846562 -0.00019959948 -0.00038669829 0.0001540997 8.6860789e-005 0.799321 0.017681757
4240437500 -0.82852179 0.10953178 6.8394867e-005 0.00020849251 -0.00030004137 0.0002540671 0.76854724 -0.17251652
4247925000 -0.7818054 0.29418376 0.00010156185 0.00044304319 0.00013964134 -0.00012563771 0.69601762 -0.34375098
4255412500 -0.69039661 0.46566936 -6.6222383e-005 1.8778694e-005 -0.00022325013 0.00020526534 0.59120637 -0.4871124
4262900000 -0.55939788 0.61316019 -2.1246224e-006 9.3743125e-005 6.8095742e-006 -0.00012457874 0.46066183 -0.60357338
4270387500 -0.39482254 0.72457552 -5.0412622e-005 0.00012818203 0.00024118059 -9.5061252e-005 0.31258902 -0.68998098
4277875000 -0.20762658 0.79040551 -8.2857703e-005 0.00024441158 3.7230805e-006 -5.6960766e-005 0.1501843 -0.74499297
4285362500 -0.012556913 0.80956966 -3.0390012e-005 0.00010122046 0.00025515433 9.4981646e-005 -0.020874027 -0.76555711
4292850000 0.17911814 0.78188086 0.00012179784 -0.00039569996 6.1679129e-005 3.8008282e-005 -0.19741771 -0.74883825
4300337500 0.35538119 0.71188378 -1.6417192e-005 0.00017820696 0.00028779614 6.8463865e-005 -0.36955419 -0.69140661
4307825000 0.50956601 0.60943836 -0.00045074517 0.00037484625 1.0121173e-005 5.7899815e-005 -0.52422929 -0.59236169
4315312500 0.63652009 0.47560909 0.00025766497 -0.0003035861 -0.00017540369 0.00022929026 -0.65380394 -0.4579705
4322800000 0.73086661 0.31953576 3.8221791e-005 0.00034084785 -0.00051006343 -5.4293545e-005 -0.74532634 -0.29504836
4330287500 0.79306042 0.14511065 -0.00013194371 0.0001073138 -0.00027315988 8.390018e-005 -0.79492742 -0.11522646
4337775000 0.81403971 -0.039871778 0.00013240051 -0.00029063379 -0.00010137884 -0.00023088907 -0.79888612 0.069541872
4345262500 0.79248339 -0.22637826 -0.00010620111 -3.876743e-005 -1.4461644e-005 2.689953e-005 -0.76060385 0.24680611
4352750000 0.72614485 -0.40539053 -3.042632e-006 -0.00017981527 3.068805e-005 0.00041555165 -0.68362749 0.40876654
4360237500 0.61897844 -0.5620997 -2.7987502e-005 0.00014143113 -2.5559593e-005 0.00017370509 -0.57423949 0.54875875
4367725000 0.47813755 -0.68820262 -0.00024728489 -3.2441723e-005 8.4168896e-005 -3.0596166e-005 -0.43788818 0.66056687
4375212500 0.31362778 -0.7741527 0.00023597089 -0.00018417888 0.0001134521 -5.6292756e-005 -0.27865714 0.73994565
4382700000 0.14003521 -0.81904304 6.5500375e-005 -4.8727394e-005 0.00013236576 0.00030723165 -0.10431132 0.78210491
4390187500 -0.035551317 -0.82477748 1.5150954e-005 7.050603e-005 -0.00029161814 -0.00023318442 0.076498091 0.78421813
4397675000 -0.20395271 -0.79457718 0.00012554324 0.00013246751 -0.00012953163 6.9394823e-006 0.2539064 0.74319357
4405162500 -0.361687 -0.73316038 -2.186944e-005 0.00041639557 -5.7590703e-005 1.0431238e-005 0.41750443 0.66135389
4412650000 -0.50253797 -0.64171118 0.00023797672 -0.00046617433 0.00021105324 7.8796002e-005 0.55850685 0.54246187
4420137500 -0.62465715 -0.52471161 -0.00010261631 -0.00023874623 0.00018319816 -6.6805544e-005 0.66858369 0.39379421
4427625000 -0.72605717 -0.381313 -0.00010634997 0.00024005843 0.00029868679 0.00012210874 0.73904109 0.22509575
4435112500 -0.79627079 -0.21434069 0.00029197466 2.7597749e-005 2.3666124e-005 0.00028388572 0.76991403 0.043615211
4442600000 -0.83042502 -0.02779703 3.9348848e-005 0.00012310893 0.00040080698 -0.00010106219 0.75892305 -0.14021552
4450087500 -0.81948233 0.17030939 -0.00010734595 8.9289104e-005 -0.00012713025 0.00013524466 0.70543581 -0.31713402
4457575000 -0.75566703 0.36537707 7.8374062e-005 0.0002713672 0.00015121461 -0.00014692009 0.61253482 -0.47866294
4465062500 -0.64108592 0.54305923 0.00017517466 -0.00021888534 -0.00013797759 -0.00018868921 0.48272207 -0.61477399
4472550000 -0.48225796 0.68446964 -0.00024507084 9.0309535e-005 -4.9642731e-005 -0.00015970891 0.32307088 -0.71725017
4480037500 -0.29203373 0.77974057 -3.5735859e-005 -0.00040484421 0.0004229011 -0.00023835857 0.14174764 -0.77707815
4487525000 -0.08677087 0.82172412 0.00022804996 -0.00011980382 -9.0640293e-005 9.871224e-005 -0.04742875 -0.78963822
4495012500 0.11875042 0.81076038 -7.6787976e-005 5.5020704e-005 -4.0579907e-005 -3.4699129e-005 -0.23092645 -0.75459003
4502500000 0.30998221 0.75406337 6.1883577e-005 0.00018690788 0.00033407586 -6.4623338e-005 -0.39699325 -0.6794709
4509987500 0.47887185 0.65609264 4.3416741e-005 -0.00022680221 5.0530758e-005 0.00010259242 -0.53625238 -0.5707534
4517475000 0.61753559 0.52610731 0.00026246844 -0.00019258297 -8.259336e-005 -0.00025211371 -0.64524817 -0.43807697
4524962500 0.72275192 0.37062171 0.00027930221 0.00015354756 -0.00036217479 -1.590353e-005 -0.72293514 -0.28957066
4532450000 0.78917623 0.20033206 -0.00011014219 4.0231953e-005 3.5618301e-005 -6.3002644e-006 -0.76753479 -0.12911183
4539937500 0.81692761 0.022196826 0.00026086185 0.00013847926 0.00027269 2.2613209e-005 -0.7813251 0.036284328
4547425000 0.80530781 -0.15451895 -5.5702334e-005 0.00010198102 5.8072551e-006 8.0630401e-005 -0.76132268 0.20420288
4554912500 0.75666553 -0.32215229 -0.00033529763 -0.00025876117 -0.00030141303 -0.00014188049 -0.70447558 0.36843291
4562400000 0.67747486 -0.47368765 0.00010833835 0.00021114688 0.00025943675 0.00018686413 -0.60898173 0.52223599
4569887500 0.56867999 -0.60570449 5.8162932e-005 -1.8937264e-006 0.00012492703 -5.1650262e-005 -0.47444949 0.65262216
4577375000 0.43620673 -0.71378958 -0.00016083276 1.1658044e-005 0.00023802981 -0.00022665306 -0.30676278 0.74806428
4584862500 0.28193107 -0.7950086 -6.2352316e-005 -0.00016513091 -7.9802332e-005 1.3261716e-005 -0.11637928 0.79706031
4592350000 0.11053462 -0.84322351 -2.3883922e-005 -0.00016080322 -0.00039783056 0.00022780069 0.080015406 0.7940191
4599837500 -0.074031271 -0.85200423 6.4901513e-005 -0.00011908602 -4.4956541e-005 -4.0256629e-005 0.2663528 0.74047571
4607325000 -0.26212618 -0.8170715 -0.00012904574 -0.00018372343 0.00011428942 -0.00010725117 0.43081555 0.64534152
4614812500 -0.4409577 -0.73448235 0.00014567858 0.00011106591 5.6983336e-005 0.00035882703 0.56447148 0.51728624
4622300000 -0.59500515 -0.60712999 -0.0001487952 -0.000126396 -9.5063326e-005 -2.0075573e-005 0.66338742 0.36563796
4629787500 -0.71131903 -0.44305119 8.362942e-005 -6.7800138e-005 0.00012497736 0.00048909796 0.72699267 0.19832568
4637275000 -0.78173292 -0.25756791 9.6410484e-005 -7.3258656e-005 0.000156686 -0.00010826793 0.75271434 0.021123871
4644762500 -0.80233371 -0.064754158 -5.3058538e-005 7.94304e-005 -1.7071947e-005 -0.00016031823 0.73977959 -0.15815431
4652250000 -0.77890742 0.12226035 -1.4041527e-005 7.2883799e-005 2.2334356e-005 0.0002579916 0.68677467 -0.33165509
4659737500 -0.71779293 0.29554546 -0.00019989189 0.00015586561 3.2603566e-005 -6.6975314e-005 0.5927285 -0.49005303
4667225000 -0.62407392 0.45020282 0.00016832812 -3.9341077e-005 -0.00021282388 7.8411294e-006 0.46270946 -0.62161744
4674712500 -0.50064266 0.58243877 -0.00011022275 -0.00010788337 -0.00016391715 0.00017300854 0.30645788 -0.71868628
4682200000 -0.35008299 0.68952334 -5.0691731e-005 -0.00011987811 -4.0920528e-005 5.6723766e-005 0.13129452 -0.77470028
4689687500 -0.17582195 0.76270729 -6.7389003e-005 -1.258992e-005 0.00020738361 -0.00018505815 -0.0487362 -0.78873533
4697175000 0.017346384 0.79456729 2.8926877e-005 -0.00020835886 -5.7908295e-005 -0.00030770383 -0.22562496 -0.76085865
4704662500 0.21588683 0.7759366 -3.7157883e-005 -0.0001605794 -0.00030060374 0.00019312899 -0.39061892 -0.69477451
4712150000 0.40324122 0.70505142 3.7703259e-005 5.5934092e-005 0.00023080803 -0.00022185897 -0.53605157 -0.595384
4719637500 0.56339431 0.58924413 0.00016143847 6.5120948e-005 4.7113936e-005 -0.00024336574 -0.65737528 -0.46574065
4727125000 0.68390304 0.44107792 -4.87455e-005 -1.0645238e-007 -8.6709348e-005 -0.0002456283 -0.74703515 -0.3106637
4734612500 0.76042259 0.27600554 -0.00032756975 8.3157509e-005 -0.00018794366 6.9538451e-005 -0.7990604 -0.13704003
4742100000 0.79704881 0.10791013 0.00022028227 -0.00028316921 -7.3459407e-005 0.00017914295 -0.80778307 0.04587882
4749587500 0.7986989 -0.055610962 0.00017583404 -0.00012388287 3.2399792e-005 -0.00015162333 -0.7725957 0.22631669
4757075000 0.77357495 -0.21108112 6.2118626e-005 -1.939044e-005 -0.00041986778 0.00011477307 -0.69510651 0.39170897
4764562500 0.72204536 -0.35809553 0.00015336956 2.7978631e-005 -8.3980041e-005 0.00023761594 -0.5810914 0.53234726
4772050000 0.64758384 -0.4977946 -7.4677715e-005 -1.8668858e-005 0.00032664966 -0.00018681919 -0.43997103 0.64118248
4779537500 0.54438043 -0.62608725 7.6054312e-005 0.00026100822 4.2965647e-005 -5.2373096e-005 -0.28136653 0.71523243
4787025000 0.41054788 -0.73731458 2.510864e-005 -8.5045849e-006 -0.00021828081 -5.7241767e-005 -0.11068782 0.75366133
4794512500 0.24436548 -0.82270855 -9.7720964e-005 7.2778064e-005 -3.0923038e-005 -4.6139565e-005 0.064596809 0.75577635
4802000000 0.052134823 -0.86569566 3.4447348e-005 0.00013897973 -0.00020461003 -1.5621526e-005 0.23940586 0.7201612
4809487500 -0.15372702 -0.85494965 -6.0878625e-005 0.00023922758 -0.00013220051 9.9277342e-005 0.40663296 0.64514285
4816975000 -0.35331714 -0.78571695 -9.4053423e-005 -9.6207623e-005 -0.00012834044 -2.1287581e-006 0.55614048 0.52948171
4824462500 -0.52557862 -0.66376668 0.00021353141 3.7638579e-006 3.875931e-005 0.00011233032 0.67568505 0.37525862
4831950000 -0.65594292 -0.50280887 1.1839188e-005 0.00012139935 0.00015705304 -1.4332612e-005 0.75206655 0.19307935
4839437500 -0.73685795 -0.32057002 -3.6760586e-005 -1.9033547e-005 9.022712e-005 -0.00012048367 0.77702421 -0.0036433784
4846925000 -0.77219635 -0.13254751 1.7380655e-006 0.00019894888 -0.00015087506 -8.670707e-005 0.74987227 -0.19631182
4854412500 -0.7638821 0.052848317 8.6919186e-005 -8.507826e-005 -0.00011346774 -0.00033794768 0.67684937 -0.37064368
4861900000 -0.71899694 0.22663453 -8.1288221e-005 5.0236587e-005 -1.8444976e-005 -4.1188301e-005 0.56825608 -0.51591802
4869387500 -0.64097232 0.38490638 4.0090981e-005 -0.00028007542 -2.9120024e-006 -9.7566684e-005 0.4360106 -0.62964773
4876875000 -0.53343689 0.52386552 0.00014998797 2.0301508e-005 -4.8923914e-005 0.00022296833 0.28702334 -0.71051091
4884362500 -0.3986522 0.63770819 0.00011228305 -0.00020425752 0.00013813563 2.7656419e-005 0.12735538 -0.76058471
4891850000 -0.24303192 0.72166073 0.00014783093 0.00025380502 -0.00025228056 -5.865288e-005 -0.039057117 -0.77794695
4899337500 -0.069117308 0.7693063 0.00018090515 -9.3600371e-005 0.00015549132 -2.4295283e-005 -0.20859195 -0.76060742
4906825000 0.11108406 0.7782622 -0.00016883445 -4.6294419e-005 -4.822653e-006 -1.8064968e-005 -0.3752363 -0.70608753
4914312500 0.2916615 0.74441767 -0.00014272494 0.00014568608 0.00012764621 7.2034483e-005 -0.52871746 -0.61124575
4921800000 0.46000335 0.67056942 -5.1505813e-005 -6.334197e-005 -3.7734429e-005 7.0088412e-005 -0.6579954 -0.4800176
4929287500 0.6076349 0.55865157 -0.00029775707 8.7128326e-005 -6.6276596e-005 2.0877855e-005 -0.75015187 -0.31596655
4936775000 0.72474581 0.41560867 -2.75576e-005 -4.2973785e-005 -3.2069387e-005 -0.00018341937 -0.79889256 -0.13410555
4944262500 0.8053624 0.24883349 8.8341774e-005 0.00020582449 7.3009338e-005 -0.00016132633 -0.80015779 0.052260529
4951750000 0.84338319 0.068670943 -0.00010550547 -0.00028034896 0.00027191066 -0.00012826874 -0.75522608 0.23149054
4959237500 0.83933109 -0.11518872 0.00011909121 -0.00015854025 -4.9186921e-005 -0.0001348072 -0.67243379 0.39122418
4966725000 0.79350227 -0.29010808 -2.0747089e-005 -0.00012761056 -0.00011518235 0.00019032026 -0.55660278 0.52613461
4974212500 0.70887232 -0.44861379 4.4373282e-005 5.2429241e-005 0.00010844272 -5.0274766e-006 -0.41524616 0.63110054
4981700000 0.59351134 -0.58409214 6.3667045e-005 -0.00020903362 -0.00010868166 0.00015759436 -0.25557211 0.70247787
4989187500 0.45168352 -0.69040108 -5.9319198e-005 9.5299394e-005 -0.00032559104 -0.00022581081 -0.083764076 0.73646504
4996675000 0.28987607 -0.76272172 8.3008701e-005 2.9034578e-005 -5.250725e-005 0.0001363725 0.091417663 0.73305231
5004162500 0.11499459 -0.79898059 -2.9070665e-005 -1.1950229e-006 -0.00013794652 -0.00011388354 0.26377496 0.68949258
5011650000 -0.065511808 -0.79546529 1.239084e-005 -0.00035167972 -0.00024867343 -4.1405333e-006 0.42211914 0.60803908
5019137500 -0.24165677 -0.75033832 0.00024344857 0.00025583198 2.1792108e-005 0.00022321309 0.55945551 0.49135318
5026625000 -0.40468457 -0.66540986 2.6386324e-005 -0.00020067897 -0.00019658855 8.5316613e-005 0.66743547 0.34531945
5034112500 -0.54424202 -0.54304624 -1.9271716e-005 -4.2167081e-005 4.0727624e-005 -0.00032129014 0.73954958 0.17755198
5041600000 -0.64989012 -0.39328954 0.00020323451 0.00012841054 0.00021669427 0.00011334653 0.77128756 -0.0063708988
5049087500 -0.71666944 -0.22484715 -0.00013012151 -9.4857875e-005 -0.00037438879 1.5160372e-005 0.75756168 -0.19466668
5056575000 -0.745691 -0.04826273 -0.00022025306 -7.3909767e-005 -5.2666917e-005 -7.6083779e-005 0.69745064 -0.37596488
5064062500 -0.73611051 0.12825394 -9.600191e-005 -0.00024613686 -0.0001896851 -0.00029468912 0.59236223 -0.53721285
5071550000 -0.6915198 0.29781207 -2.6808018e-006 8.7482083e-005 -3.3341923e-005 6.2724239e-006 0.45070973 -0.6644749
5079037500 -0.61358434 0.45734808 -0.00014681531 -0.00013029172 4.3417214e-005 -1.0328731e-005 0.28365564 -0.74977469
5086525000 -0.50200331 0.60099781 -0.0005003392 0.00015821788 0.00010330495 3.8420214e-005 0.10585462 -0.7893135
5094012500 -0.35717767 0.72075915 9.2311493e-006 -0.00014631922 0.00014348878 -7.1811046e-005 -0.068419598 -0.78593671
5101500000 -0.1809428 0.80768687 1.6263964e-005 -0.00018819657 -0.00023629658 0.00018318329 -0.23277131 -0.74646258
5108987500 0.017689513 0.84701186 -0.00021593181 -6.022858e-005 5.0747989e-005 -0.00036782507 -0.38066193 -0.67644256
5116475000 0.22356027 0.83150339 -0.00020128254 0.00015851556 -0.00022046873 -5.6069686e-005 -0.51007277 -0.58088332
5123962500 0.41608891 0.75973678 8.8582863e-005 0.00014040487 5.4202574e-005 0.00013950339 -0.62002587 -0.46126655
5131450000 0.57645607 0.64104074 0.00018783756 0.00028180802 -0.00034577146 0.0003826571 -0.70620799 -0.31903616
5138937500 0.69450074 0.49275121 -4.3371074e-005 -0.00023985672 0.00019285172 0.0001328947 -0.76292682 -0.15598564
5146425000 0.77031624 0.3317022 -0.0001781106 2.385639e-005 -0.0002109577 0.00026573217 -0.78041989 0.023746504
5153912500 0.80801159 0.16853398 -4.3686308e-005 -0.00012197217 0.0002676718 0.00036598786 -0.75103652 0.20865771
5161400000 0.81640702 0.0083465725 -1.7359327e-005 -3.9712715e-005 0.00020698273 4.6358942e-005 -0.67323458 0.3823106
5168887500 0.79927582 -0.14832643 -8.9560788e-005 0.00020307883 0.00017860222 -0.00023869546 -0.55094916 0.52884388
5176375000 0.75548041 -0.30330989 5.5787827e-005 0.00010376342 1.5352758e-005 -0.00018994848 -0.39784974 0.63613766
5183862500 0.68154615 -0.45430088 4.2256001e-005 -0.00016152393 -5.6978482e-005 -5.3521708e-005 -0.22932677 0.70000905
5191350000 0.57151508 -0.59663641 -0.00011238459 5.1884868e-005 -4.1286519e-005 -0.00022712647 -0.057451818 0.72323442
5198837500 0.41920465 -0.71670693 2.9180861e-005 3.9300554e-005 -0.00019025047 0.0001970053 0.11195956 0.71158105
5206325000 0.23082034 -0.79405582 -0.00014102631 -0.00013449461 -3.9247525e-006 -8.3469895e-005 0.27287778 0.6674999
5213812500 0.022483224 -0.8131817 -9.892082e-005 8.0889658e-005 -2.5616582e-005 -7.9173704e-005 0.42454192 0.59372568
5221300000 -0.17947246 -0.77091026 0.00013107713 -0.00010450526 -0.0001441027 0.00012931057 0.56378257 0.48706332
5228787500 -0.35183236 -0.67926854 7.0629678e-005 0.00020079967 0.0001321512 1.6451111e-005 0.68023455 0.34549442
5236275000 -0.48581472 -0.55678064 -0.00012662786 -8.3789302e-005 -0.00012297957 6.6489949e-005 0.76158929 0.17180884
5243762500 -0.58397704 -0.42013159 -3.2449891e-005 5.6348537e-005 -4.4435132e-005 -0.00023223918 0.79485095 -0.024368066
5251250000 -0.65273643 -0.27711675 -1.2498733e-005 -0.00015990414 0.0001143708 2.4843193e-005 0.77064788 -0.22353275
5258737500 -0.69835365 -0.13057575 -2.9637753e-005 0.00011834536 -0.00025668216 -8.3026353e-005 0.69271815 -0.4048216
5266225000 -0.7235651 0.02395913 -0.00010960914 3.6388814e-005 1.3591936e-005 0.00010187872 0.57397354 -0.55243981
5273712500 -0.72482276 0.18911523 0.00017538515 -0.00026117638 0.00018084126 3.79064e-005 0.43033004 -0.66077185
5281200000 -0.69094008 0.36640698 2.4962041e-005 -0.00016997108 -3.8016449e-005 0.00017333923 0.27419654 -0.73024899
5288687500 -0.60833347 0.54742795 0.00033655425 -0.00010150101 -1.5005235e-005 -0.00014971953 0.11327887 -0.76657295
5296175000 -0.46719286 0.71036136 1.987118e-005 -1.5186866e-005 7.7740107e-005 0.0001428009 -0.049005456 -0.7723878
5303662500 -0.27454859 0.8248325 -0.00014776949 -6.3143132e-005 -0.00014801366 5.2499148e-005 -0.21104804 -0.74527872
5311150000 -0.055203002 0.86916995 9.7626878e-005 8.1085185e-005 0.0001675856 1.3942889e-005 -0.36917219 -0.68419701
5318637500 0.15501803 0.84378892 9.7884164e-005 5.385148e-005 -0.00013069286 -7.2808689e-005 -0.51377934 -0.58552325
5326125000 0.33257687 0.76854849 2.8562765e-005 0.0003845779 -2.8168472e-006 2.9181376e-006 -0.6333859 -0.4498485
5333612500 0.47545934 0.66952956 1.8448309e-005 -4.3280063e-005 0.00016072157 -0.00027476123 -0.71238637 -0.28548318
5341100000 0.58285916 0.55132902 0.0004308866 -5.4189084e-005 0.00015570322 1.8000066e-005 -0.74705601 -0.10735924
5348587500 0.66574824 0.4265604 -0.00015142892 -0.00018688015 2.0407659e-005 -6.799346e-005 -0.73620075 0.066929951
5356075000 0.72893006 0.29382655 0.00013248541 0.00033785589 -0.00018148872 4.0784066e-006 -0.68664896 0.22869816
5363562500 0.77414721 0.150316 0.00045132855 1.4346275e-006 0.00011080422 2.2767414e-005 -0.6081602 0.37091395
5371050000 0.79620314 -0.0061238818 5.245435e-005 -0.00011424746 -4.833176e-005 -0.00012989453 -0.50675845 0.49361336
5378537500 0.78596407 -0.17692286 0.00014344783 0.00023656353 0.00013094734 -0.00011189037 -0.38456264 0.59579384
5386025000 0.73154271 -0.35115695 0.00033585343 -1.4642909e-005 -8.2589897e-005 -0.00014957777 -0.24122582 0.67794681
5393512500 0.62725013 -0.51509315 -9.5137155e-005 2.0999976e-005 -9.7081618e-005 0.0001810681 -0.076484986 0.7323904
5401000000 0.478102 -0.64546597 -8.1079443e-006 1.1955944e-005 3.3436445e-005 -0.00022168559 0.109329 0.74778491
5408487500 0.30086833 -0.72974223 -3.7152484e-005 0.00012417075 -0.00014454915 -0.00025380892 0.30530185 0.71288997
5415975000 0.11314027 -0.762721 -2.8638301e-006 -7.6108983e-005 -0.00035620574 2.1213076e-005 0.48954371 0.61877722
5423462500 -0.06821087 -0.75220925 -0.00017744619 9.3559174e-005 -0.00030466323 0.00010551307 0.63865685 0.47144693
5430950000 -0.23586787 -0.70644689 -0.00038345499 0.00025871216 0.00012951458 -0.00012866501 0.7335797 0.29282999
5438437500 -0.38913339 -0.63171649 -0.0004595799 0.00024568682 -0.00017280527 8.5527186e-005 0.77232742 0.10388919
5445925000 -0.52857566 -0.53054106 -0.00042630831 -0.00021582936 -3.1352589e-005 0.00013965101 0.76406831 -0.075339131
5453412500 -0.6490674 -0.40050346 -0.0001891117 -0.00019159108 -0.00034933112 0.00031232959 0.71985281 -0.23641095
5460900000 -0.74560523 -0.2411063 -0.00033472103 -0.00018922945 -8.0588572e-005 -0.0002320873 0.65055084 -0.37890634
5468387500 -0.80349261 -0.05333145 7.8467136e-005 6.2343141e-005 0.00018068487 -0.00017394155 0.55901617 -0.50424457
5475875000 -0.81111825 0.15165159 -5.0722272e-005 0.00023282038 0.00019850003 -5.0518636e-005 0.44641256 -0.61409563
5483362500 -0.75823748 0.35559517 9.8599587e-005 -0.00010525416 0.00034963555 3.2756456e-005 0.31075555 -0.70132601
5490850000 -0.65023381 0.53513545 0.00017994293 -0.00018624654 0.00031603125 0.00013622407 0.15174113 -0.76117241
5498337500 -0.50204128 0.67099255 5.1951651e-005 -0.00014720643 -0.00022422236 -1.5078908e-005 -0.024721798 -0.7831952
5505825000 -0.33412826 0.75919229 -0.00019039144 0.00022137289 0.00012016113 2.8772925e-005 -0.20797932 -0.75683719
5513312500 -0.16108581 0.80261785 0.00015485899 8.5968255e-005 -0.00025047068 3.712967e-005 -0.37875581 -0.68095553
5520800000 0.0072538392 0.80858171 2.983953e-006 1.6065007e-005 -5.1982788e-005 0.00041824506 -0.52130896 -0.56286931
5528287500 0.16811499 0.78384668 -4.3230688e-005 -0.00010441845 0.00035931673 0.0002239317 -0.62592453 -0.41630015
5535775000 0.31809419 0.7323525 6.1404135e-005 -0.00029362453 0.00034141049 2.8706258e-005 -0.68960381 -0.2564624
5543262500 0.45611891 0.65395427 7.6373487e-007 0.00012551268 0.00028012687 -0.00036046124 -0.71560836 -0.091736369
5550750000 0.58039457 0.5481323 -0.000128814 -7.1227267e-005 0.00029922221 -8.5585489e-005 -0.70822626 0.069805413
5558237500 0.68373525 0.41615379 -5.7900652e-005 -0.00032259998 -4.889242e-005 -0.00014478806 -0.67082632 0.22647437
5565725000 0.75787657 0.25968042 0.00019214515 -0.0001359086 -0.00037223127 9.1282571e-005 -0.60389692 0.37352464
5573212500 0.79495198 0.085404038 -9.9254321e-005 0.0001051341 0.00020764316 0.00019235711 -0.5057689 0.50879335
5580700000 0.78885812 -0.097933903 -0.00021197443 -0.00010407063 -5.5766417e-005 0.0003135897 -0.37687132 0.62359285
5588187500 0.73983675 -0.27646488 0.00023374819 -0.0001338568 -1.4117645e-005 0.00014153558 -0.21803172 0.70925248
5595675000 0.64708692 -0.4386591 -9.5588235e-005 -9.2949755e-005 0.00012920218 -9.421412e-006 -0.036544796 0.75349683
5603162500 0.51941836 -0.57468981 0.00032784723 -8.830315e-006 -0.00017285757 -0.00014799746 0.15358558 0.74958861
5610650000 0.36373091 -0.67627877 -0.000340717 -0.0001162613 -9.1900096e-005 0.000413047 0.33740309 0.69608843
5618137500 0.18866976 -0.73845106 -0.00028417713 9.5242322e-005 -0.00014028727 -4.8145219e-005 0.50035948 0.59628135
5625625000 0.0045637297 -0.75934154 7.0204318e-005 2.7426349e-005 -6.0615592e-005 -6.7539695e-005 0.63134682 0.45985621
5633112500 -0.17846581 -0.73801637 -7.3759933e-005 4.5003453e-005 2.5750067e-005 -1.0051604e-005 0.72239703 0.29950473
5640600000 -0.34971187 -0.67432487 0.00017972669 -3.4451521e-005 -0.00013605987 -0.00013783807 0.7717948 0.12580495
5648087500 -0.49996251 -0.57481402 0.00015337215 -2.4807554e-005 0.00034121843 4.0729442e-006 0.77883011 -0.052601371
5655575000 -0.62351727 -0.44574857 -0.00025606033 0.00038355286 7.2292038e-005 -2.5948202e-005 0.74405086 -0.22445631
5663062500 -0.71634406 -0.2949791 -0.00010703081 -9.0239555e-005 -7.7068849e-005 -4.72092e-005 0.67363387 -0.38153085
5670550000 -0.77314866 -0.12801489 2.1052312e-005 0.00010051696 0.00011453267 0.00026538613 0.57153249 -0.51738054
5678037500 -0.79416519 0.046872888 0.00023194973 -9.5841402e-005 -0.00027060072 -0.00031422728 0.44173503 -0.62577218
5685525000 -0.77598906 0.22412291 9.4950874e-006 -0.00014664173 -0.00012403568 0.00023287497 0.29318702 -0.70270681
5693012500 -0.71828574 0.39513034 0.00039550933 -8.2063052e-005 0.00023761728 -6.1332648e-005 0.13236496 -0.74512917
5700500000 -0.62078184 0.5510143 0.00027106531 -6.3630847e-005 0.00038528247 0.00043161117 -0.035603676 -0.75156832
5707987500 -0.48751009 0.6799019 -9.9669378e-005 -0.00020369152 -0.00017311139 0.00018146195 -0.20153287 -0.72191072
5715475000 -0.32530627 0.77278394 7.7870012e-005 0.00021374121 0.00031942333 0.00026664903 -0.35852098 -0.65424293
5722962500 -0.14789212 0.82375067 8.6467684e-005 -0.0003768953 0.00022494096 -0.00023956534 -0.49675906 -0.55117238
5730450000 0.035655793 0.82889175 -0.00025906926 -5.1509302e-005 -0.00020072555 -0.00023701528 -0.60852969 -0.41887444
5737937500 0.2111444 0.79212892 -3.5916921e-005 0.00013034162 -7.1235801e-005 -0.00023904837 -0.687325 -0.26165703
5745425000 0.37095711 0.7200802 -5.9982074e-005 -0.00010186945 0.00020960569 5.5241155e-005 -0.72749865 -0.090691246
5752912500 0.51093864 0.61617935 -6.881708e-006 -7.8812089e-005 -0.0002947379 -0.00014202733 -0.72535861 0.084288485
5760400000 0.62511688 0.48773134 -0.00026569865 -6.387943e-005 0.0001450102 0.00016347034 -0.68431258 0.25344542
5767887500 0.71122831 0.33604366 0.00012305708 -0.00019878882 3.8229446e-005 0.00023980266 -0.60716099 0.40976885
5775375000 0.7638588 0.1672063 0.00036153232 -8.5460066e-005 -0.00031971291 -0.00024820332 -0.49708953 0.54518038
5782862500 0.7784608 -0.012319569 -6.4165681e-005 0.00023309866 -0.00020573767 0.00024222424 -0.35725141 0.65522623
5790350000 0.7502023 -0.19437119 -8.6294829e-005 -6.499423e-005 3.293814e-005 -8.2602732e-005 -0.19253051 0.73127544
5797837500 0.67849553 -0.366561 -0.00016928316 0.00014505048 6.9337759e-005 7.0614209e-005 -0.010897335 0.76617217
5805325000 0.56580728 -0.51550519 0.00049470516 0.00018959439 -7.9625323e-005 0.00030884889 0.17648241 0.75447434
5812812500 0.42267457 -0.6321786 -0.00010474978 0.00017542556 -0.00014793871 0.00017324045 0.35518193 0.69353992
5820300000 0.25936633 -0.71134675 -9.0439091e-005 -0.00027210065 -0.00026366377 -0.00018343453 0.51111066 0.58976108
5827787500 0.085661128 -0.75083452 -0.00013620452 -7.7495315e-005 -7.1127906e-005 -2.2969147e-005 0.6320079 0.45242557
5835275000 -0.089570038 -0.75364512 0.00013699116 1.1537207e-005 -0.00010126463 9.8011347e-005 0.71309704 0.2952747
5842762500 -0.26085714 -0.71922314 1.6362934e-005 0.00024619859 -0.00021968887 -0.00022875596 0.75455397 0.12845762
5850250000 -0.42277417 -0.64954495 3.0634576e-005 -1.1026045e-005 0.00024820553 0.00038517735 0.75982642 -0.037690569
5857737500 -0.56840235 -0.54507709 -0.00022320487 -0.00026757186 5.3249314e-005 0.00047638736 0.73154831 -0.19774443
5865225000 -0.68803465 -0.40682378 0.00020960048 0.00018224977 -2.6643545e-005 2.5360383e-005 0.67207569 -0.3494153
5872712500 -0.77346623 -0.24155506 -9.3060924e-005 -0.00012776301 -0.00014056057 -2.0397954e-005 0.58352667 -0.48927411
5880200000 -0.81315976 -0.058126654 -1.1829453e-006 -0.00015253839 3.1244395e-005 1.55189e-006 0.46313685 -0.61031431
5887687500 -0.8058424 0.12835032 0.00018330108 -5.8719907e-005 5.4510183e-006 8.5777545e-005 0.31155166 -0.70358801
5895175000 -0.75303918 0.30252042 -0.00026803152 -0.00019847845 -0.0008142236 -0.0002790858 0.13676739 -0.75853211
5902662500 -0.66487074 0.45381927 2.4536726e-005 0.00023136077 0.00013255623 -0.00018777099 -0.050891418 -0.76563424
5910150000 -0.54949653 0.57809067 -0.00021510414 8.676968e-005 -0.00053052249 -0.00034836913 -0.23168223 -0.722022
5917637500 -0.41567799 0.67361295 0.00024208284 8.8085937e-005 -4.0175812e-005 0.00025634354 -0.39268005 -0.63373446
5925125000 -0.26691261 0.74209958 -0.00019583273 0.00028411267 -0.00017545467 -0.00016334081 -0.52067274 -0.51375455
5932612500 -0.10736277 0.78341204 0.00020314747 -0.00013694167 -0.00019133069 -0.00049230526 -0.61503887 -0.37398288
5940100000 0.063504487 0.79252332 -0.00017184409 3.0715913e-005 -0.00026526587 -0.00046182913 -0.67522675 -0.22265233
5947587500 0.24041851 0.76395309 -0.00034020506 -0.00023975452 -0.00012514422 -0.00036606236 -0.70550066 -0.065800123
5955075000 0.41354951 0.6906755 -0.00037935076 -7.8038305e-005 6.403539e-005 -0.00016002104 -0.70542014 0.093364954
5962562500 0.56923187 0.57027954 0.00013177471 -3.410906e-005 -0.00019701758 -0.00017712118 -0.67483509 0.25331742
5970050000 0.68725008 0.40859532 0.00018783772 0.00010364096 -0.00022133945 3.4529439e-005 -0.60835487 0.40901917
5977537500 0.75558418 0.22225519 -1.3270556e-005 1.8039151e-005 0.00023515783 -4.2437878e-005 -0.50370765 0.55193454
5985025000 0.76991814 0.030419767 0.00017863931 -0.00054317981 7.7378849e-005 1.5745471e-005 -0.36217469 0.66858941
5992512500 0.73809397 -0.14931364 0.00019515913 -0.00011506469 -0.0001892288 -0.00021286121 -0.19032416 0.74606228
6000000000 0.67101985 -0.3080917 -0.00036927476 0.00015739643 -0.0002460838 0.00014309007 -0.0034962802 0.77377987
