!Keysight Technologies,N5245B,MY52501319,Z.13.01.242
!Date: Monday, February 16, 2026 14:46:37
!Correction: S11(Off) 
!S21(Off) 
!S12(Off) 
!S22(Off) 
!S2P File: Measurements: S11, S21, S12, S22:
# Hz S  RI   R 50
10000000 0.83927894 -0.45868719 0.0028295522 -0.0010634767 -7.4246447e-005 2.6907102e-005 -0.95785213 0.13461737
17487500 0.72483283 -0.5691973 0.00021358469 0.00075687107 -0.0013986817 -2.7889446e-005 -0.890863 0.41888317
24975000 0.60496694 -0.69376004 0.00027505253 -9.3734152e-006 0.00046155902 -0.00018064931 -0.73729354 0.63658476
32462500 0.45677587 -0.81165385 0.0014148823 0.0013170408 0.00071776094 0.0016650781 -0.54653329 0.79616529
39950000 0.2777622 -0.89793265 0.00060694607 -0.00029762217 0.00062204251 -0.0014240799 -0.33399659 0.8914541
47437500 0.071128182 -0.94529504 0.00042460131 0.00050210574 -0.00087152183 3.551651e-005 -0.10621104 0.93588346
54925000 -0.14726418 -0.95220733 -0.000195167 -0.0002639115 -0.00044015347 -0.0003745608 0.11620847 0.92244661
62412500 -0.36285946 -0.90197688 0.00019988458 0.00015640876 1.7730901e-005 0.00033848922 0.31828132 0.86542493
69900000 -0.56592894 -0.80581069 -0.00010672177 0.00076818315 -6.3779611e-005 7.4207943e-005 0.5009594 0.76017016
77387500 -0.7434268 -0.65626484 0.0001911267 0.0006410731 0.00041149763 0.00077072356 0.66214496 0.62467474
84875000 -0.8735739 -0.46886969 -0.00043527212 0.0001957091 0.0010989666 -0.00083854562 0.78642941 0.45522568
92362500 -0.94961792 -0.2569524 0.00050298084 9.7609758e-005 -1.1367109e-005 -0.0003669771 0.87317693 0.25801432
99850000 -0.97738338 -0.043460216 -0.0004295395 -0.0004711363 0.00077381806 -0.00027219811 0.90810037 0.041732747
107337500 -0.95697886 0.16608712 1.1095882e-005 -0.00068186666 -0.00016788102 -0.00025943606 0.89168203 -0.1793597
114825000 -0.89483947 0.36047477 5.002223e-005 3.586321e-005 -0.00037115937 -0.00012504216 0.82131177 -0.39091793
122312500 -0.80256331 0.54009879 -0.00018885116 -0.00020546273 6.4297878e-005 -0.0001171102 0.69982898 -0.57486236
129800000 -0.66800177 0.69652259 0.00035575381 -0.00039791211 -0.00013432832 -0.00043759673 0.5415321 -0.72265965
137287500 -0.50398397 0.82728285 9.6272663e-005 -0.00023683753 7.6395037e-005 -0.00075959059 0.35259843 -0.83096975
144775000 -0.31214172 0.92013514 0.00022773328 -0.00022444964 -0.00017289865 0.00037022791 0.14530526 -0.89139152
152262500 -0.098942004 0.97135442 -0.00034107995 0.0002351025 -0.00011515643 0.00033916029 -0.067150801 -0.8990708
159750000 0.12636067 0.96710587 -0.00088069361 7.9184603e-005 0.00014948673 -0.00030101571 -0.274784 -0.86061764
167237500 0.34656155 0.90739989 0.00060201547 -2.1014181e-005 -0.00056834595 -0.00030115861 -0.46774623 -0.77486259
174725000 0.5421496 0.79781485 -0.00025190221 -0.00058755308 -0.00072209613 1.0151201e-005 -0.63734001 -0.64811838
182212500 0.70972037 0.6456573 -0.00030777609 0.0003840056 -0.0004920045 -0.00011288224 -0.77075416 -0.48430046
189700000 0.83385503 0.46147859 0.0004555592 0.00037098382 0.00029080472 0.00010895493 -0.86127955 -0.29484814
197187500 0.91236341 0.25626925 0.00025065924 0.0003238311 0.00043485305 -0.00012139553 -0.90541577 -0.091062434
204675000 0.94697601 0.0410932 3.2217009e-005 -0.00038640352 0.00043708892 -0.00035126993 -0.90394962 0.11572026
212162500 0.92744291 -0.17523831 0.00031957947 -0.00071560458 -0.00079713482 -0.00014564932 -0.85279822 0.31368667
219650000 0.86476451 -0.38371226 0.00055894832 -0.00033462353 0.0003787826 0.00084692799 -0.75951815 0.49928588
227137500 0.75409752 -0.57446903 0.00079178152 7.322141e-005 5.0372222e-005 -8.8106666e-005 -0.62838578 0.65902466
234625000 0.60514909 -0.73644769 0.00052611722 -0.00069231942 0.00065271638 0.0005802649 -0.46395096 0.78795093
242112500 0.41804504 -0.86212897 0.00016007489 0.00065231521 -0.00030429897 0.00026433408 -0.27059567 0.87246639
249600000 0.21059501 -0.93739486 0.00036423028 0.00013125852 -0.00015178089 0.00029545225 -0.062475041 0.90932721
257087500 -0.011703097 -0.96329367 0.00011084339 -0.0003292218 0.00061898935 -0.00048605792 0.15191483 0.90089911
264575000 -0.23057765 -0.93398821 -0.00041800234 -0.00022500339 0.00042868633 -0.00085101993 0.3567082 0.8385464
272062500 -0.43477222 -0.85651112 0.00053472718 1.2799434e-005 5.5511991e-005 0.00050363003 0.54363465 0.72736746
279550000 -0.61506838 -0.73968244 -0.00020733748 0.00031706228 -0.00092928024 0.00034076921 0.69566399 0.57550508
287037500 -0.7619288 -0.58123857 -0.00010578357 0.0010150694 -0.00054927904 -0.00029994332 0.80684304 0.39467219
294525000 -0.87190735 -0.40110806 0.00010386191 0.00013713447 -0.0012701749 0.00073574943 0.87461996 0.19273311
302012500 -0.93560737 -0.20173779 0.00069278036 0.0006059478 -7.4521886e-005 0.0011488246 0.89606678 -0.020029351
309500000 -0.95552081 0.0035803916 -0.00022089521 0.00029208887 0.00014968493 3.0491645e-005 0.8655979 -0.23363936
316987500 -0.93022591 0.21151656 -0.00038903084 -6.2610576e-005 -0.0004789503 -0.000579215 0.78603083 -0.43739796
324475000 -0.86225426 0.40740889 -0.00036259828 0.0001732243 0.00019660918 -0.00029671015 0.65674508 -0.6179626
331962500 -0.75365204 0.58128303 -0.00010562575 -0.00024722383 -3.7853941e-005 -0.00021693007 0.48471215 -0.76151401
339450000 -0.60949546 0.73214859 -0.00013911352 -2.1128104e-005 4.8118278e-007 0.00033041163 0.2814956 -0.85522187
346937500 -0.43581253 0.84933507 -0.00015786219 0.0011150098 0.00019592878 -1.9650221e-005 0.064985089 -0.89457685
354425000 -0.23752995 0.92547244 0.00058747054 0.00019986756 9.1077447e-005 -0.00020622814 -0.14832409 -0.87746453
361912500 -0.023354856 0.95682746 -0.00032364592 0.00014205203 9.8914497e-005 0.00014708092 -0.34561113 -0.81260586
369400000 0.19699156 0.93893045 0.00044659263 9.914094e-005 -9.3288407e-005 -7.9196245e-005 -0.51790893 -0.70769107
376887500 0.4106186 0.86922902 0.00023046475 0.00018550771 -0.00027309716 -0.00020896338 -0.65921485 -0.57346356
384375000 0.60370207 0.74869853 0.00023250245 0.00022981571 3.7061323e-005 -0.0002975144 -0.76935571 -0.41577372
391862500 0.76308918 0.58270144 0.00037338151 -4.7538466e-005 0.00057746499 0.00037733934 -0.84584135 -0.24042681
399350000 0.87538195 0.38528419 0.00075206003 -1.260134e-005 8.0517486e-005 -0.00018144022 -0.88494956 -0.050953764
406837500 0.93642414 0.16567947 -0.00030642093 8.099799e-005 -7.3974246e-005 0.00065679412 -0.88343543 0.1469862
414325000 0.94512755 -0.056763165 -0.00076356978 -0.00035450468 -0.00014818546 -0.00037593374 -0.83570951 0.34766576
421812500 0.90051329 -0.27115989 -9.3166447e-005 0.00012114931 -0.00099252164 -0.000432534 -0.74221808 0.53351641
429300000 0.8120271 -0.46813393 -0.00048342024 0.00013862552 -0.00025476582 0.00024533394 -0.59977025 0.69710743
436787500 0.68265802 -0.63642234 -0.00012304021 0.0011609794 0.00060792337 -3.360218e-005 -0.41844004 0.82053477
444275000 0.52497596 -0.77483577 0.00019783361 0.00033774506 -0.00074570789 -0.00025653231 -0.21154025 0.89195532
451762500 0.337937 -0.87394637 0.00025745414 0.00036218329 0.00045459237 0.00090302736 0.00057779875 0.90843475
459250000 0.13584878 -0.93285561 -2.582871e-006 0.00021856117 -0.00056056329 0.00029949273 0.20721468 0.87816888
466737500 -0.07835719 -0.94332111 0.00015483439 -0.00050392951 -0.0001062235 0.00035490314 0.40000603 0.80061811
474225000 -0.29148805 -0.90439171 0.00032352284 -0.00015850064 -0.00031857024 0.00058049348 0.56786054 0.68425584
481712500 -0.49031281 -0.81826305 0.00031861008 0.00033410153 0.00023495294 -0.00057261594 0.70741427 0.53345782
489200000 -0.66258025 -0.68855995 -0.00038133989 0.00063873263 -0.00058977195 -0.00027898067 0.8095724 0.35434237
496687500 -0.79752922 -0.52257013 -0.0002912159 -0.00014065459 -8.9049419e-005 -8.2408886e-005 0.87065864 0.15181763
504175000 -0.89523852 -0.33432391 0.00040261657 0.0004150352 0.00044626524 2.576748e-005 0.87713915 -0.060852345
511662500 -0.94196397 -0.1302644 6.9406829e-005 -0.00024154635 0.00016693179 -0.00014405489 0.83768672 -0.27157542
519150000 -0.94512117 0.076298073 -9.3825714e-005 -0.00042496331 -0.00024511252 4.9426169e-005 0.74451029 -0.46601242
526637500 -0.90514898 0.27784005 -0.00018563568 -0.00019248367 -0.00012257734 0.00041750408 0.60751951 -0.63032705
534125000 -0.82294619 0.46580473 -3.7131147e-007 -0.00058322551 0.00049335591 -0.00026463985 0.43736312 -0.7544536
541612500 -0.70183909 0.63751626 0.00033995599 0.00023946044 -0.00026905042 -8.9116998e-005 0.24712458 -0.83305585
549100000 -0.5448634 0.77977026 0.00011318987 -0.0002548226 0.00016132135 0.00022870378 0.046523016 -0.86543941
556587500 -0.35469624 0.88572401 1.9485881e-006 4.2149943e-005 -0.00038120823 1.3107711e-005 -0.15075859 -0.8540163
564075000 -0.14237225 0.94379759 -0.00024018265 -0.00010747869 0.00038410578 -0.00023188115 -0.34213772 -0.80044115
571562500 0.080908902 0.94970226 -0.00040096082 0.00020284444 -0.00032608272 0.00010755492 -0.51736844 -0.70691329
579050000 0.29818195 0.90299726 8.2695682e-005 0.00020311902 0.00039861063 -0.00048953621 -0.66880101 -0.57592058
586537500 0.49639693 0.80559313 -0.0002787527 2.0476373e-005 -0.00010612713 4.7547081e-007 -0.78878248 -0.41054815
594025000 0.66596866 0.66673982 -2.3447428e-005 1.7133779e-006 0.00023408989 0.00019117359 -0.86792886 -0.21923833
601512500 0.79699606 0.49553713 -6.1856932e-005 0.00019360217 -0.00018776595 0.00017317919 -0.89834404 -0.013003506
609000000 0.88703287 0.30015504 -2.5168968e-006 -2.78188e-005 -1.9383511e-005 -0.00028944726 -0.87730598 0.19442584
616487500 0.93184769 0.091071606 -0.00022415374 -0.0001088869 0.00012763863 -4.323613e-005 -0.80595583 0.38981023
623975000 0.93192399 -0.12230808 3.9823452e-005 0.00013026199 -8.4661988e-005 0.00023248637 -0.69388139 0.56123596
631462500 0.8750813 -0.35116586 -5.6255099e-005 0.00018226379 -0.00026442818 0.00023585375 -0.56160557 0.68747073
638950000 0.77265239 -0.54310977 0.00014200939 0.00039034526 -4.2840918e-005 0.00039161867 -0.39105168 0.79262984
646437500 0.63033056 -0.70817769 0.00023780722 0.00013834692 -2.9679446e-005 -0.0001124649 -0.20262875 0.85795891
653925000 0.45050582 -0.83377403 -1.5157595e-005 0.00026774924 -0.00011298947 4.8470542e-005 -0.002833277 0.8812899
661412500 0.24836852 -0.91233993 0.00042255819 0.00038146949 0.00025759137 1.3615736e-005 0.20010559 0.85951024
668900000 0.037323333 -0.94067061 -0.00020543259 -0.00025766814 0.00015673104 -0.00044356778 0.39588022 0.78976995
676387500 -0.17456309 -0.9197883 0.0001108064 -8.9991299e-005 7.5408352e-005 -0.00022807057 0.57189888 0.67290586
683875000 -0.36921868 -0.85609853 6.107326e-005 2.0554284e-005 -0.00035024821 8.4972213e-005 0.715671 0.51431113
691362500 -0.54314208 -0.75374955 -0.00026424875 0.00016563691 0.00021648366 -0.00021545787 0.81510895 0.32484514
698850000 -0.6897037 -0.61921251 5.637202e-005 9.3569317e-005 -0.00050695025 0.00028498354 0.86462969 0.11901307
706337500 -0.80824769 -0.45701832 -0.00015713288 9.6526615e-005 1.4776634e-005 -0.00020701565 0.86379176 -0.091577165
713825000 -0.8920424 -0.27407846 5.0913462e-005 -0.0003132323 -5.1018967e-005 0.0001594778 0.81445265 -0.29280162
721312500 -0.93500173 -0.072651617 0.00016390743 -1.3108605e-005 6.899186e-005 -2.5952497e-005 0.72069132 -0.47454858
728800000 -0.93447763 0.1378493 -4.4863122e-005 3.3617831e-005 -9.4921175e-005 0.00024347818 0.5895406 -0.63136536
736287500 -0.88425672 0.34812707 7.1733317e-005 0.00032430494 5.8721471e-005 0.0001906986 0.42658889 -0.75451779
743775000 -0.78136724 0.54255408 0.00020404613 -6.168033e-006 -0.00030336817 0.00020480795 0.24151458 -0.83770049
751262500 -0.6337893 0.70926207 0.00017790658 0.00016564518 3.0932795e-005 0.00020067753 0.039809853 -0.87707603
758750000 -0.44902813 0.83426934 -7.8653378e-005 -0.00010301943 -7.8893223e-005 -0.00014811846 -0.16816981 -0.86769229
766237500 -0.24182907 0.91133976 0.00026284062 5.9686517e-005 -0.0001661901 -0.00017193964 -0.36704898 -0.80854517
773725000 -0.023934646 0.93471545 -1.4529952e-005 -0.00026937877 0.00016302831 0.00013549213 -0.54656523 -0.70360756
781212500 0.19013059 0.90915924 -0.00018393277 0.00024004026 8.5176252e-005 -0.00012955831 -0.69451416 -0.55965525
788700000 0.38978523 0.83734721 0.00033518835 -0.00022771466 0.00010686794 -0.00030845014 -0.80422431 -0.3866021
796187500 0.56850749 0.72437775 -0.00036614254 -0.00022980191 -0.00031164591 0.00012282234 -0.86837912 -0.19504559
803675000 0.71652323 0.57603896 0.00023458841 0.00014472863 0.00027029664 -7.0197899e-007 -0.88780659 0.0040202914
811162500 0.8300029 0.399129 0.0002783621 -8.7053864e-005 0.00017630872 -0.00054543151 -0.86180109 0.20087157
818650000 0.90217829 0.19988926 0.00033617445 -2.4191786e-005 0.00020559291 -2.5122326e-005 -0.79244727 0.38574135
826137500 0.92810488 -0.013116471 -6.5231121e-005 0.00026753102 0.00043654937 0.0002622866 -0.68465346 0.55091095
833625000 0.90434742 -0.22761931 -9.8705517e-005 0.00011422317 0.00016293446 0.00038374212 -0.54173023 0.68849713
841112500 0.83099478 -0.43285504 -0.00025509336 0.00013268918 0.00013217196 1.8750978e-005 -0.37381554 0.78974038
848600000 0.70924062 -0.61491609 0.00011006589 4.4631382e-005 -5.4237691e-005 -0.00024173518 -0.18523179 0.85042292
856087500 0.54777688 -0.76321852 7.6472941e-005 2.3657967e-005 8.4583473e-005 -6.6395987e-005 0.013275553 0.8669281
863575000 0.35628533 -0.86643893 -0.00024558083 6.9505317e-005 -9.6092859e-005 -0.00012008734 0.21198502 0.83726406
871062500 0.14853691 -0.92077166 -0.00023965172 0.00025218126 0.00056796236 -0.00028712518 0.39935803 0.7641139
878550000 -0.062844805 -0.92562413 9.7334865e-005 7.3328345e-005 -0.00019612517 0.00016776162 0.56543458 0.65084553
886037500 -0.26557985 -0.88379574 -0.00035835133 0.00013638416 0.00019893255 -8.9466455e-005 0.70397991 0.50193989
893525000 -0.45088512 -0.79844666 -0.000204232 7.7975732e-005 0.00010322666 0.00021336446 0.80428958 0.32168946
901012500 -0.60996634 -0.67759585 -6.7317349e-005 -0.00016468536 5.4230815e-005 -0.00014383235 0.86113942 0.11996416
908500000 -0.73931974 -0.52823788 -1.0356375e-005 -0.00013365119 -9.2534983e-006 -1.8386836e-005 0.8663854 -0.093493894
915987500 -0.83598572 -0.35626912 0.00023679218 0.00019100073 0.00021398773 -8.292334e-005 0.81632274 -0.30130738
923475000 -0.89540642 -0.16665854 7.8934114e-005 -3.9345625e-005 -3.3701912e-005 0.00018021378 0.71864825 -0.48689413
930962500 -0.9145301 0.032304175 -4.1699383e-005 -3.2672211e-005 6.9374124e-005 -8.7539054e-005 0.58083183 -0.64009494
938450000 -0.89026487 0.23428275 -3.5834113e-005 -0.00012498174 -0.00025942075 -6.5542103e-005 0.41371688 -0.7549355
945937500 -0.82031232 0.43243784 -0.00025214258 -2.9227565e-005 0.00022085091 -0.00023816734 0.22971147 -0.82835996
953425000 -0.70318621 0.61365038 0.00014057659 5.8993555e-005 -2.4972394e-005 -0.00016522486 0.036099762 -0.86015904
960912500 -0.54306275 0.76318049 0.00031178145 8.9083129e-005 2.6319711e-005 -3.8999315e-005 -0.15865326 -0.84990084
968400000 -0.34985173 0.86976856 -2.9803308e-005 0.00035580029 -0.00027647006 -8.4052197e-005 -0.34682465 -0.79860288
975887500 -0.13703543 0.92481583 8.6876491e-005 0.00010630877 5.763839e-006 1.8974781e-005 -0.52159202 -0.70520139
983375000 0.082258098 0.92543179 -8.5454258e-006 -7.2079049e-005 9.6099604e-005 -5.9441529e-005 -0.67396629 -0.57265681
990862500 0.28943202 0.87545532 0.0001577752 0.0003691208 -1.3083941e-005 0.00031666202 -0.79203665 -0.4037734
998350000 0.47769859 0.78137577 -0.00028435051 9.1505804e-005 0.00019416548 7.332486e-005 -0.86590844 -0.2082115
1005837500 0.62576908 0.66678691 0.00028897484 0.00036541774 -1.0121454e-005 -1.0913862e-005 -0.88788623 0.016830368
1013325000 0.7580992 0.51212656 -3.2399897e-005 3.7402922e-005 -0.0002109721 -3.8361006e-005 -0.85484529 0.22008345
1020812500 0.85758674 0.33382887 0.00042575924 0.00025147328 -0.0003115932 0.00011926825 -0.77367735 0.40456447
1028300000 0.91771299 0.13510561 1.8334906e-005 0.00012081246 -9.9872441e-006 -0.00011529746 -0.65671915 0.56074524
1035787500 0.93215626 -0.077273525 0.00014953635 0.00016012762 -4.8065078e-005 9.3342642e-005 -0.51153511 0.68518531
1043275000 0.89589769 -0.29139167 5.153273e-005 2.9076233e-005 5.1521888e-006 0.0002476376 -0.3462261 0.77618414
1050762500 0.80806726 -0.49546582 0.00045931237 -3.3908953e-005 0.00016690438 -0.00024547343 -0.16686356 0.83200508
1058250000 0.67098069 -0.67496473 -0.00021997515 0.00037310683 -5.9417733e-005 -0.0001766077 0.022106864 0.85210061
1065737500 0.49239612 -0.81190681 1.1881443e-005 -8.4554311e-005 0.00021777104 0.00010840015 0.21708894 0.8328256
1073225000 0.28865305 -0.89729434 0.00025409501 -0.00036277599 -0.00019404812 2.9272169e-005 0.41083091 0.76882857
1080712500 0.07518404 -0.92844725 0.00023087105 -3.2166272e-006 -0.00041699412 -0.00011890064 0.59074485 0.65374792
1088200000 -0.13183162 -0.9097693 -5.4606684e-005 -0.00015286671 -0.00048516376 -2.2755748e-005 0.74195409 0.4920364
1095687500 -0.32215929 -0.84892547 -0.00025388002 0.00011119538 -4.9741633e-005 -0.00029410727 0.84444815 0.29082799
1103175000 -0.49377042 -0.75463712 0.00019711847 -4.7433779e-005 -0.00026390856 6.9691989e-005 0.88789147 0.069044806
1110662500 -0.64295393 -0.62868237 5.4633667e-005 -0.00029337555 -5.7661196e-005 -0.00024258408 0.87169939 -0.1513395
1118150000 -0.76522541 -0.47619754 -0.0003486636 0.00011698791 0.00022831938 -0.00020681033 0.80163455 -0.35293475
1125637500 -0.85638684 -0.29874194 3.1285446e-005 0.00037340735 6.5929082e-005 0.00018317401 0.68918729 -0.52525431
1133125000 -0.9071874 -0.10092946 4.5064608e-005 -8.0456506e-005 0.00025711468 0.00025265929 0.54773074 -0.6633659
1140612500 -0.9119665 0.10848068 0.00010706563 0.00015417281 -5.7527333e-005 -0.00020310932 0.38452315 -0.76682901
1148100000 -0.8658672 0.31729466 0.00046300251 -2.3387369e-005 0.00012569896 7.4086958e-005 0.20488803 -0.83415407
1155587500 -0.76682752 0.51235616 -0.00066312944 -0.00013506069 0.00030965504 -5.7013989e-005 0.013090858 -0.86326653
1163075000 -0.62277812 0.67438376 0.00019871035 0.00014233157 -0.00011041526 -0.00020339769 -0.18268952 -0.85032505
1170562500 -0.44701889 0.7940836 0.00016644313 0.00021136703 -0.00042308186 0.00013777119 -0.37355569 -0.79144239
1178050000 -0.25277272 0.86817217 -8.4542793e-005 0.00016899976 -0.00041659002 6.2165782e-005 -0.54801387 -0.68600351
1185537500 -0.051754691 0.89815938 -0.00017928192 -1.2857829e-005 -0.00012784603 -4.5645342e-005 -0.69228172 -0.54151726
1193025000 0.14742079 0.88511109 0.00026627313 2.4117071e-005 -0.00016964397 -2.2133143e-005 -0.79375392 -0.36602661
1200512500 0.33861768 0.83275187 -0.00021615277 -0.0002804352 0.00019408949 0.00015215194 -0.84992933 -0.17599939
1208000000 0.51727688 0.73934567 0.00024918269 -1.7246673e-005 -3.7046251e-005 -0.00014585916 -0.86069477 0.018225644
1215487500 0.67498446 0.6090306 -5.5024917e-005 0.00055816816 9.187041e-005 0.00015132282 -0.83132988 0.20653161
1222975000 0.80327326 0.4433305 -0.00013720327 1.2364049e-005 -9.9059667e-005 -3.2375763e-005 -0.7632938 0.38314676
1230462500 0.88948405 0.2455171 0.00013134597 -0.00026119573 0.00017670193 3.488129e-005 -0.66161871 0.54356664
1237950000 0.92468125 0.030817613 -7.6126678e-005 -0.00013858246 -4.0884355e-005 -5.245471e-005 -0.52561003 0.68176591
1245437500 0.9038803 -0.18580078 -0.00026002969 0.00019727435 8.3133848e-005 9.8659199e-005 -0.35747877 0.79154944
1252925000 0.83103836 -0.38736302 -0.0002862305 0.00014670649 5.1458715e-005 2.9962641e-005 -0.16057929 0.8624146
1260412500 0.7135573 -0.5598045 1.4151925e-005 0.00032718247 7.7700759e-005 -8.1032333e-005 0.054225322 0.88237548
1267900000 0.56538415 -0.69638067 -5.6617002e-005 7.9060039e-005 0.00016366095 -0.00012863356 0.27202722 0.84326124
1275387500 0.39725316 -0.79644471 0.00017362428 0.000154751 -8.1126942e-005 -7.1919225e-005 0.47132623 0.74735326
1282875000 0.21586528 -0.85891378 3.3266948e-005 -5.2216317e-005 -0.00015426258 8.5157342e-005 0.6356166 0.60327244
1290362500 0.028319074 -0.88539368 0.00010086865 -0.000115003 0.00024431761 0.00012944578 0.75279212 0.42754871
1297850000 -0.16527219 -0.87531698 0.0001712442 -4.3650543e-005 -6.302273e-005 5.3129985e-005 0.82232475 0.23642124
1305337500 -0.35649025 -0.8252517 -0.0001170831 -3.7354966e-005 -0.00023463693 -0.0001220128 0.84698427 0.042874359
1312825000 -0.53883976 -0.73100322 -0.00014333286 -7.061743e-006 -3.0112215e-006 -3.2049818e-005 0.83214438 -0.1466092
1320312500 -0.69869542 -0.59298724 0.00018789603 -0.00012030911 3.5547248e-005 -7.3894153e-005 0.78115851 -0.32903337
1327800000 -0.82290095 -0.41468179 -9.3902476e-005 -0.00016653472 -6.6158733e-005 0.00013157791 0.69503617 -0.49823716
1335287500 -0.898691 -0.20781298 -0.00030830855 0.00013232457 -0.00027143827 0.00015340779 0.57105011 -0.65038991
1342775000 -0.91678715 0.011041087 0.00011599393 0.00013902747 -1.2933134e-005 -0.00023137937 0.41214514 -0.77553189
1350262500 -0.88202745 0.22088619 -0.00014154386 -0.00012736153 -3.583726e-005 0.00021615323 0.22017106 -0.85880947
1357750000 -0.80014843 0.41186661 -0.00034092774 -2.2447493e-005 0.00037323128 -3.36997e-006 0.0079640104 -0.89257383
1365237500 -0.6823051 0.57527274 -2.1874554e-005 -0.00016739477 0.00018403726 2.5661619e-005 -0.20652336 -0.86760336
1372725000 -0.53621298 0.7068525 -0.00023909578 -0.00020611401 0.00015538026 0.00010018599 -0.40346837 -0.78731304
1380212500 -0.3698591 0.80461627 0.00012633641 -0.0001791981 -0.00011444791 -0.00018209509 -0.5672121 -0.66199654
1387700000 -0.18740337 0.87012172 0.000204005 -0.00020098854 -2.1414144e-005 -4.8354559e-005 -0.69152433 -0.50780213
1395187500 0.009823815 0.89827883 0.00018336732 -6.2973202e-005 -5.4682376e-005 -0.00014724658 -0.77482301 -0.33782402
1402675000 0.21452041 0.88398933 -7.7205141e-006 0.00028161824 0.00012659901 -8.1404818e-005 -0.81894511 -0.16015173
1410162500 0.41679895 0.82045054 0.00044229245 9.3879808e-006 0.00032542489 -0.00023487289 -0.82935643 0.019567179
1417650000 0.6044271 0.70477951 0.00021644986 -7.1419396e-005 -0.00011905784 0.00018102108 -0.80582839 0.19623648
1425137500 0.75832635 0.54143494 -0.00027944913 -0.00010344051 4.0025898e-005 8.6353662e-005 -0.74852312 0.36935663
1432625000 0.86391699 0.34339741 -0.00020959767 -0.00021472757 -0.00012543997 0.00015349218 -0.65521187 0.53297317
1440112500 0.91227341 0.12663957 0.00013731902 3.0349522e-005 0.00015622009 0.00056453166 -0.52294463 0.67793059
1447600000 0.90370482 -0.087609388 0.00018371086 -3.0342964e-005 0.00031533474 5.097625e-005 -0.35151842 0.79364061
1455087500 0.84744251 -0.28510368 -0.00023095463 -4.4018889e-005 0.00028798284 -0.00013969083 -0.1508362 0.86491084
1462575000 0.75299317 -0.45808113 -0.00011353863 0.00013072933 -0.00020714157 8.7413842e-005 0.06768325 0.88120592
1470062500 0.62991905 -0.60273254 0.0002035526 -5.9631555e-005 2.8986216e-005 -0.00038126047 0.28454065 0.83803535
1477550000 0.48531601 -0.71857554 -0.00018275242 -3.7048387e-005 0.00018388436 1.3173228e-005 0.4815411 0.73980564
1485037500 0.32326204 -0.80664325 0.00010613188 -2.6015236e-005 -2.3044273e-005 0.00014455983 0.64105308 0.59678125
1492525000 0.14407098 -0.8637715 -8.1151353e-005 -8.8264942e-006 -0.00018925802 6.9678167e-006 0.75805891 0.4236297
1500012500 -0.047942735 -0.88552964 0.00021587868 -0.00011373014 -4.7549227e-005 -4.7570215e-005 0.82849848 0.23394029
1507500000 -0.24821688 -0.86303449 -8.3772189e-005 9.6585056e-005 0.00017193283 -3.9833103e-006 0.85388762 0.039019991
1514987500 -0.44476411 -0.79293525 -3.7372734e-005 -0.00024078369 0.00021072451 0.00014638319 0.83883619 -0.1544857
1522475000 -0.62378162 -0.67311186 -0.00012536185 -8.8896675e-005 -3.8352646e-005 -4.5264325e-005 0.78363585 -0.33908242
1529962500 -0.76859635 -0.50850827 -7.9249978e-005 7.6231277e-005 -1.2099864e-006 -5.5085897e-005 0.68999952 -0.50844163
1537450000 -0.86545253 -0.31078756 6.0861428e-005 -3.9055572e-006 -6.6238448e-005 0.00011124698 0.55990046 -0.65585369
1544937500 -0.90741062 -0.098764107 -0.00020699248 1.9582514e-005 -0.00021110545 5.6415269e-007 0.39666501 -0.77209872
1552425000 -0.89615089 0.11041491 -0.00021204485 -1.5959789e-005 -0.00023801174 -0.00012126492 0.20787321 -0.84628409
1559912500 -0.83884263 0.30411613 -0.00015191494 7.3023301e-005 -0.00017760666 -3.8687667e-005 0.0035690658 -0.87321013
1567400000 -0.74355382 0.47539356 -0.00034459791 -5.7958456e-005 0.00018224925 -0.0003269396 -0.20132461 -0.8477698
1574887500 -0.6203413 0.61967766 -0.000200992 0.00043779871 -3.0654643e-005 0.00017120126 -0.39198911 -0.77270627
1582375000 -0.47365892 0.73589522 0.00015372891 -7.2362286e-006 0.00014149271 -6.174911e-005 -0.55433488 -0.65544641
1589862500 -0.30716425 0.82285798 -3.1566618e-005 0.00011993432 0.00027869339 3.8903595e-006 -0.68278575 -0.50623006
1597350000 -0.12342223 0.8769083 3.4268967e-005 0.00015358542 7.7171964e-005 0.00034400678 -0.77200139 -0.33610228
1604837500 0.073763251 0.89143735 5.1347248e-005 0.00010215944 4.3575335e-005 -0.00018956876 -0.82193232 -0.15417451
1612325000 0.27674693 0.86169183 2.3815244e-005 -0.00011864972 -0.00016989475 -0.00020364135 -0.8331598 0.031620834
1619812500 0.47317427 0.78068507 -4.033673e-005 0.00022968034 -0.00032683936 -7.2020935e-005 -0.80622739 0.21599135
1627300000 0.64800298 0.64957327 -9.9875448e-005 -0.00011963921 0.00036643795 -9.9296121e-005 -0.74143893 0.39350742
1634787500 0.78529024 0.47625503 -0.00019730499 -0.00042252717 -0.00026666233 -0.00022635311 -0.63845569 0.55640572
1642275000 0.87225056 0.27348235 9.4918476e-005 -0.00015832562 4.9459901e-005 -8.0476821e-006 -0.49719095 0.69529998
1649762500 0.90333635 0.058905777 0.00014866017 9.3938193e-005 5.6199984e-005 3.0836378e-005 -0.32258943 0.80034614
1657250000 0.88199854 -0.15014008 1.2072144e-006 7.1566574e-005 0.00012166822 2.4700182e-007 -0.12295628 0.86078745
1664737500 0.81520909 -0.34352273 5.4033804e-005 -1.5494743e-005 -4.5986373e-005 -0.00021672893 0.087804794 0.86811411
1672225000 0.71247053 -0.51391137 5.3569191e-005 6.4498628e-005 -0.00032384842 -0.00020545573 0.29302159 0.82231468
1679712500 0.578228 -0.65777797 6.3228043e-005 -0.00010934837 0.00015094533 7.0184622e-005 0.47827947 0.72724175
1687200000 0.41748673 -0.76998061 5.7822312e-005 -0.00018716168 2.8679173e-005 0.00015233428 0.63250428 0.59347844
1694687500 0.2351515 -0.84886438 -0.00022635948 -4.9294271e-005 0.0001235322 -0.00011096215 0.74926645 0.43130931
1702175000 0.035684276 -0.88742501 -7.2856936e-005 -5.5656918e-005 -4.4733297e-005 -9.826498e-005 0.82669401 0.25018772
1709662500 -0.17159882 -0.87689978 -0.00010648571 -0.00017586617 7.4441094e-005 -0.00014772857 0.8618291 0.057554424
1717150000 -0.37405261 -0.81688458 -0.00016443284 -0.00028205832 0.00023499448 -0.0002575726 0.85574126 -0.14015903
1724637500 -0.55559784 -0.7075386 3.1979536e-005 0.00017186774 -0.00026134038 -9.01885e-005 0.80540049 -0.33449063
1732125000 -0.70271099 -0.55722302 0.000198886 0.00015124508 -5.2819258e-005 0.00012144317 0.70862335 -0.5146752
1739612500 -0.80507714 -0.37872586 0.00027934561 -2.5692566e-006 0.00024610505 0.00012859689 0.56773931 -0.66811025
1747100000 -0.86255544 -0.18803152 0.00016600448 0.00020815544 4.5049805e-005 -2.7290434e-005 0.39129081 -0.78117257
1754587500 -0.87650466 0.0049663251 0.00021447673 2.3629213e-005 -3.8496233e-005 -4.7931017e-006 0.19272372 -0.84435457
1762075000 -0.85164726 0.19116889 -0.00013933596 -9.3187416e-005 -9.1973736e-005 0.0001422979 -0.0090375654 -0.8540892
1769562500 -0.79215914 0.36752689 0.00026676457 -5.144504e-005 -0.00012847212 -6.8359545e-006 -0.20133536 -0.81720805
1777050000 -0.6996792 0.52991736 3.0308869e-005 -0.00025457219 0.00036143695 -3.2140746e-005 -0.37134162 -0.74013424
1784537500 -0.57432067 0.67545563 0.00020257685 0.00033455365 -0.00019739478 1.7907996e-005 -0.5180186 -0.63422596
1792025000 -0.41512328 0.79540759 5.1693705e-006 -0.00042086668 -0.00012057505 0.0002938504 -0.63874185 -0.50656497
1799512500 -0.22488821 0.87777263 0.0002309374 9.9780656e-005 -0.00013845784 5.6825702e-005 -0.73397344 -0.35845059
1807000000 -0.014236323 0.91274506 0.00021076611 0.00063603424 5.80128e-005 0.00011055593 -0.80256665 -0.19236206
1814487500 0.20312546 0.88926888 7.7915363e-005 0.00028663198 -5.4359487e-005 0.00017619875 -0.83924425 -0.0099770697
1821975000 0.40700948 0.81104344 -9.559012e-005 1.6731132e-005 0.00023436492 5.6392746e-005 -0.83493155 0.18705128
1829462500 0.57951373 0.68384397 2.0397398e-005 0.00018318664 0.00012928259 -3.5478275e-005 -0.78081846 0.38791114
1836950000 0.71132463 0.52401066 0.00011343349 -3.2510197e-005 -0.0001447862 -2.3118033e-005 -0.67082673 0.57658112
1844437500 0.80056822 0.34497356 8.3757686e-006 -0.00017100725 0.0002545274 3.5617031e-005 -0.50990194 0.73023546
1851925000 0.84893459 0.1579143 4.4886681e-005 -0.00010820571 0.00015350884 -1.8921027e-006 -0.31102675 0.83148396
1859412500 0.86010599 -0.030689364 -0.00016865662 7.2870593e-005 -6.3839805e-005 -0.00020068666 -0.098785266 0.87309414
1866900000 0.83573151 -0.22055513 -0.00020288145 -7.6277596e-005 -0.00019850815 -0.00041608655 0.1085806 0.85856372
1874387500 0.77353549 -0.40665826 -5.9907183e-005 -0.00010451209 -5.0904528e-005 7.7861077e-005 0.29689053 0.80129117
1881875000 0.66912007 -0.58244777 9.2762355e-005 5.634626e-005 -1.0233915e-005 0.00017715225 0.46041402 0.70859712
1889362500 0.51867563 -0.73573911 -2.8175111e-005 -0.00011160925 -7.2812443e-005 0.00018090823 0.60096252 0.58994174
1896850000 0.32719678 -0.85175216 0.00014460264 -0.00025831652 0.00014257302 -0.00023133152 0.7157889 0.44833779
1904337500 0.10616815 -0.90991116 0.00017066589 9.222269e-005 -0.00039360288 -0.00010795636 0.80422109 0.28302258
1911825000 -0.12159955 -0.90209103 -0.0003845609 -0.00038131329 0.00024983281 0.00026639481 0.8576867 0.097000442
1919312500 -0.33094329 -0.83292466 -1.4713384e-005 -0.00037206718 7.7617457e-005 0.00010257506 0.8683483 -0.10666626
1926800000 -0.50458646 -0.71926749 7.4359363e-005 5.1688166e-005 0.00022528137 -2.3150156e-005 0.8250553 -0.3147074
1934287500 -0.63677174 -0.57907093 5.4790242e-005 -0.00024180223 0.00016699242 -7.6692755e-005 0.72557795 -0.50801492
1941775000 -0.73121566 -0.42544219 -4.5497977e-006 -0.00044587455 -3.0488533e-005 -0.00021508588 0.57537293 -0.66620082
1949262500 -0.7927621 -0.26443097 6.0724233e-005 7.8584249e-005 -0.00028866981 7.9238176e-005 0.39080194 -0.77564543
1956750000 -0.82818884 -0.10238336 -1.4630067e-005 -0.00012106645 0.0002152025 5.02274e-006 0.19381598 -0.82991439
1964237500 -0.83775717 0.064087451 1.3954595e-005 4.759655e-005 7.3086689e-005 -0.00016116892 -0.0011462411 -0.8365202
1971725000 -0.8202107 0.23551206 0.0001905364 -2.4994844e-005 -6.2878025e-005 -0.00011384964 -0.18302856 -0.80183226
1979212500 -0.76865435 0.41155145 0.00041220017 -0.00019271154 -5.7421032e-005 0.00026973421 -0.34852389 -0.73511124
1986700000 -0.67497712 0.5847345 5.0229948e-005 -3.2187513e-006 0.00010481018 -0.00038757475 -0.49713573 -0.6407463
1994187500 -0.53509599 0.74145085 0.00010013959 -0.00013266882 0.00011236164 -9.7139105e-005 -0.62442857 -0.52092332
2001675000 -0.34559709 0.86002386 -0.00013654651 1.4127388e-005 0.00021466849 0.00026472806 -0.73131901 -0.37595356
2009162500 -0.12134809 0.92343915 -0.00025613146 -6.1971077e-005 -0.00022168328 2.7594549e-005 -0.80798906 -0.20632561
2016650000 0.11226124 0.91791487 -4.0784966e-005 1.326746e-005 0.00026635232 -0.00011747189 -0.84753186 -0.016337758
2024137500 0.33091748 0.84839618 -0.00021966685 -8.040238e-005 2.6394364e-005 0.00021245048 -0.84019089 0.18405698
2031625000 0.51352406 0.72785783 0.0002787257 0.00021763738 -7.5621676e-005 3.372323e-005 -0.78219604 0.38209066
2039112500 0.65473092 0.57491082 3.0577259e-005 0.00019083652 -0.00014197813 0.0001073161 -0.67372453 0.56224197
2046600000 0.75405878 0.40416414 -0.00024640415 2.9595383e-005 -9.6099982e-005 5.112604e-005 -0.52330232 0.70828706
2054087500 0.81432503 0.22326799 -7.3876901e-005 0.00012406117 0.00012194298 0.00038640227 -0.34140873 0.81167185
2061575000 0.8384797 0.038063738 -4.6504025e-005 -1.1254637e-007 -0.00013761736 -0.00036336109 -0.14217456 0.86839646
2069062500 0.82611161 -0.14946555 6.1566789e-005 -6.9158268e-005 3.8819311e-005 -0.00019010629 0.063317023 0.87593997
2076550000 0.77665532 -0.33321169 0.00029110798 -5.3484422e-005 0.00013235088 6.8728878e-005 0.26364046 0.83626789
2084037500 0.68485051 -0.50555021 4.6432186e-005 0.00022624075 -0.0001945339 -2.6687159e-005 0.44775248 0.7510891
2091525000 0.55582201 -0.65625805 -0.00010027867 -0.00028167592 0.00031008752 -0.00022669556 0.60797185 0.62587041
2099012500 0.39095038 -0.7727741 9.4192728e-005 -0.00011642215 5.552825e-005 0.00018095925 0.73308951 0.4662337
2106500000 0.20184925 -0.84626132 8.3385443e-005 -4.6518504e-005 -0.00019541351 3.9705395e-005 0.81707841 0.28154626
2113987500 0.0021505854 -0.87113881 -0.00018073112 -0.00015762294 0.00011055263 4.5162971e-005 0.85407603 0.083758816
2121475000 -0.19410351 -0.84796298 1.8893681e-005 9.5034564e-005 0.00030306086 6.1566032e-005 0.84434545 -0.11433813
2128962500 -0.37707037 -0.78299648 -0.00028781898 -0.00012623433 5.2831809e-005 -1.1196533e-005 0.79029918 -0.30223995
2136450000 -0.53896904 -0.68050349 -0.00015077389 0.00015071986 0.00016233984 -6.9440779e-005 0.69682539 -0.47207654
2143937500 -0.67351514 -0.54818988 7.3200448e-005 -4.0280807e-005 8.5928456e-005 2.5792468e-005 0.56889743 -0.61603153
2151425000 -0.77621913 -0.3913182 0.00012377246 0.00040235394 -0.00012067705 -2.6980246e-005 0.4140915 -0.73002428
2158912500 -0.84402478 -0.21558951 6.7336397e-005 8.1060854e-005 0.00011009514 -0.00015187687 0.23632246 -0.80782449
2166400000 -0.87369007 -0.028448522 0.00012530276 6.9124624e-005 8.2598475e-005 -0.00052836922 0.042813092 -0.84445804
2173887500 -0.86128485 0.16374597 -0.0002757406 0.00032752249 -8.9981419e-005 -0.00011823489 -0.15650637 -0.83516866
2181375000 -0.80470216 0.35094574 0.00015127205 0.0005912616 0.00048399009 -3.7970771e-005 -0.35049281 -0.77817148
2188862500 -0.70743775 0.52076405 0.00031961451 -0.00037390762 0.00027257684 0.00036667145 -0.52482802 -0.67488688
2196350000 -0.57188839 0.66627795 -9.1680755e-005 5.6854336e-005 -0.00044722974 0.00028835327 -0.66898477 -0.53269988
2203837500 -0.40594083 0.77747482 0.00015726726 -0.00020883174 -3.5875712e-006 2.996172e-005 -0.771954 -0.36163417
2211325000 -0.21756208 0.84967244 -6.6738066e-005 1.9143858e-005 0.00026892067 -9.1435009e-005 -0.83219761 -0.17579536
2218812500 -0.01468777 0.876782 -0.00020932558 -0.00011497445 0.00055261026 3.8829672e-005 -0.8493461 0.016393855
2226300000 0.19107598 0.85593706 1.2000162e-005 -0.00032005194 0.00025350627 0.00015293798 -0.82441002 0.2044501
2233787500 0.38946864 0.78667086 -0.00014561943 -0.00024703899 0.00050983077 -4.6011297e-005 -0.7621327 0.3824771
2241275000 0.56817102 0.66939449 -0.00018255132 3.4946661e-005 -0.00014076364 9.2065602e-005 -0.66184473 0.54492623
2248762500 0.71375293 0.50998473 2.2960301e-005 0.00018510659 -6.9969319e-005 -9.7657314e-005 -0.52884638 0.68522227
2256250000 0.81324613 0.31855959 0.00019674061 5.1390762e-005 -1.7711322e-005 -0.00013592788 -0.36241555 0.79528785
2263737500 0.86003757 0.11069351 -6.1744904e-005 7.4371666e-005 1.5270773e-005 -7.1238639e-005 -0.16901752 0.86537147
2271225000 0.85405344 -0.096300364 0.00017580912 0.00031896526 -5.9855665e-005 0.00012440296 0.04097284 0.88586015
2278712500 0.7999301 -0.29036245 -0.00021752152 5.0591814e-005 -2.6167681e-005 -0.00010513436 0.25176856 0.85039902
2286200000 0.70608789 -0.45920718 -5.7289868e-005 -0.00031911355 0.00012772038 1.0132869e-005 0.44682702 0.76282305
2293687500 0.58329988 -0.6001718 8.7352681e-005 0.00011262458 0.00010330189 0.00021239744 0.61075199 0.62751055
2301175000 0.43881848 -0.70894414 -0.00016528922 0.00022527907 -3.1360218e-005 6.4168322e-005 0.73352844 0.45940283
2308662500 0.28030607 -0.78656888 -0.00019938235 -2.6330306e-005 0.00026533351 0.00013535854 0.81069636 0.27274373
2316150000 0.11022899 -0.83217126 -2.060855e-005 3.5096622e-005 -0.00023155066 0.00021632314 0.84235317 0.076731674
2323637500 -0.066060074 -0.84499949 0.00016427606 0.00017765412 -0.00021552292 -0.00034595554 0.83031905 -0.11821118
2331125000 -0.24447703 -0.82237726 -0.00028745233 0.00029752759 0.00026620299 -8.3398605e-005 0.77721775 -0.30433896
2338612500 -0.41862854 -0.76132959 9.0494701e-005 4.8333786e-005 -0.00024600039 -7.4916265e-005 0.68431896 -0.4742873
2346100000 -0.58143663 -0.66205132 8.8684537e-005 8.2336323e-005 0.00010787616 -0.00031925875 0.55603063 -0.62159961
2353587500 -0.71903914 -0.52550864 4.2853124e-005 0.00023506361 0.00012580588 -9.8964032e-005 0.39620596 -0.73515904
2361075000 -0.82535946 -0.3554965 0.00035038829 0.00010670431 0.00023592122 0.00031505805 0.213044 -0.80944341
2368562500 -0.88976598 -0.16085082 -4.0922412e-005 0.00019797577 0.00014069751 0.00017742431 0.01829634 -0.83859044
2376050000 -0.90423661 0.046446528 0.00020394249 3.3450753e-005 2.1140002e-005 0.00026926989 -0.17876033 -0.82196397
2383537500 -0.86785185 0.25364053 0.00011412192 -1.0495102e-005 0.00031928087 -0.00039362448 -0.36369503 -0.76034141
2391025000 -0.78081769 0.44621795 -5.9804788e-005 0.00017340263 0.00020855603 -8.9670248e-005 -0.52952713 -0.65955567
2398512500 -0.64910609 0.61097109 -0.00025686724 9.3803254e-005 0.00013201131 0.00013149106 -0.66830331 -0.52444059
2406000000 -0.48090866 0.73757845 0.00010128014 9.6188116e-005 0.00011456544 1.0764305e-005 -0.77465433 -0.36205351
2413487500 -0.2902641 0.81873524 0.00010168417 -6.3225096e-005 1.0256256e-005 -0.00010538664 -0.84294796 -0.17912649
2420975000 -0.089241542 0.85231012 0.0001076277 -0.00010898255 0.00011442717 0.0003769146 -0.86896265 0.018183779
2428462500 0.1109533 0.83782655 -0.0002386319 0.00012172588 -1.0879156e-005 0.0001079263 -0.84752393 0.21825869
2435950000 0.29686958 0.78037566 0.00019124488 -8.4991116e-005 0.00013644168 0.00010213433 -0.77706152 0.4099409
2443437500 0.46346372 0.68596822 3.9471837e-005 1.7882172e-005 0.00045818332 7.7274111e-005 -0.65880895 0.57939577
2450925000 0.60606664 0.56217736 -8.6151122e-005 0.00027557238 -0.00010723824 0.00031966119 -0.50503826 0.71352631
2458412500 0.71869373 0.41259116 0.00012123288 0.00013232707 0.00010166521 5.8531231e-007 -0.32428128 0.80425441
2465900000 0.79986471 0.24090232 -0.00028898322 -0.00011638772 0.00021272052 -1.8417146e-005 -0.12983742 0.84897947
2473387500 0.84605497 0.052683149 -0.00032145588 3.7992388e-005 -7.7210359e-005 -0.00012599819 0.064598665 0.84806967
2480875000 0.84780198 -0.14673069 -0.00011040677 7.8453464e-005 -0.00022247199 -4.1431409e-005 0.2521601 0.80415434
2488362500 0.80201662 -0.34672186 -0.00032181025 0.00010008521 -4.9091403e-005 2.5542009e-005 0.42500496 0.72165197
2495850000 0.70686072 -0.53219932 3.7140657e-005 -0.00026917466 -0.00011472061 -0.00049728504 0.57582259 0.60417837
2503337500 0.56562716 -0.68725228 4.8601138e-005 -0.00027680284 5.8694266e-005 -4.7283062e-005 0.6990695 0.4537361
2510825000 0.38948449 -0.79996866 0.00025156964 4.5464316e-005 -0.00018286731 7.7041717e-005 0.78816462 0.27649784
2518312500 0.19609053 -0.86224765 -1.2409379e-005 -0.00042841295 -0.00026756158 0.00022951537 0.83199871 0.07914988
2525800000 0.0014495098 -0.87559581 -9.1994538e-005 -9.8414916e-005 -0.00020882307 0.00030301759 0.82663155 -0.12577817
2533287500 -0.18323076 -0.84667253 -9.0607369e-005 -7.4816948e-005 -0.00016682623 2.0050747e-005 0.76980269 -0.32361296
2540775000 -0.35059261 -0.78340727 3.80936e-005 3.2088396e-005 3.8235808e-005 0.00028468127 0.66577965 -0.49979484
2548262500 -0.50041586 -0.69234073 -0.0001273619 9.0237063e-006 5.9608141e-005 -3.2206695e-005 0.52316058 -0.6415714
2555750000 -0.63004309 -0.57708466 6.5432818e-005 -0.00019549181 0.00011628542 0.00041196364 0.35426906 -0.74511665
2563237500 -0.73883754 -0.43762067 1.0429662e-005 -0.00022095887 3.6286332e-005 5.3806521e-005 0.17016603 -0.80545139
2570725000 -0.82091409 -0.27497271 -5.8455815e-005 7.3563526e-005 0.00064259034 0.00013178668 -0.019900512 -0.82295239
2578212500 -0.87049675 -0.088764377 -0.00017860095 -6.9452886e-005 9.7790085e-005 -0.00024205392 -0.20774545 -0.79816973
2585700000 -0.87627918 0.11252613 0.0001388899 0.00017646226 9.5302836e-005 0.00011103709 -0.38577989 -0.73530579
2593187500 -0.82830268 0.31930375 4.1251649e-005 -0.00032715595 -0.00037370552 -5.472319e-005 -0.54609907 -0.63236803
2600675000 -0.72566032 0.50941294 -5.3383981e-005 3.8227321e-005 -0.0003049525 0.00010482167 -0.68022251 -0.49548516
2608162500 -0.57396835 0.66640085 8.036512e-005 -0.00040937978 7.2370713e-005 -9.9707002e-005 -0.78052056 -0.32916787
2615650000 -0.38911068 0.77421695 -0.00037256489 -2.2653492e-005 0.00027870151 8.6303698e-006 -0.83794039 -0.14364584
2623137500 -0.18927842 0.83206981 0.00036162455 3.6687794e-005 -2.6621647e-005 0.00024831446 -0.84881628 0.052293621
2630625000 0.011527025 0.84176224 0.00016755186 -9.1311602e-005 -0.00031489387 -0.00027116729 -0.81288123 0.24250898
2638112500 0.20281672 0.80732149 -0.00013537139 1.5848744e-005 -0.00012123256 0.00038193181 -0.73579878 0.41714329
2645600000 0.37954256 0.73610288 -7.8645804e-005 5.0034327e-005 0.00029959649 0.00015481735 -0.62067991 0.56778729
2653087500 0.53754491 0.63265669 -0.00013703157 2.758104e-005 -4.4219334e-005 0.0001463868 -0.4779402 0.69086254
2660575000 0.67028368 0.49746653 0.00015025797 -0.00018903767 0.00023934111 -0.00040388809 -0.30937013 0.77753907
2668062500 0.77491641 0.33535886 -5.5671524e-005 -0.00030030194 0.00034355363 6.949294e-005 -0.12406382 0.82742614
2675550000 0.84141648 0.15090832 -6.9240588e-005 0.0001638392 -0.0004295001 -0.00012553252 0.069702163 0.83263522
2683037500 0.86260575 -0.046358339 3.7499511e-005 8.9111745e-007 0.00016184842 -0.00023150221 0.26243645 0.79178125
2690525000 0.8358621 -0.24466532 0.00029513991 -2.8978937e-005 -2.9083465e-005 -7.0128488e-005 0.4422456 0.70430791
2698012500 0.76174057 -0.43059644 -0.00029147111 7.837623e-005 -0.00050260243 0.00034035131 0.5942831 0.57320935
2705500000 0.64787191 -0.58949494 0.00031457364 -4.2099746e-005 0.00032647644 -0.00013209457 0.70938313 0.41041857
2712987500 0.50389922 -0.71677369 -0.00013622519 -5.5433185e-005 -0.00034616241 -0.00022076911 0.77943194 0.22745416
2720475000 0.33770484 -0.80646133 -3.1264855e-005 -0.00041935255 8.1272163e-005 1.6717489e-005 0.80426288 0.035530083
2727962500 0.15944856 -0.85903102 -6.866602e-007 2.2264159e-005 9.3091381e-005 -0.00015004825 0.78644055 -0.15297851
2735450000 -0.025963778 -0.87384534 0.00049894775 -0.0001826185 -0.00019748036 0.00011753569 0.7282784 -0.33007485
2742937500 -0.21007369 -0.84928232 -3.4888457e-005 6.1681043e-005 6.9225505e-005 -0.00028659223 0.63414139 -0.49080807
2750425000 -0.38823068 -0.78435832 -3.5196666e-005 0.00040040459 2.0768315e-005 -0.00017935547 0.50755483 -0.62881112
2757912500 -0.54977083 -0.679941 0.00023173555 -0.00012404204 -2.8503355e-005 0.00030869964 0.3488971 -0.73666018
2765400000 -0.6836046 -0.54003537 -0.00026725524 9.2064838e-006 0.00015938679 -0.00044751528 0.16658708 -0.80659741
2772887500 -0.78248745 -0.37035981 0.00018460749 -3.2065414e-005 8.5817574e-006 1.6677954e-005 -0.029872967 -0.83017749
2780375000 -0.83823657 -0.18217073 0.00013269891 0.0001279174 0.00011390494 -6.7526678e-005 -0.22756113 -0.80310684
2787862500 -0.84893274 0.011066175 -0.00014151089 2.0888891e-005 -0.0001969265 8.6039778e-005 -0.41041881 -0.72620219
2795350000 -0.81554103 0.20034623 0.00032382589 -0.00055769918 2.8026854e-005 -1.8862589e-005 -0.56620026 -0.60848361
2802837500 -0.74356091 0.37605196 0.00028746566 -0.00012054507 9.6232412e-005 7.5288299e-005 -0.68534917 -0.46180484
2810325000 -0.63575137 0.53226471 1.0164203e-005 0.00038104854 0.00021332028 -4.0901374e-005 -0.76538068 -0.29508209
2817812500 -0.49607459 0.66372889 0.00017626683 0.00010003581 -0.00021898586 0.00012431452 -0.80664933 -0.11983744
2825300000 -0.32999375 0.76460552 0.00029645121 -0.00031941308 -0.00026038781 0.00018801534 -0.81126964 0.058051568
2832787500 -0.13931067 0.82688248 -6.50246e-005 -9.7713651e-005 -5.0700179e-005 0.00013312467 -0.78074366 0.23307723
2840275000 0.064397357 0.84402698 -0.00027966048 -0.00036094052 -4.475837e-005 -0.00036270698 -0.71296489 0.40098378
2847762500 0.26901576 0.80810469 6.6927729e-005 5.4845754e-005 -0.00017496763 -0.00023426577 -0.60885406 0.55502325
2855250000 0.45919445 0.71984732 -0.00014717462 0.00015052922 7.4749783e-005 -8.7350025e-005 -0.4663288 0.6841563
2862737500 0.61795181 0.58725613 0.00017934371 -0.00016971347 -5.2583418e-005 7.7597659e-005 -0.29203615 0.77811354
2870225000 0.7363432 0.42499644 -3.6207432e-006 -6.867433e-005 -0.00037125021 -0.00023129444 -0.095177785 0.8247475
2877712500 0.80975616 0.24538948 0.00026774616 -6.03636e-005 -0.00018790166 -6.5830587e-005 0.10761333 0.81833369
2885200000 0.84089208 0.059817322 -3.2864569e-005 -7.3761548e-006 -0.00036686618 -5.2678406e-005 0.30058601 0.76110178
2892687500 0.83307827 -0.12166179 -0.0001390634 -0.00023516457 0.00018173865 0.0001207808 0.47006619 0.65916806
2900175000 0.79011524 -0.2947292 0.00035197995 -0.00039313559 0.0001500393 0.00065292534 0.60704577 0.52343273
2907662500 0.71384078 -0.45495766 -4.9711991e-005 0.00024930274 0.0001523937 -0.00010042921 0.70791191 0.36370364
2915150000 0.60726064 -0.59853572 0.00021641898 0.00018082862 0.00013652229 7.636515e-006 0.77087724 0.18769452
2922637500 0.47165048 -0.71995246 8.4481435e-005 0.00013490579 0.00018033602 -1.9992985e-005 0.79419643 0.0031266613
2930125000 0.30726919 -0.8103953 -7.1895382e-005 -0.00015502024 0.00026349555 0.00040731832 0.77705359 -0.18276937
2937612500 0.12309674 -0.86213773 -0.00039176928 0.00011186265 0.00013316375 0.00018556764 0.71749961 -0.36306298
2945100000 -0.070048526 -0.86923885 0.0001523705 -0.00017233902 0.0001281372 0.00021740601 0.6165275 -0.52657962
2952587500 -0.26201957 -0.82856894 4.8160491e-005 5.1986415e-005 0.00011153289 0.00022289534 0.47691843 -0.66127169
2960075000 -0.43655142 -0.74405599 1.0992546e-005 -0.00010210236 -1.4548248e-005 0.00017064535 0.30906412 -0.75811946
2967562500 -0.58677179 -0.62324142 3.7445923e-005 3.1464551e-005 0.00012431269 0.00011135895 0.12319851 -0.80855179
2975050000 -0.70627457 -0.47247264 -2.3105002e-005 0.00027352897 -0.00053983991 0.00011694289 -0.06421195 -0.814152
2982537500 -0.78864467 -0.30183536 1.0469427e-005 0.00015209636 -0.00020557175 0.00049354095 -0.24529231 -0.77730083
2990025000 -0.83397788 -0.11541077 0.00015274434 -0.00016614575 -0.00014267881 -8.415374e-005 -0.41043144 -0.70352083
2997512500 -0.83786637 0.079029374 0.00023305225 -0.00034357229 0.00023106669 0.00022576185 -0.5545997 -0.59652382
3005000000 -0.79978341 0.27357242 -0.00040021446 -0.00018288731 7.4044525e-005 -9.5104493e-005 -0.67300951 -0.46114555
3012487500 -0.71370137 0.45796829 -0.00014373552 -7.1199858e-005 -8.5907312e-005 -0.00011387809 -0.76141882 -0.30251226
3019975000 -0.58200222 0.61911213 0.00012611377 3.9189606e-005 0.00014456971 0.00020653021 -0.8157689 -0.1238206
3027462500 -0.41413221 0.74382687 -2.3971957e-005 -0.00010798164 -0.00015419912 0.00023533391 -0.826195 0.067293733
3034950000 -0.21994713 0.82136238 0.00016326523 -0.00012527641 -0.00023283986 -0.00034278107 -0.78876799 0.25874621
3042437500 -0.016358325 0.84518516 -7.2516588e-005 -0.00023094314 0.00011656623 -0.00011612152 -0.70344073 0.43855721
3049925000 0.18206556 0.82089186 0.00020019629 -0.00050106016 5.2747229e-005 0.00011601311 -0.57374483 0.59127665
3057412500 0.36405689 0.75283283 0.00036869731 0.00016363774 -0.0003914182 -0.00026329243 -0.4108237 0.70383698
3064900000 0.51973182 0.64930123 -8.8621004e-005 -6.4044948e-006 -4.016003e-005 7.4439304e-005 -0.22904491 0.77171129
3072387500 0.64744931 0.51985168 -8.6162101e-005 -0.00018082523 5.5308908e-005 8.3793893e-005 -0.0393585 0.7948671
3079875000 0.74531043 0.36931112 0.00015618371 -5.9434773e-005 -0.00014983516 -0.0001503893 0.1457212 0.77547252
3087362500 0.80994809 0.20490934 0.00016433316 -0.00027853739 -0.00016691476 -0.00013369729 0.32085362 0.71668231
3094850000 0.83966696 0.029939651 -9.8242395e-005 0.00015758915 0.00034061857 -9.190906e-005 0.47868034 0.62339193
3102337500 0.83320206 -0.14863466 0.00015949801 9.9103963e-005 0.00012465171 0.00031147199 0.61500984 0.49630412
3109825000 0.78851843 -0.32518172 6.1200437e-005 -0.00026758827 -0.00012818363 -0.00023555147 0.72215092 0.33899391
3117312500 0.70458061 -0.48963499 -0.00010981956 -4.6222044e-006 0.00021517373 7.3379742e-005 0.79076993 0.15698645
3124800000 0.58391112 -0.6323629 0.00042797145 -0.00034897166 0.00017251709 0.00022468445 0.81382179 -0.040248737
3132287500 0.4329626 -0.74498373 1.1629993e-005 4.5328481e-005 4.0184568e-005 -0.00015918401 0.7853936 -0.23932709
3139775000 0.25962585 -0.82170796 1.6802525e-005 0.00020329251 0.00013974901 7.2742339e-005 0.70520031 -0.42560971
3147262500 0.07229352 -0.85523623 -0.000115542 0.0001714347 6.5271808e-005 0.00025502604 0.58150184 -0.58255059
3154750000 -0.11749499 -0.84619921 3.3532775e-005 0.00031706455 7.0034293e-006 0.00038783759 0.42610618 -0.70095271
3162237500 -0.30168965 -0.79378879 0.00023845391 0.00022603663 0.00024165373 -0.00022344002 0.25132433 -0.77454978
3169725000 -0.46989089 -0.70249492 9.4843508e-006 -8.9038795e-006 3.0169167e-005 -0.00012266859 0.071251273 -0.8048805
3177212500 -0.61338592 -0.57507694 0.00012861245 -0.0001278788 -0.00016215324 -0.00016796595 -0.10659918 -0.79609239
3184700000 -0.7274012 -0.41738626 -0.00014328067 0.00020684178 0.00030378581 -0.00015831502 -0.27459219 -0.75258952
3192187500 -0.80191249 -0.23559506 4.648188e-005 6.1337072e-005 -0.00033992805 0.00020926697 -0.42966664 -0.67641813
3199675000 -0.83283335 -0.042036094 -7.4191485e-005 0.00023137528 0.00011396081 6.7177452e-006 -0.56700397 -0.57083642
3207162500 -0.81826293 0.1555568 -0.00016536198 -0.00017788747 5.8155128e-005 -9.1382644e-005 -0.68155628 -0.43659687
3214650000 -0.75578272 0.34375656 -0.00034568328 0.00030415502 9.6365133e-005 -0.00013937663 -0.76706356 -0.27664146
3222137500 -0.65149212 0.51056445 -0.00017848444 -0.0002760475 8.765384e-005 -0.00045057593 -0.81614947 -0.094351552
3229625000 -0.51323754 0.64790756 -0.00028658312 0.00010568564 -0.00031991984 -0.00010013681 -0.82049602 0.10069382
3237112500 -0.34888473 0.7472322 0.00014114811 -1.8526105e-005 -0.00014780069 0.00027429761 -0.77291048 0.29512924
3244600000 -0.16919886 0.80697709 -0.00031558052 0.00024908182 0.00022133053 -5.6418619e-005 -0.67545861 0.47290143
3252087500 0.015590089 0.8238548 -0.00011287747 -0.0003207777 0.00044843994 -3.85522e-005 -0.53377014 0.61796045
3259575000 0.19677272 0.80329883 0.00011703545 -0.00027250018 -1.5613248e-005 -9.6507152e-005 -0.36171871 0.71902364
3267062500 0.36692277 0.74389303 -0.000197837 0.00010554503 -0.00017218462 0.00021959738 -0.17601435 0.77151352
3274550000 0.5224244 0.65337986 0.00022819695 -1.4094631e-005 -0.00034015102 3.4904246e-005 0.010333526 0.77939641
3282037500 0.65693557 0.5311957 -4.7437064e-005 0.00045527235 4.1157247e-005 -6.6012944e-005 0.18732844 0.74755454
3289525000 0.76485169 0.38170499 7.0337133e-005 0.00037330124 0.00036056311 -0.00013817794 0.35037729 0.68213511
3297012500 0.84072751 0.20780091 -0.00033033374 0.00036300928 0.00039576794 0.0001241798 0.49693769 0.58707631
3304500000 0.87375879 0.015408933 -0.00034076109 -3.9452523e-005 0.00016847186 9.9323348e-005 0.6230343 0.46384412
3311987500 0.86155617 -0.18536769 5.1740972e-005 7.070916e-005 -0.00014717509 1.0615885e-005 0.72460437 0.31325117
3319475000 0.79631525 -0.37943771 -0.0001304395 -6.8957961e-005 0.00021146436 -0.0001090013 0.79254097 0.13718849
3326962500 0.6826902 -0.55079114 -0.0001499236 0.000109203 -7.1085422e-005 -0.00011242052 0.81826222 -0.059941046
3334450000 0.53039163 -0.68431365 0.00016381197 0.00019284441 -0.00025990343 -5.2089577e-005 0.78987914 -0.26355624
3341937500 0.35441047 -0.77288198 -0.0002488966 0.00014436709 -0.00017746729 0.00020503762 0.70585805 -0.4547894
3349425000 0.170385 -0.815871 -0.00010837509 0.0001689045 0.00018149451 -0.00013670347 0.57189155 -0.61428779
3356912500 -0.01035173 -0.8173095 -4.6527148e-005 0.00026699595 -0.00017119 0.00013079656 0.402282 -0.72711706
3364400000 -0.18165912 -0.78527349 -0.00012332309 -8.4557287e-005 -0.00019466272 0.00019458134 0.21858226 -0.78930795
3371887500 -0.34167176 -0.72335601 0.00039756836 1.6524491e-005 -0.00024728733 -0.00033636391 0.035823099 -0.80488622
3379375000 -0.4898456 -0.63460606 -3.8795995e-005 -1.0541205e-005 -8.8615641e-005 0.00014300206 -0.13791619 -0.78324324
3386862500 -0.62180787 -0.51681858 -8.2442282e-005 -0.00032955999 0.0001899398 0.00014474236 -0.29852313 -0.73110503
3394350000 -0.73320514 -0.36794943 0.00012100288 -6.7430541e-005 0.00036112533 -9.8796991e-006 -0.44498727 -0.65037131
3401837500 -0.81338984 -0.18776447 -0.00015422846 9.2782735e-005 0.00017623315 -5.144118e-005 -0.57637042 -0.5422017
3409325000 -0.84653187 0.017565254 -0.00015049498 0.00020545231 0.00010766826 -0.00010726432 -0.68799484 -0.40571114
3416812500 -0.82058465 0.23134623 0.00028629624 -0.00016864369 0.00034826793 -0.00030872953 -0.77122808 -0.2412318
3424300000 -0.73282111 0.42815676 -1.3678817e-006 -6.1572027e-005 8.3316052e-005 0.00017619795 -0.81258214 -0.051592186
3431787500 -0.59697616 0.58630764 0.00035037097 -6.7478099e-006 5.1330779e-005 -7.5446049e-005 -0.80312145 0.14781573
3439275000 -0.43484193 0.69499654 -0.00014828575 5.9505779e-005 -3.800265e-005 -3.5181686e-006 -0.73884994 0.33964711
3446762500 -0.26512268 0.75726378 -0.00012871466 3.0245497e-005 0.00024916179 0.00024911179 -0.62572479 0.50391829
3454250000 -0.10119909 0.78327793 7.8339785e-005 0.00020773773 -0.0002119272 0.00025598949 -0.47930908 0.62941778
3461737500 0.056147415 0.78230286 -0.00016445896 -0.00017165585 1.7659534e-006 0.00030079274 -0.31514221 0.71269834
3469225000 0.2065776 0.75965106 -0.00013992864 -0.00027284064 0.00022671248 -0.00013543581 -0.14436977 0.7584213
3476712500 0.35644308 0.71756256 0.00014406571 0.00010696491 -2.5975867e-005 -0.00021457898 0.027808866 0.76940823
3484200000 0.50758833 0.6477778 -0.00037137745 1.0835907e-006 -5.3654887e-005 -6.6235727e-005 0.20067847 0.74887252
3491687500 0.65609688 0.54246175 0.00014172081 -0.00012337984 7.4562282e-005 -0.00022028819 0.37132752 0.69593632
3499175000 0.78917098 0.39118224 -0.00014737291 -0.00016174908 0.00010905742 0.00030386203 0.53440738 0.60215837
3506662500 0.88347131 0.19130078 7.077492e-005 -8.6228269e-005 0.00038261691 0.00032001708 0.67965704 0.46339041
3514150000 0.91261446 -0.042910352 -0.00015884213 -3.5767491e-005 -0.00017106014 1.9307561e-005 0.78742862 0.28246349
3521637500 0.86192411 -0.27465189 -0.00015834311 -0.00018073288 -0.00028121588 -7.5756521e-005 0.83823007 0.073748693
3529125000 0.74375957 -0.46945941 2.7097311e-005 3.7264781e-005 -6.5527958e-005 0.00014196175 0.8245095 -0.14059147
3536612500 0.58716869 -0.60990417 0.00013265526 -6.382828e-005 9.9698591e-005 -4.2685515e-005 0.75303555 -0.33347109
3544100000 0.41987023 -0.69685888 0.00014923303 -8.9887268e-005 0.00014658702 0.00036901963 0.64073628 -0.49051526
3551587500 0.2557075 -0.74312574 -2.0517955e-005 -0.00016293373 -7.3231968e-005 0.00013063647 0.50469041 -0.60752559
3559075000 0.099463239 -0.76195407 -1.8146882e-005 0.0002527961 7.0643895e-005 0.00018948667 0.35792312 -0.69011676
3566562500 -0.052568998 -0.75951511 0.00021420728 -6.7525805e-005 -8.3744846e-005 -0.00034723489 0.20592883 -0.74368715
3574050000 -0.20382975 -0.73896348 -8.0034197e-006 -0.00011614983 0.00029899317 6.1743965e-005 0.047379177 -0.77256101
3581537500 -0.35819769 -0.69361281 -0.00021826375 1.8026803e-005 -4.7479396e-005 -0.00013396003 -0.11880815 -0.77328151
3589025000 -0.51326847 -0.61584979 -0.0002082635 -6.9186863e-005 -0.00033722474 2.3155311e-005 -0.29012448 -0.74016511
3596512500 -0.66019702 -0.49592587 6.7112531e-005 -0.00013759648 -0.00013549188 5.1396164e-005 -0.46152815 -0.6640954
3604000000 -0.78004605 -0.33046466 -0.0002409626 6.6840912e-005 6.2655054e-005 3.2171294e-005 -0.61652279 -0.5394122
3611487500 -0.85123795 -0.12826709 0.00022590415 -6.3942018e-005 0.00031576958 -3.6299614e-005 -0.73422021 -0.3695128
3618975000 -0.85987061 0.08942914 -0.00012060763 -6.6019097e-006 -5.661328e-006 5.4275488e-006 -0.79543197 -0.17228793
3626462500 -0.80644536 0.29474056 0.00010734752 0.00025805397 -0.00014457708 -0.00040087156 -0.79871339 0.027474254
3633950000 -0.70554692 0.46931759 -0.00027909281 -0.00025734887 -0.00023694534 0.0001938918 -0.75227094 0.21006905
3641437500 -0.57514548 0.60697472 -0.00025845872 -0.00014666414 -0.00018143092 7.2741466e-005 -0.67070967 0.3667416
3648925000 -0.42668203 0.7100482 0.00017196006 -0.00031125991 0.00010337884 -0.00027772941 -0.56638342 0.49728805
3656412500 -0.26695764 0.78393179 0.0001246388 -0.00030025974 -0.00026180205 0.00025270428 -0.4457055 0.60446101
3663900000 -0.094657697 0.82784313 -9.8883822e-005 -0.00021897587 3.4520115e-005 1.2947608e-005 -0.3091788 0.69071388
3671387500 0.087818988 0.83818114 -7.0382688e-005 -1.3418841e-005 -5.372932e-005 -3.310891e-005 -0.15374018 0.75555313
3678875000 0.27877399 0.80787855 0.00011314786 0.00014017816 0.00027570451 -0.00011137375 0.021871248 0.79091376
3686362500 0.46534377 0.72769004 -2.1826751e-005 1.9396804e-005 1.9713716e-005 -0.00022317543 0.21580672 0.78547317
3693850000 0.62954175 0.59600574 0.00014735402 0.00029938191 0.0001848962 -0.00050044578 0.4160924 0.723876
3701337500 0.74882495 0.42120522 -7.5927077e-005 -0.00012160405 0.00010283485 0.0004092145 0.59679878 0.60063326
3708825000 0.81291473 0.22527611 -0.00017218379 -0.00018403187 -0.00021321664 0.0001053103 0.73196357 0.42491046
3716312500 0.82248586 0.029846871 -0.00012009357 -5.980407e-006 -3.7779789e-006 8.914202e-005 0.80416214 0.22244361
3723800000 0.78814787 -0.14949925 0.00012991384 -0.00044234603 0.0001549743 -0.00030655455 0.81506073 0.02079141
3731287500 0.72300553 -0.30707279 -0.00024705206 -0.00029446164 -0.00010392214 3.7803984e-005 0.77820516 -0.16285676
3738775000 0.63586265 -0.44414774 -0.00014258326 0.00012561587 7.770292e-005 -0.00023681387 0.70852453 -0.32123193
3746262500 0.53041875 -0.56425786 7.2237788e-005 -0.00019000263 -0.0004251193 -0.00024051064 0.61553431 -0.45676956
3753750000 0.40626356 -0.66732168 -0.00028885444 0.00020206701 0.00017530126 2.9522946e-006 0.5048306 -0.57144183
3761237500 0.25933319 -0.75221598 -8.4617186e-006 -0.00030585672 9.6995856e-005 -8.1223887e-005 0.37562755 -0.66597712
3768725000 0.087975778 -0.81010085 -2.4041816e-005 -0.00013026147 -9.8726938e-005 -0.00013272035 0.22708045 -0.73942846
3776212500 -0.1052887 -0.82802927 -0.00011295686 -0.00016270635 5.0284911e-005 0.00011367239 0.057239905 -0.782363
3783700000 -0.30768412 -0.79338372 6.7336878e-005 -7.6088172e-006 0.00043342335 0.00020627557 -0.12621644 -0.78654099
3791187500 -0.49843535 -0.70007473 0.00014065951 -6.554908e-005 2.3843162e-005 -6.8509828e-005 -0.31459394 -0.74179602
3798675000 -0.6535663 -0.55528581 -0.00036157519 -0.00017027647 2.6093892e-006 -9.1385504e-005 -0.48881716 -0.64450651
3806162500 -0.75904042 -0.37869787 0.00048096126 0.00010777089 -0.00029082128 8.5825095e-006 -0.6292966 -0.50284231
3813650000 -0.81225049 -0.19178002 -0.00013578092 1.4697591e-006 -3.0865576e-005 -7.4264623e-005 -0.7253989 -0.33169839
3821137500 -0.8209852 -0.010429067 4.8878519e-005 0.00021609261 -1.2823057e-005 0.00036773016 -0.77336615 -0.14856166
3828625000 -0.79584628 0.1594734 -0.00010709967 -0.0002075121 5.6365039e-005 -5.1203395e-005 -0.77723169 0.033454783
3836112500 -0.74385369 0.31864986 0.00027844054 -0.00012765957 0.00010119819 0.00032567297 -0.74399811 0.20583895
3843600000 -0.66503763 0.46498218 1.3421186e-005 -0.00014436617 0.0001452633 -0.00016864171 -0.67845464 0.36494911
3851087500 -0.56107968 0.60053962 -0.00020418128 0.00020320625 0.00031583771 0.00027024897 -0.58185351 0.50827599
3858575000 -0.42521745 0.72106671 0.00013259974 -0.00019919069 1.3125856e-005 0.0001396743 -0.45694911 0.63172519
3866062500 -0.25549424 0.81436801 -0.000181681 0.00011828111 -2.3409293e-005 -0.00026573581 -0.30462345 0.72809881
3873550000 -0.056307651 0.86531532 -8.1433987e-005 -0.00011255639 -0.00042322141 -0.0003208741 -0.12773694 0.78853136
3881037500 0.160789 0.8595885 0.00020559558 -0.0001772059 -0.00023389244 -6.3378058e-005 0.064909786 0.80422789
3888525000 0.37211254 0.78960627 0.00018726519 6.4348198e-005 -3.6746511e-005 9.0857604e-005 0.25763598 0.77027094
3896012500 0.54998863 0.66146749 9.9737146e-005 -2.8941406e-005 -0.00039782492 0.00023117274 0.43550318 0.68587923
3903500000 0.67963076 0.49502054 8.601899e-005 -0.00043963976 -0.00023562055 3.9462971e-005 0.58331007 0.55891973
3910987500 0.75690204 0.3117376 0.00029665674 -0.000185075 0.00017376707 0.0001969234 0.69155669 0.40306064
3918475000 0.78842354 0.12914602 0.00029620362 -2.1806351e-005 -0.00011925378 -0.00016147806 0.75804466 0.23072153
3925962500 0.78192025 -0.045467954 -0.00012930985 -0.00040548894 -7.9860307e-005 -0.00017179019 0.78373325 0.0526939
3933450000 0.74624383 -0.20827834 -6.1662722e-005 -0.00011818852 2.0045413e-006 -4.9229649e-005 0.77020556 -0.12263474
3940937500 0.68531173 -0.36013475 0.0001093437 -0.00011856057 1.0804136e-005 -5.5999328e-005 0.72074127 -0.28991225
3948425000 0.59855944 -0.50136769 9.5623021e-005 -8.7313958e-005 1.9875082e-005 -3.3596883e-005 0.63660878 -0.44273594
3955912500 0.48635975 -0.62942696 -0.00033517039 4.9801325e-005 -0.00013000362 0.00024124866 0.52063626 -0.57594901
3963400000 0.34306329 -0.7373845 1.834361e-005 -0.00024850195 -0.00024545251 6.1813535e-006 0.37507841 -0.68173635
3970887500 0.1707236 -0.81600225 -2.1575866e-005 -0.00018434385 -5.5908677e-005 -0.00011116685 0.20708258 -0.75107598
3978375000 -0.025179131 -0.85215694 -8.8254739e-005 0.00033370135 -0.00026173764 0.00043801739 0.025580773 -0.78002656
3985862500 -0.23199841 -0.83507574 -0.00034248244 0.00017473078 2.0100088e-005 -4.7678041e-005 -0.15805945 -0.76290822
3993350000 -0.43044788 -0.76025182 -0.00012538736 0.00045137614 1.4393401e-005 -0.00015280518 -0.33124867 -0.70366043
4000837500 -0.59963423 -0.63673842 0.00056781457 5.9560243e-005 -0.00060258643 -0.0003157125 -0.484047 -0.60352618
4008325000 -0.72576606 -0.47474587 -0.0001987827 0.00013677866 0.0002509433 0.00028102953 -0.60879236 -0.4748767
4015812500 -0.80249429 -0.29254428 -6.2600193e-005 0.00022894624 4.356476e-005 0.00040465378 -0.70167512 -0.32328227
4023300000 -0.83302164 -0.10699835 -3.4426688e-005 -0.00029430818 5.5267461e-005 -0.00022286926 -0.7587719 -0.15631726
4030787500 -0.82465857 0.073352076 -0.00043611455 0.00021582784 9.6287695e-005 -0.00038254805 -0.77891475 0.020820631
4038275000 -0.7800861 0.24183372 -0.00012146183 1.427188e-005 -0.00022076 0.00013095373 -0.76011664 0.2002373
4045762500 -0.70553994 0.39692721 0.00030675333 -5.8169659e-005 0.00026440373 0.00029423021 -0.70031011 0.37388581
4053250000 -0.60471821 0.5350976 -0.00018609087 0.00029944722 0.00028570954 0.00012829574 -0.59872627 0.53202587
4060737500 -0.47538048 0.65159452 -0.00028194665 -0.00014871922 0.00027512448 -0.00010296232 -0.45816308 0.66405034
4068225000 -0.32252714 0.74281007 -0.00025262413 0.00013613937 0.00012931536 -3.0928553e-005 -0.28799137 0.75451368
4075712500 -0.1474665 0.80010176 0.000120763 -0.00029031161 0.00015553366 -0.00039762844 -0.1005527 0.79948819
4083200000 0.04055408 0.81478649 -0.00032702813 0.00033359695 -6.4517721e-005 -0.00013318651 0.089521177 0.79434437
4090687500 0.23114471 0.78451401 -0.00026128502 -0.00019838079 0.00036766223 -0.00022359411 0.26757425 0.74324471
4098175000 0.41281492 0.70789999 -0.0003494281 0.00014389998 8.4477666e-005 0.00016258896 0.42412418 0.65552634
4105662500 0.56914574 0.58765239 0.00032619096 6.3841682e-005 0.00016257708 0.0001956269 0.55276209 0.54003823
4113150000 0.69177747 0.43481576 -3.3070501e-005 0.00018215837 -0.00012949722 9.1475769e-005 0.65300441 0.40286776
4120637500 0.77342343 0.25784239 0.00029462544 -9.7228876e-005 -3.3697372e-005 0.00022129496 0.72357476 0.25013608
4128125000 0.81240976 0.069102012 -0.00039288501 3.5052683e-005 0.00035994599 4.9818471e-005 0.76306236 0.085098833
4135612500 0.80673712 -0.1205468 -0.00022287328 0.00025340868 0.0002327353 -0.0005690098 0.76874572 -0.089279257
4143100000 0.75902057 -0.30419415 -3.2740882e-005 8.6099084e-005 -0.00035230356 0.00014577297 0.73522192 -0.26584876
4150587500 0.67304629 -0.47200897 -0.00011819102 -3.2089087e-005 0.0002975729 -0.00026771639 0.65734506 -0.43616858
4158075000 0.55253428 -0.61683673 0.00024416373 -1.1656743e-005 -0.00017971033 -0.00016244019 0.53608412 -0.58689451
4165562500 0.40185481 -0.72983932 -0.00032021035 -9.4109571e-005 -0.00023584036 0.00013055856 0.37620661 -0.70243245
4173050000 0.22805227 -0.80501246 -1.2416521e-006 -0.00019908554 -0.00024357317 -7.2786315e-005 0.19168682 -0.76993263
4180537500 0.044809856 -0.83865845 0.00012390692 6.4876214e-005 4.7396999e-005 6.7829205e-005 -0.00097165199 -0.78595901
4188025000 -0.14292634 -0.82697016 4.9720402e-005 2.8746668e-005 3.000596e-005 0.00024415171 -0.18410541 -0.75471091
4195512500 -0.31975237 -0.77642924 0.00012306024 -4.1325722e-005 -2.0888727e-005 -0.00012674021 -0.34952527 -0.68373686
4203000000 -0.47963932 -0.68778741 0.00029323579 -0.00028288292 -7.172308e-006 6.4973872e-005 -0.48795652 -0.58279026
4210487500 -0.61569148 -0.56742734 -0.00021444312 5.5845787e-005 -0.00032985734 -0.00028385903 -0.60025877 -0.4597868
4217975000 -0.72157902 -0.42152649 -0.0001327689 8.8583074e-005 0.00026026164 -0.00018980638 -0.68605906 -0.32052338
4225462500 -0.79500532 -0.25563008 -0.00011438881 0.0002849875 -2.1955784e-005 -0.00038206737 -0.74385107 -0.16683635
4232950000 -0.83042628 -0.077490374 1.7780705e-005 -4.0663097e-005 -2.7146831e-005 0.00030567759 -0.77146739 -0.0021215298
4240437500 -0.82778567 0.10948069 0.0003469401 0.00015323923 0.00024243619 0.00012462139 -0.76336539 0.17108266
4247925000 -0.78153992 0.29454994 0.00019307704 -0.0002317273 -0.00014830164 -0.00028256534 -0.71540993 0.3440952
4255412500 -0.69095409 0.46606404 -0.0001848088 0.00010059172 0.00049868063 0.00018750459 -0.62480736 0.50525987
4262900000 -0.5588572 0.6135745 -0.00016866169 -0.00011502697 0.00012549404 -4.0108207e-005 -0.49198896 0.64361268
4270387500 -0.39356497 0.7246266 0.00013491968 2.639878e-005 -1.2804289e-005 -0.00016383403 -0.32565409 0.74374074
4277875000 -0.20748967 0.79096007 4.8273258e-005 -0.00021256616 -1.4054785e-005 2.0685295e-005 -0.13999742 0.79676515
4285362500 -0.011774774 0.80900866 -3.5836179e-006 0.00016210876 0.00011796813 5.5401728e-005 0.051059883 0.79898584
4292850000 0.17966591 0.78188032 -2.77444e-005 7.2255745e-005 -3.2772237e-005 0.00027707798 0.23223744 0.75604934
4300337500 0.35537216 0.71270788 0.00021535171 -0.00028341022 0.00012660403 0.00014196176 0.39518929 0.67472476
4307825000 0.50923562 0.60825557 0.00034252185 1.5095741e-005 4.8479211e-005 -3.5363781e-005 0.53201342 0.55965847
4315312500 0.63641495 0.47635761 -0.00022146877 -0.00021208958 -2.8283863e-005 0.00025911382 0.64042723 0.42141843
4322800000 0.73214167 0.31936732 0.00025066489 -7.7042438e-005 1.406021e-005 0.00012766871 0.71558559 0.26298475
4330287500 0.79275703 0.14574479 9.2834765e-005 -0.00013358967 0.00040763579 -0.00012823047 0.75505584 0.090501852
4337775000 0.81429285 -0.040165789 -0.00011759353 -0.00010492978 0.00016592779 0.00032579715 0.75679678 -0.087725177
4345262500 0.79190117 -0.22712919 2.041932e-005 0.00035102444 0.00022639247 -0.00026709313 0.71573269 -0.2634705
4352750000 0.72469789 -0.40537789 -0.00020363963 -0.00016970604 0.00017905509 0.00026129134 0.63486695 -0.42659596
4360237500 0.61946398 -0.56232989 0.00015942899 0.00021103247 0.0001189803 -7.5058902e-005 0.5158028 -0.56723881
4367725000 0.47811878 -0.68827158 -0.0002068079 -9.1363443e-005 5.8856112e-005 0.00010274368 0.36719728 -0.67543566
4375212500 0.31502897 -0.77421767 0.00020068738 -0.00030760068 2.6970443e-005 -0.0001810253 0.1981065 -0.74500054
4382700000 0.1396329 -0.81997263 -0.00023624965 -0.00011270722 -0.00018690441 8.655354e-005 0.018579075 -0.77237922
4390187500 -0.035763644 -0.82474917 -0.00044314394 0.00045277138 8.9085617e-005 0.0001201411 -0.1611429 -0.75762737
4397675000 -0.20399587 -0.79549223 3.6572696e-005 1.7973502e-005 5.5656774e-006 -0.00031528805 -0.33168781 -0.70390922
4405162500 -0.36061332 -0.73227477 -6.1482002e-005 0.00016523819 -3.3496421e-005 3.5440888e-005 -0.48556289 -0.61315584
4412650000 -0.50259483 -0.64170682 -5.4026772e-005 5.5623175e-005 -9.7083457e-006 -1.4909001e-005 -0.6148845 -0.48997128
4420137500 -0.62622887 -0.52380091 0.00013792675 -0.00011665652 0.00014914945 7.4345655e-005 -0.71239191 -0.33981246
4427625000 -0.72610945 -0.38153878 -5.9943155e-005 -0.00027635897 7.6841989e-006 -0.00010444735 -0.77430844 -0.17184703
4435112500 -0.7971034 -0.21412396 2.8821663e-005 0.000204814 0.00024359315 5.5275166e-005 -0.79494059 0.0066148886
4442600000 -0.83043408 -0.027698921 9.2397786e-006 9.5587884e-006 -0.00022575179 -9.6305826e-005 -0.77280116 0.18418941
4450087500 -0.81967908 0.16993943 -0.00034069209 -7.4902826e-005 4.3159807e-006 5.3329936e-006 -0.70931345 0.3507978
4457575000 -0.75569415 0.36578235 0.00025805889 0.00028979449 -0.00021857891 0.0002867727 -0.61180109 0.49727306
4465062500 -0.64089936 0.54273605 3.7302347e-005 -5.7984533e-005 -0.00028101317 8.0307342e-005 -0.48390028 0.6166023
4472550000 -0.481868 0.68566591 -0.00030986301 -0.00013656443 0.00010184172 -2.2883329e-005 -0.33462346 0.7045548
4480037500 -0.29149342 0.77929574 8.5418296e-006 0.00022839199 0.00027386402 0.00014734476 -0.16998601 0.75790805
4487525000 -0.086228803 0.82114077 0.00027425599 -7.6294737e-007 -6.1025512e-005 0.00011924592 0.0037206672 0.77544677
4495012500 0.1189966 0.81194609 8.3917097e-005 1.3343294e-005 -0.00018339453 -0.00030181077 0.17914893 0.7554009
4502500000 0.31038973 0.75483638 -0.00025750895 -0.00019123328 8.204826e-005 -5.7250356e-005 0.35075203 0.69589001
4509987500 0.47973967 0.65643841 -0.00037479203 -0.00024892594 0.00010733604 -3.1450279e-005 0.50783908 0.59548306
4517475000 0.61804503 0.52651668 -0.00034122763 4.8050719e-005 -0.00036085706 5.9919385e-006 0.63921595 0.45558277
4524962500 0.72236329 0.37201592 2.5148676e-005 -0.00011436742 5.9671922e-005 -0.00040972035 0.73296404 0.28304112
4532450000 0.78946406 0.20051405 -0.00035780758 0.00022494256 4.6125726e-005 -0.00020755894 0.77864134 0.091219261
4539937500 0.8166852 0.02183239 0.00021664563 -3.6772076e-006 0.00012926316 -0.00019305687 0.77236295 -0.10566076
4547425000 0.80544567 -0.15485039 -7.7058816e-005 7.0014656e-005 -3.680131e-005 0.00016455515 0.71749961 -0.28973413
4554912500 0.75784624 -0.32159388 0.00011337656 -1.7543873e-005 0.00032097133 9.8723423e-005 0.61998707 -0.44971988
4562400000 0.67730457 -0.47362921 -0.000103536 0.00021142972 -0.0001733689 -0.0001455115 0.49311051 -0.57748246
4569887500 0.56814587 -0.60609025 -2.1852677e-005 4.4714656e-005 -5.433815e-005 0.00036124286 0.34675452 -0.67091119
4577375000 0.43508336 -0.71459633 -4.5413526e-005 7.2412613e-006 0.00010123195 -0.00018366956 0.18859117 -0.7310102
4584862500 0.28118813 -0.79509813 -1.6118163e-005 -0.00014646818 -9.743947e-006 9.3355746e-005 0.02419515 -0.75805956
4592350000 0.10963608 -0.84190434 0.0001864634 3.3776836e-005 4.9255164e-006 -1.6649259e-005 -0.14177816 -0.75198215
4599837500 -0.074720643 -0.85258114 0.00013192953 -1.9534738e-005 0.00012949471 -0.00016439195 -0.305121 -0.71119958
4607325000 -0.26276788 -0.81699556 0.00019519347 -0.00012687164 8.8972287e-005 3.3312728e-005 -0.45977962 -0.63655663
4614812500 -0.44132704 -0.73457474 2.124449e-005 0.00012004517 -0.00013147669 -4.7828729e-005 -0.59691501 -0.52609825
4622300000 -0.59518754 -0.60730857 1.4059637e-005 -0.00036530066 0.00010856232 -0.0001643021 -0.70752382 -0.38354769
4629787500 -0.7112664 -0.44308522 -1.825414e-007 0.00017856894 -2.3603438e-005 -0.0002036715 -0.78124088 -0.21581222
4637275000 -0.78110433 -0.25740445 5.9915878e-005 0.0003631211 -0.00025046396 0.00033997724 -0.81045765 -0.033010956
4644762500 -0.80247021 -0.064551309 3.1874566e-005 0.00011087299 -0.00020160789 7.853753e-005 -0.79528695 0.14976615
4652250000 -0.77873272 0.12229895 0.00011372952 -0.00019344891 0.00020181231 7.4499963e-005 -0.7360208 0.32273111
4659737500 -0.71783221 0.29581437 0.00016541053 -3.5477489e-005 -6.0631628e-005 -0.00011232327 -0.639965 0.47557527
4667225000 -0.62336314 0.45006356 -0.00040518161 -0.00019225059 0.0001623529 0.00015233377 -0.51337081 0.60140795
4674712500 -0.50065976 0.5831579 -4.4752971e-005 0.00025871952 3.7445581e-005 -0.00026031813 -0.36220297 0.6962257
4682200000 -0.35024482 0.68961197 0.00019064225 -1.7866363e-006 8.4968386e-005 7.3417963e-005 -0.19254747 0.75507635
4689687500 -0.17568731 0.76353383 0.00016388588 3.1042156e-005 -3.4284389e-005 0.00021570837 -0.012158762 0.77593857
4697175000 0.016508561 0.79421329 -2.3804185e-005 -0.00020577188 4.4202086e-005 0.00013398893 0.17045407 0.75228423
4704662500 0.21575911 0.77578688 -4.2226486e-005 0.00016953083 0.00013454934 8.5666179e-005 0.34431368 0.68653709
4712150000 0.40377194 0.70499223 -1.4959486e-005 5.6081244e-005 2.9692903e-005 0.00016008256 0.49805173 0.57903105
4719637500 0.56347966 0.58841079 -0.00010041983 -2.1361993e-006 -2.1431091e-005 0.00029114226 0.62101859 0.43811876
4727125000 0.68403059 0.44041768 0.00013531031 -0.00019153846 1.1859379e-005 0.00012118107 0.70488459 0.27363393
4734612500 0.76047099 0.27537212 -0.0001868945 -0.00010568772 7.7651443e-005 -0.00014629644 0.74803025 0.095924832
4742100000 0.79717177 0.10797473 -2.3163551e-005 7.5665448e-005 2.5018031e-005 -0.00021227181 0.75028509 -0.085063599
4749587500 0.79976755 -0.055571374 -0.00013639365 -8.2286482e-005 -4.0476309e-005 -0.00010176487 0.71325177 -0.26114994
4757075000 0.7730155 -0.21174401 3.0683197e-005 -0.00012276444 -9.6934054e-005 3.1572752e-005 0.6384927 -0.42623308
4764562500 0.72242898 -0.35892925 5.3956155e-005 0.00027358916 8.085274e-005 -0.00011075658 0.52730167 -0.57135832
4772050000 0.64717555 -0.49752152 -2.8065276e-006 0.00011054335 -6.4217797e-006 0.0002139297 0.3825019 -0.68863934
4779537500 0.54450244 -0.6262911 3.0592288e-005 -2.6985084e-005 9.8212251e-005 -0.00011617824 0.21210262 -0.76765287
4787025000 0.41103423 -0.73878229 -2.4514822e-005 -7.6099343e-005 0.00021498135 9.3039896e-005 0.026706273 -0.8028329
4794512500 0.24454156 -0.82236207 0.00014524358 7.9807156e-005 0.00011093953 -0.00026731682 -0.16134787 -0.78850096
4802000000 0.052426074 -0.86549175 -4.8337886e-005 -0.00015553152 0.00019894767 6.9076203e-005 -0.33608061 -0.72918737
4809487500 -0.15437013 -0.85535473 -3.5219658e-005 -6.6572939e-006 0.0001097553 7.3932781e-005 -0.48656645 -0.6325236
4816975000 -0.35391268 -0.78562289 0.0001540822 4.2694144e-005 -4.3497998e-006 0.00021985896 -0.60712582 -0.50842983
4824462500 -0.52614021 -0.66381323 6.1900857e-005 0.00020087838 -0.0001424505 3.5903671e-005 -0.69561648 -0.36624584
4831950000 -0.65579718 -0.50231624 5.7740166e-005 -1.3762424e-005 0.00019125822 -0.000143428 -0.75276303 -0.21159489
4839437500 -0.73656607 -0.32107341 -0.00027282821 2.20783e-006 -3.7431451e-005 -0.00018270193 -0.77920073 -0.049463123
4846925000 -0.77190012 -0.13189618 -0.00023607875 -0.00017983779 6.3371379e-005 -0.00018005684 -0.77457404 0.11666107
4854412500 -0.76351535 0.052651435 -0.00013799773 -1.2267793e-005 5.2435818e-005 -0.00036955049 -0.73302299 0.28379256
4861900000 -0.71862459 0.22657233 0.0001404472 0.00011250421 -0.00015701512 2.6280011e-005 -0.65434599 0.44502914
4869387500 -0.64119399 0.38494062 3.7929502e-005 -5.8214082e-005 3.3965071e-007 -9.4326548e-005 -0.53269798 0.58629251
4876875000 -0.53308511 0.52382326 0.000141732 0.0001118158 -0.00018176943 5.9443442e-005 -0.37458253 0.69663709
4884362500 -0.39890319 0.63730854 -0.00010402151 1.5614503e-005 0.00017641536 0.00013712411 -0.19033191 0.76190364
4891850000 -0.24224506 0.72167629 -0.00013003188 0.00024723756 8.5636544e-005 -0.00031624752 0.0041271131 0.77662319
4899337500 -0.069314264 0.76937908 -0.0002357242 -3.940973e-005 8.9226254e-005 -0.00013590725 0.19280185 0.74092352
4906825000 0.1118978 0.77824265 0.00013360368 -0.0001827091 -3.7446851e-005 -0.0002848382 0.36079463 0.66144162
4914312500 0.29176533 0.74547917 -5.9718615e-005 -3.7623307e-005 0.00035651404 0.00019871994 0.50201356 0.54998922
4921800000 0.46091181 0.67038685 1.9561585e-006 -0.00032187012 -3.8453934e-005 -4.567115e-005 0.61386746 0.41323459
4929287500 0.60738534 0.55820638 3.4158562e-005 -9.9972574e-005 -0.00021779296 -7.6417557e-005 0.69240797 0.25898126
4936775000 0.72515619 0.41553083 -4.1410426e-006 -0.0003026163 -0.00018310365 6.5664033e-005 0.73808086 0.092272684
4944262500 0.80481303 0.24786036 0.00019049694 -6.0370752e-005 -0.00015289932 4.1971565e-005 0.74761057 -0.081568465
4951750000 0.84375614 0.068129234 -0.00030501976 -7.0102011e-005 6.2733481e-005 0.00020839651 0.71876156 -0.25672904
4959237500 0.83896303 -0.11441661 0.00028459085 -0.00010901317 -1.6501057e-005 -1.9166353e-005 0.6496582 -0.42303818
4966725000 0.79306972 -0.29030576 -0.00011125759 8.0042657e-005 -0.00023613563 -0.00017449573 0.54116827 -0.57105637
4974212500 0.70905536 -0.44901747 8.0473867e-005 0.00016645544 0.0001090519 6.1763662e-005 0.39917821 -0.68866193
4981700000 0.59373474 -0.58398008 -9.4696561e-006 -4.7645106e-005 1.8657567e-005 0.00011023738 0.23151542 -0.76857209
4989187500 0.4510802 -0.689942 0.00026786848 3.1165131e-005 4.0638701e-005 0.00027937637 0.0504096 -0.80523378
4996675000 0.29004401 -0.76238251 1.6633572e-005 -4.2192831e-005 2.7651135e-005 0.00028320678 -0.1320239 -0.79874659
5004162500 0.11460534 -0.79890496 -2.0339812e-006 8.7783956e-005 -5.6301767e-005 -0.00016930293 -0.30696803 -0.74883467
5011650000 -0.065514222 -0.79525656 -2.782921e-005 -0.00011197772 1.1110857e-005 0.0001625202 -0.46417624 -0.66038913
5019137500 -0.24277402 -0.75040406 0.0001147101 -8.4693871e-005 9.3737894e-005 -4.2578453e-005 -0.59479177 -0.53818172
5026625000 -0.40570691 -0.66538137 2.74512e-005 0.0001464292 -0.00030985806 0.00010372551 -0.6930058 -0.389801
5034112500 -0.54403663 -0.54332143 0.00013193187 0.00011982866 -0.00021464711 5.2486062e-005 -0.75298899 -0.22484069
5041600000 -0.6497097 -0.3926976 5.7459776e-005 -1.4811229e-005 4.8466543e-005 -9.7261145e-005 -0.77396816 -0.05268639
5049087500 -0.71721268 -0.22431462 3.5138764e-005 -4.9760965e-006 0.00019124617 -7.3130017e-005 -0.7551387 0.11760723
5056575000 -0.74509716 -0.048081402 7.986823e-005 -0.00035071856 -0.00027963368 -0.00018536733 -0.70172197 0.27770382
5064062500 -0.73662972 0.12813646 -0.00013195317 -1.431193e-005 -1.3225686e-005 -1.0524901e-005 -0.61643469 0.4216159
5071550000 -0.6915763 0.29817647 6.055339e-005 -0.00019844489 9.871721e-005 4.4363391e-005 -0.50318319 0.54565579
5079037500 -0.61304909 0.45710364 -7.4869393e-005 4.6024739e-005 9.8630677e-005 2.6417774e-005 -0.3655479 0.64640081
5086525000 -0.50191015 0.60102683 7.6960598e-005 0.00020848792 2.5229638e-005 -0.00023419273 -0.20466609 0.71674895
5094012500 -0.3570416 0.72115415 -0.00012703157 0.00017280862 -1.5277772e-005 8.3342741e-007 -0.025511097 0.75127351
5101500000 -0.18099657 0.80773062 8.579182e-005 8.8674438e-005 -0.00015388938 7.9112644e-005 0.16447406 0.74122167
5108987500 0.018508391 0.84742314 -0.00010957589 -4.0262119e-005 -9.5346259e-005 -9.4603514e-005 0.34992474 0.68089241
5116475000 0.22353245 0.83123547 9.4643823e-005 6.4510044e-005 -6.1062332e-005 -6.97582e-005 0.51619899 0.57061094
5123962500 0.41678628 0.7593416 -5.9931472e-006 0.00010240576 -0.00040701509 8.1551312e-005 0.64332879 0.42065606
5131450000 0.57686698 0.64051205 1.3880748e-006 -3.8563521e-005 -0.00010954747 -4.1225583e-005 0.72515786 0.24648982
5138937500 0.69484127 0.49273866 0.00025013176 -0.0001069518 3.7566071e-005 -0.00024184164 0.75899678 0.06493903
5146425000 0.76979607 0.33174887 0.00010125194 0.00013524407 0.00032200341 0.00028944202 0.7512551 -0.11120415
5153912500 0.80764574 0.16833149 0.00011840612 -7.7158705e-007 3.5842484e-005 -1.0138576e-005 0.70905256 -0.27620316
5161400000 0.81666607 0.0076797144 7.602082e-005 0.00010088081 -8.9809228e-006 -0.00015934944 0.63682801 -0.42724481
5168887500 0.79926986 -0.14796016 -0.00018313469 -1.6544267e-005 6.7790024e-005 0.00011355123 0.53659123 -0.56134671
5176375000 0.75581133 -0.30295268 -0.00028844574 6.9579596e-006 2.4147823e-005 0.00014963521 0.40815553 -0.67605656
5183862500 0.68232226 -0.45443884 -2.2929329e-005 0.00021090901 6.295713e-005 -5.3179952e-005 0.25236413 -0.7627781
5191350000 0.57118726 -0.59659964 0.00015071931 6.9407411e-006 6.4027641e-005 -0.00013122032 0.072295129 -0.81128818
5198837500 0.41884151 -0.71658951 0.00027237888 0.00019493775 -0.00024204805 0.00012379496 -0.11890198 -0.81101525
5206325000 0.2305081 -0.79434288 2.7714883e-005 -1.418488e-005 0.00013841492 0.00013514614 -0.3041611 -0.75781339
5213812500 0.022617377 -0.81348854 8.2376035e-005 -9.0240988e-005 -7.1313516e-006 -7.0128364e-005 -0.46570078 -0.65787113
5221300000 -0.178821 -0.77099729 -0.00017002274 0.00011847423 5.5861037e-006 0.00011943208 -0.59021813 -0.52346498
5228787500 -0.35154253 -0.67857546 0.00011752427 7.6284334e-005 2.8205147e-006 0.00024642984 -0.67491597 -0.37139177
5236275000 -0.48666579 -0.55668342 2.3840617e-005 8.8975481e-005 -4.3929234e-005 -8.1457634e-005 -0.72229886 -0.21262613
5243762500 -0.58397919 -0.41981411 0.00016412552 -8.8290966e-005 -0.00010100458 2.389516e-005 -0.73837709 -0.054099526
5251250000 -0.65293348 -0.27665833 0.00012061415 -0.00025727475 -0.00013458762 -7.2294832e-005 -0.72440487 0.10333966
5258737500 -0.69851893 -0.12980777 5.1668136e-005 -0.0002621889 -1.9945608e-005 0.00013968782 -0.68366897 0.25744057
5266225000 -0.7237615 0.023614416 0.00011988277 0.00015658104 0.0001276874 -4.1630417e-005 -0.61048019 0.40596992
5273712500 -0.72463298 0.18969506 3.4510518e-005 -1.8590405e-005 0.0001298811 0.00015307576 -0.50255734 0.54244888
5281200000 -0.69144517 0.36657101 1.4297552e-005 -0.00015048606 -9.2878639e-005 7.4307805e-005 -0.35857809 0.6554625
5288687500 -0.60865325 0.54725218 -0.00016808082 -2.9003115e-006 0.00015348253 5.309852e-005 -0.18434381 0.72831851
5296175000 -0.4673996 0.71017385 8.9412133e-005 4.4642627e-005 0.00019694401 -0.00010531602 0.0068275291 0.75326878
5303662500 -0.2741203 0.82486129 -0.00010137377 -5.6882825e-005 7.2260358e-005 -4.2274136e-005 0.19561647 0.72678798
5311150000 -0.055497792 0.8685624 0.00012974962 3.5952737e-005 -4.4841981e-005 0.00013040904 0.36739379 0.65326935
5318637500 0.15540962 0.84485894 0.00027220367 1.0466331e-005 0.00014576828 1.9197643e-005 0.51174176 0.54622406
5326125000 0.33350909 0.76825768 -3.0210818e-005 0.00014007417 -0.00021921405 5.4226934e-005 0.62655962 0.41422948
5333612500 0.47542846 0.66956943 4.1681073e-005 -0.00040552809 -0.00017176554 -0.00011064624 0.70901948 0.26250336
5341100000 0.58349675 0.55130559 -0.00018650197 -1.4353498e-005 0.00029366915 5.5056109e-005 0.76217824 0.096555442
5348587500 0.66568583 0.4261494 1.7616967e-005 -6.7597161e-005 -0.00022898233 0.0001529069 0.77951998 -0.082061395
5356075000 0.7290805 0.29366833 0.00010050072 0.00016974249 -6.6829823e-005 0.00024377424 0.75326228 -0.26651767
5363562500 0.77468538 0.15080856 -9.9741024e-005 -0.00010075793 -2.4280425e-005 3.2125624e-007 0.67776781 -0.44492543
5371050000 0.79615384 -0.0066851843 0.00031408883 2.0626765e-005 0.00011448636 -0.00010282365 0.55435348 -0.59827
5378537500 0.78629607 -0.17621601 -0.00012381948 2.1078784e-005 0.00016326815 1.1834044e-005 0.39268121 -0.70923519
5386025000 0.73176986 -0.35189122 -0.00010868846 0.00013544697 -0.00035475069 0.00013370438 0.21289197 -0.76831847
5393512500 0.62689126 -0.51518232 -0.00017503226 0.00022623461 -0.0003187641 5.266556e-005 0.035406534 -0.77757663
5401000000 0.47871739 -0.64576119 5.0171013e-005 -0.00034432209 -0.00018039606 -0.00017466243 -0.1290914 -0.74795938
5408487500 0.3010442 -0.72963822 -0.0001536146 0.0001941115 0.00055889814 -5.9086873e-005 -0.2740643 -0.69002372
5415975000 0.11337237 -0.76294219 0.00010787262 4.9270798e-006 0.00018808356 -2.0271986e-005 -0.40162376 -0.61117929
5423462500 -0.06787435 -0.75170898 0.00041185459 5.7114048e-005 -0.00017196796 -0.00017307467 -0.51286501 -0.51366967
5430950000 -0.23611414 -0.70652586 -4.418665e-005 -2.2820705e-005 -0.00010818729 0.0001358361 -0.60873407 -0.39671016
5438437500 -0.39058089 -0.6316334 -0.00021296246 2.4263285e-005 0.00021152632 0.0001227192 -0.68673646 -0.25844306
5445925000 -0.52847087 -0.53056252 0.00018499384 -8.2871004e-005 -9.814393e-005 -0.00044905537 -0.7375868 -0.096542604
5453412500 -0.64947015 -0.40044963 -0.00040926106 0.00041817082 3.9677816e-005 -0.00033200288 -0.74816853 0.085708879
5460900000 -0.7449252 -0.2413308 0.00033042594 0.00014475372 8.7293032e-005 -3.518103e-005 -0.70861214 0.27327847
5468387500 -0.80373567 -0.053172041 -0.00016431036 -0.000409881 0.00015201031 -0.00019245777 -0.61503774 0.44724929
5475875000 -0.81063652 0.15296485 0.00012518121 -0.00042498444 0.00016304941 -0.00022047789 -0.47556433 0.58662319
5483362500 -0.75822049 0.35597694 -4.090169e-005 0.0003294537 0.000132827 -0.00021768465 -0.30707932 0.67919695
5490850000 -0.65058756 0.53515291 -0.00013548422 -0.00015357404 9.2358052e-005 0.00023185401 -0.12982941 0.72444594
5498337500 -0.50237799 0.67077029 -0.00036373045 0.00023203119 -0.00014526024 -0.00026969885 0.045033198 0.72773057
5505825000 -0.33349615 0.75889808 -0.00013935866 -0.00010323255 -4.9758728e-005 0.00070166704 0.2099158 0.69711393
5513312500 -0.16055185 0.80230618 -0.00025984042 -0.00013966832 -0.0001204546 -6.2529361e-005 0.36402294 0.63527149
5520800000 0.0078864722 0.80856258 -0.00010177516 -5.9095717e-005 -4.4363092e-006 -0.00011468288 0.50382864 0.5456295
5528287500 0.16777603 0.78397763 0.00020168498 0.00023932428 -1.8492457e-005 -0.00057474407 0.62819952 0.42491126
5535775000 0.3182632 0.73223883 0.00025108375 2.6714115e-005 0.00010805513 -0.00034075062 0.72436386 0.27397874
5543262500 0.4562729 0.65382737 -6.1398772e-005 7.6963581e-005 -0.00012702293 -3.7559865e-005 0.7835955 0.097571447
5550750000 0.58009237 0.54881692 0.00019226229 0.00026634408 1.5051625e-005 0.00018038139 0.79420614 -0.093751378
5558237500 0.68346447 0.41589189 0.00032816044 0.00013641751 4.5442481e-005 -0.0001415255 0.75298351 -0.28259182
5565725000 0.75742114 0.25987545 -0.00023729776 -7.6225486e-005 7.5678523e-005 -7.2494826e-005 0.6625551 -0.45040521
5573212500 0.79454607 0.084622949 0.00012637328 -5.0578426e-005 0.00016136457 0.00018687948 0.53404582 -0.58504415
5580700000 0.78970951 -0.098119996 0.00010891947 -1.8226598e-005 0.00017284413 0.00023254429 0.38228834 -0.6807363
5588187500 0.73944074 -0.27628165 0.00017936656 7.1084716e-005 4.3787415e-005 5.0480565e-005 0.22005399 -0.73510927
5595675000 0.64695281 -0.43851003 -0.00015190744 -6.16982e-005 -0.00017836598 7.8865669e-006 0.055025894 -0.75398093
5603162500 0.51934886 -0.57454997 0.0001816795 2.2767284e-005 -4.5263259e-005 -1.939679e-005 -0.10725541 -0.73850167
5610650000 0.36333743 -0.67582327 0.00033071655 7.5176184e-005 -1.7216891e-005 0.00029328562 -0.26113608 -0.69172776
5618137500 0.18881071 -0.73958719 0.00021450032 0.00014366698 0.00010455555 -0.00032927663 -0.40278977 -0.61366415
5625625000 0.0046375846 -0.75994551 -0.00026060935 -0.00018394577 -5.5646422e-007 -0.00031031686 -0.52745253 -0.50559425
5633112500 -0.17883459 -0.7369501 0.00025842793 -0.00033683181 -0.00012597634 0.00039186428 -0.62774199 -0.37224367
5640600000 -0.35012993 -0.67463249 -0.0001142726 0.00015913235 0.00063784054 6.243962e-005 -0.69637519 -0.21760936
5648087500 -0.49996695 -0.57538748 1.4268655e-005 -6.6198001e-005 -0.00012998871 0.00014989126 -0.72918129 -0.047631532
5655575000 -0.62383807 -0.44603372 0.00038172965 0.00011912549 0.00016739233 -0.00042408466 -0.72124326 0.12836415
5663062500 -0.7157824 -0.29495576 -2.5810099e-005 0.00024172491 0.00012354323 -0.00014528878 -0.67156309 0.30025858
5670550000 -0.77342004 -0.12827162 5.4231036e-006 0.00015462855 -7.1608491e-005 -0.00015537188 -0.58159155 0.4579953
5678037500 -0.79378074 0.046788409 -2.8584367e-005 0.00045477718 0.0002897555 -0.00020380259 -0.45467657 0.59084499
5685525000 -0.7757715 0.22411968 0.00042477722 2.0865533e-005 0.00040648258 8.7088029e-006 -0.29812366 0.68881249
5693012500 -0.71800375 0.39503378 0.00014658856 0.00016362566 -0.00014701545 -0.00030981074 -0.12077879 0.74565411
5700500000 -0.61969411 0.55058002 -0.00027634413 -0.00017834287 0.00014061871 2.6456015e-005 0.064049125 0.75800651
5707987500 -0.48720673 0.68010825 -7.0099763e-005 -4.1657939e-005 5.615565e-006 -2.6447406e-006 0.2443257 0.72375941
5715475000 -0.32545564 0.77263772 -6.231208e-005 -0.00022590172 0.00044389014 3.0800598e-005 0.40990624 0.64895797
5722962500 -0.14705385 0.82338572 -0.0002925822 -0.00029014939 0.00028742099 -6.8902191e-005 0.55169672 0.53868616
5730450000 0.036454629 0.82896972 -0.00029478697 0.00031001007 0.00019835045 -0.00029091883 0.66310006 0.40010795
5737937500 0.21126352 0.79253966 -0.00084348681 -7.1798037e-005 5.2599746e-005 -4.4215845e-005 0.73967546 0.24111097
5745425000 0.37199047 0.71956551 0.00031228512 -0.00034797535 -0.00026911154 -0.00020050477 0.77846682 0.068511099
5752912500 0.51053983 0.61602509 0.00022596597 -0.00013147815 -0.00040773125 8.8877277e-005 0.77538741 -0.10903107
5760400000 0.62485337 0.48701325 8.0387326e-005 -5.785501e-005 7.6393619e-005 0.00012804997 0.73111272 -0.28107139
5767887500 0.71110618 0.33555356 -8.0457168e-005 0.00023352997 6.8050922e-006 -8.6962755e-005 0.64619112 -0.43767053
5775375000 0.76428896 0.16704051 -8.5668407e-006 -0.00010610739 -0.00011218475 3.6855679e-005 0.52748239 -0.56761843
5782862500 0.77840179 -0.01291434 0.00029606448 2.1008413e-005 0.00021520983 -0.00021304718 0.38174787 -0.66430742
5790350000 0.75010055 -0.19449131 0.0002981321 -0.00011015135 0.0001598493 0.00022722677 0.22119091 -0.72294825
5797837500 0.67876512 -0.36666098 -0.0004597861 -0.00017147377 -0.00067057414 -0.00012914489 0.055752438 -0.74397629
5805325000 0.56627715 -0.51533991 -6.9001726e-005 3.2771957e-006 -0.00016124814 0.00028192147 -0.10845775 -0.73023969
5812812500 0.42280909 -0.63297611 1.8563118e-005 0.00022786816 -0.00014789813 0.00026357709 -0.26464361 -0.68410254
5820300000 0.25929621 -0.71133387 0.00056296354 0.00041023726 -1.1299253e-005 -0.0001598317 -0.40943637 -0.60682172
5827787500 0.085510939 -0.75077271 4.6288227e-005 -0.00021665171 0.00032684486 2.4205994e-005 -0.53894758 -0.49884996
5835275000 -0.090106189 -0.75308192 -0.00012691852 0.0001123479 0.00030667093 -6.163933e-005 -0.64427888 -0.36152244
5842762500 -0.2604585 -0.71850896 2.1414668e-005 -1.574475e-005 3.8280599e-005 -0.00037388917 -0.71824509 -0.19703899
5850250000 -0.42282861 -0.6497702 7.3451869e-005 0.00029213182 -0.0002826431 0.00012812209 -0.74837071 -0.013683141
5857737500 -0.56832302 -0.54434758 -0.00010348424 -0.00014936019 -0.00014898214 0.00025007216 -0.73019129 0.17429617
5865225000 -0.68855381 -0.40718198 0.00017149652 -0.00015509471 0.00042433356 -0.00010255922 -0.66294807 0.35064179
5872712500 -0.77329975 -0.24087055 0.00021899631 -6.3232808e-005 0.00020295652 5.4896456e-005 -0.55247891 0.50092131
5880200000 -0.81372094 -0.057158634 -5.341004e-005 -0.00018624424 -0.00013251929 8.8232366e-005 -0.41390291 0.61413693
5887687500 -0.80600059 0.12864482 1.757457e-005 -6.2994826e-005 3.6097579e-005 6.5669112e-005 -0.25788283 0.69014472
5895175000 -0.75315547 0.3031204 -0.00013238109 2.6798587e-005 0.00011848907 0.00022085141 -0.09595108 0.72963196
5902662500 -0.66408253 0.45388943 3.0756364e-005 -4.5303113e-005 -1.4231674e-005 0.00013006624 0.068543456 0.73643929
5910150000 -0.54930633 0.5779897 0.00024963706 -6.7548564e-005 -0.00015669987 6.398766e-005 0.23136684 0.71063578
5917637500 -0.4153854 0.67448413 -2.2028915e-005 -6.5756511e-005 -0.000253601 -1.6716005e-005 0.390196 0.65087318
5925125000 -0.26686808 0.74244702 2.234364e-005 0.00024809141 8.6098393e-005 -0.00011852842 0.53616792 0.55445868
5932612500 -0.10671283 0.78352684 0.00015625967 -6.8615969e-007 -7.2214796e-005 0.00023860227 0.66125238 0.42197037
5940100000 0.063876122 0.79266524 0.00026539719 -2.2158771e-005 -0.00024083328 7.1179486e-005 0.74965131 0.25580207
5947587500 0.24016482 0.76342827 -1.7889834e-005 9.980172e-005 0.00037141659 -8.539149e-005 0.7906971 0.067669436
5955075000 0.4136 0.69026935 -0.00020398867 -0.00032427156 0.00034491022 -0.00029621489 0.77905995 -0.12217061
5962562500 0.56863421 0.5698446 -3.2869899e-005 -4.0380975e-005 -1.050292e-005 0.00014795772 0.71760905 -0.29881868
5970050000 0.68704689 0.40899816 -0.00013185974 0.00011836561 0.00013836179 9.6649863e-005 0.61906207 -0.44787562
5977537500 0.75590724 0.22181918 0.00011702292 -0.00040417537 6.5971319e-005 0.00018076884 0.49339643 -0.56432128
5985025000 0.76958549 0.030038174 0.00026984466 -0.00014861896 -2.7763372e-006 4.4417343e-006 0.35071781 -0.64896572
5992512500 0.73873061 -0.14952856 -5.7790425e-005 -0.00027356861 -0.00040666552 -0.0001579098 0.19781579 -0.70178819
6000000000 0.67065614 -0.30850843 -3.0555238e-005 3.7952777e-005 0.0001383398 0.00018506678 0.038104869 -0.72399724
