!Keysight Technologies,N5245B,MY52501319,Z.13.01.242
!Date: Monday, February 16, 2026 14:48:05
!Correction: S11(Off) 
!S21(Off) 
!S12(Off) 
!S22(Off) 
!S2P File: Measurements: S11, S21, S12, S22:
# Hz S  RI   R 50
10000000 -0.16230059 0.0047390284 0.92197812 -0.28962162 0.91792732 -0.31029186 -0.13595349 -0.048038851
17487500 -0.065393567 0.075972192 0.8220216 -0.49041456 0.80971509 -0.51392883 -0.076291658 0.060865134
24975000 -0.007295894 0.04595774 0.68785417 -0.66313976 0.6598084 -0.68511856 -0.0064032618 0.053420629
32462500 -0.010157598 0.0019492187 0.51536113 -0.79969543 0.47958842 -0.82681805 0.0090032043 0.0090928953
39950000 -0.035691589 -0.0050728498 0.32389343 -0.89335126 0.26625156 -0.91070431 -0.012881317 -0.013812513
47437500 -0.046622027 0.013481561 0.10778261 -0.93846565 0.04384467 -0.94853294 -0.036573377 -0.0030901558
54925000 -0.032839857 0.025636269 -0.10835996 -0.93571699 -0.18696402 -0.92791909 -0.037380997 0.017318854
62412500 -0.019681774 0.017921001 -0.31721607 -0.88860536 -0.40004021 -0.85591233 -0.022066878 0.026681401
69900000 -0.020939862 0.0074177627 -0.51024938 -0.79173988 -0.58897531 -0.73708254 -0.0085858898 0.020881819
77387500 -0.02818281 0.0087904632 -0.67537099 -0.65460229 -0.74903816 -0.57474011 -0.0066867652 0.011118067
84875000 -0.025395084 0.015394015 -0.80782473 -0.48547021 -0.86634272 -0.3795442 -0.011857556 0.0063847965
92362500 -0.015087352 0.012870337 -0.89320654 -0.28983811 -0.92749095 -0.16244659 -0.014184717 0.0070607597
99850000 -0.012680664 0.00054197671 -0.93601847 -0.079827547 -0.93964612 0.062758461 -0.013293088 0.0086890981
107337500 -0.023151755 -0.0083912909 -0.92857683 0.1336509 -0.8966465 0.2812987 -0.010800349 0.0075402493
114825000 -0.033978324 -0.00078840886 -0.87107396 0.34111717 -0.80416775 0.48634964 -0.011133751 0.0049538813
122312500 -0.031403888 0.011066684 -0.77061576 0.52873433 -0.66543978 0.66241294 -0.01248673 0.0015825782
129800000 -0.018644253 0.010201775 -0.63314265 0.68849087 -0.487528 0.80119938 -0.014760814 -0.001087876
137287500 -0.013508379 -0.0057668057 -0.46165401 0.81455767 -0.28477666 0.89449739 -0.020179573 -0.0045741997
144775000 -0.029794883 -0.01911159 -0.26308361 0.89720649 -0.06440714 0.93576562 -0.02915879 -0.004247597
152262500 -0.055040609 -0.01081241 -0.054766856 0.93197823 0.16000979 0.92256826 -0.039948471 0.0044662817
159750000 -0.062061835 0.017155105 0.15795714 0.92016125 0.37375808 0.85763794 -0.041498624 0.01998606
167237500 -0.044127133 0.041510243 0.36176348 0.8616277 0.56613708 0.7440055 -0.033155151 0.035739757
174725000 -0.015719527 0.039947256 0.54723561 0.75641835 0.72541928 0.58866054 -0.015888024 0.042199492
182212500 -0.0042694705 0.020627078 0.70447969 0.61242455 0.84519833 0.40023768 0.00080334296 0.035507534
189700000 -0.014262827 0.0072817644 0.82372558 0.43583691 0.91565645 0.18664196 0.0071732956 0.021602403
197187500 -0.025579525 0.013845774 0.8999002 0.23912095 0.93401223 -0.035344996 0.0026220994 0.012015398
204675000 -0.020768473 0.028034294 0.93419755 0.028695378 0.90062106 -0.25659889 -0.00312876 0.011958614
212162500 0.00083612243 0.028035656 0.91215068 -0.18192188 0.81153888 -0.46088126 -0.001094309 0.015579209
219650000 0.015297739 0.0056947689 0.84634894 -0.38316134 0.67935246 -0.64046806 0.0068654758 0.013975856
227137500 -0.0029252365 -0.021897281 0.73793876 -0.56556779 0.50691557 -0.78282481 0.012258861 0.0015052592
234625000 -0.041247103 -0.013985871 0.59116173 -0.71668357 0.30668449 -0.88095999 0.00063398742 -0.013028673
242112500 -0.031273216 0.025395365 0.4142299 -0.83161622 0.089663818 -0.92709672 -0.014556064 -0.0024892807
249600000 -0.0084618479 0.018964903 0.21405257 -0.90099025 -0.132451 -0.92091089 -0.0065726107 0.00032982725
257087500 -0.0043085753 0.011852636 0.0048800483 -0.92871201 -0.34721768 -0.86288673 -0.0086470908 -0.0037610868
264575000 -0.0010337494 0.004619773 -0.20447746 -0.90449148 -0.541282 -0.75601631 -0.011446124 -0.0026569746
272062500 -0.0028977566 -0.0043018907 -0.4053055 -0.83423203 -0.70467907 -0.60531545 -0.011773693 -0.0048286431
279550000 -0.008697263 -0.0062224129 -0.58353144 -0.71884298 -0.82746702 -0.41855431 -0.016289171 -0.0061272136
287037500 -0.014724845 -0.0023322515 -0.72813851 -0.56856096 -0.90410995 -0.21119542 -0.024766922 -0.0037184847
294525000 -0.010430826 0.0037872433 -0.84002656 -0.38749611 -0.92622405 0.0089106606 -0.026655655 0.0056390017
302012500 0.00051054329 0.0021221268 -0.90535295 -0.18826674 -0.89791751 0.22875863 -0.017686874 0.013790616
309500000 0.0084606335 -0.010984055 -0.92331403 0.019670352 -0.8167578 0.43571165 -0.0033676648 0.008094362
316987500 0.0026358403 -0.029048519 -0.89527541 0.22883849 -0.6908142 0.61679381 -0.00059679931 -0.0097831925
324475000 -0.013849719 -0.038175203 -0.81982833 0.42480746 -0.52612501 0.76291007 -0.018290835 -0.026709028
331962500 -0.029358683 -0.037903063 -0.70192641 0.59738463 -0.32755131 0.86411291 -0.046223886 -0.021223709
339450000 -0.044013027 -0.036970865 -0.54733253 0.73977154 -0.11524699 0.91598803 -0.055732459 -0.00075334235
346937500 -0.068340212 -0.023059718 -0.36823356 0.84393531 0.10435775 0.91566151 -0.055877313 0.013832738
354425000 -0.073889397 0.013951569 -0.16838598 0.90496093 0.31741253 0.86525643 -0.056356587 0.033418901
361912500 -0.047794685 0.038653959 0.040019855 0.92025012 0.51169813 0.76521248 -0.039028157 0.054893117
369400000 -0.021476949 0.03321068 0.24796376 0.88876492 0.68036461 0.6214149 -0.008023642 0.056325793
376887500 -0.014087061 0.020932518 0.44361261 0.80711848 0.80969232 0.44340548 0.010124182 0.036933091
384375000 -0.015107861 0.0186505 0.61216056 0.6857115 0.89078021 0.2374981 0.0075959372 0.016701259
391862500 -0.0078913877 0.023079561 0.75280279 0.52931148 0.92183328 0.01989311 -0.0046107117 0.010855068
399350000 0.0060496619 0.017065549 0.85131449 0.34662482 0.89957899 -0.19926558 -0.0082154172 0.017320994
406837500 0.013669502 -0.0039955326 0.90807527 0.14365743 0.82632619 -0.40709612 -0.0017508843 0.020552602
414325000 -0.001216369 -0.023312315 0.91543478 -0.064958982 0.70624942 -0.59126353 0.0055732373 0.011859653
421812500 -0.026987711 -0.022150753 0.87780458 -0.26857996 0.54606462 -0.74134427 0.0034538761 -0.0010358718
429300000 -0.039015349 0.0014840175 0.79367131 -0.46083042 0.3550221 -0.84838617 -0.0088452352 -0.0073260786
436787500 -0.023750044 0.024854766 0.66864508 -0.62827957 0.14412642 -0.90858668 -0.01977252 -0.00049724209
444275000 0.0052334806 0.022680752 0.507855 -0.76330453 -0.075963601 -0.91523695 -0.018861115 0.010662292
451762500 0.017292744 -0.0016551655 0.32255852 -0.85858667 -0.29161072 -0.8703813 -0.010552855 0.015147284
459250000 0.0048297704 -0.024984466 0.12000868 -0.90734768 -0.48828292 -0.77651483 -0.0034597125 0.0096966773
466737500 -0.020260349 -0.022452364 -0.088313669 -0.91191387 -0.65720093 -0.6391573 -0.0022637947 0.00050085667
474225000 -0.026439227 -0.0005870717 -0.29138821 -0.86715662 -0.79123777 -0.46524706 -0.0093968427 -0.0061912909
481712500 -0.007643275 0.011730345 -0.48064774 -0.77815211 -0.87764692 -0.26365617 -0.020174053 -0.0040542805
489200000 0.011952504 0.00036038505 -0.64239717 -0.65000588 -0.91463697 -0.048430432 -0.020552102 0.0068851314
496687500 0.013692895 -0.022671707 -0.77245212 -0.48699972 -0.89989889 0.17178035 -0.0088972207 0.0114804
504175000 -0.0019539739 -0.039448727 -0.86188954 -0.2994673 -0.83285868 0.37920034 0.0016604738 -0.0021732075
511662500 -0.022099202 -0.040416352 -0.90713942 -0.098156147 -0.71964008 0.56546909 -0.0062516415 -0.02250492
519150000 -0.035345383 -0.029548682 -0.90482587 0.11085257 -0.56469268 0.71840858 -0.031014694 -0.029485332
526637500 -0.038019452 -0.017455777 -0.85721874 0.31058252 -0.37788895 0.83052552 -0.052342989 -0.013161171
534125000 -0.03521071 -0.010599627 -0.76339668 0.49594453 -0.17062256 0.89692199 -0.053764101 0.01149374
541612500 -0.03438738 -0.0087984074 -0.63227147 0.65611136 0.044700135 0.91241294 -0.037871789 0.024809392
549100000 -0.035743356 -0.0051509878 -0.46714818 0.78178316 0.26073015 0.87542766 -0.023542983 0.02095212
556587500 -0.037152801 0.00014776677 -0.27851605 0.86687589 0.45984909 0.78798753 -0.02366483 0.0099838655
564075000 -0.035250824 0.0069643757 -0.076720603 0.90812641 0.63374752 0.65496731 -0.035792649 0.010240107
571562500 -0.030868545 0.011513792 0.13135771 0.90126365 0.77100015 0.48642039 -0.041558933 0.025142746
579050000 -0.02698116 0.014012706 0.33136445 0.8468554 0.86339933 0.28983384 -0.029865135 0.042658079
586537500 -0.022890661 0.020273302 0.51418555 0.74920863 0.9080658 0.077829026 -0.0052750236 0.045332178
594025000 -0.012236693 0.026348284 0.67012578 0.61364359 0.89947861 -0.13890976 0.01185562 0.028073737
601512500 0.005597908 0.021480123 0.79040372 0.44709659 0.84207028 -0.34878266 0.010450026 0.0062509598
609000000 0.011349403 0.0023229902 0.870897 0.2569671 0.73367471 -0.53753716 -0.0031101692 -0.0024838848
616487500 0.00055298081 -0.0099586118 0.90586227 0.052842293 0.58413208 -0.6972422 -0.012431637 0.0016620052
623975000 -0.011138139 -0.0054383627 0.89435893 -0.15258099 0.40391535 -0.81488812 -0.01228515 0.0063749556
631462500 -0.00858521 0.0058755889 0.83627439 -0.35015693 0.19868402 -0.88707244 -0.0077920137 0.0053073335
638950000 0.0028812424 0.0046363664 0.73715615 -0.52897596 -0.017385572 -0.90891713 -0.0081650969 -0.0014805732
646437500 0.0061473395 -0.0068026474 0.59866893 -0.6808725 -0.23226033 -0.8773694 -0.015842045 -0.0059266938
653925000 -0.0028444189 -0.013194199 0.43056545 -0.79973763 -0.4326911 -0.79682219 -0.022936346 -0.00079735951
661412500 -0.010203062 -0.0067580086 0.23679623 -0.87529159 -0.6092754 -0.67199624 -0.023741104 0.0094506312
668900000 -0.0026123489 0.0017359519 0.033166852 -0.90570128 -0.75114399 -0.508995 -0.013192235 0.015332765
676387500 0.010571114 -0.0023890659 -0.17297944 -0.89039183 -0.84985119 -0.31520283 -0.001452269 0.0094006322
683875000 0.013227152 -0.019838158 -0.37026826 -0.8267588 -0.90017706 -0.10618261 0.0019765426 -0.0039785393
691362500 -0.0017932256 -0.031063525 -0.54728067 -0.72016168 -0.89840561 0.11026399 -0.0068283472 -0.016325584
698850000 -0.017141119 -0.023852736 -0.69527692 -0.5779413 -0.84606206 0.32074413 -0.018477766 -0.01833394
706337500 -0.014958597 -0.0074377772 -0.80604315 -0.40637845 -0.74624091 0.51128709 -0.026820777 -0.013062381
713825000 0.0026822919 -0.0050085792 -0.87690079 -0.21349156 -0.6048519 0.67342621 -0.026726754 -0.0092912586
721312500 0.014941479 -0.025537057 -0.90266341 -0.009510587 -0.42695343 0.79700261 -0.027899917 -0.01073076
728800000 -0.00071424298 -0.05197363 -0.87997329 0.19214508 -0.22602411 0.87555939 -0.036139246 -0.013492882
736287500 -0.036594041 -0.054941244 -0.81494045 0.38504621 -0.011770382 0.90342796 -0.04781761 -0.0065043364
743775000 -0.062446404 -0.026617292 -0.70807797 0.55900806 0.20176694 0.87990111 -0.052180108 0.010168673
751262500 -0.055490024 0.010639322 -0.56580281 0.70701408 0.40421656 0.80714834 -0.044828892 0.026218107
758750000 -0.025047688 0.023993215 -0.39221093 0.81854081 0.58467865 0.68837386 -0.029005522 0.033723932
766237500 -0.0013459033 0.0088219019 -0.19518787 0.88581985 0.7305454 0.53018457 -0.012891717 0.029951973
773725000 -0.0063647432 -0.015297256 0.011731445 0.90564525 0.83530349 0.34244287 -0.0036065725 0.018787799
781212500 -0.029405296 -0.017636972 0.21694376 0.87933826 0.89222187 0.13413973 -0.004267375 0.0051565566
788700000 -0.042623173 0.0044623916 0.41137734 0.80720901 0.89843929 -0.081097104 -0.013858243 -0.0027898361
796187500 -0.029889749 0.030383633 0.58200723 0.69254792 0.85215425 -0.29207104 -0.024983585 0.00095903146
803675000 -0.00052230863 0.035855915 0.72277266 0.54234695 0.7586633 -0.48461142 -0.027979352 0.012999223
811162500 0.020639272 0.018944342 0.82514763 0.36479989 0.62165082 -0.64962333 -0.018534271 0.024760943
818650000 0.021949977 -0.0031023666 0.88583738 0.16796462 0.44991627 -0.7776497 -0.00058389484 0.022842724
826137500 0.010871766 -0.014332923 0.89987504 -0.036992062 0.25270233 -0.86193258 0.011710011 0.0067272573
833625000 0.00263178 -0.013212862 0.86697835 -0.23983157 0.040741242 -0.89600217 0.0075913328 -0.013829281
841112500 0.0019534319 -0.012713345 0.78999162 -0.42901716 -0.1718376 -0.87923807 -0.011157929 -0.025627121
848600000 0.00017531808 -0.017721083 0.67175758 -0.59464401 -0.37530917 -0.81282973 -0.031626057 -0.01835241
856087500 -0.008617253 -0.020144712 0.51856571 -0.73026294 -0.55604488 -0.70030528 -0.037780657 0.00098885817
863575000 -0.018145803 -0.011341528 0.33876398 -0.82626379 -0.70497739 -0.54850376 -0.026619388 0.016616423
871062500 -0.015971951 0.0033985791 0.14353211 -0.87956399 -0.81309754 -0.36571556 -0.0082456386 0.017381128
878550000 -0.0014308776 0.011274924 -0.059224539 -0.88839018 -0.8773399 -0.16315983 0.0017446122 0.0046011182
886037500 0.013677062 0.0054666051 -0.25683382 -0.85222638 -0.8919878 0.048184391 -0.002623179 -0.0079235602
893525000 0.020276045 -0.0076982174 -0.44001397 -0.77274585 -0.85550982 0.25675544 -0.010345426 -0.0081850523
901012500 0.019841412 -0.01991489 -0.60248983 -0.65458429 -0.77068609 0.45148632 -0.0082003549 -0.0039973222
908500000 0.01509706 -0.031301022 -0.73525572 -0.50170451 -0.64125335 0.62127829 0.001888151 -0.0097339405
915987500 0.0045671207 -0.04229518 -0.8290956 -0.3210077 -0.47463599 0.7549879 0.001857331 -0.030259857
923475000 -0.013899858 -0.046284519 -0.87755859 -0.12644413 -0.28173909 0.84474742 -0.020305173 -0.047554582
930962500 -0.033712294 -0.035963826 -0.88169229 0.073336065 -0.076303139 0.88790768 -0.054602906 -0.039598931
938450000 -0.039895527 -0.0132639 -0.84218693 0.26832372 0.13300182 0.88220185 -0.07233952 -0.0045111817
945937500 -0.027742537 0.0039225826 -0.76092136 0.45086017 0.33741209 0.82931477 -0.054846726 0.033123553
953425000 -0.010666308 0.0025768117 -0.64009416 0.61257607 0.52699739 0.72735119 -0.014765169 0.042850092
960912500 -0.0075135818 -0.01150853 -0.48576552 0.74190372 0.68685383 0.58089668 0.0136996 0.016891414
968400000 -0.021881366 -0.016916651 -0.30728507 0.83286321 0.80678105 0.40095487 0.0078351311 -0.018528797
975887500 -0.035592981 -0.0014205817 -0.11139753 0.88033158 0.87987661 0.19897056 -0.022161463 -0.028923109
983375000 -0.027531946 0.022459641 0.089635752 0.88296098 0.90236378 -0.016395373 -0.043407381 -0.0092701409
990862500 -0.00023577632 0.030657791 0.2876856 0.84019792 0.87126696 -0.23101418 -0.034815274 0.018008852
998350000 0.021567473 0.012723204 0.47130528 0.75373363 0.78977609 -0.43046981 -0.0080760224 0.022554215
1005837500 0.018173503 -0.012538713 0.62928838 0.63008714 0.66534412 -0.60612983 0.0075005773 0.0014502751
1013325000 -0.0040639155 -0.018874841 0.75612205 0.47361588 0.50281745 -0.74778295 -0.0039532306 -0.020864315
1020812500 -0.015713651 -0.00037462084 0.84456187 0.29158759 0.31107625 -0.84593451 -0.026599586 -0.018736124
1028300000 0.0010702047 0.018413154 0.88788283 0.09337198 0.10119691 -0.89441574 -0.033390138 0.0020971771
1035787500 0.029697327 0.0089227362 0.88730997 -0.11007368 -0.11272151 -0.89129168 -0.015863782 0.016130459
1043275000 0.035367381 -0.027132174 0.83984768 -0.30909792 -0.31977382 -0.83946609 0.0047504879 0.0036761984
1050762500 0.003806232 -0.054174334 0.74660945 -0.49173909 -0.50941169 -0.73929971 0.0019000671 -0.021828668
1058250000 -0.040220257 -0.040805086 0.61613661 -0.64745951 -0.67113441 -0.59697092 -0.02591945 -0.030604571
1065737500 -0.05541838 0.0060716844 0.45365068 -0.77064466 -0.79270035 -0.42103496 -0.049109947 -0.007875111
1073225000 -0.025466045 0.046410255 0.26868552 -0.85296845 -0.86915731 -0.22235082 -0.040187523 0.027881481
1080712500 0.023978742 0.046536405 0.06935256 -0.89308548 -0.89808166 -0.01077026 -0.0014199768 0.041927312
1088200000 0.051787827 0.010468205 -0.13651425 -0.88471514 -0.87462962 0.20466582 0.034794603 0.016760999
1095687500 0.041308973 -0.026985794 -0.33345607 -0.82877225 -0.7980203 0.40684283 0.035970867 -0.027697684
1103175000 0.013427184 -0.037486129 -0.51158941 -0.73059797 -0.67614549 0.58199507 0.0028119527 -0.053764924
1110662500 -0.00073062058 -0.025362162 -0.66426116 -0.59602487 -0.51675028 0.72351426 -0.03353804 -0.043315515
1118150000 0.0042741573 -0.017152272 -0.78237671 -0.42936891 -0.33202392 0.82397246 -0.042481124 -0.013039283
1125637500 0.010535697 -0.027669476 -0.85775459 -0.24026079 -0.12676771 0.87980705 -0.024775101 0.0050233514
1133125000 -0.0024364961 -0.042346578 -0.88804317 -0.040630314 0.085055634 0.88367552 -0.0046259114 -0.0032532441
1140612500 -0.028928017 -0.039815411 -0.87264812 0.15918173 0.2918711 0.83638132 -0.0078844065 -0.022914158
1148100000 -0.046153687 -0.013661532 -0.81504238 0.3514927 0.47914365 0.74334323 -0.02854494 -0.026480792
1155587500 -0.036683612 0.016534036 -0.71395361 0.52632922 0.63992018 0.60804385 -0.042856701 -0.006906209
1163075000 -0.0092295883 0.027006263 -0.57557631 0.67420596 0.76502001 0.43861273 -0.031492494 0.017200455
1170562500 0.012130633 0.013526649 -0.40857908 0.7854557 0.8465727 0.2446678 -0.0039444678 0.020384444
1178050000 0.012164061 -0.0072013824 -0.22113258 0.85677028 0.88019353 0.037565075 0.014627137 -5.6712925e-005
1185537500 -0.0038046795 -0.014125012 -0.023093646 0.88387328 0.86375028 -0.17106631 0.0060637593 -0.026117671
1193025000 -0.016565524 -0.0026755361 0.17701755 0.86567152 0.79955399 -0.371095 -0.018138325 -0.032331116
1200512500 -0.011974011 0.014888654 0.36771697 0.80378217 0.68943852 -0.5491479 -0.035113703 -0.015319557
1208000000 0.008490175 0.022940198 0.53851146 0.69979852 0.54037929 -0.69597942 -0.029227646 0.0068313368
1215487500 0.030714765 0.0090484517 0.68393052 0.56130677 0.36086845 -0.80360132 -0.0074815452 0.013323652
1222975000 0.03452507 -0.020519339 0.79257673 0.39237872 0.16018176 -0.86668515 0.009575001 -0.0021555561
1230462500 0.011149639 -0.046661042 0.86007601 0.20219696 -0.049866457 -0.87895745 0.0043404759 -0.025030151
1237950000 -0.028761841 -0.044911128 0.88360554 0.0028744808 -0.25632763 -0.84281099 -0.018634496 -0.034567308
1245437500 -0.056673821 -0.010009507 0.86130857 -0.19526584 -0.44775572 -0.75866222 -0.041489772 -0.019987348
1252925000 -0.04690082 0.037931293 0.79596686 -0.38549402 -0.6149745 -0.63248849 -0.045199852 0.0089915618
1260412500 -0.001682442 0.062264618 0.68988079 -0.5570814 -0.74765921 -0.46977541 -0.024314331 0.032657497
1267900000 0.045585629 0.041491553 0.54472959 -0.69868964 -0.83800226 -0.2783286 0.0088006733 0.033424933
1275387500 0.056431696 -0.0072766468 0.37091503 -0.80196255 -0.88056546 -0.070489563 0.032396581 0.010135069
1282875000 0.024905324 -0.039647494 0.17993177 -0.86326474 -0.87098473 0.13945629 0.03151048 -0.021750093
1290362500 -0.014919898 -0.029785749 -0.018409824 -0.88186628 -0.81318974 0.34070501 0.0088812746 -0.040912889
1297850000 -0.022826733 0.0069001 -0.21744619 -0.85522854 -0.71080667 0.52437073 -0.017931379 -0.03679641
1305337500 0.0075979596 0.02878478 -0.40548599 -0.78264755 -0.56714261 0.67750502 -0.029518601 -0.015232408
1312825000 0.040511746 0.0093944082 -0.57027543 -0.67001379 -0.39011344 0.79298562 -0.018614214 0.0047908514
1320312500 0.037679523 -0.031358704 -0.70579851 -0.52371526 -0.19095105 0.8622517 0.0017417523 0.0058950693
1327800000 -0.00078885566 -0.048062149 -0.80610693 -0.35133943 0.018736085 0.88339567 0.012398556 -0.010778223
1335287500 -0.034143645 -0.021493729 -0.86439586 -0.16058782 0.22797252 0.85312086 0.0033254907 -0.026821328
1342775000 -0.025261328 0.019362779 -0.87774074 0.038919557 0.42417496 0.77457732 -0.014397681 -0.026784072
1350262500 0.015305619 0.028225482 -0.84594524 0.23529612 0.59513789 0.65135145 -0.021366745 -0.010970996
1357750000 0.041022342 -0.0061051962 -0.77177662 0.4198699 0.73160756 0.49160135 -0.0095420387 0.0020984772
1365237500 0.020619946 -0.047345448 -0.65774888 0.58463699 0.82699662 0.30452666 0.0078196498 -0.0041963304
1372725000 -0.029645544 -0.048860494 -0.50631398 0.71901393 0.87617594 0.10021016 0.009392634 -0.024318287
1380212500 -0.058397926 -0.0039749974 -0.33076888 0.81322598 0.87402374 -0.11058676 -0.010181937 -0.035903845
1387700000 -0.036224443 0.045976378 -0.13932806 0.86561608 0.82134706 -0.3140834 -0.032479566 -0.022750363
1395187500 0.017673204 0.055434916 0.059005681 0.87488073 0.72358352 -0.49915439 -0.031580891 0.0062596379
1402675000 0.054688916 0.01854448 0.25544724 0.84008163 0.58608991 -0.65562636 -0.0041185291 0.021275334
1410162500 0.047500383 -0.028495841 0.43877995 0.75920337 0.41333807 -0.77655798 0.026210325 0.0039474396
1417650000 0.011357971 -0.04797947 0.59824592 0.63938659 0.2161373 -0.85163397 0.028176347 -0.034377214
1425137500 -0.017584965 -0.035209212 0.72547942 0.48856264 0.0082727866 -0.87645477 -0.0054922169 -0.058739234
1432625000 -0.022086114 -0.015067931 0.81785351 0.31351441 -0.19723563 -0.8522926 -0.047707058 -0.045957118
1440112500 -0.017051943 -0.0097441617 0.86796522 0.12086197 -0.39095932 -0.78235102 -0.063810483 -0.0042483634
1447600000 -0.021773444 -0.013265309 0.87206817 -0.078118265 -0.56599325 -0.67020029 -0.043074932 0.032873545
1455087500 -0.037228741 -0.0052004005 0.83245665 -0.27181754 -0.71048737 -0.51740313 -0.0064464486 0.040244035
1462575000 -0.042608842 0.021548826 0.74989206 -0.45293638 -0.81318367 -0.332836 0.016370216 0.021519242
1470062500 -0.022995731 0.048690725 0.62838948 -0.61188346 -0.86859721 -0.13089313 0.015653847 0.0032931482
1477550000 0.013641556 0.053132132 0.4735589 -0.73781818 -0.87418687 0.077996805 0.0072375378 0.0010121621
1485037500 0.042386845 0.028164968 0.29275197 -0.82463592 -0.83101881 0.28301343 0.012021304 0.0061423187
1492525000 0.044117756 -0.0078207245 0.10038368 -0.86800516 -0.74042928 0.47235739 0.026014354 -0.00087638205
1500012500 0.02085522 -0.03171289 -0.096841462 -0.86866105 -0.60674959 0.63400811 0.027317541 -0.023588398
1507500000 -0.0091986246 -0.032085773 -0.28923222 -0.82428849 -0.43990517 0.75858331 0.004990574 -0.040513746
1514987500 -0.028024344 -0.012190044 -0.46814311 -0.73776251 -0.24779309 0.84152275 -0.025851442 -0.029539082
1522475000 -0.026789788 0.013866665 -0.62262553 -0.61221373 -0.041910514 0.87675834 -0.033975709 0.0066298167
1529962500 -0.0072981622 0.029904945 -0.74341065 -0.45580387 0.1671181 0.86109573 -0.0052756998 0.036082454
1537450000 0.018420462 0.025284108 -0.82586521 -0.27685779 0.36579472 0.79614204 0.038890205 0.028727243
1544937500 0.03172731 0.00081402413 -0.86751449 -0.083816402 0.54431272 0.68698525 0.060701717 -0.013837728
1552425000 0.021061487 -0.026260925 -0.86543095 0.11409982 0.69210482 0.53918141 0.039673448 -0.058256324
1559912500 -0.0088137854 -0.034859221 -0.81662464 0.30896142 0.80014235 0.35963675 -0.0069271862 -0.068556115
1567400000 -0.034218922 -0.015379232 -0.72537684 0.48533568 0.86216152 0.15879782 -0.042205241 -0.040873919
1574887500 -0.033166356 0.015698688 -0.59648681 0.63550329 0.87371463 -0.049071494 -0.04225656 -0.0019395376
1582375000 -0.0079266289 0.0313893 -0.43786281 0.75260097 0.83706933 -0.25404543 -0.016511755 0.01764678
1589862500 0.017209116 0.020453207 -0.25751466 0.83281076 0.75298321 -0.44481537 0.0071063167 0.010353532
1597350000 0.020648433 -0.0035467441 -0.062708661 0.86980045 0.62617677 -0.61049467 0.011429088 -0.005786988
1604837500 0.0060032932 -0.016290676 0.13625354 0.86116958 0.46374196 -0.74141848 0.0040404699 -0.012831336
1612325000 -0.0053213127 -0.010636642 0.32754487 0.80763286 0.27536482 -0.82992351 7.4577256e-005 -0.0095729902
1619812500 -0.00054594083 -0.0050274283 0.50160396 0.71207941 0.071332186 -0.87138247 0.0047967499 -0.0097535281
1627300000 0.0056726062 -0.017820446 0.64941555 0.58055115 -0.13757189 -0.86223173 0.0062426375 -0.019864913
1634787500 -0.0096247019 -0.038766164 0.76247162 0.41765186 -0.33759955 -0.80477554 -0.0069204066 -0.031430203
1642275000 -0.047783311 -0.038231906 0.83644265 0.23571034 -0.51721716 -0.70210558 -0.030720366 -0.026223639
1649762500 -0.075144 -0.00051383628 0.86822861 0.042347096 -0.66790366 -0.56080717 -0.045644697 -0.00062389218
1657250000 -0.060749441 0.049520787 0.85778648 -0.15439908 -0.78345156 -0.38804457 -0.036207791 0.030987822
1664737500 -0.010773972 0.067513093 0.80118382 -0.34593332 -0.85372359 -0.1915343 -0.005893135 0.045614447
1672225000 0.030481054 0.036236122 0.70051879 -0.5192762 -0.87526941 0.016936038 0.023314521 0.034851942
1679712500 0.02328906 -0.012223938 0.56410903 -0.66277581 -0.84558785 0.22479668 0.032629821 0.0095761903
1687200000 -0.021424685 -0.027664382 0.40010124 -0.7723282 -0.76820874 0.41842422 0.019757064 -0.0091650384
1694687500 -0.056164619 0.0064370688 0.21499924 -0.84317833 -0.64661807 0.58810836 0.00071753183 -0.0075544859
1702175000 -0.042471286 0.055799861 0.019759715 -0.87003225 -0.48816282 0.72513396 -0.0066687344 0.009541559
1709662500 0.0087724123 0.071110524 -0.17705303 -0.85153723 -0.30289611 0.81926906 0.0054857247 0.027889615
1717150000 0.050230745 0.037178557 -0.36516362 -0.78995889 -0.10054131 0.86784816 0.029856192 0.030771311
1724637500 0.046342552 -0.013778448 -0.53570735 -0.68708295 0.10751088 0.86581391 0.052101865 0.014058862
1732125000 0.0058566253 -0.037827116 -0.67759258 -0.54644746 0.30949146 0.81660211 0.05762412 -0.015731575
1739612500 -0.030185761 -0.020664049 -0.78134555 -0.37763926 0.49482697 0.72003776 0.04089471 -0.043087333
1747100000 -0.035623964 0.01285314 -0.84445405 -0.19268677 0.65034282 0.5814451 0.0096736737 -0.052259896
1754587500 -0.016671773 0.030797571 -0.86464602 0.0011100064 0.76997268 0.40974715 -0.017842172 -0.036808729
1762075000 0.0019295459 0.026929893 -0.84194583 0.19513598 0.84447634 0.2161826 -0.024409994 -0.0072519202
1769562500 0.0073945741 0.017493855 -0.77694398 0.37944457 0.87162328 0.01053638 -0.0061837598 0.014862259
1777050000 0.0069409353 0.015214464 -0.67270386 0.54429895 0.84965134 -0.19700888 0.021496158 0.012691289
1784537500 0.013980269 0.016705355 -0.53270209 0.68230242 0.77792674 -0.39407444 0.035031974 -0.01168929
1792025000 0.028368564 0.0085710511 -0.36514404 0.78543109 0.66113389 -0.5658586 0.022241162 -0.037152294
1799512500 0.03518698 -0.013702328 -0.17845653 0.84706199 0.50833631 -0.70365655 -0.0052868095 -0.041852254
1807000000 0.02494668 -0.038677346 0.017840156 0.86504626 0.32804066 -0.8037706 -0.023798384 -0.024786036
1814487500 -0.00091902429 -0.054115843 0.21140195 0.83857942 0.12898639 -0.85983509 -0.021713113 -0.0035556846
1821975000 -0.030361144 -0.052311186 0.39466605 0.77062464 -0.079198137 -0.86579573 -0.0069874222 0.0010016412
1829462500 -0.053468704 -0.035350215 0.55880558 0.66312367 -0.28124365 -0.82117647 -0.0016956431 -0.0098753255
1836950000 -0.064378038 -0.0084452471 0.69480008 0.52047801 -0.46631631 -0.73084092 -0.015553573 -0.017883822
1844437500 -0.05705893 0.018479975 0.79567009 0.34940529 -0.62543845 -0.6013487 -0.033528686 -0.0059717698
1851925000 -0.033936895 0.034023996 0.85432428 0.15953927 -0.7508747 -0.43601474 -0.033748962 0.019289223
1859412500 -0.00872966 0.027454935 0.86722177 -0.039017521 -0.8334856 -0.24514452 -0.011809029 0.036096968
1866900000 -0.00052765093 0.0041813189 0.83632374 -0.23268694 -0.86703753 -0.040903557 0.011044151 0.026208628
1874387500 -0.016769938 -0.014012531 0.76104403 -0.41669735 -0.85218543 0.16544643 0.011830086 0.0037700725
1881875000 -0.042539153 -0.0078573031 0.646635 -0.57744259 -0.78825766 0.36222365 -0.010510564 -0.0040511941
1889362500 -0.05162251 0.019746175 0.49926659 -0.70751387 -0.67799908 0.53824914 -0.030372573 0.018398128
1896850000 -0.032626551 0.043254148 0.32797629 -0.80217385 -0.53041595 0.68251085 -0.020265967 0.054487228
1904337500 -0.0038996325 0.041620158 0.13941331 -0.85627913 -0.35449934 0.78614026 0.02013175 0.071643345
1911825000 0.0088516204 0.019707374 -0.057805717 -0.86629707 -0.16121994 0.84818757 0.063216709 0.053189259
1919312500 -0.0015470334 0.0036152403 -0.25387537 -0.8301782 0.043552589 0.86479461 0.08056701 0.0088507086
1926800000 -0.014985394 0.0092786662 -0.43405744 -0.74963826 0.24863188 0.83061367 0.063711978 -0.03063591
1934287500 -0.009050821 0.022873029 -0.58992213 -0.63105428 0.43960589 0.747123 0.032456756 -0.046208899
1941775000 0.010930752 0.019293468 -0.71779287 -0.48342547 0.60381603 0.62060666 0.0078744898 -0.041101024
1949262500 0.017466117 -0.0065745641 -0.80888838 -0.30800286 0.73225391 0.45895374 -0.0056462698 -0.032486271
1956750000 -0.0059327716 -0.027847985 -0.85590184 -0.11541866 0.81823403 0.27197644 -0.016571667 -0.02541416
1964237500 -0.039245807 -0.015893778 -0.85808086 0.07860782 0.85882592 0.07127472 -0.030379392 -0.011172567
1971725000 -0.046192877 0.023357606 -0.81924802 0.26719302 0.8514232 -0.13364509 -0.033566784 0.017718742
1979212500 -0.01159372 0.053335197 -0.74042529 0.44629094 0.79690564 -0.33146486 -0.011429084 0.045538254
1986700000 0.037815016 0.040961377 -0.61878353 0.60399878 0.69448292 -0.51215643 0.031958748 0.047994018
1994187500 0.057476904 -0.0071246205 -0.46230856 0.72753906 0.55401301 -0.66089135 0.066868603 0.012904909
2001675000 0.034994867 -0.051773466 -0.28644943 0.8092652 0.37944096 -0.76973289 0.063262299 -0.04125122
2009162500 -0.0055553946 -0.061941739 -0.098523192 0.85266888 0.18861054 -0.83353609 0.019720964 -0.076694787
2016650000 -0.030823834 -0.046119511 0.093746915 0.85588163 -0.01037863 -0.85452706 -0.034903824 -0.070598707
2024137500 -0.033072229 -0.031384595 0.28528425 0.81445992 -0.21113341 -0.82989889 -0.065907501 -0.03101266
2031625000 -0.033259232 -0.033379622 0.46261102 0.72971392 -0.40272358 -0.75737333 -0.061139408 0.00989627
2039112500 -0.049210899 -0.036030017 0.6149255 0.60774046 -0.57179433 -0.63944739 -0.037679717 0.028317748
2046600000 -0.070461743 -0.019562451 0.73703492 0.45427877 -0.70651644 -0.48466745 -0.022380993 0.025014963
2054087500 -0.073048063 0.014506507 0.82246321 0.27581012 -0.79944313 -0.30306444 -0.02234414 0.021358298
2061575000 -0.046790533 0.039096974 0.86500913 0.082843654 -0.84797853 -0.10660539 -0.0250421 0.03026526
2069062500 -0.013869841 0.033347156 0.86102164 -0.11610996 -0.84849268 0.096842073 -0.015272654 0.043691628
2076550000 -0.0025456222 0.0067554736 0.81257325 -0.30699179 -0.80112386 0.29461682 0.0048351754 0.045837611
2084037500 -0.017310122 -0.011540213 0.72256309 -0.48236892 -0.70917243 0.47557241 0.019280661 0.03200471
2091525000 -0.038078565 -0.005822822 0.59548533 -0.63341808 -0.576226 0.62975693 0.017162709 0.015624253
2099012500 -0.039481908 0.014255811 0.43736073 -0.75160784 -0.41060317 0.74761891 0.0053980928 0.011742548
2106500000 -0.023164241 0.024122775 0.25677237 -0.83223438 -0.22178219 0.82302588 0.00055123231 0.021500098
2113987500 -0.0080952663 0.015634904 0.062825993 -0.87066728 -0.021417417 0.85176849 0.010966672 0.030300578
2121475000 -0.0082320785 0.0015140871 -0.13670565 -0.86226618 0.18078095 0.83178896 0.027994838 0.024463916
2128962500 -0.019194134 -0.0015864659 -0.32833797 -0.80840397 0.37246439 0.76620299 0.035119407 0.0054892283
2136450000 -0.023720859 0.0074426038 -0.50167543 -0.71363467 0.54239225 0.65592128 0.025487008 -0.013372459
2143937500 -0.017080972 0.016225288 -0.65083545 -0.58126497 0.68326902 0.50915068 0.006452831 -0.018765291
2151425000 -0.0042516086 0.015615066 -0.76504028 -0.41916159 0.78402346 0.33297482 -0.0080460934 -0.010800492
2158912500 0.0041073617 0.0082124462 -0.8399384 -0.23547296 0.84069192 0.13787766 -0.011696651 0.0017515931
2166400000 0.0070823482 1.8886933e-005 -0.87142581 -0.038522866 0.84882802 -0.065354489 -0.0071773916 0.010548658
2173887500 0.0084887389 -0.008230973 -0.85728866 0.15935844 0.80937797 -0.26435158 0.00021229329 0.013094353
2181375000 0.0073206043 -0.018055467 -0.79887855 0.34857562 0.72416991 -0.44936028 0.0077175028 0.011468246
2188862500 0.00039182184 -0.026504004 -0.69901061 0.52008951 0.59696722 -0.60845166 0.013186055 0.0049054655
2196350000 -0.0097863702 -0.027430626 -0.5627709 0.66376877 0.43611714 -0.73256242 0.015528618 -0.0058073872
2203837500 -0.013479884 -0.020470513 -0.39798692 0.77397943 0.25040871 -0.81434768 0.0097438935 -0.017975964
2211325000 -0.0051971367 -0.017429728 -0.21221632 0.84362549 0.05022379 -0.8513397 -0.0024774969 -0.024689706
2218812500 0.0048147142 -0.030295331 -0.015792927 0.86748642 -0.15214574 -0.83866113 -0.015962597 -0.023682659
2226300000 -0.0023216645 -0.054303247 0.18107204 0.84744555 -0.34712005 -0.77865928 -0.02494489 -0.01889129
2233787500 -0.032537326 -0.065807045 0.36611885 0.78310817 -0.52119154 -0.674757 -0.031530693 -0.015333417
2241275000 -0.063819446 -0.050067183 0.53187764 0.68045747 -0.66590905 -0.53203303 -0.042742129 -0.011949428
2248762500 -0.071593456 -0.016204657 0.67087448 0.54309517 -0.77205175 -0.35918099 -0.057226051 0.00036886623
2256250000 -0.052359276 0.0066072899 0.77732265 0.37725073 -0.83568496 -0.16881894 -0.064860053 0.026379099
2263737500 -0.029654427 0.0034717724 0.84295362 0.19045889 -0.85322303 0.032472063 -0.053132907 0.057508882
2271225000 -0.027843747 -0.012776588 0.8628639 -0.0055450029 -0.82365495 0.23383772 -0.020271193 0.07498356
2278712500 -0.043638464 -0.014579093 0.83764499 -0.19947253 -0.7457636 0.42347336 0.015358842 0.065803751
2286200000 -0.050913598 0.006038513 0.77173853 -0.38256282 -0.62366652 0.58890265 0.033750229 0.037050743
2293687500 -0.032256868 0.026764076 0.66582417 -0.54709309 -0.46653244 0.72032315 0.027033858 0.010296097
2301175000 -9.7411423e-005 0.021357659 0.52426517 -0.68510115 -0.28291222 0.81046617 0.010709072 0.0017754971
2308662500 0.012133365 -0.0097611342 0.35420889 -0.78544682 -0.083535619 0.85413802 0.0036346943 0.0058475826
2316150000 -0.00707193 -0.03508151 0.16865087 -0.84373093 0.12158568 0.85024536 0.0065720812 0.005773461
2323637500 -0.037044805 -0.029854128 -0.026034527 -0.86011791 0.31908303 0.79742104 0.0065263771 -0.0063072145
2331125000 -0.045057982 -0.0024636125 -0.2201871 -0.83163017 0.49838537 0.69986439 -0.0099271191 -0.017311679
2338612500 -0.025566256 0.016942823 -0.40259659 -0.76081467 0.65107501 0.56236672 -0.034830503 -0.0077069728
2346100000 -0.0012853951 0.010557419 -0.56385505 -0.64870942 0.76556814 0.39264736 -0.044520207 0.022726595
2353587500 0.002845125 -0.0095233498 -0.69512701 -0.50448108 0.83697903 0.19952497 -0.02346761 0.052888241
2361075000 -0.0090894019 -0.015179293 -0.79050153 -0.33447686 0.86012977 -0.0051042102 0.015884846 0.055300225
2368562500 -0.012410699 -0.003184245 -0.84609598 -0.1469357 0.83520174 -0.20805681 0.045058243 0.026389644
2376050000 0.0057383119 0.0050665531 -0.85669154 0.047891885 0.76188737 -0.39979723 0.042521711 -0.012957674
2383537500 0.029302251 -0.011384217 -0.82189786 0.24015538 0.64573967 -0.56940562 0.017041421 -0.035343636
2391025000 0.030290227 -0.045952089 -0.74684572 0.41784632 0.49270308 -0.70593435 -0.0090307705 -0.033098172
2398512500 0.0020279766 -0.068898104 -0.63319737 0.57505155 0.3117536 -0.80249631 -0.019483913 -0.022486972
2406000000 -0.0302977 -0.05959012 -0.48727494 0.7038818 0.11160205 -0.85319752 -0.021612987 -0.019674944
2413487500 -0.037921876 -0.032043152 -0.31540895 0.79611069 -0.092774004 -0.85532612 -0.02983949 -0.022591833
2420975000 -0.019478125 -0.017614048 -0.12687014 0.84640986 -0.2931537 -0.80973542 -0.047961649 -0.016129235
2428462500 -0.0012270804 -0.030200724 0.067327693 0.85141492 -0.477148 -0.71840423 -0.058132544 0.0074516446
2435950000 -0.006808578 -0.053679831 0.25782177 0.8132599 -0.63476461 -0.58426946 -0.044772364 0.033570167
2443437500 -0.032812156 -0.061661348 0.43336552 0.73514646 -0.7557441 -0.41608319 -0.015744438 0.037552994
2450925000 -0.054511048 -0.044348668 0.58869559 0.61834401 -0.83374906 -0.22361916 0.0034096846 0.014368568
2458412500 -0.053861614 -0.01881028 0.71332633 0.468364 -0.86221105 -0.020065574 -0.0087527717 -0.013558983
2465900000 -0.036755852 -0.0060057645 0.8001231 0.29491171 -0.84109759 0.18584169 -0.041327231 -0.016173089
2473387500 -0.022188134 -0.01024343 0.84498912 0.10620568 -0.77234477 0.37959567 -0.062462542 0.013075415
2480875000 -0.01936527 -0.019638224 0.84590214 -0.087784357 -0.65947384 0.55015028 -0.049288385 0.049142472
2488362500 -0.024813652 -0.022803882 0.80292511 -0.27620268 -0.51110858 0.6892727 -0.012042244 0.060331948
2495850000 -0.029253542 -0.018639799 0.71758199 -0.44988516 -0.33435434 0.79040068 0.017795302 0.037621427
2503337500 -0.028576285 -0.012834508 0.59757268 -0.5992434 -0.137979 0.84789246 0.017197844 0.0042312248
2510825000 -0.024989661 -0.0075913523 0.4464168 -0.71802253 0.067852736 0.85805058 -0.0072984663 -0.0091282157
2518312500 -0.018447852 -0.0024856613 0.27253366 -0.79884183 0.26914316 0.81686258 -0.025203131 0.0041954713
2525800000 -0.0075604199 -0.000758746 0.084629744 -0.83948368 0.4554275 0.73011321 -0.018153697 0.021977236
2533287500 0.0040802388 -0.0073882807 -0.10591084 -0.8357867 0.61647362 0.60143775 0.0024570927 0.020448992
2540775000 0.0073666014 -0.021718755 -0.29279947 -0.78914899 0.7409851 0.43731052 0.010042615 -0.0019714718
2548262500 -0.0014146329 -0.032757077 -0.46253428 -0.70106345 0.82360983 0.24965952 -0.0078609763 -0.023173762
2555750000 -0.014779809 -0.029588161 -0.60837173 -0.57892811 0.8584832 0.046910875 -0.03765421 -0.018327573
2563237500 -0.016381508 -0.017107464 -0.72374135 -0.42685536 0.84511644 -0.15737699 -0.051501911 0.010645039
2570725000 -0.0048327367 -0.009253432 -0.80084091 -0.25207251 0.78403205 -0.35198554 -0.034596257 0.04072782
2578212500 0.0071912603 -0.016633268 -0.83722669 -0.064309739 0.67799056 -0.52827144 0.0011587421 0.045669768
2585700000 0.0063091316 -0.02876813 -0.82815504 0.12607229 0.53292096 -0.67348111 0.028881725 0.021433931
2593187500 -0.0034083449 -0.029482255 -0.77814186 0.30911618 0.35825387 -0.77916676 0.030110203 -0.015478665
2600675000 -0.0035148659 -0.018038353 -0.68767667 0.47680444 0.16431122 -0.84118879 0.0061758435 -0.042401709
2608162500 0.014326653 -0.013349818 -0.56127971 0.61884832 -0.039216496 -0.85631263 -0.026268484 -0.046459973
2615650000 0.03291614 -0.032713056 -0.40720004 0.72745603 -0.24067995 -0.82329804 -0.051688697 -0.03126777
2623137500 0.02599941 -0.065732069 -0.23461543 0.79891831 -0.42897707 -0.74278599 -0.061677936 -0.0067932736
2630625000 -0.0096111242 -0.081360765 -0.050532844 0.8327629 -0.59246552 -0.61985195 -0.055770546 0.015331559
2638112500 -0.045656599 -0.058899228 0.13890088 0.82406187 -0.72250646 -0.46198264 -0.039952423 0.027387464
2645600000 -0.045839664 -0.016119253 0.32333761 0.77265263 -0.81215346 -0.27713025 -0.023516297 0.028129958
2653087500 -0.0091132643 0.0059135095 0.48938391 0.67944342 -0.85481977 -0.075483225 -0.013482624 0.018633502
2660575000 0.026317101 -0.015382838 0.63076675 0.55048978 -0.84746051 0.12826818 -0.013344546 0.0079043778
2668062500 0.023394343 -0.05650717 0.73762888 0.39306954 -0.79185975 0.32676581 -0.019786648 0.0044017308
2675550000 -0.015205208 -0.072257102 0.80664307 0.21599253 -0.69174951 0.50394583 -0.023471082 0.0076420824
2683037500 -0.048912685 -0.044938061 0.83366215 0.027592368 -0.55177313 0.65364778 -0.020934356 0.01254022
2690525000 -0.042167589 -0.00069024751 0.81739652 -0.16035692 -0.38174972 0.76548904 -0.013735508 0.011535586
2698012500 -0.001462327 0.01701016 0.76027924 -0.34049788 -0.18897386 0.83337408 -0.011442585 0.0052587497
2705500000 0.03286422 -0.0065719541 0.66232955 -0.50342345 0.0140132 0.85340101 -0.014857667 -6.8559275e-005
2712987500 0.031562168 -0.043502182 0.53242856 -0.63866746 0.21693298 0.82485157 -0.01919589 0.00084341643
2720475000 0.0031751583 -0.057240199 0.37455001 -0.74130946 0.40545022 0.74952775 -0.01849428 0.002841637
2727962500 -0.018503452 -0.040361188 0.19841658 -0.80626237 0.57079607 0.63160324 -0.015060111 -0.00027582419
2735450000 -0.012331809 -0.017883908 0.010996064 -0.83057356 0.70376909 0.47808444 -0.018242816 -0.0073420922
2742937500 0.0086583467 -0.014464726 -0.17694364 -0.81122828 0.79560328 0.29680261 -0.030427035 -0.0096817687
2750425000 0.019121157 -0.030391935 -0.35494947 -0.7501148 0.84238261 0.10005829 -0.042056885 0.0025754045
2757912500 0.0099513512 -0.043995347 -0.51403809 -0.65009183 0.84103519 -0.10155086 -0.038753126 0.022867778
2765400000 -0.0041019171 -0.040393025 -0.64880037 -0.51704091 0.79238147 -0.29807717 -0.01777022 0.034888871
2772887500 -0.0044144001 -0.027677905 -0.7479853 -0.35717362 0.69965076 -0.47642079 0.0058421781 0.024422888
2780375000 0.0075552431 -0.023561282 -0.80890572 -0.17791964 0.56767106 -0.62757885 0.011598164 0.00093931571
2787862500 0.015378979 -0.03337032 -0.82806593 0.010215821 0.40318972 -0.74567145 -0.0037565986 -0.015027825
2795350000 0.0088163074 -0.044915669 -0.80313903 0.19728762 0.21523064 -0.81966394 -0.021404156 -0.0083725555
2802837500 -0.0051452103 -0.043422919 -0.73569381 0.37377417 0.014262687 -0.84652799 -0.019956438 0.0091276234
2810325000 -0.011003694 -0.030202948 -0.63137615 0.52866066 -0.18694824 -0.82638222 0.0013776401 0.014499093
2817812500 -0.0020977794 -0.017378625 -0.49500114 0.65536761 -0.37782606 -0.75780582 0.019951886 -0.0067974133
2825300000 0.014317989 -0.017202338 -0.33422035 0.74919701 -0.5466885 -0.644373 0.010719151 -0.038591482
2832787500 0.02474823 -0.030357281 -0.15774116 0.80378151 -0.68142027 -0.496537 -0.023651687 -0.051879242
2840275000 0.02152865 -0.048331771 0.026766038 0.81691444 -0.77872181 -0.32201186 -0.055399969 -0.031565782
2847762500 0.0052910438 -0.058790192 0.20813936 0.78949153 -0.83312416 -0.13054797 -0.057965402 0.0048977258
2855250000 -0.017952282 -0.055521831 0.37847218 0.72401464 -0.84179276 0.070719726 -0.031971663 0.025691487
2862737500 -0.034796774 -0.033376899 0.53182888 0.62180161 -0.80053997 0.26775211 -0.0043267449 0.0168656
2870225000 -0.0321193 -0.00086550653 0.65913957 0.48727638 -0.71354109 0.45093018 0.00023129645 -0.0059842379
2877712500 -0.0032460785 0.023395376 0.75344729 0.32684487 -0.58586538 0.60760164 -0.014701497 -0.014499838
2885200000 0.037546765 0.018405648 0.80807328 0.14885628 -0.42529562 0.72962284 -0.022970444 -0.0025499158
2892687500 0.061911914 -0.018308667 0.82082409 -0.036555052 -0.23881803 0.80845958 -0.0091850711 0.0093654832
2900175000 0.047921229 -0.058813833 0.79185998 -0.21933354 -0.04036057 0.84098929 0.013991103 -0.0032380975
2907662500 0.0064138137 -0.071233213 0.72480512 -0.39276704 0.15962347 0.82557297 0.015314064 -0.037489116
2915150000 -0.025032898 -0.04353584 0.61877859 -0.54812837 0.34934032 0.76332122 -0.017764986 -0.062668428
2922637500 -0.016460184 -0.0039794534 0.47846484 -0.67544681 0.51973367 0.65931833 -0.062716857 -0.049732614
2930125000 0.020934463 0.0071834088 0.31183589 -0.76476705 0.66018629 0.51700479 -0.080684036 -0.0036038379
2937612500 0.046522696 -0.019883569 0.13185146 -0.81433368 0.76386321 0.34624752 -0.054691467 0.038155153
2945100000 0.034258518 -0.055807482 -0.054480556 -0.82418257 0.82473522 0.15622663 -0.0079107573 0.042155568
2952587500 -0.0038864443 -0.060702305 -0.23827307 -0.79241884 0.83835298 -0.044523358 0.018410839 0.0092190802
2960075000 -0.026386375 -0.029124646 -0.41124892 -0.71874535 0.80310214 -0.24237758 0.0051019238 -0.025679806
2967562500 -0.010680452 0.0048589334 -0.56322104 -0.60892826 0.72153825 -0.42544332 -0.028917089 -0.028973157
2975050000 0.024624147 0.0068722349 -0.68856663 -0.46595255 0.60064602 -0.58325541 -0.045318477 -2.0130674e-006
2982537500 0.039455716 -0.021969339 -0.77626818 -0.29834652 0.44511715 -0.7081477 -0.026255686 0.029585032
2990025000 0.018995201 -0.044073831 -0.82339829 -0.11478692 0.26396096 -0.79302049 0.010540983 0.029236842
2997512500 -0.0094552413 -0.031763516 -0.8286503 0.074159689 0.068818927 -0.83133674 0.033521641 -0.0015410078
3005000000 -0.0088378806 0.0031370386 -0.79064208 0.26000133 -0.12999888 -0.82304019 0.023126923 -0.037160885
3012487500 0.025566965 0.018360734 -0.71061724 0.43375871 -0.31949183 -0.76855773 -0.0089662587 -0.050389733
3019975000 0.057563692 -0.0066919634 -0.59159958 0.58245188 -0.49050528 -0.67173636 -0.035336833 -0.035501737
3027462500 0.049884085 -0.048397809 -0.44458306 0.69902706 -0.63634527 -0.53694314 -0.039177012 -0.010325264
3034950000 0.0071469974 -0.063169941 -0.27733439 0.78051353 -0.74525172 -0.37129691 -0.025697753 0.0063131829
3042437500 -0.030819578 -0.032039102 -0.094445311 0.82319206 -0.8108952 -0.18450242 -0.0094375098 0.0072020753
3049925000 -0.024755439 0.019506399 0.095354117 0.82315618 -0.83097732 0.012166827 -0.00019379811 0.00037967332
3057412500 0.020543037 0.04502894 0.27963036 0.77871257 -0.80402499 0.20921797 0.0029207072 -0.005060426
3064900000 0.067416616 0.025277743 0.44660944 0.69431567 -0.73057973 0.39326084 0.0064034034 -0.0078614717
3072387500 0.079044998 -0.02015638 0.59086066 0.57667011 -0.61712217 0.55468309 0.01321926 -0.01338166
3079875000 0.054077085 -0.052377179 0.70626593 0.42991012 -0.46856779 0.68404889 0.018171722 -0.025513116
3087362500 0.018168222 -0.051881846 0.78609282 0.25847781 -0.29347992 0.7746684 0.015481263 -0.042387523
3094850000 0.0017144686 -0.026013274 0.82545656 0.073044911 -0.10254953 0.8221485 0.0024958225 -0.057614572
3102337500 0.012089796 -0.0017413612 0.81821704 -0.11540529 0.094673723 0.82305467 -0.018854825 -0.062960073
3109825000 0.036034863 0.0035135634 0.76970083 -0.29739389 0.28707731 0.77621377 -0.041608762 -0.05412668
3117312500 0.054864131 -0.011215688 0.68145657 -0.46161968 0.4627673 0.6863181 -0.054735579 -0.033116851
3124800000 0.056807682 -0.035047598 0.55979437 -0.6033985 0.61173576 0.55758268 -0.050593149 -0.0088256998
3132287500 0.042271152 -0.053689178 0.40934685 -0.71346182 0.72692865 0.39702302 -0.033007473 0.0049313782
3139775000 0.020158786 -0.059279758 0.23796336 -0.7872135 0.80030787 0.21383172 -0.013258222 0.0011516684
3147262500 0.00044562909 -0.050714605 0.054922309 -0.82101816 0.82872576 0.016615843 -0.0073707001 -0.015332188
3154750000 -0.0087874904 -0.035122223 -0.13171865 -0.8131249 0.80805492 -0.1796883 -0.019660657 -0.025948653
3162237500 -0.0095736785 -0.022139482 -0.310839 -0.76320636 0.74100506 -0.36501381 -0.035422612 -0.017863987
3169725000 -0.0088873999 -0.013633306 -0.4742122 -0.6733256 0.63432246 -0.53006035 -0.035873301 0.0043421942
3177212500 -0.010116154 -0.0032223612 -0.61452776 -0.54878688 0.49138165 -0.66552734 -0.015440743 0.019235581
3184700000 -0.005846181 0.013574981 -0.72243994 -0.39609131 0.31902629 -0.76292229 0.010977325 0.0097945351
3192187500 0.014458168 0.028302059 -0.79313034 -0.22262155 0.12798478 -0.81654298 0.01845883 -0.017148847
3199675000 0.044614632 0.02318543 -0.82297748 -0.037584797 -0.068236321 -0.82297802 0.00032820762 -0.03760156
3207162500 0.062116116 -0.0088796662 -0.81112003 0.14794524 -0.26000682 -0.78444827 -0.025781743 -0.031959336
3214650000 0.043736953 -0.04657232 -0.75657737 0.32510769 -0.43974903 -0.70036376 -0.033641767 -0.0054964242
3222137500 -0.0030018233 -0.054845218 -0.66490716 0.48813817 -0.59383631 -0.57625592 -0.01546335 0.015237424
3229625000 -0.040770635 -0.017696012 -0.53750932 0.62536514 -0.71267778 -0.41692257 0.011836149 0.011556189
3237112500 -0.033321723 0.039090782 -0.38215727 0.7299124 -0.79067653 -0.2364151 0.022810714 -0.010184784
3244600000 0.017859237 0.066742487 -0.20809878 0.79672837 -0.82435858 -0.043019764 0.013700802 -0.026193291
3252087500 0.068412878 0.043674316 -0.024468662 0.82394022 -0.80974853 0.1539465 0.0029329236 -0.023119077
3259575000 0.076615706 -0.0065498352 0.16292763 0.80994266 -0.74984753 0.34086302 0.0090127448 -0.015032922
3267062500 0.041833345 -0.03593662 0.34310406 0.75219142 -0.64635241 0.50715554 0.026069915 -0.024064599
3274550000 0.0057725278 -0.019488292 0.50533682 0.65315527 -0.50929886 0.6444872 0.028353594 -0.053815316
3282037500 0.0062413458 0.017179608 0.6378091 0.52003181 -0.34365883 0.74809039 -0.00082698773 -0.079002231
3289525000 0.039697655 0.030091956 0.73801625 0.3636595 -0.15710302 0.81004673 -0.045281168 -0.070252784
3297012500 0.065315433 0.0052448334 0.80093449 0.18894316 0.040232297 0.82383698 -0.065447666 -0.027201256
3304500000 0.054504696 -0.028431779 0.82451284 0.0038365717 0.23434086 0.78990698 -0.042059831 0.014702173
3311987500 0.020443417 -0.032134194 0.80503768 -0.18328913 0.4144477 0.71173429 0.005129979 0.016774727
3319475000 0.0057092039 -0.0029238297 0.74245787 -0.36096799 0.57261217 0.5933429 0.031756099 -0.02158935
3326962500 0.029709008 0.023161907 0.64189208 -0.51893574 0.6975618 0.43864679 0.011144601 -0.064870961
3334450000 0.068563849 0.0095328577 0.50695771 -0.6524058 0.77858341 0.25902408 -0.038091585 -0.070663586
3341937500 0.077842183 -0.039248228 0.34385666 -0.74880588 0.81454045 0.069052629 -0.071532048 -0.0335638
3349425000 0.039611924 -0.079608776 0.16469795 -0.80445504 0.80747718 -0.12188635 -0.061878093 0.012000307
3356912500 -0.019549588 -0.075548515 -0.018746741 -0.81885272 0.75870413 -0.30865216 -0.025267947 0.029130295
3364400000 -0.054232683 -0.029535145 -0.2010334 -0.7944923 0.66518646 -0.48164248 0.0010131981 0.012151616
3371887500 -0.043212675 0.022447061 -0.37688714 -0.73076421 0.5317536 -0.62616247 -0.0037657488 -0.0086965598
3379375000 -0.0035723231 0.04265843 -0.534334 -0.62630087 0.36860186 -0.73293257 -0.021457858 -0.0049151685
3386862500 0.027460033 0.026516156 -0.66145337 -0.48502624 0.1855302 -0.79938245 -0.019743152 0.019184534
3394350000 0.029639075 -0.00027580705 -0.75167853 -0.32187885 -0.009510491 -0.82193285 0.0093636643 0.032082424
3401837500 0.010196127 -0.011311586 -0.80286139 -0.14472362 -0.20520678 -0.79585999 0.041619521 0.011522821
3409325000 -0.0080071129 -0.00035206738 -0.81383938 0.039942995 -0.38725141 -0.72303212 0.04239352 -0.029654266
3416812500 -0.0087410025 0.020765316 -0.78287852 0.22264439 -0.54617101 -0.61117458 0.0067958296 -0.054089986
3424300000 0.007229032 0.033477657 -0.71098512 0.39279944 -0.67554033 -0.46509239 -0.034202736 -0.03560492
3431787500 0.024887083 0.028688148 -0.6040957 0.54146177 -0.76744723 -0.29046652 -0.040997602 0.011539126
3439275000 0.031177118 0.013644801 -0.46736452 0.66322505 -0.8126865 -0.099726021 -0.0036872679 0.048098698
3446762500 0.021463858 0.0020307854 -0.30680811 0.75160503 -0.81104809 0.095023245 0.051315062 0.040367391
3454250000 0.0057921903 0.0052753501 -0.12905549 0.80183381 -0.7656039 0.28173497 0.084333979 -0.0065848543
3461737500 0.00092592544 0.023174908 0.055443659 0.80945265 -0.68021649 0.45455393 0.073574834 -0.063047506
3469225000 0.015647089 0.039049525 0.23429547 0.77471405 -0.5542292 0.60324317 0.029293593 -0.095613003
3476712500 0.040700108 0.035338663 0.40084511 0.70419371 -0.39474866 0.71791774 -0.02253201 -0.09051054
3484200000 0.051325653 0.011044718 0.55085462 0.59831852 -0.21238527 0.7905491 -0.055319849 -0.056828137
3491687500 0.036009993 -0.012360449 0.67441076 0.45790109 -0.020116296 0.81676441 -0.058751836 -0.013939043
3499175000 0.0067190179 -0.0070696683 0.75961328 0.29212281 0.17281258 0.79891068 -0.03671762 0.01847719
3506662500 -0.00011008498 0.024909595 0.80400717 0.11418224 0.35713109 0.73728865 -0.00065268297 0.028700406
3514150000 0.031822141 0.050372906 0.81118447 -0.069549404 0.52399224 0.6319983 0.032844495 0.011565511
3521637500 0.080703266 0.031731136 0.77720982 -0.25401956 0.65986246 0.48764861 0.044520386 -0.023704804
3529125000 0.096515849 -0.030055391 0.69531584 -0.42761427 0.75506389 0.3149364 0.027893111 -0.058205675
3536612500 0.05320701 -0.086187154 0.57424116 -0.5696013 0.80397779 0.12763935 -0.0080068484 -0.071927465
3544100000 -0.020132387 -0.08871343 0.43269572 -0.67695969 0.80922705 -0.064311624 -0.043917071 -0.059106283
3551587500 -0.067835197 -0.036258422 0.27670833 -0.75668448 0.77327543 -0.25129056 -0.064018838 -0.029150393
3559075000 -0.057494774 0.027980441 0.10118934 -0.80677319 0.69463873 -0.42678457 -0.065284774 0.0046129893
3566562500 -0.0063073379 0.050963208 -0.089551844 -0.81273711 0.57504028 -0.58121908 -0.051760353 0.032715697
3574050000 0.031014096 0.023074834 -0.27416903 -0.76737958 0.42109045 -0.70205146 -0.027871784 0.053632364
3581537500 0.022692874 -0.015897088 -0.43880031 -0.68399572 0.24005166 -0.78241587 0.0053235507 0.062566891
3589025000 -0.011833569 -0.022823766 -0.58015394 -0.56954354 0.046934791 -0.81524003 0.042827912 0.051918287
3596512500 -0.031361498 0.0035637135 -0.6955204 -0.42497945 -0.14605916 -0.80227256 0.068592764 0.017462468
3604000000 -0.017902005 0.028266301 -0.77529013 -0.25506216 -0.33027536 -0.7458297 0.063499823 -0.027327023
3611487500 0.004747713 0.024424991 -0.81205773 -0.072135195 -0.49936697 -0.64816254 0.027470903 -0.054056242
3618975000 0.004362822 0.0036432676 -0.80686456 0.1136461 -0.64019185 -0.50915992 -0.014991643 -0.041976769
3626462500 -0.019175235 0.00043444653 -0.75994259 0.2925069 -0.74220371 -0.34097216 -0.02809797 -0.00081800233
3633950000 -0.033491563 0.02791599 -0.67257506 0.45760784 -0.79831147 -0.1564063 -0.0001610327 0.03175192
3641437500 -0.011738152 0.059423298 -0.55094683 0.59569317 -0.81262815 0.034207761 0.042890515 0.025086166
3648925000 0.031910308 0.057738177 -0.40295818 0.70427305 -0.78386205 0.22571506 0.061214447 -0.015688868
3656412500 0.056350805 0.017170638 -0.23465282 0.77822787 -0.70777398 0.40735161 0.03656397 -0.053462747
3663900000 0.034770634 -0.028194921 -0.050690625 0.81182331 -0.58969545 0.56319505 -0.0062807142 -0.052841902
3671387500 -0.016281873 -0.036313824 0.1358466 0.79959214 -0.43889949 0.68514562 -0.027753547 -0.018169556
3678875000 -0.052631274 0.0023102683 0.31121546 0.74607706 -0.26580346 0.76968712 -0.0093570277 0.015238403
3686362500 -0.043962456 0.055675849 0.4703787 0.65663511 -0.075713865 0.81212103 0.026090145 0.01570826
3693850000 0.0036866236 0.084731959 0.60612142 0.53365242 0.12053291 0.80545169 0.042992167 -0.014288868
3701337500 0.058108944 0.069579102 0.71144867 0.38136706 0.30802774 0.75155622 0.027498869 -0.041333012
3708825000 0.087009966 0.021183245 0.77646923 0.20902184 0.47411147 0.6571123 0.0018786589 -0.042182289
3716312500 0.077886336 -0.031472906 0.79995519 0.03052271 0.6153096 0.52774549 -0.0080152331 -0.026786871
3723800000 0.039766375 -0.06609793 0.78488278 -0.1464874 0.72367209 0.36779732 4.3356438e-005 -0.02213872
3731287500 -0.007521715 -0.069960371 0.73503274 -0.3164179 0.7893464 0.18621507 -0.00074493629 -0.036689203
3738775000 -0.044298511 -0.045975562 0.64900434 -0.47474501 0.8104288 -0.0039640223 -0.028137954 -0.047150798
3746262500 -0.053825472 -0.00879589 0.52647495 -0.61190963 0.78923553 -0.19367066 -0.065428942 -0.023860425
3753750000 -0.038841594 0.01938081 0.37302905 -0.71694815 0.72379678 -0.37730065 -0.072743855 0.032776974
3761237500 -0.014594015 0.024885487 0.20016149 -0.78153956 0.61320424 -0.54279494 -0.028297279 0.080341101
3768725000 -0.00077947736 0.012949261 0.018636955 -0.80619222 0.46329093 -0.67146826 0.040187191 0.07547313
3776212500 -0.002523321 0.0011494986 -0.16278219 -0.79019833 0.29097116 -0.75918591 0.077964798 0.019999841
3783700000 -0.0093337344 -0.00060123368 -0.33685488 -0.73354673 0.10363032 -0.80521494 0.055860732 -0.040989276
3791187500 -0.0078573395 0.00043778625 -0.49385506 -0.63863766 -0.090755433 -0.80975491 -0.0038374353 -0.056502394
3798675000 -0.0057287435 -0.0075633707 -0.62559003 -0.51003349 -0.28142631 -0.76322842 -0.047173768 -0.015743745
3806162500 -0.016147777 -0.020013789 -0.72536594 -0.35575813 -0.45305893 -0.67263991 -0.036825519 0.041033424
3813650000 -0.042208929 -0.017103668 -0.78699172 -0.18186019 -0.59681261 -0.54605603 0.013115947 0.062856182
3821137500 -0.059320144 0.012852567 -0.80624485 0.00060754665 -0.70856237 -0.39115521 0.057998788 0.038319234
3828625000 -0.04244037 0.050384317 -0.78647333 0.18068534 -0.7823289 -0.21307075 0.065066084 -0.0067518055
3836112500 0.0040932163 0.059198115 -0.72774631 0.35367143 -0.8112607 -0.020628294 0.040044501 -0.033998441
3843600000 0.041519605 0.022535564 -0.6308952 0.51153296 -0.79226172 0.17272688 0.012596119 -0.033343222
3851087500 0.028763838 -0.031996068 -0.49527773 0.64347374 -0.72832274 0.3544521 0.0027607477 -0.021048913
3858575000 -0.026327061 -0.050873779 -0.33377537 0.73601371 -0.62265646 0.51621205 0.0031388006 -0.016532008
3866062500 -0.073837399 -0.012776946 -0.16161302 0.78958547 -0.48307762 0.64867753 -0.0022076697 -0.017584886
3873550000 -0.067857206 0.05040995 0.018359076 0.80749756 -0.31627306 0.74364793 -0.014309032 -0.01050269
3881037500 -0.011097863 0.08168342 0.20263524 0.78401613 -0.13222042 0.79723543 -0.017702594 0.010879294
3888525000 0.047457252 0.053893428 0.37639067 0.71575189 0.060457554 0.80732405 0.0014721658 0.0300378
3896012500 0.057757847 -0.0050466377 0.52628005 0.60927403 0.25054044 0.7689743 0.033619508 0.026555259
3903500000 0.022749446 -0.041844275 0.64739096 0.47627783 0.42623422 0.68648493 0.053533487 -0.0044554584
3910987500 -0.017149037 -0.034606684 0.73781747 0.32077655 0.57471317 0.56565797 0.043809932 -0.043749407
3918475000 -0.024496725 -0.0063180425 0.79503548 0.14537624 0.69077319 0.41508785 0.0069509535 -0.065469392
3925962500 -0.0051911082 0.0043352847 0.80710769 -0.039218232 0.76976204 0.24124354 -0.035351317 -0.057427224
3933450000 0.0087359427 -0.012807489 0.77730525 -0.22029161 0.80651855 0.053195335 -0.062719144 -0.025731664
3940937500 -0.0027707415 -0.034979735 0.70774186 -0.38977736 0.79672301 -0.13930032 -0.065862156 0.013890997
3948425000 -0.02746523 -0.035847407 0.60293037 -0.54001188 0.74142224 -0.32518038 -0.047174159 0.047494996
3955912500 -0.040213227 -0.01755362 0.46401069 -0.6653921 0.64342701 -0.49155998 -0.012844341 0.062959559
3963400000 -0.032359306 -0.0021953539 0.29924983 -0.75260544 0.5089187 -0.63012326 0.02331516 0.054854937
3970887500 -0.02043888 -0.0044481754 0.12043571 -0.7986145 0.34452581 -0.73266029 0.044477064 0.024460608
3978375000 -0.021485237 -0.015496738 -0.062784508 -0.80334812 0.1606995 -0.79396689 0.036937129 -0.011537284
3985862500 -0.03287778 -0.016969094 -0.24236758 -0.76778412 -0.032628443 -0.80865359 0.0044310968 -0.029048655
3993350000 -0.04160082 -0.0058219018 -0.40778881 -0.69154871 -0.22397076 -0.77683645 -0.028843898 -0.013824572
4000837500 -0.036043733 0.0073110503 -0.55097604 -0.58235264 -0.40032536 -0.70025587 -0.036301989 0.021962762
4008325000 -0.02358944 0.01076211 -0.66689003 -0.44262242 -0.55273139 -0.5863294 -0.012003265 0.047160186
4015812500 -0.015906487 0.004675637 -0.7471717 -0.28272599 -0.67647958 -0.43814695 0.019572699 0.041265901
4023300000 -0.014886989 -0.002802847 -0.79295915 -0.10754772 -0.76086354 -0.26530766 0.028720576 0.015642354
4030787500 -0.018018642 -0.0089800656 -0.79697198 0.072397515 -0.8027789 -0.077586658 0.012347504 0.00053428579
4038275000 -0.024469081 -0.011458007 -0.76062375 0.24980851 -0.79838008 0.11433072 -0.004722557 0.012751466
4045762500 -0.034348249 -0.0087256748 -0.68480712 0.4150553 -0.74858212 0.30060473 0.0050500776 0.034936722
4053250000 -0.042060483 0.0052166879 -0.57307702 0.55901724 -0.65343595 0.46873468 0.037261982 0.034252208
4060737500 -0.034712557 0.026882092 -0.43414161 0.67378026 -0.52286023 0.6095531 0.057166465 -0.0011113669
4068225000 -0.006670679 0.038434848 -0.27131405 0.75385725 -0.36393395 0.71407646 0.036822412 -0.042285584
4075712500 0.026083469 0.022441616 -0.09364976 0.79713267 -0.1867941 0.78067571 -0.01368285 -0.050478596
4083200000 0.035882659 -0.01632644 0.090539962 0.79780817 0.0039553856 0.80375755 -0.04946176 -0.012785087
4090687500 0.01058409 -0.04680375 0.26781398 0.75476426 0.19538113 0.78062713 -0.038192302 0.037044901
4098175000 -0.025349913 -0.043175694 0.42983612 0.6749317 0.37359333 0.70865476 0.0090087513 0.052509841
4105662500 -0.037502382 -0.01333338 0.57256955 0.56139791 0.52858877 0.60057771 0.045219239 0.021595025
4113150000 -0.016024143 0.0073168101 0.68279356 0.41845161 0.65476823 0.45918801 0.037287001 -0.022650262
4120637500 0.0120047 -0.0065840208 0.76006538 0.25358054 0.74680102 0.29336244 -0.0014543235 -0.036876269
4128125000 0.0097783552 -0.039322168 0.79781651 0.074365519 0.79495668 0.10657393 -0.029532356 -0.012883929
4135612500 -0.023355946 -0.05176577 0.79410243 -0.10680871 0.79817754 -0.084779471 -0.020823264 0.01673341
4143100000 -0.048953675 -0.026653148 0.75110084 -0.28319344 0.75496358 -0.27078438 0.0069002863 0.017010789
4150587500 -0.035432886 0.0091281105 0.67039174 -0.44722053 0.66936505 -0.44329047 0.014624758 -0.010640217
4158075000 0.006551289 0.01135665 0.55071789 -0.58790863 0.54482323 -0.58903646 -0.012115866 -0.030254219
4165562500 0.029599514 -0.029441006 0.40269759 -0.69831431 0.38830334 -0.7001099 -0.046984784 -0.012891851
4173050000 0.0016499019 -0.073791303 0.23282914 -0.77085125 0.21387897 -0.77061963 -0.050013367 0.028499989
4180537500 -0.054731064 -0.073159181 0.05241188 -0.80247414 0.027353453 -0.7996037 -0.015125244 0.054603651
4188025000 -0.08682479 -0.023560772 -0.12962875 -0.79343438 -0.16283017 -0.78552574 0.024204135 0.037249472
4195512500 -0.064003333 0.03171397 -0.3061386 -0.74377549 -0.34654102 -0.72503221 0.028364498 -0.0033718504
4203000000 -0.0084780194 0.044616912 -0.46856144 -0.65625888 -0.50851053 -0.62046194 -0.0041861422 -0.025166368
4210487500 0.030106599 0.011794846 -0.60519719 -0.53193462 -0.63947135 -0.48254782 -0.03636935 -0.0048263888
4217975000 0.027094003 -0.029867956 -0.70839465 -0.3798027 -0.73591238 -0.31787655 -0.031611361 0.032894734
4225462500 -3.2824159e-005 -0.046436336 -0.77539879 -0.20929024 -0.79090685 -0.13434646 0.0075047421 0.044284511
4232950000 -0.017968874 -0.036319815 -0.80175465 -0.028424855 -0.80050248 0.05844029 0.038008034 0.012596493
4240437500 -0.015525862 -0.02455136 -0.78695756 0.15360458 -0.76060164 0.24580418 0.024514031 -0.033122919
4247925000 -0.0084637022 -0.028531017 -0.73093313 0.32718295 -0.68032038 0.41655815 -0.023096249 -0.048625406
4255412500 -0.014117518 -0.036260817 -0.63738847 0.48380658 -0.56471443 0.5647186 -0.064006552 -0.017670913
4262900000 -0.026775524 -0.032609455 -0.51098472 0.61451429 -0.41631767 0.68346107 -0.063508131 0.032554638
4270387500 -0.030329732 -0.016718762 -0.35901281 0.71380603 -0.24224001 0.7637735 -0.024637466 0.059960682
4277875000 -0.018945076 -0.0040304717 -0.18748254 0.7755031 -0.053874124 0.79897052 0.015885349 0.046629857
4285362500 -0.0021443544 -0.0053939768 -0.0065829447 0.79649782 0.13714764 0.78870171 0.027617231 0.011593674
4292850000 0.0073852367 -0.015541514 0.1730404 0.77727813 0.31929949 0.7335639 0.010570153 -0.013607932
4300337500 0.0086990483 -0.025298567 0.34254581 0.71642357 0.48406664 0.63772482 -0.0135927 -0.015210919
4307825000 0.007609596 -0.033470061 0.49486312 0.61948597 0.62159485 0.50537497 -0.024858788 -0.0021370286
4315312500 0.003472432 -0.042612918 0.6203835 0.49148124 0.72406411 0.34302324 -0.021695217 0.010007102
4322800000 -0.0089857075 -0.048735943 0.71443933 0.34016976 0.78536153 0.16213092 -0.014622074 0.013039114
4330287500 -0.026097566 -0.041456755 0.77147424 0.16996369 0.80148959 -0.028345563 -0.0086756339 0.010880144
4337775000 -0.030352265 -0.018887937 0.78927118 -0.0072741057 0.77246779 -0.21634321 -0.0048141917 0.0055878917
4345262500 -0.0090481564 -0.00062911154 0.765944 -0.18396839 0.6986044 -0.39374769 -0.0042801113 -0.0029355029
4352750000 0.021817718 -0.0094132926 0.70443046 -0.35153282 0.58479398 -0.54832882 -0.011977118 -0.012989949
4360237500 0.030274471 -0.044013392 0.60834056 -0.50030911 0.4385961 -0.67092609 -0.028791972 -0.01540053
4367725000 0.0025306051 -0.070478924 0.47954035 -0.62293518 0.26729399 -0.75483668 -0.044170644 -0.0030198791
4375212500 -0.036681447 -0.057868481 0.32918096 -0.71380281 0.081659742 -0.7964974 -0.044656958 0.019445177
4382700000 -0.045638181 -0.015161823 0.16178012 -0.77026534 -0.10947386 -0.79385054 -0.027272876 0.035275795
4390187500 -0.011189287 0.015099165 -0.015113878 -0.78961998 -0.29295567 -0.74665922 -0.005017024 0.031152824
4397675000 0.032737788 -0.00010071236 -0.1942461 -0.76693809 -0.46187276 -0.65616488 0.0046722051 0.014516493
4405162500 0.040099859 -0.044600822 -0.36264718 -0.70289153 -0.60486066 -0.5281418 -0.00034512096 0.001490971
4412650000 0.0044731572 -0.068192422 -0.5113197 -0.60345387 -0.71337146 -0.36953643 -0.0055541876 -7.0561437e-005
4420137500 -0.029986402 -0.044878516 -0.63511121 -0.47504231 -0.78051019 -0.1890312 -0.00092740246 -0.0021427679
4427625000 -0.021405434 -0.0022773056 -0.72749031 -0.31947508 -0.80237293 0.0015290582 0.0033720005 -0.019088628
4435112500 0.024860334 0.0095868567 -0.78110099 -0.14504185 -0.77812225 0.1926121 -0.013101756 -0.043900516
4442600000 0.058293089 -0.027805604 -0.7919746 0.034551412 -0.70816779 0.36963165 -0.054543041 -0.049577244
4450087500 0.04273684 -0.075376399 -0.76371443 0.20920381 -0.60046411 0.52637416 -0.092601225 -0.015708882
4457575000 -0.004385354 -0.084561452 -0.70069784 0.37328744 -0.46031094 0.6522308 -0.09206441 0.042175658
4465062500 -0.031818487 -0.049273886 -0.60269481 0.52504289 -0.29480949 0.74298108 -0.045215283 0.079701908
4472550000 -0.011740661 -0.012930248 -0.46924549 0.65135103 -0.11215702 0.79358113 0.013277274 0.066739731
4480037500 0.026812809 -0.019231493 -0.30802965 0.74201697 0.080015816 0.80003619 0.034670804 0.016196374
4487525000 0.033346385 -0.05833979 -0.13226669 0.79282391 0.27077389 0.75804555 0.0072885719 -0.023298008
4495012500 -0.0041695107 -0.079836048 0.050551746 0.80395573 0.44335645 0.67106146 -0.032682054 -0.016063163
4502500000 -0.044773616 -0.051624447 0.23332296 0.77403551 0.58945781 0.54537302 -0.037087288 0.020798005
4509987500 -0.038906571 0.0038115922 0.40660292 0.70088261 0.70204091 0.38984051 0.0004705278 0.036892507
4517475000 0.015047471 0.030047143 0.55717635 0.58626133 0.77394354 0.21184787 0.036964133 0.0031127317
4524962500 0.067415528 0.00018805551 0.6735813 0.44282076 0.79857463 0.020842254 0.023310186 -0.053550657
4532450000 0.073479481 -0.057710614 0.75370049 0.27828407 0.77834499 -0.16630185 -0.037649013 -0.075626649
4539937500 0.033173345 -0.093301691 0.79629904 0.10141412 0.71710336 -0.34206846 -0.093643032 -0.036238059
4547425000 -0.014757505 -0.084178321 0.79893267 -0.082332432 0.61941123 -0.50113988 -0.093835704 0.033595681
4554912500 -0.033262212 -0.046380345 0.75800467 -0.26237842 0.48535231 -0.63629192 -0.037738934 0.073025428
4562400000 -0.020726623 -0.014331056 0.67662734 -0.42711648 0.31907049 -0.73538709 0.023662955 0.050883837
4569887500 0.0033859573 -0.0032851156 0.56028134 -0.56709808 0.13356125 -0.789325 0.037927825 -0.0054676351
4577375000 0.021774206 -0.0068366118 0.41692337 -0.67608392 -0.057355579 -0.79622591 0.0047693639 -0.039336391
4584862500 0.032925062 -0.014276487 0.25395602 -0.75111943 -0.24276221 -0.75905544 -0.029869758 -0.028252099
4592350000 0.039005507 -0.023591058 0.079270571 -0.78711313 -0.41582406 -0.67929345 -0.026037887 -0.00017801249
4599837500 0.038870957 -0.032666136 -0.099083111 -0.784944 -0.56436098 -0.55987912 0.004601954 -0.0019555136
4607325000 0.034373432 -0.036601566 -0.27307397 -0.74263185 -0.67844713 -0.41044948 0.015679125 -0.041282669
4614812500 0.033290654 -0.031807136 -0.43273887 -0.66125917 -0.75346476 -0.24036784 -0.020308519 -0.078063682
4622300000 0.04403035 -0.030145273 -0.57036161 -0.54618758 -0.79091436 -0.057988588 -0.07814277 -0.069260776
4629787500 0.056914218 -0.042078163 -0.67800063 -0.40352011 -0.78552371 0.12999287 -0.10582113 -0.014421843
4637275000 0.053962484 -0.067237616 -0.74965841 -0.24222296 -0.73413771 0.3149693 -0.077234425 0.039016608
4644762500 0.028262066 -0.08056394 -0.78622359 -0.06798286 -0.63930249 0.48272142 -0.021062139 0.042912968
4652250000 0.0013287246 -0.06514518 -0.78062266 0.11167613 -0.50390202 0.62160891 0.0071022627 -0.00039834247
4659737500 0.0011118016 -0.034120213 -0.73670441 0.28410882 -0.33956385 0.72358102 -0.018136675 -0.043191724
4667225000 0.029090997 -0.021495681 -0.65290833 0.44253388 -0.155936 0.78159016 -0.067949057 -0.039312016
4674712500 0.051348679 -0.04413994 -0.53627884 0.57746667 0.033457708 0.79329419 -0.089638025 0.0086640725
4682200000 0.036015261 -0.076693818 -0.39176595 0.68331009 0.21772297 0.76168299 -0.060596615 0.055473458
4689687500 -0.0058939024 -0.075591013 -0.23006105 0.75269246 0.39059171 0.68827218 -0.0048981025 0.059945028
4697175000 -0.02816019 -0.03242325 -0.05650932 0.78679049 0.54164392 0.57727653 0.032247979 0.020821108
4704662500 0.0018023012 0.012472224 0.12297311 0.78163463 0.6626035 0.43328208 0.026211577 -0.027736753
4712150000 0.057772845 0.0079289433 0.29733211 0.73405337 0.7458052 0.26465383 -0.0080661606 -0.050215628
4719637500 0.079814799 -0.045868605 0.45515311 0.64732105 0.78786856 0.079795621 -0.038907412 -0.041778579
4727125000 0.039769311 -0.090847291 0.58875936 0.52978432 0.783822 -0.10850862 -0.048675515 -0.020765107
4734612500 -0.023268698 -0.074713536 0.69592595 0.38540018 0.73511535 -0.29158154 -0.04352472 -0.0070254793
4742100000 -0.040540315 -0.0063377693 0.76969802 0.2162687 0.64419216 -0.45684388 -0.036644757 -0.0022732685
4749587500 0.013149637 0.045274004 0.79732257 0.031205229 0.51701003 -0.59570944 -0.033475444 0.00025765641
4757075000 0.085625894 0.025804587 0.77880424 -0.14980607 0.36087951 -0.70032716 -0.028421782 0.0057940991
4764562500 0.10586973 -0.04456225 0.72369087 -0.31745183 0.18473655 -0.76485974 -0.016960127 0.009424326
4772050000 0.055739354 -0.097303748 0.63759696 -0.47196999 -0.00093371182 -0.78580767 -0.0018259138 0.0046690349
4779537500 -0.015311532 -0.079546109 0.51526755 -0.60717696 -0.18592776 -0.76378572 0.010145655 -0.0089335991
4787025000 -0.036345307 -0.0093163205 0.36083925 -0.7085256 -0.36169595 -0.69710809 0.01403714 -0.028861707
4794512500 0.0097892918 0.043874077 0.19041322 -0.76794833 -0.51610839 -0.59191257 0.0079420041 -0.051702991
4802000000 0.073841423 0.036890637 0.016194705 -0.7893883 -0.64105314 -0.4527559 -0.012164761 -0.071289048
4809487500 0.10091449 -0.011827416 -0.15946169 -0.77670461 -0.72776198 -0.28840694 -0.045088973 -0.076866321
4816975000 0.080906823 -0.050933346 -0.33356476 -0.72423935 -0.77392745 -0.10916468 -0.077893861 -0.058096886
4824462500 0.049174819 -0.051437452 -0.49241045 -0.62930346 -0.77853042 0.07360474 -0.090810768 -0.019841116
4831950000 0.042439457 -0.031718269 -0.62421685 -0.49995345 -0.7419408 0.25581062 -0.071438365 0.01697211
4839437500 0.058216982 -0.025957109 -0.71951067 -0.34371695 -0.66238469 0.42596951 -0.033065036 0.02558424
4846925000 0.067295082 -0.042130094 -0.77708983 -0.17059399 -0.5422641 0.57367325 -0.0070663616 0.0018921057
4854412500 0.054074012 -0.059929926 -0.79438633 0.00943512 -0.3887971 0.68451345 -0.014621063 -0.028065171
4861900000 0.031332243 -0.058884472 -0.7697233 0.18865813 -0.21515155 0.75572932 -0.042124618 -0.031579476
4869387500 0.01918133 -0.041778624 -0.70585459 0.35566112 -0.030657908 0.78545344 -0.05483295 -0.005120384
4876875000 0.022996476 -0.026667515 -0.60691172 0.50582117 0.15549356 0.77074569 -0.032661952 0.019633301
4884362500 0.030940983 -0.021067824 -0.4776049 0.62842864 0.33355191 0.71094269 0.0039967275 0.0092605213
4891850000 0.034925148 -0.020490289 -0.32316947 0.71903646 0.49101686 0.6121574 0.011876745 -0.031908721
4899337500 0.037829105 -0.019690553 -0.15278453 0.77327955 0.62128311 0.47924042 -0.024599003 -0.060399923
4906825000 0.042232934 -0.021233207 0.025798144 0.78817958 0.71924829 0.32030666 -0.072098814 -0.039141025
4914312500 0.04186254 -0.027832268 0.20316866 0.76142067 0.77655351 0.13896888 -0.07717184 0.020918623
4921800000 0.031872489 -0.031300593 0.37009129 0.69592023 0.78617382 -0.050964411 -0.022978103 0.062433757
4929287500 0.019750839 -0.021354331 0.51693648 0.59339535 0.74977887 -0.2356521 0.047621954 0.038904175
4936775000 0.021537516 -0.0025739693 0.63755316 0.4605521 0.67275554 -0.40595105 0.069691218 -0.034892619
4944262500 0.038593858 0.0053755082 0.72429144 0.30409428 0.5572899 -0.55457801 0.021885412 -0.094749719
4951750000 0.050852343 -0.0062559741 0.77265453 0.13209115 0.4081642 -0.67071456 -0.051009141 -0.086373314
4959237500 0.040806375 -0.020136422 0.78083378 -0.045237117 0.23721044 -0.74633211 -0.078861631 -0.0218421
4966725000 0.019425858 -0.010076478 0.74833977 -0.21843053 0.053859167 -0.77790385 -0.036082111 0.031936973
4974212500 0.020062717 0.021923933 0.67995983 -0.37794715 -0.128325 -0.76756793 0.031408764 0.019879499
4981700000 0.05661061 0.041866187 0.57872468 -0.51917797 -0.30385026 -0.71758574 0.055113513 -0.045242991
4989187500 0.098381452 0.016972288 0.44971144 -0.63638842 -0.46522146 -0.62698954 0.012135234 -0.098229662
4996675000 0.097134843 -0.037879936 0.29668996 -0.72226441 -0.60213566 -0.50012642 -0.052654956 -0.089230523
5004162500 0.044117879 -0.067076087 0.12644981 -0.77365232 -0.70489442 -0.3438777 -0.075857647 -0.032886472
5011650000 -0.014248496 -0.03037224 -0.053136714 -0.78384691 -0.7674275 -0.16610478 -0.039644044 0.009379169
5019137500 -0.011906781 0.044528447 -0.23014663 -0.75008744 -0.78544301 0.021920534 0.01011098 -0.0037976245
5026625000 0.058475405 0.085418656 -0.39357853 -0.67686754 -0.75612581 0.20863797 0.017650127 -0.051874265
5034112500 0.13402802 0.046671458 -0.53396994 -0.56946522 -0.68313223 0.38133872 -0.022496374 -0.0779901
5041600000 0.14370888 -0.039384011 -0.64670938 -0.43530884 -0.57224607 0.52886492 -0.062427208 -0.051830724
5049087500 0.077984095 -0.094354428 -0.72698504 -0.2798588 -0.43343019 0.64713037 -0.056262203 -0.0044095432
5056575000 0.0009721379 -0.07105349 -0.77143037 -0.11107989 -0.27076426 0.73248231 -0.010393935 0.0094185947
5064062500 -0.017289776 -0.0018544924 -0.77943313 0.064364918 -0.090335846 0.77896804 0.021129306 -0.027243808
5071550000 0.026859405 0.039541453 -0.74764347 0.23841895 0.098810591 0.77946883 -0.001165365 -0.073377334
5079037500 0.072609529 0.017334707 -0.67585641 0.40437663 0.28198436 0.73253882 -0.057817992 -0.073704571
5086525000 0.063590236 -0.028614331 -0.5665518 0.54917973 0.44569862 0.64381737 -0.088915296 -0.018544761
5094012500 0.013166858 -0.034254976 -0.42783156 0.66342509 0.58611655 0.52227128 -0.057414401 0.043602474
5101500000 -0.016009612 0.014226719 -0.26763755 0.74366188 0.69672698 0.36747986 0.016579129 0.054662671
5108987500 0.014574042 0.067221738 -0.090257034 0.78724247 0.76411736 0.188242 0.069570348 0.00073209155
5116475000 0.076344326 0.067808747 0.093426093 0.78672731 0.78241593 0.00020919381 0.057918791 -0.07178238
5123962500 0.10616794 0.016033808 0.26982695 0.74174082 0.75665981 -0.18277416 -0.0032804774 -0.10237481
5131450000 0.07766737 -0.031849794 0.42807898 0.66055232 0.69302267 -0.35282919 -0.058816519 -0.073385745
5138937500 0.024455881 -0.030871222 0.56606704 0.54826224 0.59235495 -0.50649297 -0.066735268 -0.017510924
5146425000 -0.00023250341 0.012607839 0.67722952 0.40564358 0.45622805 -0.63361239 -0.030459704 0.017723998
5153912500 0.021895235 0.052702323 0.75097352 0.23877703 0.29404908 -0.72381973 0.012068911 0.011347257
5161400000 0.061015502 0.054945741 0.78276861 0.06228992 0.1145236 -0.77282971 0.029299041 -0.018152934
5168887500 0.080255657 0.028268648 0.77392787 -0.11496142 -0.071929134 -0.77863681 0.021762412 -0.04157079
5176375000 0.070221215 0.0041050352 0.72835129 -0.28575709 -0.25495896 -0.74047261 0.0076921191 -0.046990521
5183862500 0.04875309 5.7120615e-006 0.64504331 -0.44317424 -0.4238953 -0.65901166 0.002512655 -0.043846186
5191350000 0.035492852 0.01212584 0.52734882 -0.57704747 -0.56786186 -0.53881639 0.0041497084 -0.044957265
5198837500 0.03470267 0.027131297 0.38260511 -0.68000245 -0.67948806 -0.38869476 0.0021908015 -0.052043226
5206325000 0.042686507 0.038943749 0.21844107 -0.74781555 -0.75160789 -0.21612494 -0.0071284524 -0.05670619
5213812500 0.057331055 0.045079388 0.044302516 -0.77645504 -0.78037643 -0.032407228 -0.018891649 -0.052173823
5221300000 0.07500723 0.03879353 -0.13198118 -0.76624197 -0.76515478 0.15268512 -0.024394099 -0.040494878
5228787500 0.084416747 0.018969135 -0.30223256 -0.71568751 -0.7072317 0.3286379 -0.020287633 -0.027996421
5236275000 0.074289247 -0.0023932622 -0.45636064 -0.62731934 -0.61040401 0.48660165 -0.0074027013 -0.021506183
5243762500 0.051498834 -0.0058974312 -0.58470821 -0.50603628 -0.47904959 0.61869425 0.0082259765 -0.027830176
5251250000 0.040288288 0.0099568982 -0.68113673 -0.36049843 -0.31837893 0.71511626 0.014825825 -0.047735296
5258737500 0.052884102 0.021905145 -0.74398333 -0.19826177 -0.13807619 0.77042305 -0.00047433333 -0.071905665
5266225000 0.068909332 0.0059662699 -0.76743066 -0.024151064 0.048077129 0.77916181 -0.037543111 -0.076819129
5273712500 0.055881813 -0.025889345 -0.74953741 0.14749528 0.22912058 0.74584192 -0.074056052 -0.045514189
5281200000 0.009362557 -0.034119692 -0.69628465 0.30717728 0.39951405 0.67166668 -0.077315271 0.013580344
5288687500 -0.032119524 0.0057701427 -0.61425018 0.45297641 0.55004603 0.55870241 -0.028225709 0.063201897
5296175000 -0.022657523 0.070016637 -0.49998528 0.58285755 0.66912907 0.40943885 0.048896398 0.06040471
5303662500 0.038184132 0.098260932 -0.35201442 0.68371201 0.74402952 0.23590857 0.099529348 -0.0031573537
5311150000 0.092682064 0.060483478 -0.18726623 0.74031645 0.77563953 0.053192202 0.084213212 -0.082931705
5318637500 0.085042581 -0.0040254942 -0.021415928 0.76041299 0.76432836 -0.1300427 0.014643904 -0.11991754
5326125000 0.024198418 -0.025883034 0.14524749 0.75220937 0.7114563 -0.30591723 -0.052607123 -0.089290746
5333612500 -0.024858259 0.020549856 0.31778479 0.70732313 0.62128025 -0.46452019 -0.066781856 -0.023535965
5341100000 -0.0034026059 0.088912547 0.47344562 0.61415154 0.49413291 -0.59684074 -0.026698383 0.018690282
5348587500 0.069830343 0.10095942 0.59577996 0.48733288 0.34080106 -0.69763273 0.020276058 0.0091741625
5356075000 0.11713492 0.040527079 0.68719983 0.34351435 0.16549823 -0.76096624 0.028439986 -0.026060862
5363562500 0.089764997 -0.034441601 0.75053859 0.18361725 -0.021547612 -0.77855825 0.0033020223 -0.03800125
5371050000 0.0086481171 -0.052043289 0.77619165 0.0067690969 -0.20569786 -0.74894804 -0.010799769 -0.013610937
5378537500 -0.048337247 0.0065197623 0.75528044 -0.17260081 -0.3756398 -0.67890537 0.014293008 0.012668171
5386025000 -0.031146985 0.080284677 0.69274449 -0.33637953 -0.52661926 -0.56965977 0.05773459 -0.0011336305
5393512500 0.03095508 0.10260569 0.6009469 -0.48032206 -0.64649767 -0.42689449 0.069363981 -0.052328166
5401000000 0.072476618 0.066988073 0.48103997 -0.60396564 -0.72447371 -0.25990716 0.029140472 -0.091237754
5408487500 0.062054612 0.026763033 0.33266827 -0.70101476 -0.76278228 -0.086208135 -0.025638374 -0.076411091
5415975000 0.031568028 0.026176227 0.16415295 -0.75980896 -0.76571143 0.092847124 -0.038953062 -0.021042058
5423462500 0.031893939 0.052163523 -0.013530389 -0.77810323 -0.7265783 0.27364963 0.0048841015 0.015838476
5430950000 0.065679975 0.054366894 -0.19227688 -0.75426495 -0.63936216 0.44408458 0.059170943 -0.010328545
5438437500 0.084972918 0.01267518 -0.35870197 -0.68787479 -0.51077342 0.58099216 0.059138935 -0.074680977
5445925000 0.05376083 -0.034320615 -0.5023756 -0.58678913 -0.35997322 0.68200916 -0.0037992236 -0.10902364
5453412500 -0.0093190651 -0.036954805 -0.62057948 -0.45945978 -0.19133323 0.74926752 -0.07243605 -0.069985367
5460900000 -0.049765982 0.01266936 -0.70945048 -0.30902606 -0.006140064 0.77680081 -0.078699231 0.015385594
5468387500 -0.033952344 0.071705423 -0.76261491 -0.1385619 0.18267827 0.75398636 -0.0083569381 0.071221873
5475875000 0.01733321 0.088888004 -0.77269232 0.038688697 0.35461521 0.68431681 0.076332577 0.044676028
5483362500 0.052411769 0.058751263 -0.74154234 0.21013868 0.50046885 0.58026004 0.10090701 -0.036128089
5490850000 0.044942603 0.019539922 -0.67610252 0.37004155 0.62192249 0.44967726 0.051357277 -0.097090542
5498337500 0.011288855 0.0072102328 -0.57710594 0.5149231 0.71235603 0.29092282 -0.020554502 -0.087009795
5505825000 -0.015788144 0.027390858 -0.4448159 0.63462633 0.76308906 0.11431142 -0.044721272 -0.026833897
5513312500 -0.014812372 0.057867188 -0.28817394 0.71806234 0.76890761 -0.069396257 -0.0067716329 0.017588561
5520800000 0.0069067413 0.075516582 -0.1177708 0.76317084 0.73287475 -0.25065699 0.044345658 0.0024855118
5528287500 0.032785773 0.072281577 0.056614868 0.76823962 0.65284383 -0.42028195 0.049903717 -0.048768934
5535775000 0.050699018 0.052263565 0.22815165 0.73578179 0.53113961 -0.56445724 0.003431893 -0.075282998
5543262500 0.049741033 0.022845471 0.38840193 0.66553861 0.38005754 -0.67161071 -0.045349438 -0.044529732
5550750000 0.026076267 0.00085640472 0.52912199 0.55969906 0.21223168 -0.73838037 -0.04527409 0.016263148
5558237500 -0.0085488185 0.0039892658 0.64197022 0.42351866 0.033836395 -0.76777601 0.0052425764 0.052280743
5565725000 -0.02753791 0.034503087 0.71811217 0.26588115 -0.149018 -0.75606173 0.062951781 0.034452923
5573212500 -0.011500326 0.06711179 0.7573632 0.098682821 -0.32456714 -0.69999528 0.081663139 -0.017541816
5580700000 0.026159605 0.066720277 0.75988811 -0.071300015 -0.48125306 -0.60176033 0.056714714 -0.0577222
5588187500 0.042910419 0.028927254 0.72568238 -0.24018556 -0.60776204 -0.47110158 0.01740803 -0.062066942
5595675000 0.010991918 -0.007938616 0.65334225 -0.39809585 -0.70208377 -0.31556788 -0.0037981996 -0.041728932
5603162500 -0.043553077 0.0034945027 0.54790145 -0.53539604 -0.75810897 -0.14051317 -0.003689314 -0.02200558
5610650000 -0.063907921 0.065306261 0.41343918 -0.64586854 -0.7701453 0.044034149 0.0024720957 -0.01223043
5618137500 -0.017416954 0.11991572 0.25841829 -0.72266692 -0.73871613 0.22484334 0.0062553766 -0.0060011419
5625625000 0.061381519 0.10913397 0.089069404 -0.76320183 -0.66440535 0.39320913 0.011967407 0.0035511353
5633112500 0.098960496 0.031489786 -0.08710856 -0.76515508 -0.55247712 0.53984129 0.027563779 0.0098299468
5640600000 0.054412261 -0.047176715 -0.25837734 -0.72431183 -0.40887943 0.65521026 0.04803798 0.0015765605
5648087500 -0.035592493 -0.056068011 -0.41418284 -0.64549905 -0.2427385 0.73243368 0.056426227 -0.021863418
5655575000 -0.092422545 0.008092491 -0.54666144 -0.53603739 -0.062570572 0.76938593 0.042470872 -0.043478303
5663062500 -0.073033772 0.082115263 -0.65214211 -0.40088457 0.12189487 0.76321346 0.018000452 -0.047071468
5670550000 -0.011706164 0.10220914 -0.72741771 -0.24590699 0.29875961 0.71311378 0.00040472083 -0.031100275
5678037500 0.024693903 0.065737307 -0.76700932 -0.075397663 0.46009892 0.62218726 0.0014042463 -0.0092076529
5685525000 0.0079934625 0.029675014 -0.76501811 0.10017415 0.59531713 0.49533129 0.017022271 0.0041739158
5693012500 -0.024794841 0.036330011 -0.72274393 0.27169719 0.69610077 0.33981657 0.03653669 0.0024179686
5700500000 -0.022794293 0.070440501 -0.64270294 0.42924905 0.75546622 0.16448261 0.05045012 -0.012491026
5707987500 0.01325784 0.080273502 -0.52797675 0.56340629 0.77218419 -0.019742839 0.05184884 -0.03516471
5715475000 0.039679248 0.047327965 -0.38662332 0.66732574 0.7446453 -0.20153673 0.035498228 -0.058119964
5722962500 0.020528346 0.0092857722 -0.22724369 0.73778749 0.6749295 -0.37170598 0.0005178799 -0.066007331
5730450000 -0.020559704 0.01082875 -0.055132881 0.77113032 0.56690186 -0.51954484 -0.035761304 -0.043220002
5737937500 -0.033547226 0.050034657 0.12183899 0.76471281 0.42886364 -0.6385721 -0.045652356 0.0062405802
5745425000 0.0024596797 0.077060468 0.29248202 0.71656984 0.26635033 -0.72106457 -0.011978773 0.050994057
5752912500 0.047737543 0.050737765 0.44647506 0.63151544 0.089041054 -0.76453722 0.047698814 0.052084286
5760400000 0.047827549 -0.0091391187 0.57827049 0.51581782 -0.094682254 -0.76333261 0.086068414 0.0025934363
5767887500 -0.0058548437 -0.044306587 0.68113518 0.37110472 -0.27243972 -0.71931493 0.065390624 -0.059471488
5775375000 -0.068001442 -0.019881409 0.74723315 0.20543438 -0.43369365 -0.63417828 -0.0016666877 -0.076984286
5782862500 -0.083535247 0.041636322 0.77264917 0.029711513 -0.57081014 -0.51538986 -0.055888161 -0.029228332
5790350000 -0.044832118 0.087578304 0.75891352 -0.14524154 -0.67836481 -0.36694527 -0.04763509 0.047568448
5797837500 0.0099808834 0.0840775 0.70567966 -0.3121016 -0.74824953 -0.19537264 0.021846026 0.085759252
5805325000 0.038661923 0.043592926 0.61595678 -0.4642432 -0.77406013 -0.0098324101 0.093040988 0.050781827
5812812500 0.029952271 0.0015169512 0.49454904 -0.59008873 -0.75235677 0.17499967 0.10500915 -0.025154214
5820300000 -0.0015212834 -0.020277407 0.34903634 -0.68523806 -0.68740213 0.34698814 0.051310863 -0.075333387
5827787500 -0.03393966 -0.019491525 0.18508247 -0.74601638 -0.58646291 0.4993678 -0.015251433 -0.058642711
5835275000 -0.058006339 -0.0014174008 0.012912876 -0.76746094 -0.45120287 0.62418759 -0.035578351 0.002335649
5842762500 -0.067294985 0.027629402 -0.16029318 -0.74991965 -0.28871182 0.71383107 0.0014512638 0.046076126
5850250000 -0.054261345 0.056685459 -0.32586634 -0.69449234 -0.11179296 0.75891036 0.052558657 0.038356926
5857737500 -0.022348532 0.066851445 -0.47423643 -0.60236156 0.068694927 0.76216882 0.068695962 -0.0023453515
5865225000 0.0059025735 0.047064535 -0.59825605 -0.47932243 0.24502248 0.72598183 0.047375124 -0.029260162
5872712500 0.0041163601 0.01248522 -0.69021416 -0.33308572 0.41106966 0.64833343 0.02391459 -0.022338977
5880200000 -0.026699046 -0.0035749576 -0.74825072 -0.1671041 0.55368304 0.53278011 0.026512869 -0.0065443953
5887687500 -0.055904664 0.015891295 -0.76505715 0.0068460922 0.66357416 0.38497916 0.04313485 -0.013737795
5895175000 -0.052837014 0.051773563 -0.74098927 0.17892808 0.73636496 0.21682586 0.038136009 -0.040730812
5902662500 -0.021262433 0.066602059 -0.68009317 0.33932713 0.76519543 0.035381611 0.0021649559 -0.051791843
5910150000 0.0061517749 0.04902659 -0.58736128 0.48212221 0.75102288 -0.14586087 -0.032194585 -0.021892147
5917637500 0.004534761 0.023806164 -0.46497986 0.60176069 0.69542634 -0.31764603 -0.024539175 0.028079908
5925125000 -0.01215179 0.019539483 -0.31754914 0.69126993 0.60261917 -0.47304779 0.025276965 0.048416041
5932612500 -0.011250156 0.033952285 -0.15465201 0.74488312 0.47459531 -0.60525626 0.07025262 0.01234645
5940100000 0.012516803 0.035076983 0.016665464 0.76149023 0.3148331 -0.70107979 0.060985874 -0.048469439
5947587500 0.030066052 0.0030796109 0.18938376 0.73785406 0.13833387 -0.75348818 0.00038265222 -0.074218445
5955075000 0.0086639719 -0.03581899 0.35154602 0.67616045 -0.041735254 -0.76225626 -0.056442086 -0.037813984
5962562500 -0.039075039 -0.038530029 0.49334016 0.57831758 -0.21914373 -0.73225832 -0.060187336 0.029404834
5970050000 -0.065037042 0.0009600207 0.60976255 0.45374632 -0.38821223 -0.66272378 -0.010696168 0.068698749
5977537500 -0.039841451 0.040937942 0.69792324 0.30530673 -0.53631622 -0.55047596 0.04202909 0.049999285
5985025000 0.0086433971 0.033175807 0.74796319 0.13760562 -0.65042752 -0.40483966 0.049228143 0.0021403758
5992512500 0.022173651 -0.018826665 0.75733536 -0.035441142 -0.72579443 -0.23914488 0.011900609 -0.02021531
6000000000 -0.021819199 -0.057967946 0.72877699 -0.19995479 -0.76038456 -0.061896048 -0.023212394 0.0065025687
