# Hz S RI R 50
! RAW DATA - UNCALIBRATED
3.000000e+04 1.048767e+00 1.252441e-01 9.055436e-05 2.236664e-05 1.461804e-05 2.710670e-04 1.045227e+00 1.284790e-01
3.779981e+06 9.788208e-01 2.563477e-03 -2.023205e-05 2.565980e-05 -1.907907e-05 1.969002e-05 9.791260e-01 2.685547e-03
7.529962e+06 9.840088e-01 2.459717e-02 -8.674338e-06 -7.836614e-06 -6.048474e-06 -3.645662e-06 9.832153e-01 2.490234e-02
1.127994e+07 1.000732e+00 3.802490e-02 1.475587e-05 -9.401701e-06 1.940783e-05 -1.180079e-05 1.000732e+00 3.741455e-02
1.502992e+07 1.003723e+00 3.961182e-02 1.503527e-05 1.439452e-05 -4.392117e-06 -1.756288e-05 1.002808e+00 3.894043e-02
1.877991e+07 1.006653e+00 7.336426e-02 -1.912005e-05 7.292256e-06 -2.139434e-05 -1.626089e-05 1.005554e+00 7.281494e-02
2.252989e+07 1.018555e+00 8.264160e-02 -2.434105e-05 -3.377162e-05 3.013946e-05 -2.184883e-05 1.017395e+00 8.233643e-02
2.627987e+07 1.031311e+00 8.221436e-02 -1.434051e-05 3.101863e-05 -2.455898e-05 -3.219955e-05 1.029541e+00 8.154297e-02
3.002985e+07 1.038635e+00 7.629395e-02 2.829358e-05 4.655495e-05 1.484808e-05 1.797266e-05 1.039185e+00 7.623291e-02
3.377983e+07 1.040100e+00 7.244873e-02 -6.542355e-05 4.164129e-05 -3.037974e-05 -1.796521e-05 1.041443e+00 7.330322e-02
3.752981e+07 1.035828e+00 7.037354e-02 3.627874e-05 -1.520105e-05 -3.355555e-05 -1.832470e-05 1.036133e+00 6.994629e-02
4.127979e+07 1.027222e+00 7.061768e-02 1.342967e-05 3.844500e-06 3.055111e-05 2.991781e-05 1.027466e+00 7.122803e-02
4.502978e+07 1.016357e+00 7.409668e-02 -7.320195e-06 -8.640345e-06 1.430232e-05 6.379560e-06 1.015930e+00 7.354736e-02
4.877976e+07 1.004639e+00 8.081055e-02 2.310611e-05 6.519258e-08 -3.917702e-05 2.192520e-05 1.003662e+00 8.123779e-02
5.252974e+07 9.915161e-01 9.295654e-02 -9.615906e-06 -1.279730e-05 -5.919486e-06 -2.598390e-07 9.916992e-01 9.228516e-02
5.627972e+07 9.794312e-01 1.053467e-01 4.918128e-05 -1.913682e-05 -1.677684e-05 -2.465770e-05 9.789429e-01 1.057129e-01
6.002970e+07 9.686279e-01 1.213379e-01 -1.619291e-05 -8.139759e-06 2.099574e-05 9.778887e-07 9.682617e-01 1.219482e-01
6.377968e+07 9.628296e-01 1.384888e-01 -1.815706e-05 -2.079550e-05 3.568828e-06 1.759175e-05 9.625244e-01 1.372070e-01
6.752966e+07 9.583740e-01 1.555176e-01 1.761224e-05 -1.733750e-05 3.265217e-05 1.547672e-05 9.583130e-01 1.553345e-01
7.127964e+07 9.569702e-01 1.719971e-01 -2.230518e-06 1.416914e-05 -8.316711e-06 -2.707914e-05 9.566040e-01 1.714478e-01
7.502962e+07 9.583130e-01 1.879883e-01 1.648627e-05 -1.437217e-05 -3.322586e-05 -3.903545e-05 9.588013e-01 1.883545e-01
7.877961e+07 9.624634e-01 2.034912e-01 -8.506700e-06 -3.845431e-05 2.582557e-05 2.950802e-05 9.627686e-01 2.031860e-01
8.252959e+07 9.675903e-01 2.151489e-01 -3.864523e-06 -9.227544e-06 -4.727393e-05 2.309680e-07 9.682617e-01 2.161865e-01
8.627957e+07 9.745483e-01 2.268066e-01 1.200661e-05 4.027598e-05 2.486072e-05 -8.935109e-06 9.743652e-01 2.259521e-01
9.002955e+07 9.794922e-01 2.338867e-01 5.740672e-06 1.625903e-05 -1.645461e-05 -3.785267e-05 9.801636e-01 2.330933e-01
9.377953e+07 9.848022e-01 2.389526e-01 1.909863e-05 -1.245737e-05 -8.072704e-06 1.712423e-05 9.848022e-01 2.385864e-01
9.752951e+07 9.888916e-01 2.435303e-01 -2.143322e-06 -2.436806e-06 3.046170e-05 -2.673455e-05 9.879761e-01 2.432251e-01
1.012795e+08 9.893799e-01 2.453613e-01 9.157695e-06 -1.672376e-05 -1.238193e-05 1.581386e-06 9.898071e-01 2.459717e-01
1.050295e+08 9.880981e-01 2.484131e-01 2.281554e-05 6.094575e-06 1.816079e-06 3.696792e-05 9.876099e-01 2.478027e-01
1.087795e+08 9.840088e-01 2.512817e-01 2.420135e-05 2.249517e-05 2.322160e-05 1.192465e-05 9.832764e-01 2.514648e-01
1.125294e+08 9.771729e-01 2.564087e-01 1.055375e-05 3.693998e-05 3.139861e-05 2.215803e-05 9.774170e-01 2.562256e-01
1.162794e+08 9.703979e-01 2.636719e-01 -1.746416e-05 -2.278015e-06 3.737770e-05 -1.890585e-06 9.705811e-01 2.635498e-01
1.200294e+08 9.627686e-01 2.738647e-01 -1.800060e-05 4.799105e-06 -2.643839e-05 4.058704e-05 9.634399e-01 2.739258e-01
1.237794e+08 9.556274e-01 2.863770e-01 1.236796e-06 3.768131e-05 3.679655e-05 -1.433492e-05 9.537354e-01 2.863159e-01
1.275294e+08 9.473877e-01 2.998657e-01 -2.383627e-05 5.077571e-06 8.720905e-06 -2.184510e-05 9.493408e-01 3.001099e-01
1.312793e+08 9.445190e-01 3.177490e-01 2.199970e-05 8.288771e-07 3.682263e-05 9.702519e-06 9.441528e-01 3.174438e-01
1.350293e+08 9.431763e-01 3.347168e-01 2.052542e-05 1.139008e-06 1.287740e-05 -2.686866e-06 9.431763e-01 3.348999e-01
1.387793e+08 9.443970e-01 3.513794e-01 3.858469e-06 -1.249369e-05 3.520027e-05 3.989413e-05 9.453125e-01 3.505859e-01
1.425293e+08 9.486694e-01 3.671265e-01 5.293638e-06 1.942366e-05 2.080202e-05 -4.349649e-05 9.485474e-01 3.671265e-01
1.462793e+08 9.545898e-01 3.816528e-01 -3.434159e-05 1.402944e-05 -2.007186e-05 -5.386770e-06 9.560547e-01 3.813477e-01
1.500292e+08 9.633789e-01 3.934326e-01 -7.440336e-06 -1.004804e-05 2.875924e-05 7.685274e-06 9.631958e-01 3.930664e-01
1.537792e+08 9.734497e-01 4.006348e-01 -6.958842e-06 9.234529e-06 -2.030283e-06 -4.996732e-05 9.730225e-01 4.001465e-01
1.575292e+08 9.813843e-01 4.035034e-01 2.941862e-05 -7.940456e-06 2.575479e-05 1.930259e-05 9.816284e-01 4.036865e-01
1.612792e+08 9.891968e-01 4.031982e-01 2.636015e-05 1.769327e-05 -1.467206e-05 8.438714e-06 9.889526e-01 4.019775e-01
1.650292e+08 9.945068e-01 3.991089e-01 8.042436e-06 4.800968e-07 -3.565848e-05 -4.068762e-05 9.949341e-01 3.990479e-01
1.687792e+08 9.943237e-01 3.926392e-01 -1.407508e-05 1.854450e-05 -3.212877e-05 3.721565e-06 9.945679e-01 3.927002e-01
1.725291e+08 9.916382e-01 3.868408e-01 3.106706e-05 -4.578382e-06 -4.240312e-06 -7.388648e-06 9.918213e-01 3.862915e-01
1.762791e+08 9.835205e-01 3.809204e-01 7.268973e-06 -1.253746e-05 -2.564117e-05 3.682263e-05 9.833984e-01 3.802490e-01
1.800291e+08 9.733887e-01 3.789673e-01 7.929280e-06 2.271123e-05 7.682480e-06 -1.867302e-05 9.728394e-01 3.781128e-01
1.837791e+08 9.597168e-01 3.749390e-01 3.871135e-05 -9.264797e-06 -5.556643e-05 -1.651421e-05 9.601440e-01 3.746338e-01
1.875291e+08 9.452515e-01 3.783569e-01 1.553539e-05 8.447096e-07 7.916242e-07 2.854131e-05 9.445801e-01 3.782959e-01
1.912790e+08 9.300537e-01 3.839722e-01 9.370968e-06 -2.514198e-05 2.180971e-05 -2.242066e-05 9.304199e-01 3.828735e-01
1.950290e+08 9.163818e-01 3.926392e-01 -2.689846e-05 -3.471784e-05 5.815178e-06 6.230548e-05 9.158936e-01 3.930664e-01
1.987790e+08 9.027100e-01 4.035645e-01 -1.733378e-05 1.352001e-05 -3.163703e-06 -7.637776e-06 9.025879e-01 4.031982e-01
2.025290e+08 8.908081e-01 4.163818e-01 3.739819e-05 -2.320483e-05 1.715682e-05 1.981296e-05 8.912354e-01 4.156494e-01
2.062790e+08 8.828125e-01 4.307251e-01 -7.871538e-06 -6.091781e-06 3.574416e-06 -2.392754e-05 8.828125e-01 4.292603e-01
2.100290e+08 8.756104e-01 4.443970e-01 1.661573e-05 7.833354e-06 -4.382804e-05 1.361221e-05 8.755493e-01 4.434814e-01
2.137789e+08 8.706055e-01 4.574585e-01 3.157929e-05 1.878664e-05 -1.722015e-05 -1.989491e-05 8.703003e-01 4.571533e-01
2.175289e+08 8.679199e-01 4.702759e-01 2.196059e-05 -7.061288e-06 -1.315400e-05 8.968636e-07 8.678589e-01 4.691162e-01
2.212789e+08 8.665161e-01 4.818115e-01 8.661300e-07 -1.585484e-05 8.406118e-06 2.588890e-05 8.668213e-01 4.799194e-01
2.250289e+08 8.649292e-01 4.885864e-01 -3.353693e-05 1.281500e-06 -6.679446e-05 -2.465397e-05 8.656006e-01 4.893799e-01
2.287789e+08 8.642578e-01 4.954834e-01 1.328252e-05 -2.036616e-05 1.147762e-05 -2.743304e-05 8.641357e-01 4.944458e-01
2.325288e+08 8.622437e-01 4.997559e-01 3.375858e-05 -2.437271e-05 -2.598390e-07 1.603831e-05 8.628540e-01 4.996338e-01
2.362788e+08 8.578491e-01 5.023193e-01 1.809560e-06 -2.045371e-05 -1.304783e-05 -1.517031e-05 8.572998e-01 5.029297e-01
2.400288e+08 8.508301e-01 5.048218e-01 7.159077e-06 -1.244899e-05 3.542937e-05 8.355826e-06 8.511963e-01 5.045776e-01
2.437788e+08 8.416138e-01 5.073242e-01 -6.360933e-06 3.705360e-05 1.248717e-05 -1.426693e-05 8.427124e-01 5.068970e-01
2.475288e+08 8.302002e-01 5.099487e-01 8.962583e-06 -9.804033e-06 1.573283e-05 -6.430782e-06 8.300171e-01 5.093994e-01
2.512787e+08 8.161011e-01 5.159912e-01 7.180497e-06 -6.694812e-06 -2.346933e-06 -5.645305e-05 8.169556e-01 5.156860e-01
2.550287e+08 8.016968e-01 5.228882e-01 1.270324e-05 -4.525110e-05 1.374725e-05 -1.708511e-05 8.014526e-01 5.236206e-01
2.587787e+08 7.874146e-01 5.331421e-01 -4.858896e-05 2.631173e-05 3.187731e-05 3.313087e-05 7.870483e-01 5.325317e-01
2.625287e+08 7.722168e-01 5.460205e-01 3.692694e-06 -1.796987e-05 -2.142973e-05 4.060566e-06 7.733154e-01 5.447388e-01
2.662787e+08 7.593994e-01 5.599976e-01 2.705306e-05 -1.202896e-05 -4.064292e-06 -2.145953e-05 7.583008e-01 5.592041e-01
2.700286e+08 7.471313e-01 5.748901e-01 -2.908707e-05 4.447624e-05 -1.319684e-05 -1.548138e-05 7.474976e-01 5.751953e-01
2.737786e+08 7.376099e-01 5.925293e-01 3.983453e-05 -1.061335e-05 -1.438055e-05 -1.271628e-05 7.369385e-01 5.924072e-01
2.775286e+08 7.286377e-01 6.098022e-01 3.352761e-07 -4.699454e-05 2.020597e-05 -4.752725e-05 7.291870e-01 6.098022e-01
2.812786e+08 7.233276e-01 6.276855e-01 8.955831e-07 1.363922e-06 1.558196e-05 9.952113e-06 7.231445e-01 6.268921e-01
2.850286e+08 7.197876e-01 6.444702e-01 3.460236e-05 -2.467074e-05 -1.201127e-05 -1.835637e-05 7.208252e-01 6.449585e-01
2.887786e+08 7.185669e-01 6.613159e-01 -1.658686e-06 -2.042204e-05 5.154312e-05 -2.769008e-05 7.187500e-01 6.607666e-01
2.925285e+08 7.185669e-01 6.742554e-01 2.563372e-05 -2.656132e-05 -4.009902e-05 -3.038347e-05 7.176514e-01 6.747437e-01
2.962785e+08 7.207642e-01 6.884766e-01 3.450736e-05 1.954846e-05 -4.813820e-05 -2.000481e-06 7.189331e-01 6.882324e-01
3.000285e+08 7.196655e-01 6.981201e-01 1.138821e-05 -2.894923e-05 -1.606159e-05 -2.748333e-05 7.210083e-01 6.990356e-01
3.037785e+08 7.225952e-01 7.078857e-01 -2.261624e-05 6.113201e-06 2.091378e-05 1.227483e-06 7.225342e-01 7.058716e-01
3.075285e+08 7.211304e-01 7.131348e-01 -4.373863e-05 5.550683e-06 5.019829e-06 -2.931803e-06 7.211914e-01 7.131958e-01
3.112784e+08 7.200317e-01 7.182617e-01 4.316121e-05 -1.879409e-06 -1.423620e-05 2.182275e-05 7.191772e-01 7.185669e-01
3.150284e+08 7.160034e-01 7.218018e-01 1.604483e-05 4.101172e-05 5.036592e-05 -2.940372e-05 7.160645e-01 7.233276e-01
3.187784e+08 7.104492e-01 7.269287e-01 1.852401e-05 1.442712e-05 -3.650784e-07 -4.711002e-05 7.107544e-01 7.265015e-01
3.225284e+08 7.041626e-01 7.326660e-01 4.317984e-05 -8.499250e-06 -4.278868e-05 7.923692e-06 7.037354e-01 7.318115e-01
3.262784e+08 6.971436e-01 7.387085e-01 1.825392e-06 -2.326071e-05 -5.231425e-05 3.270805e-06 6.968384e-01 7.380981e-01
3.300284e+08 6.874390e-01 7.468872e-01 -1.581758e-05 4.979223e-05 4.930422e-06 -2.656505e-05 6.875610e-01 7.467041e-01
3.337783e+08 6.795044e-01 7.553711e-01 -2.932549e-05 -1.813658e-05 4.421547e-05 -2.897903e-05 6.800537e-01 7.553101e-01
3.375283e+08 6.723022e-01 7.662354e-01 3.625825e-05 1.956895e-05 1.680944e-05 1.737569e-05 6.723633e-01 7.670288e-01
3.412783e+08 6.669922e-01 7.782593e-01 2.140459e-05 7.580966e-07 1.366623e-05 -3.499351e-05 6.673584e-01 7.787476e-01
3.450283e+08 6.639404e-01 7.906494e-01 5.960464e-07 -9.953976e-06 4.291534e-05 -7.815659e-06 6.641235e-01 7.904053e-01
3.487783e+08 6.623535e-01 8.018799e-01 -1.903623e-06 -6.813556e-05 2.630241e-05 2.212636e-05 6.624756e-01 8.015747e-01
3.525282e+08 6.640625e-01 8.126831e-01 2.770685e-05 -4.342385e-05 7.955357e-06 -2.155453e-05 6.644897e-01 8.128052e-01
3.562782e+08 6.661377e-01 8.218994e-01 -1.021009e-05 -1.366995e-05 1.743436e-05 -4.061311e-05 6.674194e-01 8.215332e-01
3.600282e+08 6.696777e-01 8.276978e-01 2.463348e-05 -7.450581e-09 1.423061e-06 -2.124347e-05 6.713867e-01 8.272705e-01
3.637782e+08 6.744995e-01 8.290405e-01 -2.170075e-05 -7.375143e-06 -2.936460e-05 -3.613532e-06 6.757812e-01 8.293457e-01
3.675282e+08 6.788940e-01 8.285522e-01 -6.493181e-06 3.133528e-05 -8.095056e-06 -2.186745e-06 6.781006e-01 8.289185e-01
3.712781e+08 6.791992e-01 8.256836e-01 2.225302e-05 -9.195879e-06 -1.697522e-05 -1.765043e-05 6.796265e-01 8.257446e-01
3.750281e+08 6.781006e-01 8.206177e-01 -2.585724e-05 2.662279e-05 -1.401268e-05 1.145899e-05 6.784668e-01 8.203735e-01
3.787781e+08 6.732178e-01 8.145752e-01 4.312955e-05 -1.140684e-05 -1.033396e-05 2.993643e-05 6.734619e-01 8.133545e-01
3.825281e+08 6.655884e-01 8.086548e-01 -2.085604e-05 2.197921e-06 5.028769e-05 -8.165836e-06 6.644897e-01 8.088379e-01
3.862781e+08 6.551514e-01 8.050537e-01 1.314096e-06 -2.014544e-05 -3.182888e-05 -1.965649e-05 6.557617e-01 8.044434e-01
3.900280e+08 6.437988e-01 8.031616e-01 -1.481362e-05 -6.046146e-06 -4.305318e-05 2.105162e-05 6.433105e-01 8.023071e-01
3.937780e+08 6.307373e-01 8.020020e-01 5.027279e-05 -1.644343e-05 2.973340e-05 -2.034940e-05 6.316528e-01 8.009644e-01
3.975280e+08 6.174927e-01 8.031006e-01 5.657226e-05 -1.809373e-05 -1.252443e-05 -3.418513e-05 6.180420e-01 8.023071e-01
4.012780e+08 6.047974e-01 8.055420e-01 9.579584e-06 2.404489e-05 1.258682e-05 1.006946e-05 6.051025e-01 8.063354e-01
4.050280e+08 5.932617e-01 8.118286e-01 -2.885982e-05 -2.471730e-06 2.757460e-05 -1.216866e-05 5.933838e-01 8.102417e-01
4.087780e+08 5.821533e-01 8.162231e-01 -2.864748e-06 2.733432e-05 -2.980977e-05 2.031401e-05 5.820312e-01 8.157959e-01
4.125279e+08 5.725098e-01 8.210449e-01 2.181530e-05 -5.656853e-06 -1.357421e-10 4.874039e-10 5.739136e-01 8.209839e-01
4.162779e+08 5.666504e-01 8.280029e-01 1.780316e-05 -2.122670e-05 -1.101382e-05 -3.170036e-05 5.667725e-01 8.265991e-01
4.200279e+08 5.592041e-01 8.319702e-01 -1.404714e-05 3.620982e-06 -2.680533e-05 1.357868e-06 5.596313e-01 8.313599e-01
4.237779e+08 5.532837e-01 8.364258e-01 -1.463667e-05 3.374368e-05 3.572926e-05 1.437590e-05 5.534668e-01 8.353271e-01
4.275279e+08 5.482788e-01 8.374634e-01 -3.894605e-05 3.000721e-05 -1.362152e-05 2.493523e-05 5.494385e-01 8.371582e-01
4.312778e+08 5.429688e-01 8.374023e-01 -7.954426e-06 -1.801271e-05 9.699725e-06 4.933216e-06 5.419922e-01 8.372803e-01
4.350278e+08 5.373535e-01 8.362427e-01 4.142523e-06 4.912168e-05 7.586554e-06 -1.122244e-05 5.372314e-01 8.364258e-01
4.387778e+08 5.292358e-01 8.342896e-01 -4.463643e-05 4.153699e-05 2.862327e-05 1.387671e-06 5.299072e-01 8.330688e-01
4.425278e+08 5.189209e-01 8.294678e-01 -2.286397e-05 2.441928e-06 1.825672e-05 -1.719128e-05 5.201416e-01 8.294678e-01
4.462778e+08 5.062256e-01 8.259888e-01 4.728138e-05 -1.200289e-05 1.423899e-05 1.296960e-05 5.076904e-01 8.256836e-01
4.500278e+08 4.918213e-01 8.229980e-01 4.655495e-05 -1.515448e-05 -2.351590e-06 8.291565e-06 4.926147e-01 8.226318e-01
4.537777e+08 4.752808e-01 8.214722e-01 -4.736939e-06 1.199776e-06 4.137307e-05 -5.095080e-05 4.756470e-01 8.209839e-01
4.575277e+08 4.583740e-01 8.215332e-01 -1.658965e-05 8.363277e-07 -1.212582e-05 3.264286e-06 4.586792e-01 8.217773e-01
4.612777e+08 4.401245e-01 8.247681e-01 -6.265938e-06 2.845563e-05 -1.685694e-05 1.982599e-05 4.406738e-01 8.245239e-01
4.650277e+08 4.207764e-01 8.298340e-01 8.667819e-06 -1.226179e-05 -3.072619e-05 -1.775101e-05 4.216919e-01 8.300171e-01
4.687777e+08 4.028931e-01 8.375854e-01 3.162073e-06 -7.927883e-07 -1.476146e-05 -2.659298e-05 4.039917e-01 8.378906e-01
4.725276e+08 3.862305e-01 8.470459e-01 3.088638e-05 4.938990e-05 -1.536496e-05 2.245419e-05 3.865967e-01 8.472290e-01
4.762776e+08 3.707275e-01 8.588867e-01 1.547858e-06 -3.405102e-05 1.710840e-05 1.834892e-05 3.715210e-01 8.580322e-01
4.800276e+08 3.579102e-01 8.713989e-01 -1.107715e-05 -1.744926e-05 3.483146e-07 -2.451986e-05 3.585815e-01 8.710938e-01
4.837776e+08 3.469238e-01 8.854370e-01 -5.593523e-06 2.497621e-05 3.142655e-05 -3.127940e-05 3.480835e-01 8.850098e-01
4.875276e+08 3.406982e-01 8.988647e-01 1.902506e-05 2.896413e-05 1.271721e-05 1.039356e-05 3.400879e-01 8.988647e-01
4.912775e+08 3.345947e-01 9.107666e-01 7.921830e-06 1.152325e-05 -3.317371e-06 1.926254e-05 3.356323e-01 9.108887e-01
4.950275e+08 3.306274e-01 9.204102e-01 -9.531621e-06 2.360437e-06 -3.059767e-05 2.039596e-05 3.316650e-01 9.213867e-01
4.987775e+08 3.289795e-01 9.294434e-01 -2.694316e-05 -2.031028e-05 -1.255609e-05 2.789125e-05 3.288574e-01 9.299316e-01
5.025275e+08 3.265381e-01 9.363403e-01 -2.064556e-05 -1.643784e-06 -3.866293e-05 -6.681308e-06 3.279419e-01 9.360352e-01
5.062775e+08 3.249512e-01 9.397583e-01 -1.725182e-05 -5.646795e-05 1.908187e-05 -3.498048e-06 3.259888e-01 9.392090e-01
5.100274e+08 3.225098e-01 9.414062e-01 -4.729256e-06 -1.234096e-05 -2.986751e-05 9.421259e-06 3.223877e-01 9.418335e-01
5.137774e+08 3.168335e-01 9.428101e-01 -1.590699e-06 3.890600e-07 -5.315989e-06 4.148856e-05 3.188477e-01 9.427490e-01
5.175274e+08 3.100586e-01 9.423218e-01 2.238341e-05 -1.898035e-05 -1.522899e-05 -2.191402e-06 3.118896e-01 9.412842e-01
5.212774e+08 3.030396e-01 9.418335e-01 -3.113784e-05 1.778267e-05 4.275888e-05 1.184642e-06 3.041382e-01 9.425659e-01
5.250274e+08 2.929077e-01 9.414673e-01 3.439002e-05 -1.853891e-05 -6.876886e-06 2.444722e-07 2.946167e-01 9.425049e-01
5.287774e+08 2.822876e-01 9.439697e-01 -3.104284e-05 -1.616031e-05 -3.048033e-05 -4.414469e-06 2.831421e-01 9.432983e-01
5.325273e+08 2.704468e-01 9.470215e-01 6.315298e-06 1.202431e-05 1.228601e-05 -4.177168e-05 2.716675e-01 9.464111e-01
5.362773e+08 2.586670e-01 9.507446e-01 1.769606e-05 -6.846152e-06 -2.589822e-05 -8.085743e-06 2.604370e-01 9.527588e-01
5.400273e+08 2.466431e-01 9.584351e-01 -1.166016e-05 2.663024e-05 2.958253e-05 -1.015887e-05 2.478027e-01 9.569702e-01
5.437773e+08 2.368774e-01 9.661255e-01 2.793968e-08 -3.668480e-05 -1.824182e-05 -3.689900e-06 2.377319e-01 9.661255e-01
5.475273e+08 2.269897e-01 9.754028e-01 3.160909e-06 -2.252124e-05 -2.179854e-05 -3.290176e-05 2.274170e-01 9.746094e-01
5.512772e+08 2.208252e-01 9.849243e-01 -4.945695e-05 -9.872019e-07 -1.288205e-05 4.008412e-05 2.212524e-01 9.856567e-01
5.550272e+08 2.146606e-01 9.957886e-01 3.698654e-05 2.618693e-05 3.729947e-05 -5.671754e-06 2.162476e-01 9.949951e-01
5.587772e+08 2.136841e-01 1.004639e+00 -4.898757e-06 -2.919231e-06 4.032999e-05 -1.077354e-05 2.147827e-01 1.004578e+00
5.625272e+08 2.132568e-01 1.010803e+00 -9.424984e-06 -2.708845e-05 -4.178286e-05 -1.049414e-05 2.152100e-01 1.010437e+00
5.662772e+08 2.156372e-01 1.014832e+00 5.431473e-06 -2.542883e-05 6.746501e-06 -2.350844e-05 2.166138e-01 1.014709e+00
5.700272e+08 2.177124e-01 1.015503e+00 -1.131743e-05 -1.639128e-06 5.958602e-06 -1.029950e-05 2.184448e-01 1.014526e+00
5.737771e+08 2.187500e-01 1.012451e+00 1.703948e-05 3.584102e-05 4.144385e-07 -6.652903e-06 2.196045e-01 1.012451e+00
5.775271e+08 2.168579e-01 1.007080e+00 -3.482588e-05 7.152557e-07 2.321787e-05 1.350231e-05 2.178345e-01 1.005859e+00
5.812771e+08 2.129517e-01 9.985352e-01 3.944151e-06 1.571141e-05 2.144277e-05 -4.281104e-05 2.140503e-01 9.989624e-01
5.850271e+08 2.047729e-01 9.909058e-01 4.346296e-05 -4.738569e-06 -2.923980e-05 -3.226101e-06 2.065430e-01 9.902344e-01
5.887771e+08 1.958618e-01 9.824219e-01 4.167855e-05 1.368672e-05 1.117401e-05 -7.317401e-06 1.965942e-01 9.824219e-01
5.925270e+08 1.813354e-01 9.761963e-01 -1.676567e-05 1.670141e-05 -1.848582e-05 -3.891997e-06 1.823730e-01 9.755249e-01
5.962770e+08 1.672363e-01 9.702148e-01 -2.339669e-05 -4.796311e-06 3.093667e-05 1.809932e-05 1.674194e-01 9.700317e-01
6.000270e+08 1.497803e-01 9.681396e-01 -1.461245e-05 -1.604110e-05 4.817545e-05 4.954636e-07 1.509399e-01 9.671631e-01
6.037770e+08 1.332397e-01 9.671021e-01 2.275780e-05 3.393739e-06 -2.878904e-05 -9.918585e-06 1.335449e-01 9.669189e-01
6.075270e+08 1.146851e-01 9.691162e-01 -3.998727e-05 2.760254e-05 -2.678856e-05 3.969669e-05 1.162720e-01 9.673462e-01
6.112769e+08 9.942627e-02 9.731445e-01 4.608184e-06 -4.282594e-05 3.182329e-05 4.827976e-06 9.942627e-02 9.733276e-01
6.150269e+08 8.270264e-02 9.781494e-01 -1.564715e-05 -3.265217e-06 8.916482e-06 2.605096e-05 8.325195e-02 9.777832e-01
6.187769e+08 7.067871e-02 9.844360e-01 3.577909e-06 9.033829e-08 -1.727045e-05 1.757685e-05 7.171631e-02 9.849243e-01
6.225269e+08 5.816650e-02 9.910278e-01 2.534315e-05 1.642294e-05 1.121126e-05 -7.268973e-06 5.914307e-02 9.909668e-01
6.262769e+08 4.919434e-02 9.992676e-01 1.845416e-05 -2.101529e-05 -9.719282e-06 -5.432591e-05 4.943848e-02 9.996948e-01
6.300268e+08 4.052734e-02 1.005981e+00 -2.302229e-06 -2.012961e-05 2.817251e-05 -1.819432e-05 4.119873e-02 1.005066e+00
6.337768e+08 3.588867e-02 1.010864e+00 2.907775e-05 -1.355447e-05 9.416603e-06 1.952983e-05 3.601074e-02 1.010559e+00
6.375268e+08 3.051758e-02 1.015259e+00 3.383961e-06 7.281080e-06 -2.880767e-05 2.501160e-05 3.112793e-02 1.015015e+00
6.412768e+08 2.697754e-02 1.016479e+00 3.610551e-05 -2.921559e-05 -9.245239e-06 1.560524e-05 2.758789e-02 1.017639e+00
6.450268e+08 2.197266e-02 1.016602e+00 6.728992e-05 1.497567e-05 -3.582984e-05 6.938353e-06 2.307129e-02 1.016235e+00
6.487768e+08 1.782227e-02 1.013733e+00 1.780782e-05 7.748604e-06 1.773238e-06 5.050749e-05 1.873779e-02 1.015015e+00
6.525267e+08 1.062012e-02 1.010925e+00 4.896149e-05 5.844980e-06 -3.227964e-06 -3.025308e-05 1.159668e-02 1.009033e+00
6.562767e+08 3.234863e-03 1.004517e+00 -1.038611e-05 3.147684e-05 -1.567509e-05 -9.335577e-06 4.577637e-03 1.005981e+00
6.600267e+08 -7.568359e-03 1.000000e+00 -4.105829e-05 -4.209578e-06 9.434298e-06 1.978874e-05 -6.591797e-03 9.998169e-01
6.637767e+08 -1.953125e-02 9.943848e-01 2.010725e-05 -4.134700e-05 -2.074242e-05 2.297573e-05 -1.934814e-02 9.953003e-01
6.675267e+08 -3.466797e-02 9.913330e-01 1.561176e-05 -1.252443e-05 -2.858229e-05 1.825579e-05 -3.411865e-02 9.913940e-01
6.712766e+08 -4.956055e-02 9.887695e-01 -1.224782e-05 1.984369e-05 1.508556e-05 1.608673e-05 -4.864502e-02 9.902954e-01
6.750266e+08 -6.573486e-02 9.902344e-01 -2.438389e-05 -6.608665e-06 1.054257e-06 2.181530e-05 -6.433105e-02 9.898682e-01
6.787766e+08 -7.983398e-02 9.921265e-01 -1.514237e-05 -1.966022e-06 3.997609e-05 9.771436e-06 -7.995605e-02 9.925537e-01
6.825266e+08 -9.582520e-02 9.980469e-01 -8.586794e-07 -1.741573e-05 4.679896e-06 9.868294e-06 -9.472656e-02 9.977417e-01
6.862766e+08 -1.072998e-01 1.003479e+00 -2.527609e-06 1.006993e-05 5.301833e-05 -5.301833e-05 -1.064453e-01 1.004639e+00
6.900266e+08 -1.176147e-01 1.011292e+00 2.084952e-05 6.544404e-06 1.251698e-05 -2.083182e-05 -1.163330e-01 1.010925e+00
6.937765e+08 -1.253662e-01 1.018005e+00 -6.251037e-06 -2.934039e-05 2.300553e-05 -1.457706e-05 -1.227417e-01 1.018372e+00
6.975265e+08 -1.290894e-01 1.024902e+00 8.307397e-06 -2.885051e-05 9.443611e-06 -1.569185e-05 -1.277466e-01 1.023621e+00
7.012765e+08 -1.316528e-01 1.028442e+00 -4.311092e-06 -1.613051e-06 6.318092e-06 -1.047365e-05 -1.296387e-01 1.029663e+00
7.050265e+08 -1.322021e-01 1.031494e+00 1.981016e-05 -3.637746e-06 2.526119e-05 -6.226823e-06 -1.312866e-01 1.031189e+00
7.087765e+08 -1.317749e-01 1.029724e+00 2.912246e-05 1.065433e-06 1.242029e-10 5.034622e-10 -1.304321e-01 1.031067e+00
7.125264e+08 -1.315918e-01 1.028076e+00 4.742295e-06 -2.899021e-05 -1.898222e-05 -4.287809e-06 -1.312256e-01 1.026611e+00
7.162764e+08 -1.334839e-01 1.020691e+00 -2.306513e-05 1.224503e-05 3.305636e-05 3.439561e-05 -1.325684e-01 1.021301e+00
7.200264e+08 -1.372681e-01 1.012817e+00 -1.314282e-05 1.844577e-05 -1.932494e-05 -3.331900e-05 -1.359253e-01 1.013245e+00
7.237764e+08 -1.420288e-01 1.004883e+00 -3.336556e-05 1.328066e-05 -5.561858e-05 3.817305e-05 -1.411133e-01 1.005554e+00
7.275264e+08 -1.491699e-01 9.968872e-01 -1.872331e-05 2.992898e-05 1.372118e-05 1.138076e-06 -1.480713e-01 9.959717e-01
7.312763e+08 -1.575928e-01 9.867554e-01 -2.115034e-06 -2.055522e-05 1.256075e-05 1.483317e-05 -1.566772e-01 9.879761e-01
7.350263e+08 -1.683350e-01 9.803467e-01 8.049421e-06 1.790095e-05 1.332350e-05 -2.786145e-05 -1.683350e-01 9.801636e-01
7.387763e+08 -1.799927e-01 9.728394e-01 4.027504e-06 8.950941e-06 -8.121133e-07 4.264340e-05 -1.788940e-01 9.729004e-01
7.425263e+08 -1.923218e-01 9.676514e-01 2.121180e-05 -1.669768e-05 2.497807e-05 -3.502332e-05 -1.911621e-01 9.685059e-01
7.462763e+08 -2.028809e-01 9.637451e-01 -1.725275e-05 9.553507e-06 1.972541e-05 -3.818609e-05 -2.023926e-01 9.647217e-01
7.500262e+08 -2.150269e-01 9.608765e-01 -7.061288e-06 -2.375618e-05 -2.438948e-05 2.812594e-05 -2.140503e-01 9.612427e-01
7.537762e+08 -2.254028e-01 9.594116e-01 4.120730e-05 -2.027117e-05 -2.616644e-05 4.862249e-05 -2.246704e-01 9.599609e-01
7.575262e+08 -2.351685e-01 9.578857e-01 -2.134405e-05 -3.176555e-05 5.764514e-05 -2.942234e-05 -2.340088e-01 9.583740e-01
7.612762e+08 -2.424927e-01 9.575806e-01 2.799183e-05 -1.787022e-05 -4.902482e-06 -3.909133e-05 -2.406616e-01 9.578857e-01
7.650262e+08 -2.485352e-01 9.552612e-01 -3.333669e-06 8.673407e-06 1.592189e-05 -5.539134e-05 -2.476807e-01 9.561768e-01
7.687762e+08 -2.528076e-01 9.525146e-01 2.738461e-05 -3.192574e-06 -2.328679e-05 4.378334e-05 -2.526855e-01 9.542236e-01
7.725261e+08 -2.584839e-01 9.486694e-01 2.004439e-06 4.514586e-06 1.647696e-05 2.855435e-06 -2.571411e-01 9.487915e-01
7.762761e+08 -2.614746e-01 9.420776e-01 3.439561e-05 5.321205e-05 3.180280e-05 1.959689e-05 -2.609253e-01 9.425659e-01
7.800261e+08 -2.662354e-01 9.340210e-01 1.343433e-05 -1.857057e-05 -3.414974e-05 3.754161e-05 -2.647705e-01 9.337769e-01
7.837761e+08 -2.713623e-01 9.247437e-01 1.071952e-05 7.880386e-06 -3.280118e-06 5.311333e-06 -2.705078e-01 9.250488e-01
7.875261e+08 -2.799072e-01 9.125977e-01 6.463379e-06 -4.253536e-05 1.111999e-05 -2.978928e-05 -2.784424e-01 9.128418e-01
7.912760e+08 -2.881470e-01 9.003906e-01 -2.035219e-05 -2.167094e-05 -2.648681e-06 -1.641689e-06 -2.877808e-01 9.006958e-01
7.950260e+08 -2.992554e-01 8.898315e-01 1.945160e-05 -4.982576e-06 -3.907830e-06 1.224224e-05 -2.984619e-01 8.895264e-01
7.987760e+08 -3.121338e-01 8.781128e-01 -2.118200e-05 2.555922e-05 -7.692724e-07 -2.241321e-05 -3.121948e-01 8.786621e-01
8.025260e+08 -3.276367e-01 8.685303e-01 -2.064556e-05 -3.057718e-05 -2.568215e-05 6.021932e-06 -3.270264e-01 8.682861e-01
8.062760e+08 -3.436890e-01 8.605957e-01 1.415890e-05 -1.704972e-05 -3.155135e-05 9.642914e-06 -3.430176e-01 8.602905e-01
8.100260e+08 -3.604736e-01 8.541870e-01 -4.165620e-05 3.864989e-06 2.489798e-05 -2.835691e-05 -3.598633e-01 8.536987e-01
8.137759e+08 -3.768311e-01 8.489380e-01 1.912750e-05 2.438203e-06 -9.817071e-06 1.579244e-05 -3.763428e-01 8.496704e-01
8.175259e+08 -3.936157e-01 8.464355e-01 2.008770e-05 1.289137e-05 4.467368e-05 -1.404434e-06 -3.927002e-01 8.445435e-01
8.212759e+08 -4.080200e-01 8.444824e-01 4.004687e-05 4.206412e-05 1.903251e-05 -2.467446e-05 -4.071655e-01 8.447266e-01
8.250259e+08 -4.232178e-01 8.437500e-01 7.292256e-06 1.669303e-05 -1.448393e-05 -5.294383e-05 -4.221191e-01 8.435669e-01
8.287759e+08 -4.356079e-01 8.423462e-01 1.484528e-06 2.823398e-05 4.609115e-06 1.020171e-05 -4.336548e-01 8.433838e-01
8.325258e+08 -4.475708e-01 8.421631e-01 1.983950e-06 4.547648e-06 2.439879e-05 -2.142228e-05 -4.471436e-01 8.423462e-01
8.362758e+08 -4.570312e-01 8.411865e-01 -2.094638e-05 1.815334e-05 1.517311e-05 4.624203e-05 -4.564819e-01 8.432007e-01
8.400258e+08 -4.677734e-01 8.400879e-01 -3.482960e-05 2.777204e-05 2.448633e-05 7.988885e-06 -4.663696e-01 8.413086e-01
8.437758e+08 -4.776611e-01 8.380737e-01 5.410751e-06 -4.155794e-06 -6.596558e-06 -1.894310e-05 -4.762573e-01 8.389893e-01
8.475258e+08 -4.871216e-01 8.347168e-01 4.659221e-05 1.586229e-05 3.726594e-05 -6.198883e-06 -4.852295e-01 8.357544e-01
8.512757e+08 -4.963379e-01 8.308716e-01 -8.175150e-06 -2.717786e-05 -6.183982e-06 6.290898e-05 -4.950562e-01 8.319092e-01
8.550257e+08 -5.061035e-01 8.268433e-01 2.107210e-05 -1.814030e-05 -1.408346e-05 2.828799e-05 -5.062256e-01 8.267822e-01
8.587757e+08 -5.165405e-01 8.220215e-01 1.293421e-05 -4.541874e-05 2.671592e-05 -1.292862e-05 -5.167236e-01 8.225708e-01
8.625257e+08 -5.291748e-01 8.160400e-01 -3.010221e-05 5.749986e-06 4.831702e-06 -4.896149e-05 -5.288086e-01 8.169556e-01
8.662757e+08 -5.434570e-01 8.120728e-01 8.748844e-06 3.477558e-06 -7.860363e-06 -3.467873e-05 -5.426025e-01 8.134766e-01
8.700256e+08 -5.584106e-01 8.086548e-01 6.169081e-06 4.809722e-05 -6.700866e-06 1.060870e-05 -5.576782e-01 8.092041e-01
8.737756e+08 -5.728760e-01 8.071899e-01 5.311891e-05 -2.905726e-06 2.520159e-06 3.121421e-05 -5.727539e-01 8.082886e-01
8.775256e+08 -5.897827e-01 8.076172e-01 -5.031703e-06 -3.278721e-06 2.799369e-05 -2.669729e-05 -5.899658e-01 8.071289e-01
8.812756e+08 -6.062622e-01 8.105469e-01 -5.251728e-06 -1.225527e-05 5.829334e-05 7.268041e-06 -6.057739e-01 8.105469e-01
8.850256e+08 -6.211548e-01 8.150024e-01 1.027901e-05 1.555216e-05 -3.397465e-05 3.022887e-05 -6.209717e-01 8.150635e-01
8.887756e+08 -6.350708e-01 8.222046e-01 -4.136749e-05 -2.043508e-05 2.853200e-05 -4.082918e-06 -6.339722e-01 8.238525e-01
8.925255e+08 -6.458130e-01 8.319702e-01 -7.010996e-06 -7.906463e-06 -1.678243e-06 -3.821030e-05 -6.453857e-01 8.328857e-01
8.962755e+08 -6.542969e-01 8.417358e-01 -2.882816e-05 1.591444e-05 9.819865e-06 4.951283e-05 -6.524048e-01 8.425293e-01
9.000255e+08 -6.533813e-01 8.532715e-01 4.686415e-06 -1.204666e-05 2.543628e-05 -4.144758e-05 -6.521606e-01 8.544922e-01
9.037755e+08 -6.533813e-01 8.626099e-01 -1.567323e-05 9.221956e-06 -8.966774e-06 -2.269447e-05 -6.525879e-01 8.637695e-01
9.075255e+08 -6.474609e-01 8.684692e-01 1.863576e-05 1.793634e-05 1.355540e-05 -5.140901e-07 -6.463623e-01 8.692017e-01
9.112754e+08 -6.406860e-01 8.694458e-01 8.046627e-06 -4.430115e-05 1.864601e-05 -1.020450e-05 -6.405029e-01 8.707886e-01
9.150254e+08 -6.312256e-01 8.678589e-01 -2.251565e-05 -9.015203e-06 8.771196e-06 1.598243e-05 -6.300659e-01 8.692017e-01
9.187754e+08 -6.256104e-01 8.612671e-01 1.857616e-05 2.450868e-05 -1.624878e-05 1.966953e-06 -6.254883e-01 8.621826e-01
9.225254e+08 -6.203003e-01 8.518066e-01 -1.009414e-05 -5.857088e-06 9.302050e-06 2.955459e-05 -6.196899e-01 8.522949e-01
9.262754e+08 -6.191406e-01 8.400879e-01 2.788939e-05 2.030283e-05 1.888443e-05 -3.444962e-06 -6.171875e-01 8.409424e-01
9.300254e+08 -6.200562e-01 8.262939e-01 3.422610e-05 -1.775660e-05 2.504885e-05 -5.519390e-05 -6.188965e-01 8.273315e-01
9.337753e+08 -6.242065e-01 8.131714e-01 3.983080e-05 -4.616380e-05 -3.125146e-05 -3.806315e-05 -6.226196e-01 8.132324e-01
9.375253e+08 -6.304932e-01 8.009644e-01 3.108382e-05 1.257285e-06 5.549751e-06 3.837515e-06 -6.284790e-01 8.012695e-01
9.412753e+08 -6.388550e-01 7.905273e-01 1.414493e-05 -3.618002e-05 -1.476146e-05 -3.316626e-05 -6.374512e-01 7.913208e-01
9.450253e+08 -6.471558e-01 7.800903e-01 2.111308e-05 -1.784880e-05 -2.636574e-06 1.444947e-06 -6.468506e-01 7.816772e-01
9.487753e+08 -6.573486e-01 7.733765e-01 3.048591e-05 -1.549721e-05 3.826246e-05 -5.521998e-05 -6.561279e-01 7.756958e-01
9.525252e+08 -6.665649e-01 7.697754e-01 1.582317e-06 -6.237067e-06 -1.582038e-05 8.670613e-06 -6.660156e-01 7.696533e-01
9.562752e+08 -6.762695e-01 7.658081e-01 1.104176e-05 -2.377667e-05 1.696125e-05 -5.052611e-05 -6.755981e-01 7.669067e-01
9.600252e+08 -6.841431e-01 7.648315e-01 -5.424023e-06 -1.134537e-05 -3.151596e-06 -1.204945e-05 -6.820679e-01 7.659302e-01
9.637752e+08 -6.887817e-01 7.640991e-01 4.641712e-06 1.446996e-05 9.845942e-06 -2.611615e-05 -6.882324e-01 7.640381e-01
9.675252e+08 -6.911621e-01 7.621460e-01 -2.439320e-05 3.706291e-05 7.394701e-06 5.136058e-05 -6.900024e-01 7.636719e-01
9.712751e+08 -6.926880e-01 7.619629e-01 -3.261492e-06 3.246963e-05 -2.559647e-05 -2.769753e-05 -6.907959e-01 7.631226e-01
9.750251e+08 -6.899414e-01 7.587891e-01 -2.591498e-05 2.340600e-05 1.609139e-05 -8.823350e-06 -6.885376e-01 7.598877e-01
9.787751e+08 -6.870117e-01 7.535400e-01 -2.342835e-05 -2.601184e-05 3.062375e-05 1.119077e-05 -6.853638e-01 7.542725e-01
9.825251e+08 -6.825562e-01 7.454834e-01 9.320676e-06 2.909452e-05 4.875660e-05 -1.975521e-05 -6.810913e-01 7.455444e-01
9.862751e+08 -6.787720e-01 7.348022e-01 5.337968e-05 1.352653e-05 -1.480058e-05 -2.698228e-05 -6.777344e-01 7.349854e-01
9.900250e+08 -6.751099e-01 7.207031e-01 -4.647300e-05 1.159310e-05 -7.286668e-06 2.504513e-05 -6.739502e-01 7.216187e-01
9.937750e+08 -6.744080e-01 7.055359e-01 2.184696e-05 3.902055e-05 -3.475323e-05 2.608821e-05 -6.733398e-01 7.053223e-01
9.975250e+08 -6.756592e-01 6.871948e-01 -2.825074e-05 -7.223338e-06 -3.033131e-05 -4.330650e-06 -6.745605e-01 6.882019e-01
1.001275e+09 -6.789856e-01 6.693115e-01 9.071082e-07 -2.984516e-05 4.145503e-05 1.211092e-05 -6.780396e-01 6.706543e-01
1.005025e+09 -6.847839e-01 6.513062e-01 3.911089e-06 4.332978e-06 1.755916e-05 3.202632e-05 -6.846924e-01 6.522217e-01
1.008775e+09 -6.934509e-01 6.337280e-01 -1.403876e-05 -2.361089e-05 5.068257e-06 -9.698328e-06 -6.931763e-01 6.345520e-01
1.012525e+09 -7.044067e-01 6.173706e-01 1.175143e-05 6.332062e-06 1.137983e-05 1.448672e-05 -7.036743e-01 6.184082e-01
1.016275e+09 -7.171631e-01 6.035156e-01 -1.002103e-05 -3.929809e-05 -1.694169e-05 -1.833402e-05 -7.161255e-01 6.040039e-01
1.020025e+09 -7.305908e-01 5.911255e-01 -7.130206e-06 1.490116e-05 -2.405606e-06 8.221716e-06 -7.290649e-01 5.919800e-01
1.023775e+09 -7.435913e-01 5.812988e-01 3.379211e-05 -1.424924e-06 1.329556e-05 -7.276423e-06 -7.433472e-01 5.819702e-01
1.027525e+09 -7.569580e-01 5.726318e-01 4.148111e-05 4.069321e-05 7.852912e-06 6.499887e-05 -7.567749e-01 5.748291e-01
1.031275e+09 -7.682495e-01 5.668945e-01 -2.346002e-05 -3.273599e-05 2.073869e-05 4.423782e-05 -7.677612e-01 5.681152e-01
1.035025e+09 -7.792969e-01 5.631104e-01 -3.160350e-05 3.212318e-05 1.531653e-05 -2.932362e-05 -7.782593e-01 5.643921e-01
1.038775e+09 -7.890015e-01 5.592041e-01 2.443977e-05 -3.820285e-06 -5.268678e-05 -1.310557e-05 -7.885742e-01 5.606079e-01
1.042525e+09 -7.955933e-01 5.559692e-01 3.631040e-05 -1.755171e-05 3.721006e-05 -3.447942e-05 -7.954712e-01 5.576172e-01
1.046275e+09 -8.011475e-01 5.524292e-01 -3.151782e-05 5.370006e-06 5.565211e-05 1.163408e-05 -8.002930e-01 5.533447e-01
1.050025e+09 -8.050537e-01 5.479736e-01 -4.256517e-05 2.540648e-06 9.741634e-06 3.692135e-05 -8.055420e-01 5.492554e-01
1.053775e+09 -8.093262e-01 5.424805e-01 2.127327e-05 8.757226e-06 -3.876537e-05 8.568168e-08 -8.084717e-01 5.427856e-01
1.057525e+09 -8.113403e-01 5.358276e-01 -6.061047e-06 -4.859269e-05 2.116337e-05 -2.574176e-05 -8.108521e-01 5.375977e-01
1.061275e+09 -8.145752e-01 5.281982e-01 -1.411991e-10 -2.375202e-10 -5.686190e-06 -3.939494e-06 -8.140259e-01 5.292358e-01
1.065025e+09 -8.177490e-01 5.191650e-01 2.066977e-05 -2.167188e-05 3.521889e-05 -1.928210e-05 -8.167725e-01 5.206909e-01
1.068775e+09 -8.211060e-01 5.099487e-01 -5.315989e-05 1.005456e-05 -3.835000e-05 6.955117e-06 -8.210449e-01 5.112915e-01
1.072525e+09 -8.253174e-01 5.004272e-01 -7.708371e-05 1.751259e-05 1.914799e-06 -2.208352e-05 -8.256226e-01 5.020142e-01
1.076275e+09 -8.303223e-01 4.906006e-01 -5.695969e-06 3.571063e-05 -2.065673e-05 -3.762171e-05 -8.319702e-01 4.917603e-01
1.080025e+09 -8.375854e-01 4.817505e-01 3.196672e-05 -4.587695e-05 -1.264736e-05 2.789125e-05 -8.367920e-01 4.815674e-01
1.083775e+09 -8.441772e-01 4.721680e-01 5.981699e-05 -4.892796e-05 -3.970414e-05 3.571808e-05 -8.435669e-01 4.729614e-01
1.087525e+09 -8.524780e-01 4.645996e-01 9.615906e-06 -1.781154e-05 1.635682e-05 -1.973473e-06 -8.511353e-01 4.658813e-01
1.091275e+09 -8.601685e-01 4.592896e-01 -2.875365e-05 3.321469e-05 1.048949e-05 -1.274608e-05 -8.597412e-01 4.592896e-01
1.095025e+09 -8.673706e-01 4.526367e-01 1.893565e-05 2.514198e-05 -1.322012e-05 1.422781e-05 -8.663940e-01 4.542847e-01
1.098775e+09 -8.738403e-01 4.490356e-01 -2.140831e-05 -8.841977e-06 8.895993e-06 1.621898e-05 -8.729858e-01 4.499512e-01
1.102524e+09 -8.789062e-01 4.453735e-01 2.043322e-05 5.256385e-05 -4.636496e-05 1.834333e-05 -8.782959e-01 4.474487e-01
1.106274e+09 -8.820190e-01 4.431763e-01 -1.275539e-05 3.521331e-06 1.763925e-05 2.574734e-05 -8.811035e-01 4.455566e-01
1.110024e+09 -8.827515e-01 4.407959e-01 6.319489e-06 8.397270e-06 -1.885369e-05 1.744274e-05 -8.820801e-01 4.414062e-01
1.113774e+09 -8.829346e-01 4.366455e-01 -2.143439e-05 -1.565367e-05 3.529713e-06 1.943763e-05 -8.822021e-01 4.385376e-01
1.117524e+09 -8.805542e-01 4.312134e-01 -1.627952e-06 6.366055e-06 -1.478195e-05 -2.041459e-05 -8.805542e-01 4.325562e-01
1.121274e+09 -8.776245e-01 4.244995e-01 2.535991e-05 2.682023e-05 -2.132356e-05 -4.531816e-05 -8.772583e-01 4.262695e-01
1.125024e+09 -8.759766e-01 4.155884e-01 5.893782e-05 1.501292e-06 -3.836863e-05 2.101809e-05 -8.752441e-01 4.171753e-01
1.128774e+09 -8.732910e-01 4.049072e-01 4.806742e-05 -4.197657e-05 -1.120009e-05 -9.741634e-07 -8.732910e-01 4.060669e-01
1.132524e+09 -8.718262e-01 3.931274e-01 1.110323e-05 9.621494e-06 -5.413592e-05 -3.410503e-05 -8.714600e-01 3.944702e-01
1.136274e+09 -8.723755e-01 3.795166e-01 3.096275e-05 1.809932e-05 -2.923980e-05 -4.051253e-05 -8.709106e-01 3.809814e-01
1.140024e+09 -8.731079e-01 3.666992e-01 -3.410503e-06 3.310293e-05 3.751740e-05 4.281476e-05 -8.731689e-01 3.673096e-01
1.143774e+09 -8.765869e-01 3.532715e-01 1.826044e-05 1.488440e-05 -1.750700e-05 -2.555177e-05 -8.765259e-01 3.548584e-01
1.147524e+09 -8.806152e-01 3.403320e-01 7.276423e-06 -1.512747e-05 1.526996e-05 4.074350e-05 -8.807983e-01 3.413086e-01
1.151274e+09 -8.856812e-01 3.283081e-01 2.806075e-05 -9.795651e-06 3.393553e-05 2.354197e-05 -8.845215e-01 3.295288e-01
1.155024e+09 -8.914795e-01 3.183594e-01 -4.958361e-05 9.052455e-07 1.674332e-05 4.884787e-06 -8.906860e-01 3.188477e-01
1.158774e+09 -8.966675e-01 3.081055e-01 2.540275e-05 3.375486e-05 3.637373e-05 -6.220490e-05 -8.967285e-01 3.086548e-01
1.162524e+09 -9.014893e-01 2.979736e-01 2.191961e-05 -4.545599e-05 2.939999e-05 -3.018230e-05 -9.010620e-01 3.003540e-01
1.166274e+09 -9.052124e-01 2.904053e-01 -4.703179e-08 6.810762e-06 1.195446e-05 2.179109e-05 -9.049683e-01 2.913818e-01
1.170024e+09 -9.093018e-01 2.813721e-01 1.255423e-06 5.489215e-05 -3.258698e-06 -1.244247e-05 -9.088745e-01 2.832642e-01
1.173774e+09 -9.113770e-01 2.735596e-01 1.424924e-05 2.415851e-05 -3.371388e-06 5.895644e-05 -9.107666e-01 2.746582e-01
1.177524e+09 -9.124756e-01 2.649536e-01 3.070198e-05 -3.989413e-05 -5.327165e-07 -1.403503e-05 -9.118042e-01 2.655640e-01
1.181274e+09 -9.129028e-01 2.548828e-01 -1.702458e-06 1.323316e-05 2.621673e-07 7.032882e-06 -9.129028e-01 2.559204e-01
1.185024e+09 -9.131470e-01 2.440186e-01 -2.882257e-05 -1.424737e-05 2.041645e-05 1.756661e-05 -9.128418e-01 2.455444e-01
1.188774e+09 -9.130859e-01 2.318726e-01 1.071393e-05 -3.490224e-05 1.843274e-05 4.024431e-05 -9.128418e-01 2.332764e-01
1.192524e+09 -9.131470e-01 2.191162e-01 1.050718e-05 -7.571653e-06 2.922863e-05 2.710521e-05 -9.133301e-01 2.195435e-01
1.196274e+09 -9.148560e-01 2.037964e-01 1.310743e-05 -3.090687e-05 1.683179e-05 -2.027489e-06 -9.147339e-01 2.050171e-01
1.200024e+09 -9.170532e-01 1.881714e-01 -1.135748e-05 1.079496e-05 3.105961e-05 4.477799e-06 -9.177246e-01 1.892090e-01
1.203774e+09 -9.213867e-01 1.716919e-01 1.609419e-05 4.131347e-06 4.012138e-06 3.348663e-05 -9.211426e-01 1.730957e-01
1.207524e+09 -9.268188e-01 1.547852e-01 3.480352e-05 -2.194010e-05 2.145767e-05 5.229935e-05 -9.267578e-01 1.560669e-01
1.211274e+09 -9.341431e-01 1.387939e-01 -2.426282e-05 1.433305e-05 -2.209470e-05 4.982576e-06 -9.348755e-01 1.395264e-01
1.215024e+09 -9.441528e-01 1.223755e-01 1.691561e-05 9.397045e-07 -2.010167e-05 -1.733005e-05 -9.439087e-01 1.231079e-01
1.218774e+09 -9.551392e-01 1.079102e-01 -1.120660e-05 -9.734184e-06 -1.024827e-05 -5.100667e-05 -9.549561e-01 1.085815e-01
1.222524e+09 -9.680786e-01 9.417725e-02 -9.443611e-06 -2.989173e-05 1.659989e-05 -1.991168e-06 -9.687500e-01 9.558105e-02
1.226274e+09 -9.820557e-01 8.447266e-02 2.592243e-05 -1.390278e-05 2.782792e-05 -1.033768e-06 -9.828491e-01 8.477783e-02
1.230024e+09 -9.968872e-01 7.629395e-02 -2.071261e-06 -4.519522e-05 -1.197867e-05 -2.193451e-05 -9.971924e-01 7.843018e-02
1.233774e+09 -1.011597e+00 7.086182e-02 5.668961e-06 -1.973938e-06 6.484240e-05 7.450581e-06 -1.011902e+00 7.214355e-02
1.237524e+09 -1.023193e+00 6.927490e-02 -2.566352e-05 -2.038293e-05 -4.213303e-06 3.818423e-05 -1.023743e+00 7.061768e-02
1.241274e+09 -1.034424e+00 6.927490e-02 -1.869258e-05 1.236983e-05 -1.724809e-06 2.977438e-05 -1.035339e+00 7.135010e-02
1.245024e+09 -1.041687e+00 7.086182e-02 -2.797320e-05 5.476177e-05 3.311783e-06 1.264922e-05 -1.041077e+00 7.238770e-02
1.248774e+09 -1.045959e+00 7.147217e-02 -2.915971e-05 6.232411e-06 -2.282672e-05 -2.004206e-06 -1.045715e+00 7.379150e-02
1.252524e+09 -1.047607e+00 7.257080e-02 -1.488626e-05 4.434586e-05 -3.400072e-05 4.086643e-06 -1.047791e+00 7.537842e-02
1.256274e+09 -1.046387e+00 7.342529e-02 -2.121367e-05 2.207421e-05 -6.359071e-06 -1.825392e-05 -1.047119e+00 7.415771e-02
1.260024e+09 -1.044617e+00 6.964111e-02 -1.355261e-05 -2.762862e-05 -2.287328e-06 1.570396e-05 -1.044739e+00 7.159424e-02
1.263774e+09 -1.042725e+00 6.481934e-02 3.309920e-05 1.202524e-05 -1.614168e-05 -5.614758e-05 -1.042419e+00 6.738281e-02
1.267524e+09 -1.039368e+00 5.828857e-02 4.124362e-06 -9.291340e-06 -1.360197e-05 1.461245e-05 -1.040222e+00 5.987549e-02
1.271274e+09 -1.038330e+00 5.023193e-02 3.963709e-06 1.139846e-05 1.632143e-05 -1.608301e-05 -1.038452e+00 5.236816e-02
1.275024e+09 -1.038757e+00 4.089355e-02 -1.455657e-06 -2.113543e-05 -2.404675e-05 3.459118e-05 -1.039368e+00 4.302979e-02
1.278774e+09 -1.040222e+00 3.167725e-02 1.232326e-05 -1.415517e-05 7.207319e-05 -2.506748e-05 -1.040527e+00 3.442383e-02
1.282524e+09 -1.043213e+00 2.294922e-02 2.259389e-05 2.664700e-05 2.903305e-05 2.697855e-05 -1.042419e+00 2.441406e-02
1.286274e+09 -1.048218e+00 1.507568e-02 1.588836e-05 -4.796684e-05 -6.020069e-06 -1.101289e-05 -1.047180e+00 1.715088e-02
1.290024e+09 -1.052124e+00 9.826660e-03 -2.291054e-06 -1.797639e-05 3.436953e-05 1.699664e-05 -1.052368e+00 1.098633e-02
1.293774e+09 -1.056824e+00 5.920410e-03 -1.875591e-05 -1.379289e-06 -3.941357e-06 4.526973e-05 -1.057068e+00 7.934570e-03
1.297524e+09 -1.062073e+00 4.943848e-03 -4.511327e-06 5.098432e-05 -1.166016e-06 4.393980e-05 -1.062134e+00 6.530762e-03
1.301273e+09 -1.065369e+00 5.065918e-03 -3.971905e-05 -4.158728e-05 -8.164346e-05 2.304465e-05 -1.065369e+00 6.713867e-03
1.305023e+09 -1.066040e+00 7.019043e-03 3.285520e-05 -1.935661e-05 5.232915e-05 2.232939e-05 -1.065918e+00 9.155273e-03
1.308773e+09 -1.062927e+00 1.116943e-02 -5.740672e-06 1.999084e-06 2.537854e-06 -8.702278e-06 -1.062927e+00 1.281738e-02
1.312523e+09 -1.057495e+00 1.519775e-02 -1.231860e-05 7.250346e-06 -1.746789e-05 -5.091541e-06 -1.057007e+00 1.721191e-02
1.316273e+09 -1.047791e+00 1.751709e-02 3.213994e-06 7.789582e-06 -3.539026e-07 6.626174e-05 -1.047302e+00 1.818848e-02
1.320023e+09 -1.035645e+00 1.660156e-02 -1.730118e-05 1.988187e-05 -2.081878e-05 -1.793914e-05 -1.035339e+00 1.873779e-02
1.323773e+09 -1.020996e+00 1.434326e-02 -3.458932e-06 2.691709e-05 8.982141e-06 9.714160e-06 -1.020569e+00 1.617432e-02
1.327523e+09 -1.006348e+00 7.751465e-03 2.217293e-05 -1.860783e-05 -6.420538e-06 -1.837686e-05 -1.006348e+00 9.277344e-03
1.331273e+09 -9.916992e-01 -1.037598e-03 -1.028739e-05 -4.089065e-05 1.172163e-05 8.109026e-06 -9.913940e-01 -1.220703e-04
1.335023e+09 -9.774780e-01 -1.361084e-02 -1.092814e-05 4.232116e-05 1.139473e-05 9.806827e-07 -9.769897e-01 -1.208496e-02
1.338773e+09 -9.652710e-01 -2.941895e-02 -2.905354e-05 6.544217e-05 -2.705492e-07 -7.062219e-06 -9.649658e-01 -2.777100e-02
1.342523e+09 -9.545898e-01 -4.528809e-02 -7.441267e-07 -1.060870e-05 5.243346e-06 -1.007039e-05 -9.550171e-01 -4.370117e-02
1.346273e+09 -9.468384e-01 -6.268311e-02 1.772307e-06 -2.038479e-05 8.568168e-07 -5.070865e-05 -9.464722e-01 -6.060791e-02
1.350023e+09 -9.407349e-01 -8.056641e-02 -1.331791e-05 3.829040e-05 -4.967675e-06 1.707766e-05 -9.403687e-01 -7.849121e-02
1.353773e+09 -9.371338e-01 -9.814453e-02 3.449619e-06 -2.695434e-05 -2.122670e-05 3.320538e-05 -9.381104e-01 -9.564209e-02
1.357523e+09 -9.362793e-01 -1.142578e-01 -2.634712e-05 2.807379e-05 -3.595836e-05 1.976453e-05 -9.357910e-01 -1.126709e-01
1.361273e+09 -9.350586e-01 -1.292114e-01 2.359226e-05 2.350099e-05 2.940185e-05 2.715364e-05 -9.357300e-01 -1.274414e-01
1.365023e+09 -9.364014e-01 -1.422729e-01 -1.314469e-05 3.604218e-06 5.854294e-06 4.027039e-06 -9.372559e-01 -1.408691e-01
1.368773e+09 -9.377441e-01 -1.546631e-01 -6.650575e-06 1.225807e-05 2.708286e-05 -3.682449e-05 -9.374390e-01 -1.528931e-01
1.372523e+09 -9.389648e-01 -1.646729e-01 3.229827e-06 7.825438e-06 -1.348741e-05 2.208352e-05 -9.398804e-01 -1.630859e-01
1.376273e+09 -9.391479e-01 -1.730957e-01 -1.797639e-05 -1.862738e-05 3.333390e-05 4.051253e-05 -9.397583e-01 -1.718750e-01
1.380023e+09 -9.388428e-01 -1.801758e-01 -6.617047e-06 5.301554e-06 7.972121e-07 -5.214289e-05 -9.383545e-01 -1.792603e-01
1.383773e+09 -9.370117e-01 -1.866455e-01 6.034970e-06 -3.703125e-05 6.834045e-06 2.584234e-05 -9.376831e-01 -1.858521e-01
1.387523e+09 -9.339600e-01 -1.938477e-01 1.746509e-05 -2.010446e-05 -1.423806e-05 -6.623566e-05 -9.342651e-01 -1.925659e-01
1.391273e+09 -9.289551e-01 -2.001953e-01 1.414306e-05 -2.095196e-05 3.949553e-05 4.487112e-05 -9.294434e-01 -1.987915e-01
1.395023e+09 -9.241943e-01 -2.073975e-01 8.840114e-06 3.391877e-05 -7.413328e-06 -4.030764e-05 -9.242554e-01 -2.062988e-01
1.398773e+09 -9.174194e-01 -2.162476e-01 9.462237e-07 -1.736544e-05 3.083609e-05 -2.438389e-05 -9.172974e-01 -2.140503e-01
1.402523e+09 -9.105225e-01 -2.260742e-01 4.912261e-06 8.306000e-06 -3.051758e-05 -4.206225e-05 -9.104004e-01 -2.243652e-01
1.406273e+09 -9.040527e-01 -2.374878e-01 -1.663249e-05 9.832904e-06 7.037073e-06 3.277138e-05 -9.042969e-01 -2.357178e-01
1.410023e+09 -8.973389e-01 -2.489624e-01 3.263820e-06 7.883180e-06 -1.990423e-05 3.661960e-06 -8.981934e-01 -2.475586e-01
1.413773e+09 -8.931274e-01 -2.619019e-01 1.555867e-05 2.863072e-05 1.254678e-05 -4.340336e-05 -8.931274e-01 -2.601929e-01
1.417523e+09 -8.891602e-01 -2.758789e-01 4.204735e-05 2.838671e-05 5.746260e-07 1.424830e-05 -8.889160e-01 -2.749023e-01
1.421273e+09 -8.858643e-01 -2.900391e-01 2.401881e-06 1.118705e-05 3.076158e-06 5.580485e-06 -8.865967e-01 -2.871094e-01
1.425023e+09 -8.851318e-01 -3.026123e-01 -4.474074e-05 9.618700e-06 1.117028e-05 -6.173737e-06 -8.864746e-01 -3.008423e-01
1.428773e+09 -8.851929e-01 -3.153687e-01 -1.413748e-05 1.397636e-05 6.183051e-06 1.119729e-05 -8.859253e-01 -3.133545e-01
1.432523e+09 -8.870239e-01 -3.280640e-01 -3.491901e-05 2.626143e-05 -4.865974e-05 4.868954e-06 -8.876343e-01 -3.254395e-01
1.436273e+09 -8.888550e-01 -3.368530e-01 1.256727e-05 -3.549829e-05 5.939044e-06 4.075933e-06 -8.897095e-01 -3.360596e-01
1.440023e+09 -8.906860e-01 -3.461304e-01 1.912098e-05 -1.974497e-05 1.132861e-05 -6.251037e-06 -8.917847e-01 -3.442383e-01
1.443773e+09 -8.922729e-01 -3.538818e-01 -2.484769e-05 6.742775e-07 -1.391955e-05 1.508091e-05 -8.936157e-01 -3.519287e-01
1.447523e+09 -8.936157e-01 -3.591309e-01 1.797825e-05 3.983080e-05 9.141862e-06 9.833835e-06 -8.939209e-01 -3.572388e-01
1.451273e+09 -8.933716e-01 -3.635254e-01 1.920387e-06 -4.178286e-05 -5.941838e-07 -1.456589e-05 -8.942261e-01 -3.612671e-01
1.455023e+09 -8.911743e-01 -3.674316e-01 -8.020550e-06 -5.140901e-05 -1.171045e-05 -9.788200e-07 -8.917847e-01 -3.662720e-01
1.458773e+09 -8.873901e-01 -3.722534e-01 1.064967e-05 2.036337e-05 1.184642e-06 2.907589e-05 -8.884888e-01 -3.698730e-01
1.462523e+09 -8.835449e-01 -3.773193e-01 2.991408e-05 -1.351535e-05 -3.682449e-05 -4.647300e-05 -8.842163e-01 -3.756104e-01
1.466273e+09 -8.778076e-01 -3.836060e-01 5.974993e-05 -5.852431e-06 -1.310930e-05 -3.715791e-05 -8.785400e-01 -3.814697e-01
1.470023e+09 -8.717651e-01 -3.908691e-01 3.314810e-06 8.482020e-07 -2.825400e-06 1.562992e-06 -8.728027e-01 -3.886108e-01
1.473773e+09 -8.668823e-01 -3.985596e-01 -8.409843e-06 1.906138e-05 -3.311597e-05 -3.319606e-05 -8.675537e-01 -3.969116e-01
1.477523e+09 -8.615112e-01 -4.077759e-01 8.301809e-06 2.123415e-06 -2.871267e-05 1.214445e-06 -8.617554e-01 -4.057007e-01
1.481273e+09 -8.566895e-01 -4.175415e-01 -6.502494e-06 -3.001094e-05 -1.654122e-05 1.649652e-05 -8.583984e-01 -4.156494e-01
1.485023e+09 -8.540039e-01 -4.284668e-01 -3.116205e-06 -4.338101e-05 -3.404915e-06 -1.279265e-05 -8.557129e-01 -4.265747e-01
1.488773e+09 -8.521729e-01 -4.384155e-01 1.744181e-05 1.512468e-05 -3.407151e-05 1.151673e-05 -8.529663e-01 -4.353638e-01
1.492523e+09 -8.511353e-01 -4.464722e-01 -2.594665e-06 1.710374e-05 -2.161413e-05 3.410690e-05 -8.515625e-01 -4.452515e-01
1.496273e+09 -8.494263e-01 -4.554443e-01 -3.257208e-05 -4.781410e-06 5.496666e-05 -9.089708e-07 -8.513794e-01 -4.532471e-01
1.500022e+09 -8.494873e-01 -4.619141e-01 -3.760122e-05 1.048669e-06 -2.115220e-05 -1.797825e-05 -8.507690e-01 -4.601440e-01
1.503772e+09 -8.489380e-01 -4.681396e-01 1.500268e-05 1.096074e-05 2.852874e-06 -1.582550e-06 -8.500366e-01 -4.663696e-01
1.507522e+09 -8.474121e-01 -4.723511e-01 2.009328e-05 -2.007931e-06 5.728565e-06 -3.180467e-06 -8.486938e-01 -4.703369e-01
1.511272e+09 -8.441162e-01 -4.760132e-01 4.668161e-05 3.331155e-05 -1.496822e-05 -7.434562e-05 -8.455811e-01 -4.739380e-01
1.515022e+09 -8.400269e-01 -4.790039e-01 2.768263e-05 -1.074933e-05 -4.957989e-05 1.241639e-05 -8.406982e-01 -4.769287e-01
1.518772e+09 -8.342896e-01 -4.821777e-01 1.592934e-05 -6.615184e-06 -5.397946e-06 -5.729124e-05 -8.355713e-01 -4.799805e-01
1.522522e+09 -8.260498e-01 -4.864502e-01 -8.223578e-06 -3.060699e-05 -4.643202e-05 1.814961e-05 -8.274536e-01 -4.837646e-01
1.526272e+09 -8.168335e-01 -4.899902e-01 -2.257526e-05 -2.214685e-06 -3.194436e-05 1.019239e-05 -8.179932e-01 -4.880981e-01
1.530022e+09 -8.063354e-01 -4.966431e-01 1.572073e-06 2.176221e-05 4.140660e-05 7.040799e-06 -8.071899e-01 -4.949951e-01
1.533772e+09 -7.943115e-01 -5.053101e-01 -9.245705e-06 8.319970e-06 -2.379529e-05 -9.229407e-06 -7.961426e-01 -5.030518e-01
1.537522e+09 -7.833252e-01 -5.146484e-01 -1.441687e-05 4.259497e-05 -3.696233e-05 2.053194e-05 -7.843628e-01 -5.137939e-01
1.541272e+09 -7.728882e-01 -5.273438e-01 2.178736e-05 -8.678064e-06 -8.823350e-06 -2.524350e-06 -7.738037e-01 -5.250244e-01
1.545022e+09 -7.623291e-01 -5.408936e-01 2.935156e-05 -1.744181e-05 5.653594e-06 -3.140885e-06 -7.630615e-01 -5.386963e-01
1.548772e+09 -7.532959e-01 -5.565186e-01 -1.330860e-05 -1.762435e-05 -3.507733e-05 -1.003407e-05 -7.553101e-01 -5.543823e-01
1.552522e+09 -7.470093e-01 -5.728760e-01 1.018494e-05 -3.300607e-05 9.091105e-06 9.709038e-06 -7.478638e-01 -5.714722e-01
1.556272e+09 -7.416382e-01 -5.886230e-01 -1.836382e-05 -1.180172e-05 -4.367903e-06 3.195927e-05 -7.431030e-01 -5.882568e-01
1.560022e+09 -7.386475e-01 -6.068115e-01 7.524621e-06 5.478039e-06 -3.204867e-05 -4.384667e-06 -7.399902e-01 -6.047363e-01
1.563772e+09 -7.380981e-01 -6.226807e-01 3.947690e-05 -7.778406e-06 -2.423674e-05 4.323199e-05 -7.401733e-01 -6.213379e-01
1.567522e+09 -7.389526e-01 -6.381226e-01 -9.172596e-06 -1.305528e-05 -9.198207e-06 -9.818468e-06 -7.410278e-01 -6.363525e-01
1.571272e+09 -7.418823e-01 -6.517334e-01 2.438203e-05 2.646819e-06 -3.920682e-05 -2.323650e-05 -7.440796e-01 -6.501465e-01
1.575022e+09 -7.450562e-01 -6.634521e-01 8.402858e-06 2.137851e-06 -2.274290e-05 -4.771352e-05 -7.472534e-01 -6.622314e-01
1.578772e+09 -7.488403e-01 -6.723633e-01 -4.127808e-05 2.663583e-07 -2.239831e-06 1.640618e-05 -7.506104e-01 -6.699219e-01
1.582522e+09 -7.520752e-01 -6.783447e-01 -1.929328e-05 -2.284162e-05 -1.806486e-05 -5.139969e-06 -7.535400e-01 -6.775513e-01
1.586272e+09 -7.537842e-01 -6.841431e-01 -2.375804e-05 2.985634e-05 -3.330037e-05 -1.196377e-05 -7.556152e-01 -6.824951e-01
1.590022e+09 -7.533569e-01 -6.879883e-01 -4.302710e-05 -1.453422e-05 -6.270036e-05 -3.233552e-06 -7.553101e-01 -6.864014e-01
1.593772e+09 -7.519531e-01 -6.915894e-01 1.110137e-05 -2.956018e-05 3.232621e-06 5.814712e-06 -7.543335e-01 -6.898193e-01
1.597522e+09 -7.490845e-01 -6.943359e-01 3.386848e-05 -5.774200e-06 -9.701587e-06 -1.740735e-05 -7.498779e-01 -6.931152e-01
1.601272e+09 -7.432251e-01 -6.987915e-01 -3.354158e-06 -8.065253e-06 -2.989545e-05 -6.068498e-06 -7.451172e-01 -6.978149e-01
1.605022e+09 -7.376099e-01 -7.041016e-01 -2.047978e-05 2.364628e-05 -8.974224e-06 -2.546236e-06 -7.385864e-01 -7.031250e-01
1.608772e+09 -7.312012e-01 -7.111816e-01 3.255345e-05 -1.267344e-05 -6.612018e-05 -5.051494e-06 -7.330933e-01 -7.106934e-01
1.612522e+09 -7.234497e-01 -7.200928e-01 2.330914e-05 2.379902e-05 -3.636256e-05 3.758259e-05 -7.236328e-01 -7.153931e-01
1.616272e+09 -7.182007e-01 -7.282715e-01 1.669768e-05 -1.862179e-05 -1.860410e-05 1.076329e-05 -7.208252e-01 -7.273560e-01
1.620022e+09 -7.117310e-01 -7.392578e-01 2.315454e-05 -1.476333e-05 3.557093e-05 1.585111e-05 -7.152710e-01 -7.381592e-01
1.623772e+09 -7.097778e-01 -7.500000e-01 9.479467e-06 2.136920e-06 1.689512e-05 3.471039e-06 -7.120972e-01 -7.482910e-01
1.627522e+09 -7.075806e-01 -7.602539e-01 -2.093427e-05 -9.154901e-07 -4.513189e-06 -1.065619e-05 -7.094116e-01 -7.586670e-01
1.631272e+09 -7.082520e-01 -7.706909e-01 -7.936731e-06 -3.164820e-05 -2.736598e-05 8.241832e-05 -7.105713e-01 -7.683716e-01
1.635022e+09 -7.109985e-01 -7.794189e-01 3.203377e-05 -2.648868e-05 -2.425909e-05 7.299706e-06 -7.130127e-01 -7.769165e-01
1.638772e+09 -7.138062e-01 -7.854614e-01 2.307259e-05 -8.581206e-06 -1.544971e-05 -1.801364e-05 -7.161865e-01 -7.831421e-01
1.642522e+09 -7.168579e-01 -7.885132e-01 2.005324e-05 4.431978e-05 4.637614e-05 7.115304e-06 -7.196045e-01 -7.874756e-01
1.646272e+09 -7.204590e-01 -7.890625e-01 8.187257e-06 1.927651e-05 1.762994e-06 -1.462456e-05 -7.223511e-01 -7.872314e-01
1.650022e+09 -7.223511e-01 -7.872925e-01 -3.396720e-05 2.367608e-05 7.601827e-05 -1.316145e-05 -7.243042e-01 -7.850952e-01
1.653772e+09 -7.191772e-01 -7.827148e-01 2.474897e-05 6.748363e-06 -5.514827e-06 -3.648922e-06 -7.225952e-01 -7.796021e-01
1.657522e+09 -7.156372e-01 -7.777710e-01 -3.046915e-05 -9.259209e-06 6.710738e-05 3.637001e-05 -7.181396e-01 -7.751465e-01
1.661272e+09 -7.090454e-01 -7.718506e-01 1.461245e-05 3.581680e-05 2.390333e-05 2.367608e-05 -7.107544e-01 -7.694092e-01
1.665022e+09 -6.998291e-01 -7.666016e-01 -3.415719e-05 -2.138130e-05 -1.186319e-05 6.426126e-08 -7.007446e-01 -7.647095e-01
1.668772e+09 -6.868286e-01 -7.640381e-01 2.370402e-05 1.783110e-05 -2.051517e-05 7.289648e-05 -6.876221e-01 -7.615967e-01
1.672522e+09 -6.720581e-01 -7.636108e-01 -1.149997e-05 -5.039200e-05 -2.905168e-05 -3.488734e-06 -6.753540e-01 -7.599487e-01
1.676272e+09 -6.582642e-01 -7.630005e-01 -7.352792e-06 -1.802761e-05 4.326925e-06 -3.618933e-05 -6.597900e-01 -7.611084e-01
1.680022e+09 -6.447144e-01 -7.672119e-01 1.610536e-05 1.873355e-05 2.570450e-07 4.700571e-05 -6.469116e-01 -7.650146e-01
1.683772e+09 -6.305542e-01 -7.723999e-01 3.706664e-07 -1.893472e-05 2.080016e-05 -1.914799e-06 -6.323853e-01 -7.697144e-01
1.687522e+09 -6.171875e-01 -7.790527e-01 1.938827e-05 -4.142895e-05 -4.345179e-05 1.835823e-05 -6.197510e-01 -7.768555e-01
1.691272e+09 -6.062012e-01 -7.857056e-01 2.693757e-05 -2.965890e-05 -9.272248e-06 -4.548207e-05 -6.086426e-01 -7.829590e-01
1.695022e+09 -5.973511e-01 -7.923584e-01 -4.087761e-05 4.064292e-05 6.305054e-06 -2.744608e-05 -5.989990e-01 -7.908936e-01
1.698772e+09 -5.887451e-01 -8.009644e-01 -3.379956e-05 2.570264e-05 6.063282e-05 -3.145635e-05 -5.908813e-01 -7.997437e-01
1.702521e+09 -5.819092e-01 -8.069458e-01 -1.892913e-06 -2.982095e-06 1.050532e-06 4.069135e-05 -5.838623e-01 -8.061523e-01
1.706271e+09 -5.756226e-01 -8.123169e-01 -5.407259e-06 -2.168678e-05 4.837289e-05 -1.303852e-07 -5.791016e-01 -8.103638e-01
1.710021e+09 -5.697021e-01 -8.160400e-01 2.612360e-05 1.480989e-05 3.453530e-05 -9.436160e-06 -5.728760e-01 -8.140259e-01
1.713771e+09 -5.658569e-01 -8.171387e-01 -4.021078e-05 -4.362687e-05 -2.443790e-05 -2.429634e-05 -5.676270e-01 -8.167114e-01
1.717521e+09 -5.592651e-01 -8.191528e-01 2.865866e-05 -7.720664e-06 -9.275973e-07 7.524621e-06 -5.611572e-01 -8.168335e-01
1.721271e+09 -5.520630e-01 -8.175049e-01 -5.261973e-06 -2.811290e-05 -2.247840e-05 3.389455e-05 -5.537720e-01 -8.159790e-01
1.725021e+09 -5.432129e-01 -8.157349e-01 -4.776940e-05 2.399087e-05 -3.191270e-05 1.135841e-05 -5.458374e-01 -8.141479e-01
1.728771e+09 -5.327148e-01 -8.141479e-01 7.883180e-06 -8.023344e-07 -4.655682e-06 1.314189e-05 -5.357056e-01 -8.114624e-01
1.732521e+09 -5.202637e-01 -8.117065e-01 5.211309e-05 2.704561e-06 -7.453375e-06 1.122057e-05 -5.228882e-01 -8.108521e-01
1.736271e+09 -5.076294e-01 -8.106079e-01 -6.269291e-05 2.709776e-05 -2.603233e-05 1.497194e-05 -5.097656e-01 -8.095093e-01
1.740021e+09 -4.921875e-01 -8.108521e-01 3.501773e-05 -2.437085e-05 -1.672190e-05 -1.108367e-05 -4.931641e-01 -8.097534e-01
1.743771e+09 -4.750366e-01 -8.140259e-01 -2.388842e-05 8.827075e-06 2.715737e-06 -4.624575e-05 -4.783936e-01 -8.116455e-01
1.747521e+09 -4.600220e-01 -8.159790e-01 -2.326444e-05 2.315268e-05 9.277835e-06 2.211891e-05 -4.630127e-01 -8.156738e-01
1.751271e+09 -4.434814e-01 -8.218384e-01 -2.251007e-05 -8.942559e-06 1.393259e-05 5.711615e-05 -4.462280e-01 -8.213501e-01
1.755021e+09 -4.285278e-01 -8.297119e-01 4.934147e-05 -3.542006e-05 -4.344061e-05 -1.285225e-05 -4.296875e-01 -8.281860e-01
1.758771e+09 -4.142456e-01 -8.380127e-01 -1.018681e-05 -2.948195e-05 -2.503395e-05 -1.663528e-05 -4.161377e-01 -8.365479e-01
1.762521e+09 -4.013062e-01 -8.469849e-01 5.225092e-05 -2.454966e-05 -1.676753e-05 -3.533252e-05 -4.044189e-01 -8.462524e-01
1.766271e+09 -3.901367e-01 -8.576660e-01 3.879890e-05 9.015203e-07 2.990477e-05 -2.060644e-05 -3.934937e-01 -8.560791e-01
1.770021e+09 -3.817139e-01 -8.666382e-01 7.621944e-06 -6.855279e-05 1.306832e-05 -5.646795e-05 -3.842163e-01 -8.666382e-01
1.773771e+09 -3.735352e-01 -8.776245e-01 4.128180e-05 -1.550093e-05 -3.885664e-05 1.521409e-05 -3.756104e-01 -8.758545e-01
1.777521e+09 -3.666382e-01 -8.844604e-01 4.926696e-07 2.101902e-05 -4.569441e-05 1.907721e-05 -3.696289e-01 -8.840942e-01
1.781271e+09 -3.618774e-01 -8.921509e-01 -9.039417e-06 -4.132092e-05 4.022941e-05 5.162880e-05 -3.644409e-01 -8.909302e-01
1.785021e+09 -3.552246e-01 -8.970947e-01 5.632639e-06 1.569092e-05 -3.834069e-05 -4.223734e-05 -3.598022e-01 -8.964233e-01
1.788771e+09 -3.522339e-01 -9.011841e-01 3.549829e-05 -1.167506e-05 -6.739050e-06 -2.116151e-05 -3.551025e-01 -9.013672e-01
1.792521e+09 -3.472290e-01 -9.039307e-01 1.169741e-06 -4.577637e-05 6.798655e-06 4.616752e-05 -3.487549e-01 -9.036255e-01
1.796271e+09 -3.398438e-01 -9.061279e-01 1.135049e-06 -5.008653e-06 2.881698e-05 -5.768612e-06 -3.425903e-01 -9.047852e-01
1.800021e+09 -3.321533e-01 -9.057617e-01 3.479235e-05 -1.981482e-05 2.868474e-06 -4.787743e-05 -3.342285e-01 -9.049072e-01
1.803771e+09 -3.228760e-01 -9.067383e-01 3.189594e-05 1.643784e-05 -1.136868e-10 -5.697416e-10 -3.256226e-01 -9.055786e-01
1.807521e+09 -3.115845e-01 -9.088745e-01 1.185946e-05 -2.895109e-05 5.700160e-06 3.802124e-06 -3.142700e-01 -9.077148e-01
1.811271e+09 -3.004150e-01 -9.114990e-01 6.136298e-05 8.653849e-06 -4.705042e-06 -3.598444e-05 -3.028564e-01 -9.094238e-01
1.815021e+09 -2.868652e-01 -9.139404e-01 5.360693e-06 -1.198892e-05 -2.868474e-06 4.713610e-05 -2.906494e-01 -9.138794e-01
1.818771e+09 -2.758179e-01 -9.202271e-01 -2.948940e-05 7.841736e-06 -3.960356e-05 -1.929700e-06 -2.790527e-01 -9.193115e-01
1.822521e+09 -2.627563e-01 -9.257202e-01 -1.964252e-05 1.668464e-05 -2.736785e-05 2.258271e-05 -2.658081e-01 -9.252319e-01
1.826271e+09 -2.531128e-01 -9.349976e-01 -1.259148e-06 -2.939627e-05 -2.176315e-05 -2.270751e-05 -2.554932e-01 -9.351196e-01
1.830021e+09 -2.442627e-01 -9.444580e-01 2.193823e-05 1.426227e-05 -7.317588e-05 -3.243238e-05 -2.465820e-01 -9.449463e-01
1.833771e+09 -2.344360e-01 -9.544067e-01 -2.899393e-05 -1.849607e-05 -4.788116e-05 3.434345e-05 -2.390747e-01 -9.542236e-01
1.837521e+09 -2.305908e-01 -9.642944e-01 5.871058e-06 9.315554e-06 1.255795e-05 -2.501905e-05 -2.332764e-01 -9.642334e-01
1.841271e+09 -2.279053e-01 -9.729004e-01 2.204999e-05 1.435541e-05 7.661805e-05 1.752004e-05 -2.314453e-01 -9.718628e-01
1.845021e+09 -2.275391e-01 -9.796143e-01 -2.879836e-05 -3.193878e-05 -2.924353e-05 -1.954474e-05 -2.293701e-01 -9.786987e-01
1.848771e+09 -2.268066e-01 -9.844971e-01 2.432615e-06 2.462976e-05 -4.613027e-05 3.716350e-05 -2.293701e-01 -9.826050e-01
1.852521e+09 -2.268066e-01 -9.853516e-01 7.676892e-06 1.916662e-05 -3.337674e-05 -1.379102e-05 -2.296143e-01 -9.846191e-01
1.856271e+09 -2.252197e-01 -9.836426e-01 2.406538e-06 -5.168840e-05 -5.108118e-05 -1.080334e-07 -2.283325e-01 -9.825439e-01
1.860021e+09 -2.235718e-01 -9.805298e-01 1.405925e-05 -2.625957e-05 4.991889e-06 -3.919750e-05 -2.255859e-01 -9.798584e-01
1.863771e+09 -2.183838e-01 -9.747925e-01 -7.701665e-05 4.408881e-05 3.912859e-05 -3.311969e-05 -2.197266e-01 -9.747314e-01
1.867521e+09 -2.094727e-01 -9.707642e-01 1.834333e-05 -3.332086e-05 -1.077726e-05 3.496557e-05 -2.125244e-01 -9.694214e-01
1.871271e+09 -1.986694e-01 -9.658203e-01 -4.410371e-05 -6.854534e-07 -2.036057e-05 1.155399e-05 -2.020264e-01 -9.645996e-01
1.875021e+09 -1.878052e-01 -9.608154e-01 -2.550334e-05 -5.835667e-06 6.608665e-06 4.625320e-05 -1.907959e-01 -9.613037e-01
1.878771e+09 -1.723022e-01 -9.606934e-01 -1.348369e-05 4.124828e-05 -5.581230e-05 2.096221e-05 -1.752930e-01 -9.587402e-01
1.882521e+09 -1.594238e-01 -9.595337e-01 4.310627e-06 -7.081311e-06 1.719035e-05 3.651157e-05 -1.611328e-01 -9.588013e-01
1.886271e+09 -1.434937e-01 -9.611816e-01 -2.270192e-05 -3.617816e-05 -3.727525e-05 -5.009398e-05 -1.448364e-01 -9.613647e-01
1.890021e+09 -1.276245e-01 -9.648438e-01 -3.671832e-05 -1.650304e-05 -1.828000e-05 -3.920868e-06 -1.317749e-01 -9.651489e-01
1.893771e+09 -1.148682e-01 -9.700317e-01 5.043298e-05 4.535913e-05 1.905020e-06 9.675510e-06 -1.177979e-01 -9.689331e-01
1.897521e+09 -1.022339e-01 -9.760132e-01 -1.506973e-05 -1.700874e-05 7.732771e-06 1.363084e-05 -1.063232e-01 -9.763184e-01
1.901270e+09 -9.082031e-02 -9.833984e-01 2.374873e-05 -3.252551e-05 -2.635457e-05 -1.768582e-05 -9.375000e-02 -9.828491e-01
1.905020e+09 -8.123779e-02 -9.898682e-01 1.732633e-05 4.883111e-05 -2.455153e-05 -7.953495e-06 -8.459473e-02 -9.898682e-01
1.908770e+09 -7.275391e-02 -9.970703e-01 2.749264e-06 -2.384000e-05 -5.058199e-05 4.334375e-05 -7.611084e-02 -9.973145e-01
1.912520e+09 -6.658936e-02 -1.005371e+00 -3.836676e-05 3.067218e-05 2.597272e-05 -2.578460e-05 -7.092285e-02 -1.004211e+00
1.916270e+09 -6.262207e-02 -1.009338e+00 1.580454e-06 -1.872238e-05 4.994869e-05 -9.819865e-06 -6.518555e-02 -1.009399e+00
1.920020e+09 -5.859375e-02 -1.012939e+00 3.245287e-05 -4.824251e-06 -4.803389e-05 -6.191432e-06 -6.127930e-02 -1.013000e+00
1.923770e+09 -5.407715e-02 -1.014832e+00 -3.413111e-05 -1.193024e-05 8.097291e-05 2.846122e-05 -5.853271e-02 -1.014160e+00
1.927520e+09 -5.114746e-02 -1.013855e+00 2.815947e-05 2.378598e-06 1.391303e-05 1.806486e-05 -5.407715e-02 -1.012939e+00
1.931270e+09 -4.547119e-02 -1.012512e+00 1.077261e-05 -1.119450e-05 4.992262e-05 -9.749085e-06 -4.986572e-02 -1.012329e+00
1.935020e+09 -4.034424e-02 -1.007874e+00 -1.601875e-06 1.878850e-05 -1.404248e-05 3.368221e-05 -4.278564e-02 -1.008240e+00
1.938770e+09 -3.173828e-02 -1.004944e+00 -4.179403e-05 -3.830716e-05 4.891306e-06 1.187343e-05 -3.424072e-02 -1.003784e+00
1.942520e+09 -2.062988e-02 -1.000488e+00 1.460314e-05 3.757328e-05 -1.222640e-05 -1.022220e-04 -2.380371e-02 -1.001465e+00
1.946270e+09 -8.789062e-03 -9.973145e-01 3.416650e-05 -2.359226e-05 -6.007031e-06 2.149493e-05 -1.159668e-02 -9.970703e-01
1.950020e+09 5.004883e-03 -9.952393e-01 3.582984e-05 -4.240684e-05 7.472932e-06 6.445497e-05 1.647949e-03 -9.962158e-01
1.953770e+09 1.806641e-02 -9.960938e-01 5.969778e-07 1.521222e-05 -2.449751e-05 1.745857e-05 1.507568e-02 -9.960327e-01
1.957520e+09 3.198242e-02 -9.957275e-01 1.343153e-05 4.288554e-05 -8.810312e-07 -1.758896e-05 2.984619e-02 -9.978638e-01
1.961270e+09 4.681396e-02 -1.000854e+00 1.907162e-05 -5.207956e-06 -2.693385e-06 -5.298480e-05 4.376221e-02 -1.002197e+00
1.965020e+09 5.834961e-02 -1.005432e+00 -2.550893e-05 9.259209e-06 4.037470e-05 1.002476e-05 5.590820e-02 -1.005920e+00
1.968770e+09 7.061768e-02 -1.011230e+00 -2.414733e-05 -2.827495e-06 -1.585204e-05 -2.071261e-06 6.671143e-02 -1.011841e+00
1.972520e+09 7.965088e-02 -1.018677e+00 -1.616776e-06 1.893193e-05 -3.373995e-05 -4.011393e-05 7.666016e-02 -1.018921e+00
1.976270e+09 8.642578e-02 -1.024170e+00 5.356967e-05 4.275888e-05 6.036833e-05 -3.781542e-05 8.398438e-02 -1.024109e+00
1.980020e+09 9.283447e-02 -1.029785e+00 -1.774076e-05 -6.858259e-06 -4.418567e-05 -3.854930e-05 8.947754e-02 -1.030884e+00
1.983770e+09 9.600830e-02 -1.035339e+00 -7.851049e-06 -1.979899e-05 -4.218891e-06 3.240444e-05 9.332275e-02 -1.034668e+00
1.987520e+09 9.802246e-02 -1.037170e+00 8.696225e-06 -7.676892e-06 2.589822e-05 -9.735674e-05 9.576416e-02 -1.038269e+00
1.991270e+09 9.997559e-02 -1.039429e+00 2.633408e-05 6.094575e-06 -2.855062e-05 1.615286e-05 9.759521e-02 -1.040283e+00
1.995020e+09 1.041260e-01 -1.039185e+00 2.823025e-05 1.623854e-05 -4.058331e-05 -1.855567e-05 1.014404e-01 -1.039307e+00
1.998770e+09 1.052856e-01 -1.038330e+00 1.427997e-05 -1.345947e-05 1.123827e-05 -1.010951e-05 1.031494e-01 -1.038940e+00
2.002520e+09 1.082153e-01 -1.036011e+00 -1.902040e-05 -8.620322e-06 -6.983057e-06 -2.238527e-05 1.060181e-01 -1.037537e+00
2.006270e+09 1.132202e-01 -1.032227e+00 1.067389e-05 2.474524e-06 -2.403930e-05 -4.272163e-05 1.083374e-01 -1.033081e+00
2.010020e+09 1.153564e-01 -1.028015e+00 -4.036538e-05 1.600385e-05 -2.055988e-05 5.655363e-05 1.132202e-01 -1.029297e+00
2.013770e+09 1.201782e-01 -1.023865e+00 -2.133846e-05 6.149709e-05 -2.487749e-05 -6.082281e-05 1.176147e-01 -1.022705e+00
2.017520e+09 1.250000e-01 -1.017517e+00 -2.127700e-05 -1.202803e-05 -2.518855e-05 -8.203089e-06 1.226807e-01 -1.018005e+00
2.021270e+09 1.317139e-01 -1.013245e+00 -3.164262e-05 -2.853945e-05 -1.312699e-05 -8.568168e-08 1.290894e-01 -1.012085e+00
2.025020e+09 1.385498e-01 -1.006042e+00 3.683753e-05 -3.677979e-05 3.209524e-05 3.045239e-05 1.353760e-01 -1.008789e+00
2.028770e+09 1.470947e-01 -1.002686e+00 1.305155e-05 -3.801659e-05 -3.556907e-05 1.999736e-05 1.431274e-01 -1.003723e+00
2.032520e+09 1.536865e-01 -9.981689e-01 2.060318e-06 3.302470e-06 2.545677e-05 -1.812167e-05 1.518555e-01 -9.993286e-01
2.036270e+09 1.622314e-01 -9.948120e-01 1.291186e-05 3.544241e-05 5.167909e-06 -1.422409e-05 1.594849e-01 -9.949341e-01
2.040020e+09 1.685181e-01 -9.918213e-01 -4.462153e-05 -2.025813e-05 2.153777e-05 -1.215190e-05 1.661377e-01 -9.924927e-01
2.043770e+09 1.750488e-01 -9.890137e-01 3.924780e-05 1.895428e-05 -8.950010e-07 -1.849979e-05 1.727905e-01 -9.891968e-01
2.047520e+09 1.805420e-01 -9.841919e-01 1.767837e-05 2.102181e-05 2.478249e-05 -1.013093e-05 1.776123e-01 -9.870605e-01
2.051270e+09 1.843872e-01 -9.817505e-01 8.643139e-06 -8.144416e-07 1.979247e-05 -2.260134e-05 1.821899e-01 -9.804077e-01
2.055020e+09 1.875610e-01 -9.750366e-01 9.673648e-06 8.307397e-07 -4.322082e-05 -2.921373e-05 1.865845e-01 -9.758911e-01
2.058770e+09 1.920166e-01 -9.685669e-01 9.892508e-06 -6.156042e-06 -1.542084e-05 -1.044292e-05 1.894531e-01 -9.682007e-01
2.062520e+09 1.963501e-01 -9.592896e-01 -1.482200e-05 -9.089708e-06 -3.164634e-05 -3.934652e-05 1.937256e-01 -9.586792e-01
2.066270e+09 2.027588e-01 -9.498291e-01 1.795962e-05 -2.263859e-05 -3.366731e-05 -2.276711e-05 2.005615e-01 -9.490967e-01
2.070020e+09 2.098999e-01 -9.398804e-01 1.260452e-05 -2.390891e-05 5.197711e-06 -1.425017e-05 2.079468e-01 -9.397583e-01
2.073770e+09 2.202759e-01 -9.277344e-01 1.764297e-05 5.782023e-05 1.925789e-05 4.199333e-06 2.164917e-01 -9.288940e-01
2.077520e+09 2.317505e-01 -9.191284e-01 4.502386e-05 1.332909e-05 2.834946e-06 2.839044e-05 2.290039e-01 -9.195557e-01
2.081270e+09 2.446289e-01 -9.107056e-01 2.284162e-05 -3.722496e-05 -3.219210e-05 -3.059208e-05 2.427979e-01 -9.118042e-01
2.085020e+09 2.568970e-01 -9.042969e-01 6.890856e-06 -1.119170e-05 2.528541e-05 8.281320e-06 2.548218e-01 -9.051514e-01
2.088770e+09 2.714844e-01 -8.997803e-01 5.607307e-05 -1.399592e-05 6.433576e-06 -4.877150e-05 2.690430e-01 -8.997192e-01
2.092520e+09 2.832642e-01 -8.967285e-01 1.940504e-05 8.812174e-06 -3.285892e-05 2.228096e-05 2.807007e-01 -8.970947e-01
2.096270e+09 2.959595e-01 -8.934937e-01 -1.425110e-05 -4.498288e-07 2.406165e-05 -5.533174e-05 2.926025e-01 -8.948364e-01
2.100020e+09 3.060303e-01 -8.924561e-01 5.826354e-06 2.438389e-05 3.942847e-05 -1.832843e-05 3.038330e-01 -8.937378e-01
2.103769e+09 3.151855e-01 -8.914795e-01 -5.200505e-05 4.399940e-05 6.585568e-05 -3.696606e-05 3.130493e-01 -8.927002e-01
2.107519e+09 3.236084e-01 -8.902588e-01 2.720393e-05 -2.393313e-05 9.577721e-06 -2.085418e-05 3.209839e-01 -8.912354e-01
2.111269e+09 3.297119e-01 -8.877563e-01 1.999270e-05 -5.403534e-06 -1.203375e-10 -6.289156e-10 3.279419e-01 -8.885498e-01
2.115019e+09 3.356323e-01 -8.854370e-01 1.325645e-05 -1.233071e-06 -8.541159e-06 1.258496e-05 3.328247e-01 -8.870850e-01
2.118769e+09 3.414917e-01 -8.823242e-01 -2.219342e-05 -2.823584e-05 -4.034117e-05 1.866743e-05 3.383179e-01 -8.831787e-01
2.122519e+09 3.469849e-01 -8.774414e-01 2.105162e-05 -3.721565e-06 -3.900565e-05 -1.721643e-05 3.440552e-01 -8.778076e-01
2.126269e+09 3.508911e-01 -8.709717e-01 -2.734736e-05 -6.394461e-06 4.320219e-05 1.090765e-05 3.502197e-01 -8.717041e-01
2.130019e+09 3.571167e-01 -8.635254e-01 -1.967885e-05 2.857856e-05 -5.160272e-05 1.709908e-06 3.557739e-01 -8.638306e-01
2.133769e+09 3.637085e-01 -8.543091e-01 -3.549457e-05 4.080869e-05 -3.887154e-05 1.016073e-05 3.612061e-01 -8.554077e-01
2.137519e+09 3.704834e-01 -8.453979e-01 -4.700571e-05 -1.535565e-05 -1.757033e-05 -2.104416e-05 3.686523e-01 -8.461914e-01
2.141269e+09 3.793335e-01 -8.352661e-01 2.564862e-05 2.622977e-05 1.000986e-05 5.201250e-05 3.773193e-01 -8.363037e-01
2.145019e+09 3.903809e-01 -8.236694e-01 -2.566166e-05 4.166737e-05 4.181638e-06 -6.166752e-06 3.878784e-01 -8.245239e-01
2.148769e+09 4.018555e-01 -8.132324e-01 -9.749085e-06 -7.588789e-05 -3.487617e-05 -1.467206e-05 4.000244e-01 -8.146362e-01
2.152519e+09 4.175415e-01 -8.028564e-01 -3.055669e-05 2.599880e-05 -1.968816e-06 -1.028273e-05 4.140625e-01 -8.051147e-01
2.156269e+09 4.324951e-01 -7.938232e-01 -3.067032e-05 -4.293397e-06 3.699213e-06 4.717708e-05 4.307251e-01 -7.957153e-01
2.160019e+09 4.494019e-01 -7.877808e-01 7.123873e-05 9.503216e-06 -5.012006e-05 -2.499297e-05 4.479370e-01 -7.886353e-01
2.163769e+09 4.678345e-01 -7.831421e-01 3.042445e-05 1.145341e-05 -1.273677e-05 4.522875e-05 4.664307e-01 -7.852783e-01
2.167519e+09 4.870605e-01 -7.803345e-01 1.536869e-05 2.158806e-06 2.629682e-05 -4.535541e-05 4.846802e-01 -7.829590e-01
2.171269e+09 5.054321e-01 -7.816772e-01 2.580695e-06 -1.096539e-05 1.348555e-06 -3.550202e-05 5.026855e-01 -7.835693e-01
2.175019e+09 5.223999e-01 -7.854614e-01 -2.514571e-06 -5.709752e-05 -2.852455e-05 8.177012e-06 5.203857e-01 -7.860107e-01
2.178769e+09 5.358887e-01 -7.891235e-01 5.487725e-05 -4.818663e-05 -2.583303e-05 3.791414e-05 5.340576e-01 -7.910767e-01
2.182519e+09 5.463257e-01 -7.948608e-01 -1.844484e-05 -1.452491e-05 -7.500406e-06 4.203524e-06 5.460205e-01 -7.974243e-01
2.186269e+09 5.559692e-01 -8.013306e-01 -2.976507e-05 -9.909272e-06 -2.293289e-05 4.048273e-05 5.537109e-01 -8.023682e-01
2.190019e+09 5.612793e-01 -8.040161e-01 -1.672469e-05 -3.458373e-05 -1.163688e-06 8.563045e-06 5.587769e-01 -8.075562e-01
2.193769e+09 5.646973e-01 -8.081665e-01 7.096678e-07 -2.175663e-05 -6.389339e-06 -4.339498e-06 5.626221e-01 -8.091431e-01
2.197519e+09 5.673218e-01 -8.083496e-01 -2.788194e-05 3.146939e-05 -2.482720e-05 2.967939e-05 5.651855e-01 -8.102417e-01
2.201269e+09 5.715332e-01 -8.072510e-01 1.265109e-05 -1.019333e-05 -1.383293e-05 -1.396984e-07 5.682983e-01 -8.093262e-01
2.205019e+09 5.736084e-01 -8.028564e-01 -3.020093e-05 6.622076e-05 4.063919e-05 -4.620478e-05 5.703735e-01 -8.051147e-01
2.208769e+09 5.778809e-01 -7.969971e-01 -9.820797e-06 -8.177012e-06 -1.056399e-05 1.999550e-06 5.744019e-01 -8.009033e-01
2.212519e+09 5.831909e-01 -7.915649e-01 -1.287833e-05 4.845858e-05 7.860735e-05 2.602115e-05 5.798950e-01 -7.937622e-01
2.216269e+09 5.882568e-01 -7.866211e-01 7.719733e-06 4.760921e-06 -9.868294e-06 4.823506e-05 5.869141e-01 -7.875366e-01
2.220019e+09 5.955200e-01 -7.795410e-01 -1.884997e-05 2.361834e-05 -1.208410e-04 9.395182e-06 5.932007e-01 -7.820435e-01
2.223769e+09 6.026001e-01 -7.716675e-01 2.582930e-05 3.146008e-06 2.070144e-05 -7.746369e-05 6.012573e-01 -7.755127e-01
2.227519e+09 6.116943e-01 -7.648315e-01 2.448633e-05 8.720905e-06 -5.389564e-06 1.466740e-05 6.093750e-01 -7.672119e-01
2.231269e+09 6.210938e-01 -7.585449e-01 -3.568456e-05 -4.232116e-05 -7.674098e-06 3.156997e-05 6.191406e-01 -7.600098e-01
2.235019e+09 6.299438e-01 -7.516479e-01 -4.025549e-05 2.726540e-05 -1.628697e-05 4.421547e-05 6.283569e-01 -7.540894e-01
2.238769e+09 6.412964e-01 -7.457886e-01 -1.423806e-05 2.304278e-05 2.153218e-05 -3.159977e-05 6.394043e-01 -7.480469e-01
2.242519e+09 6.534424e-01 -7.398682e-01 -2.958439e-05 1.354516e-05 3.401376e-05 4.651025e-06 6.505127e-01 -7.434082e-01
2.246269e+09 6.629028e-01 -7.384033e-01 5.109236e-05 4.426017e-05 -2.608262e-05 3.824756e-05 6.610718e-01 -7.405396e-01
2.250019e+09 6.734009e-01 -7.357178e-01 -1.420453e-05 2.300180e-05 -2.966449e-05 -3.895536e-05 6.710205e-01 -7.374878e-01
2.253769e+09 6.838989e-01 -7.338257e-01 2.160668e-06 3.424287e-05 -5.229376e-06 -1.299474e-05 6.803589e-01 -7.373047e-01
2.257519e+09 6.901855e-01 -7.333984e-01 -4.508719e-05 -2.679601e-05 2.019480e-05 -7.094443e-05 6.880493e-01 -7.356567e-01
2.261269e+09 6.957397e-01 -7.309570e-01 -4.560500e-05 1.861900e-05 1.944602e-05 8.855760e-05 6.928101e-01 -7.345581e-01
2.265019e+09 6.992188e-01 -7.297363e-01 -5.534291e-05 -2.778694e-05 -3.116019e-05 -2.473593e-06 6.977539e-01 -7.313232e-01
2.268769e+09 7.025757e-01 -7.245483e-01 -1.569185e-05 -2.238899e-06 1.569465e-05 -6.405264e-05 7.003784e-01 -7.272949e-01
2.272519e+09 7.061157e-01 -7.193604e-01 -3.032200e-05 2.822652e-05 4.443526e-05 3.031641e-05 7.028198e-01 -7.213135e-01
2.276269e+09 7.094116e-01 -7.104797e-01 -2.335571e-05 2.403185e-05 2.525747e-05 1.721829e-05 7.078247e-01 -7.132874e-01
2.280019e+09 7.150269e-01 -7.019043e-01 -4.328787e-06 -3.795326e-05 -3.436580e-06 2.530403e-05 7.125854e-01 -7.050476e-01
2.283769e+09 7.225342e-01 -6.921997e-01 -3.118813e-05 5.032867e-05 -6.580725e-06 2.311356e-05 7.205811e-01 -6.946411e-01
2.287519e+09 7.315674e-01 -6.827393e-01 -5.058013e-06 1.511537e-05 1.139753e-05 1.698267e-05 7.296143e-01 -6.857910e-01
2.291269e+09 7.431641e-01 -6.749268e-01 1.384877e-05 -3.980473e-05 4.584342e-05 -3.332645e-05 7.404175e-01 -6.776733e-01
2.295019e+09 7.522583e-01 -6.701050e-01 4.465133e-05 -5.830079e-06 3.436580e-06 -2.548657e-05 7.508545e-01 -6.720581e-01
2.298769e+09 7.644043e-01 -6.644287e-01 4.968792e-05 4.921108e-05 -5.197711e-06 -1.292303e-05 7.626343e-01 -6.680908e-01
2.302518e+09 7.743530e-01 -6.635742e-01 4.728138e-05 -4.135817e-05 -1.726206e-05 -2.360903e-06 7.720947e-01 -6.667480e-01
2.306268e+09 7.825928e-01 -6.625977e-01 1.899898e-05 1.502689e-05 -1.091138e-05 2.043322e-06 7.808228e-01 -6.657715e-01
2.310018e+09 7.885742e-01 -6.638184e-01 -1.845323e-05 3.330968e-05 -2.180040e-05 8.086860e-05 7.871704e-01 -6.666870e-01
2.313768e+09 7.921143e-01 -6.640015e-01 -5.435944e-05 6.712973e-06 -4.358590e-06 -9.921938e-05 7.899780e-01 -6.669312e-01
2.317518e+09 7.933350e-01 -6.636353e-01 2.608821e-05 1.068227e-05 1.464598e-05 -2.853014e-05 7.910156e-01 -6.656494e-01
2.321268e+09 7.935791e-01 -6.612549e-01 -3.882125e-05 -3.920868e-05 1.255795e-05 -3.956631e-05 7.901001e-01 -6.628418e-01
2.325018e+09 7.911377e-01 -6.568604e-01 -3.763009e-06 9.604264e-06 -3.600493e-05 -2.461672e-05 7.892456e-01 -6.596069e-01
2.328768e+09 7.894897e-01 -6.512451e-01 2.812222e-05 1.414306e-05 -2.693385e-06 4.597008e-05 7.874146e-01 -6.539307e-01
2.332518e+09 7.878418e-01 -6.430664e-01 -6.325543e-06 -4.938617e-05 -2.537295e-05 3.026798e-05 7.864380e-01 -6.459961e-01
2.336268e+09 7.875366e-01 -6.348877e-01 -2.481043e-06 -2.755970e-05 -3.114901e-05 -3.071688e-05 7.871704e-01 -6.380615e-01
2.340018e+09 7.877197e-01 -6.242065e-01 4.148670e-05 2.774969e-05 6.137416e-06 3.248453e-05 7.855225e-01 -6.271362e-01
2.343768e+09 7.879639e-01 -6.137085e-01 -2.884679e-05 3.976002e-05 2.339482e-06 -1.719315e-05 7.862549e-01 -6.174927e-01
2.347518e+09 7.891846e-01 -6.029663e-01 -3.893860e-05 3.148988e-05 -4.354864e-06 6.394461e-06 7.870483e-01 -6.060181e-01
2.351268e+09 7.915649e-01 -5.917358e-01 -4.064851e-05 1.301430e-05 2.566725e-06 -4.498661e-05 7.895508e-01 -5.941772e-01
2.355018e+09 7.934570e-01 -5.792236e-01 1.870561e-05 -9.146519e-06 2.144091e-05 -4.062429e-06 7.915649e-01 -5.824585e-01
2.358768e+09 7.979736e-01 -5.686035e-01 -9.598210e-06 -2.330169e-05 -3.196532e-06 -2.171844e-06 7.969360e-01 -5.701294e-01
2.362518e+09 8.036499e-01 -5.582886e-01 -4.867092e-05 -2.341717e-05 -4.355796e-06 6.411690e-06 8.023071e-01 -5.598145e-01
2.366268e+09 8.093262e-01 -5.454712e-01 3.552623e-05 2.272427e-06 1.547858e-05 6.700680e-05 8.092041e-01 -5.485229e-01
2.370018e+09 8.159180e-01 -5.386353e-01 2.478249e-05 1.630932e-05 2.450123e-05 5.444139e-05 8.165283e-01 -5.397339e-01
2.373768e+09 8.239746e-01 -5.308838e-01 -7.376075e-07 2.244674e-05 3.006309e-06 3.061816e-05 8.218994e-01 -5.331421e-01
2.377518e+09 8.298340e-01 -5.264282e-01 -1.123175e-05 -1.015794e-05 6.811693e-06 -2.416596e-05 8.284912e-01 -5.280762e-01
2.381268e+09 8.344116e-01 -5.230713e-01 -4.689395e-05 -2.001598e-05 -2.643466e-05 -1.797266e-05 8.334961e-01 -5.248413e-01
2.385018e+09 8.369141e-01 -5.194092e-01 3.730506e-05 -3.447756e-06 1.497567e-05 -5.776435e-05 8.359375e-01 -5.220337e-01
2.388768e+09 8.357544e-01 -5.173340e-01 -2.533942e-05 -8.940697e-06 3.211945e-05 3.153272e-05 8.339233e-01 -5.194702e-01
2.392518e+09 8.328247e-01 -5.134888e-01 5.931780e-05 -3.202632e-05 1.094490e-05 2.689660e-05 8.318481e-01 -5.154419e-01
2.396268e+09 8.284302e-01 -5.064697e-01 1.603179e-05 9.840354e-06 -1.304224e-05 -3.799051e-05 8.267212e-01 -5.091553e-01
2.400018e+09 8.205566e-01 -4.971924e-01 1.005642e-05 -2.359413e-05 -3.073364e-06 -3.100373e-05 8.200684e-01 -4.988403e-01
2.403768e+09 8.162231e-01 -4.847412e-01 2.758764e-05 -2.709031e-05 -4.656613e-06 3.518537e-05 8.145752e-01 -4.868774e-01
2.407518e+09 8.113403e-01 -4.692383e-01 -2.554990e-05 -1.344830e-06 9.994954e-06 -2.178177e-05 8.104248e-01 -4.724731e-01
2.411268e+09 8.104248e-01 -4.538574e-01 -1.750514e-05 -3.599003e-05 2.504140e-05 -1.991168e-06 8.098145e-01 -4.558105e-01
2.415018e+09 8.114624e-01 -4.358521e-01 -1.513772e-05 3.908575e-05 2.173334e-05 -4.176050e-06 8.099365e-01 -4.384766e-01
2.418768e+09 8.146973e-01 -4.188843e-01 5.349517e-06 -2.313219e-05 -1.244871e-10 -6.485834e-10 8.130493e-01 -4.209595e-01
2.422518e+09 8.197021e-01 -4.026489e-01 -2.026185e-05 -2.452917e-05 -1.296680e-05 -8.768402e-06 8.195801e-01 -4.053955e-01
2.426268e+09 8.272095e-01 -3.886108e-01 5.169213e-05 -4.459545e-05 1.532212e-05 -8.610077e-06 8.262939e-01 -3.905640e-01
2.430018e+09 8.358765e-01 -3.764648e-01 2.975389e-05 2.374500e-05 1.868047e-05 -6.439164e-06 8.350830e-01 -3.782959e-01
2.433768e+09 8.437500e-01 -3.656616e-01 6.954186e-06 3.140420e-06 -5.093217e-05 3.272668e-05 8.432617e-01 -3.679810e-01
2.437518e+09 8.519897e-01 -3.570557e-01 -2.179854e-05 -1.884717e-05 -3.311038e-05 -2.240948e-05 8.518066e-01 -3.593750e-01
2.441268e+09 8.603516e-01 -3.499146e-01 5.377457e-06 -2.335757e-05 -4.412979e-05 8.669496e-05 8.596802e-01 -3.523560e-01
2.445018e+09 8.666992e-01 -3.441772e-01 -4.579127e-05 3.867224e-05 -9.300560e-05 1.502037e-05 8.660278e-01 -3.467407e-01
2.448768e+09 8.724976e-01 -3.406372e-01 -1.865812e-05 -5.827285e-06 -1.244340e-05 1.116656e-05 8.717041e-01 -3.425903e-01
2.452518e+09 8.762207e-01 -3.359985e-01 -1.501851e-05 3.192946e-05 4.108995e-06 5.184114e-05 8.751831e-01 -3.393555e-01
2.456268e+09 8.787231e-01 -3.330078e-01 3.398210e-05 4.626065e-05 6.775185e-05 -1.308322e-05 8.776245e-01 -3.342896e-01
2.460018e+09 8.786011e-01 -3.300781e-01 -3.009290e-05 2.389401e-05 2.140552e-05 4.630536e-06 8.774414e-01 -3.322144e-01
2.463768e+09 8.764038e-01 -3.258057e-01 -7.915311e-06 -1.259521e-05 6.309524e-05 -6.429851e-06 8.752441e-01 -3.280029e-01
2.467518e+09 8.743286e-01 -3.198242e-01 -3.628992e-05 3.039092e-05 -3.357651e-06 -2.267770e-06 8.723755e-01 -3.223877e-01
2.471268e+09 8.683472e-01 -3.116455e-01 3.570132e-05 -7.331371e-06 1.453049e-05 8.009374e-08 8.674316e-01 -3.139038e-01
2.475018e+09 8.635864e-01 -3.028564e-01 5.586073e-06 -3.121421e-05 -2.344698e-05 1.324154e-05 8.623047e-01 -3.051147e-01
2.478768e+09 8.582764e-01 -2.893066e-01 -4.727766e-05 -3.051013e-06 2.778880e-05 -1.979060e-05 8.573608e-01 -2.921143e-01
2.482518e+09 8.530884e-01 -2.744751e-01 -8.358154e-06 2.732500e-06 -1.139008e-06 8.810777e-06 8.526611e-01 -2.767944e-01
2.486268e+09 8.517456e-01 -2.576294e-01 3.978796e-05 1.524389e-05 2.858415e-05 1.024455e-07 8.504639e-01 -2.598267e-01
2.490018e+09 8.524780e-01 -2.371216e-01 -4.835427e-06 -3.972650e-05 -1.726300e-05 -5.941465e-05 8.519287e-01 -2.400513e-01
2.493768e+09 8.555908e-01 -2.187500e-01 2.167374e-05 7.455051e-05 -1.633167e-05 -3.978238e-05 8.554688e-01 -2.202148e-01
2.497518e+09 8.621216e-01 -2.000122e-01 3.363937e-06 5.339086e-05 7.770490e-06 -4.391186e-06 8.621826e-01 -2.017822e-01
2.501267e+09 8.704224e-01 -1.820068e-01 3.617257e-05 -6.323680e-05 -5.502254e-06 -1.339521e-05 8.704834e-01 -1.847534e-01
2.505017e+09 8.820190e-01 -1.665649e-01 2.435967e-05 -1.787394e-05 5.288422e-05 -1.323223e-05 8.817749e-01 -1.690063e-01
2.508767e+09 8.951416e-01 -1.538086e-01 4.031882e-05 6.392971e-05 1.016911e-05 6.857328e-06 8.949585e-01 -1.556396e-01
2.512517e+09 9.081421e-01 -1.450195e-01 -3.240071e-05 -2.648681e-06 2.185255e-05 -2.507493e-05 9.068604e-01 -1.462402e-01
2.516267e+09 9.200439e-01 -1.369629e-01 1.741573e-06 2.714247e-05 3.797933e-05 -4.418194e-06 9.193115e-01 -1.389160e-01
2.520017e+09 9.299927e-01 -1.315308e-01 2.612546e-05 -3.188848e-05 9.152107e-06 1.620129e-05 9.296265e-01 -1.342163e-01
2.523767e+09 9.381714e-01 -1.279907e-01 1.858175e-05 -1.942459e-05 -2.073683e-05 -1.394935e-05 9.384155e-01 -1.304321e-01
2.527517e+09 9.448853e-01 -1.253052e-01 4.831469e-06 -4.831236e-07 5.072728e-05 1.405925e-05 9.443970e-01 -1.273193e-01
2.531267e+09 9.502563e-01 -1.213989e-01 -3.741682e-05 -4.307926e-05 2.317131e-05 -3.446080e-05 9.503174e-01 -1.243286e-01
2.535017e+09 9.525757e-01 -1.176147e-01 5.789101e-06 9.193085e-06 -3.762171e-05 -5.519018e-05 9.528198e-01 -1.206055e-01
2.538767e+09 9.559937e-01 -1.143799e-01 -1.588929e-05 7.439405e-06 -8.021947e-06 4.550908e-06 9.562988e-01 -1.165771e-01
2.542517e+09 9.573975e-01 -1.082153e-01 2.425537e-05 -2.432615e-06 -1.938827e-05 6.766990e-06 9.571533e-01 -1.108398e-01
2.546267e+09 9.583740e-01 -1.030884e-01 -1.283735e-05 2.882630e-05 -3.423914e-05 6.578863e-05 9.586792e-01 -1.043701e-01
2.550017e+09 9.589233e-01 -9.588623e-02 -4.919246e-05 -2.851337e-05 6.253645e-05 -5.652383e-05 9.586792e-01 -9.887695e-02
2.553767e+09 9.581909e-01 -8.709717e-02 2.535433e-05 -4.206598e-05 -4.541874e-05 3.832951e-05 9.578857e-01 -9.039307e-02
2.557517e+09 9.575806e-01 -7.965088e-02 3.477558e-05 -7.665902e-05 4.871190e-05 -6.698072e-06 9.580688e-01 -8.209229e-02
2.561267e+09 9.572144e-01 -6.909180e-02 1.094863e-05 8.735806e-07 -1.811981e-05 -2.304092e-06 9.574585e-01 -7.214355e-02
2.565017e+09 9.565430e-01 -5.822754e-02 5.158409e-05 3.217161e-05 7.824227e-05 -6.671995e-06 9.572144e-01 -6.005859e-02
2.568767e+09 9.572144e-01 -4.461670e-02 -2.488680e-05 2.610125e-05 -1.341505e-10 -6.788241e-10 9.577637e-01 -4.785156e-02
2.572517e+09 9.595947e-01 -3.076172e-02 -4.140660e-06 -3.093481e-05 -2.169982e-05 2.499856e-05 9.598999e-01 -3.295898e-02
2.576267e+09 9.633789e-01 -1.641846e-02 -5.542859e-05 5.064905e-05 -4.339963e-05 -9.208918e-06 9.645996e-01 -1.904297e-02
2.580017e+09 9.688110e-01 -2.502441e-03 -5.021319e-05 -2.228096e-05 -2.406351e-05 -1.611561e-05 9.688110e-01 -5.493164e-03
2.583767e+09 9.768677e-01 1.055908e-02 -2.703629e-06 1.201686e-05 -3.240630e-05 4.839525e-05 9.769897e-01 8.056641e-03
2.587517e+09 9.849243e-01 2.227783e-02 3.302284e-05 -1.320429e-05 -4.048273e-05 -3.717095e-05 9.863892e-01 1.855469e-02
2.591267e+09 9.946899e-01 3.070068e-02 2.172962e-05 -4.756451e-05 1.519546e-05 -3.026053e-05 9.954224e-01 2.752686e-02
2.595017e+09 1.003540e+00 3.674316e-02 8.249655e-06 1.301058e-05 2.118573e-05 -7.710233e-05 1.004211e+00 3.411865e-02
2.598767e+09 1.009583e+00 4.132080e-02 -4.369766e-06 -2.340414e-05 -1.176819e-05 6.312132e-05 1.010559e+00 3.826904e-02
2.602517e+09 1.015198e+00 4.461670e-02 2.092030e-05 -1.564622e-07 2.353452e-06 -1.870841e-05 1.015137e+00 4.156494e-02
2.606267e+09 1.018005e+00 4.901123e-02 -1.893472e-05 1.993962e-05 5.029142e-08 -3.030151e-05 1.016724e+00 4.473877e-02
2.610017e+09 1.016724e+00 5.371094e-02 -1.860783e-05 3.905036e-06 5.335733e-05 -3.469363e-05 1.017944e+00 4.992676e-02
2.613767e+09 1.016602e+00 5.969238e-02 -3.132410e-05 -4.088692e-05 3.699027e-05 4.636124e-06 1.016174e+00 5.712891e-02
2.617517e+09 1.016541e+00 6.823730e-02 -1.677498e-05 -2.638437e-05 -3.456371e-06 -2.305722e-06 1.016541e+00 6.567383e-02
2.621267e+09 1.016724e+00 7.910156e-02 4.326366e-05 9.616837e-06 1.041591e-05 -2.303906e-05 1.016846e+00 7.495117e-02
2.625017e+09 1.018860e+00 8.984375e-02 -2.120622e-05 1.545995e-07 -5.760230e-06 -1.386739e-05 1.019897e+00 8.587646e-02
2.628767e+09 1.023132e+00 1.005249e-01 -3.266521e-05 7.478520e-06 -1.504831e-05 -3.023446e-05 1.024353e+00 9.613037e-02
2.632517e+09 1.029236e+00 1.091919e-01 -3.695488e-06 -6.469712e-05 -4.565716e-05 -6.332994e-08 1.029053e+00 1.050415e-01
2.636267e+09 1.035034e+00 1.159668e-01 2.225488e-05 1.802854e-05 -8.150935e-06 -1.178458e-04 1.034729e+00 1.129761e-01
2.640017e+09 1.039795e+00 1.218872e-01 1.754519e-05 2.281740e-06 8.302275e-06 -4.730653e-06 1.039917e+00 1.177368e-01
2.643767e+09 1.044617e+00 1.254883e-01 -7.506460e-07 -2.640858e-05 3.575906e-05 -6.902963e-05 1.044739e+00 1.212769e-01
2.647517e+09 1.047424e+00 1.272583e-01 -3.391877e-05 5.563721e-06 2.865680e-05 1.910143e-05 1.047363e+00 1.238403e-01
2.651267e+09 1.047974e+00 1.290894e-01 3.499724e-05 -3.693625e-06 -4.174933e-05 -7.189810e-06 1.048096e+00 1.249390e-01
2.655017e+09 1.047241e+00 1.311035e-01 -1.541153e-05 2.580322e-05 4.167482e-05 -2.378970e-05 1.047363e+00 1.263428e-01
2.658767e+09 1.045654e+00 1.330566e-01 1.865905e-05 -3.970228e-06 -1.896173e-05 5.934760e-05 1.046204e+00 1.293945e-01
2.662517e+09 1.043274e+00 1.361084e-01 2.942421e-05 1.292117e-05 1.536775e-05 -2.793968e-09 1.044128e+00 1.321411e-01
2.666267e+09 1.039673e+00 1.383667e-01 -2.092682e-06 -1.982227e-05 -6.709248e-05 -1.404062e-05 1.039612e+00 1.353760e-01
2.670017e+09 1.035706e+00 1.437378e-01 7.884204e-05 2.372265e-05 -8.188188e-06 3.513694e-05 1.035522e+00 1.391602e-01
2.673767e+09 1.030579e+00 1.473999e-01 9.499490e-06 2.317876e-05 4.082546e-05 -2.339110e-05 1.031982e+00 1.433105e-01
2.677517e+09 1.025818e+00 1.507568e-01 8.151346e-11 -3.722676e-10 -2.091378e-05 1.631118e-05 1.026428e+00 1.472168e-01
2.681267e+09 1.020386e+00 1.560059e-01 -9.251758e-06 -3.956258e-05 -2.903864e-05 5.111843e-05 1.020813e+00 1.514282e-01
2.685017e+09 1.013916e+00 1.599731e-01 -4.036538e-05 1.243129e-05 1.733750e-05 -4.881993e-05 1.014954e+00 1.567993e-01
2.688767e+09 1.006287e+00 1.669922e-01 2.745539e-05 9.283423e-06 -2.677366e-05 -2.783351e-05 1.006592e+00 1.643677e-01
2.692517e+09 9.985352e-01 1.748657e-01 -2.101436e-05 5.111098e-05 -1.977012e-05 7.003546e-06 1.000305e+00 1.721191e-01
2.696267e+09 9.924316e-01 1.851196e-01 -2.887473e-05 -3.082678e-06 -2.220646e-05 -4.651025e-06 9.932251e-01 1.810913e-01
2.700016e+09 9.873047e-01 1.951904e-01 3.085844e-05 -3.596023e-05 -3.752112e-05 2.590381e-05 9.891357e-01 1.925049e-01
2.703766e+09 9.865112e-01 2.068481e-01 1.272373e-05 -5.456619e-06 1.898035e-05 2.342276e-06 9.862671e-01 2.032471e-01
2.707516e+09 9.845581e-01 2.166138e-01 -2.060644e-05 1.861621e-05 -2.753921e-05 -2.866611e-05 9.856567e-01 2.128296e-01
2.711266e+09 9.856567e-01 2.242432e-01 -9.175390e-06 -5.683675e-05 1.691002e-05 -9.695999e-06 9.862671e-01 2.206421e-01
2.715016e+09 9.868774e-01 2.290039e-01 2.200715e-06 2.049655e-05 1.826882e-05 -8.300692e-05 9.876099e-01 2.247925e-01
2.718766e+09 9.865723e-01 2.299805e-01 9.614974e-06 -3.645755e-05 2.830848e-05 6.142631e-05 9.880371e-01 2.257080e-01
2.722516e+09 9.860229e-01 2.272949e-01 -1.252745e-06 -1.957058e-06 8.511543e-05 -3.979355e-05 9.868774e-01 2.244873e-01
2.726266e+09 9.788208e-01 2.249146e-01 -2.465397e-05 -6.428361e-05 3.087334e-05 9.842217e-06 9.797363e-01 2.208252e-01
2.730016e+09 9.695435e-01 2.212524e-01 -2.076849e-06 -2.902187e-05 -4.900154e-06 7.392839e-06 9.698486e-01 2.165527e-01
2.733766e+09 9.559937e-01 2.187500e-01 4.163943e-06 -1.922436e-05 2.206117e-05 4.631653e-05 9.558105e-01 2.158203e-01
2.737516e+09 9.392090e-01 2.208862e-01 4.730374e-05 5.301088e-06 -8.454546e-06 4.854985e-06 9.400024e-01 2.174683e-01
2.741266e+09 9.213867e-01 2.253418e-01 2.447888e-05 -1.299940e-05 -2.056733e-05 -5.500019e-05 9.216309e-01 2.222900e-01
2.745016e+09 9.041748e-01 2.351685e-01 -1.366436e-05 -2.122484e-05 -3.437325e-05 2.861768e-05 9.046631e-01 2.319336e-01
2.748766e+09 8.865356e-01 2.479858e-01 1.253560e-05 1.101941e-05 -3.419816e-06 5.903095e-05 8.889160e-01 2.439575e-01
2.752516e+09 8.728638e-01 2.621460e-01 1.018867e-05 -1.106411e-06 9.570271e-06 4.712865e-05 8.739624e-01 2.584839e-01
2.756266e+09 8.616943e-01 2.772827e-01 -5.333498e-05 -1.485273e-05 1.410022e-05 -2.130680e-05 8.620605e-01 2.745361e-01
2.760016e+09 8.519287e-01 2.939453e-01 -2.297387e-05 -1.668930e-06 -4.016608e-05 4.514679e-05 8.531494e-01 2.900391e-01
2.763766e+09 8.446045e-01 3.103638e-01 4.242174e-05 -1.086108e-05 -4.998595e-05 2.869219e-05 8.461304e-01 3.060913e-01
2.767516e+09 8.395996e-01 3.250122e-01 4.177913e-05 -4.614890e-05 1.197029e-05 -2.435409e-06 8.408203e-01 3.222046e-01
2.771266e+09 8.349609e-01 3.409424e-01 2.007931e-05 -5.424023e-05 1.938455e-05 3.370084e-05 8.356323e-01 3.366699e-01
2.775016e+09 8.304443e-01 3.536987e-01 -4.043616e-05 3.976002e-05 -3.380142e-05 1.947954e-05 8.325806e-01 3.513794e-01
2.778766e+09 8.281250e-01 3.679199e-01 -1.516193e-06 1.472514e-05 1.185108e-06 -9.726733e-06 8.302002e-01 3.643799e-01
2.782516e+09 8.272095e-01 3.801270e-01 -6.196648e-05 -6.189570e-05 -4.967675e-06 -2.441928e-05 8.277588e-01 3.766479e-01
2.786266e+09 8.267822e-01 3.919067e-01 -1.998618e-05 -3.951415e-05 4.297495e-05 7.193536e-06 8.278198e-01 3.880005e-01
2.790016e+09 8.265991e-01 4.019165e-01 4.035886e-06 -1.088483e-05 -2.589449e-05 -1.713075e-05 8.280029e-01 3.988037e-01
2.793766e+09 8.283081e-01 4.111938e-01 -5.615130e-05 -5.263463e-05 2.615526e-05 4.933029e-05 8.300781e-01 4.079590e-01
2.797516e+09 8.292236e-01 4.169312e-01 3.526174e-05 -6.020069e-06 3.605708e-05 3.453717e-05 8.315430e-01 4.146118e-01
2.801266e+09 8.295898e-01 4.209595e-01 6.225705e-05 -5.156174e-05 9.994023e-06 1.733191e-05 8.314209e-01 4.182129e-01
2.805016e+09 8.280029e-01 4.221802e-01 -6.057322e-05 2.365559e-06 5.720556e-05 2.704933e-05 8.293457e-01 4.185181e-01
2.808766e+09 8.234253e-01 4.228516e-01 -3.187172e-05 1.205318e-05 -4.335865e-05 -7.275492e-06 8.244629e-01 4.192505e-01
2.812516e+09 8.154907e-01 4.223022e-01 4.363060e-05 -2.678484e-06 -2.612546e-05 -4.916638e-05 8.170776e-01 4.202271e-01
2.816266e+09 8.038330e-01 4.255371e-01 2.877228e-05 1.824275e-05 -1.107343e-05 -7.308088e-06 8.049316e-01 4.224854e-01
2.820016e+09 7.902222e-01 4.299316e-01 3.987225e-06 -2.577202e-06 2.538785e-05 -4.651025e-05 7.917480e-01 4.275513e-01
2.823766e+09 7.752686e-01 4.393921e-01 -5.258946e-06 5.839393e-07 -6.132759e-06 -1.457054e-05 7.778931e-01 4.363403e-01
2.827516e+09 7.615356e-01 4.514771e-01 -2.682209e-06 4.554633e-06 -9.559095e-06 4.622340e-05 7.642822e-01 4.489136e-01
2.831266e+09 7.499390e-01 4.658813e-01 2.298132e-05 4.422292e-05 2.315454e-05 4.757196e-06 7.507935e-01 4.641724e-01
2.835016e+09 7.398071e-01 4.843750e-01 1.155864e-05 1.785439e-05 6.041490e-06 -1.715403e-05 7.410278e-01 4.818726e-01
2.838766e+09 7.322998e-01 5.017700e-01 -2.472661e-05 -2.072193e-05 2.676994e-05 -5.675852e-05 7.352905e-01 5.003052e-01
2.842516e+09 7.296143e-01 5.213013e-01 -8.324161e-05 1.139566e-05 2.209097e-05 -4.979968e-05 7.315674e-01 5.187988e-01
2.846266e+09 7.296143e-01 5.390625e-01 6.684288e-05 -5.484745e-05 5.503744e-05 -1.781434e-05 7.316895e-01 5.360718e-01
2.850016e+09 7.314453e-01 5.538940e-01 -5.461648e-05 1.256168e-05 3.780052e-05 -7.797033e-06 7.335205e-01 5.515747e-01
2.853766e+09 7.338257e-01 5.686646e-01 1.892447e-06 -4.117936e-05 -2.058595e-05 -6.838143e-05 7.367554e-01 5.654907e-01
2.857516e+09 7.375488e-01 5.781860e-01 2.401322e-05 -6.984919e-06 -6.259419e-06 1.779757e-05 7.395020e-01 5.761108e-01
2.861266e+09 7.386475e-01 5.866699e-01 -2.932176e-05 7.580966e-06 2.008490e-05 -3.048219e-05 7.429199e-01 5.850830e-01
2.865016e+09 7.409058e-01 5.932617e-01 1.723133e-05 2.179295e-07 3.438443e-06 -6.310269e-05 7.427368e-01 5.908813e-01
2.868766e+09 7.415771e-01 5.997925e-01 -3.640726e-05 -5.608052e-05 7.025898e-05 -7.957220e-06 7.434692e-01 5.983276e-01
2.872516e+09 7.398071e-01 6.059570e-01 -7.148832e-06 4.160777e-05 2.495386e-05 -5.133450e-06 7.418823e-01 6.036987e-01
2.876266e+09 7.386475e-01 6.120605e-01 2.939068e-05 -1.623295e-05 1.568347e-06 5.475059e-05 7.410278e-01 6.098022e-01
2.880016e+09 7.360229e-01 6.182251e-01 -3.188103e-05 -5.016103e-06 -3.576279e-07 -6.453693e-05 7.391357e-01 6.161499e-01
2.883766e+09 7.327881e-01 6.232300e-01 2.564862e-05 -2.236292e-05 7.657334e-06 3.712252e-05 7.363281e-01 6.215820e-01
2.887516e+09 7.282715e-01 6.298828e-01 4.025176e-05 -8.927658e-06 -2.475083e-05 5.092472e-06 7.312622e-01 6.272583e-01
2.891266e+09 7.232056e-01 6.351929e-01 -3.951136e-06 -6.075483e-06 8.656643e-06 -5.018897e-06 7.260132e-01 6.326904e-01
2.895016e+09 7.178345e-01 6.412354e-01 1.364760e-05 -2.332963e-05 -9.536743e-07 4.225969e-05 7.196045e-01 6.390991e-01
2.898766e+09 7.084961e-01 6.493225e-01 -1.841597e-05 -2.836250e-05 -2.625398e-05 -1.728348e-05 7.105408e-01 6.465454e-01
2.902515e+09 6.994324e-01 6.591492e-01 -2.030842e-05 2.185069e-05 -1.385808e-05 -1.988374e-05 7.019958e-01 6.561279e-01
2.906265e+09 6.911926e-01 6.703186e-01 6.682053e-05 5.427748e-06 2.243556e-05 -1.767837e-05 6.941223e-01 6.684265e-01
2.910015e+09 6.826477e-01 6.857605e-01 -6.873161e-06 1.595542e-05 -2.617016e-05 4.804879e-05 6.866760e-01 6.830750e-01
2.913765e+09 6.775208e-01 7.015686e-01 4.117936e-05 2.793223e-05 -7.420778e-06 2.795272e-05 6.798096e-01 6.998291e-01
2.917515e+09 6.743774e-01 7.191772e-01 -7.376075e-07 -6.326661e-05 -3.221631e-05 -4.329532e-05 6.776123e-01 7.168579e-01
2.921265e+09 6.755371e-01 7.365723e-01 -2.453662e-05 1.596473e-05 -4.520640e-05 -7.461756e-06 6.781006e-01 7.349243e-01
2.925015e+09 6.791992e-01 7.512817e-01 -1.199916e-05 -2.741069e-05 -9.281561e-06 -2.854131e-05 6.828003e-01 7.495117e-01
2.928765e+09 6.869507e-01 7.637939e-01 -3.251806e-05 -4.085153e-05 7.884577e-06 5.183741e-06 6.900024e-01 7.616577e-01
2.932515e+09 6.933594e-01 7.708740e-01 -1.854077e-05 5.370006e-05 1.663715e-05 -6.829202e-05 6.970825e-01 7.693481e-01
2.936265e+09 7.014771e-01 7.745972e-01 -1.235865e-05 -9.825453e-06 2.249330e-05 2.607703e-05 7.034912e-01 7.731934e-01
2.940015e+09 7.052002e-01 7.745361e-01 4.307553e-05 -7.238239e-06 4.154816e-05 -2.904236e-05 7.072754e-01 7.723999e-01
2.943765e+09 7.041016e-01 7.720947e-01 -1.546927e-06 1.590885e-05 -1.829676e-05 -2.319925e-05 7.074585e-01 7.691650e-01
2.947515e+09 7.008667e-01 7.710571e-01 -2.265722e-05 5.640090e-05 6.178021e-05 7.227063e-06 7.026978e-01 7.689819e-01
2.951265e+09 6.926270e-01 7.700195e-01 -8.138828e-06 -1.245365e-05 2.644956e-05 -4.864112e-05 6.964722e-01 7.677612e-01
2.955015e+09 6.834717e-01 7.723999e-01 -1.000166e-04 -8.501112e-06 -1.624040e-05 3.310852e-05 6.863403e-01 7.702637e-01
2.958765e+09 6.719971e-01 7.775879e-01 -3.037974e-06 3.144890e-05 -3.288686e-05 2.458692e-07 6.752930e-01 7.761841e-01
2.962515e+09 6.628418e-01 7.869263e-01 2.570823e-05 3.032573e-05 4.323199e-05 1.740083e-05 6.658325e-01 7.830200e-01
2.966265e+09 6.543579e-01 7.957153e-01 -3.575347e-05 1.746789e-05 5.197525e-05 -2.074987e-05 6.575317e-01 7.932129e-01
2.970015e+09 6.477661e-01 8.063354e-01 -1.225062e-05 -9.699725e-06 -1.542736e-05 -1.012161e-05 6.506348e-01 8.033447e-01
2.973765e+09 6.438599e-01 8.164673e-01 1.505949e-05 4.929490e-06 -5.141273e-05 1.074001e-05 6.464844e-01 8.154907e-01
2.977515e+09 6.408081e-01 8.256226e-01 1.579523e-06 -2.468936e-05 6.584823e-05 -2.389774e-05 6.440430e-01 8.235474e-01
2.981265e+09 6.395874e-01 8.348999e-01 -8.358620e-06 1.436565e-05 -3.478304e-05 4.455820e-05 6.415405e-01 8.310547e-01
2.985015e+09 6.373291e-01 8.397827e-01 -1.639128e-05 -7.006340e-06 2.359226e-05 1.542456e-05 6.406860e-01 8.373413e-01
2.988765e+09 6.345215e-01 8.456421e-01 1.728907e-05 6.239861e-05 3.904849e-05 -8.154660e-06 6.369019e-01 8.450317e-01
2.992515e+09 6.304321e-01 8.505859e-01 -9.657815e-06 1.223758e-05 -8.683652e-05 5.539507e-05 6.343994e-01 8.475342e-01
2.996265e+09 6.288452e-01 8.577881e-01 2.616085e-05 -2.307445e-05 -2.603605e-05 5.422160e-06 6.307983e-01 8.545532e-01
3.000015e+09 6.244507e-01 8.565063e-01 -3.387965e-05 -1.920387e-05 2.044439e-05 1.668558e-05 6.273193e-01 8.545532e-01
3.003765e+09 6.224976e-01 8.591309e-01 3.984198e-05 3.266893e-05 1.225155e-05 -6.421469e-06 6.258545e-01 8.560181e-01
3.007515e+09 6.192627e-01 8.634644e-01 -2.279319e-05 3.574230e-05 6.071478e-05 -6.292388e-05 6.227417e-01 8.623657e-01
3.011265e+09 6.164551e-01 8.648071e-01 -5.356967e-06 2.045184e-05 9.920448e-06 3.382377e-05 6.192627e-01 8.621826e-01
3.015015e+09 6.125488e-01 8.659668e-01 1.369417e-05 2.256408e-05 1.689326e-05 -4.968606e-06 6.163330e-01 8.654175e-01
3.018765e+09 6.084595e-01 8.671265e-01 -3.818423e-05 1.387671e-04 6.719306e-05 3.121793e-05 6.119385e-01 8.641968e-01
3.022515e+09 6.029663e-01 8.658447e-01 -1.481734e-06 -1.774821e-05 8.054078e-06 -5.904213e-05 6.067505e-01 8.645630e-01
3.026265e+09 5.951538e-01 8.644409e-01 1.673028e-05 -2.765283e-05 -9.462982e-05 7.326156e-05 5.992432e-01 8.621826e-01
3.030015e+09 5.872803e-01 8.651733e-01 -4.783273e-05 -1.840293e-06 3.118068e-05 8.167326e-05 5.894775e-01 8.626099e-01
3.033765e+09 5.765991e-01 8.673706e-01 6.252155e-05 3.631786e-05 1.276061e-04 -1.194328e-05 5.800171e-01 8.640747e-01
3.037515e+09 5.675659e-01 8.698120e-01 -2.455525e-05 -9.721145e-06 -1.337379e-06 -6.257370e-05 5.711060e-01 8.668213e-01
3.041265e+09 5.607910e-01 8.744507e-01 3.618002e-05 -7.665530e-05 6.361306e-05 3.022701e-05 5.643921e-01 8.721313e-01
3.045015e+09 5.557861e-01 8.790894e-01 7.792190e-05 -5.999207e-05 -5.510822e-05 -5.917251e-05 5.584717e-01 8.769531e-01
3.048765e+09 5.526123e-01 8.834839e-01 -1.729652e-05 -3.531948e-05 -3.151596e-06 -7.502362e-05 5.550537e-01 8.808594e-01
3.052515e+09 5.519409e-01 8.847656e-01 -1.580641e-05 -1.768302e-05 6.172433e-05 -4.462898e-05 5.551147e-01 8.817139e-01
3.056265e+09 5.524292e-01 8.829346e-01 2.196431e-05 -4.834682e-05 3.058463e-06 7.560849e-05 5.555420e-01 8.803101e-01
3.060015e+09 5.535889e-01 8.767700e-01 -8.849427e-06 7.909723e-06 -3.525987e-05 -7.492676e-05 5.548096e-01 8.748779e-01
3.063765e+09 5.473022e-01 8.664551e-01 7.011741e-05 -6.908923e-05 2.350658e-06 -4.158169e-05 5.502930e-01 8.665161e-01
3.067515e+09 5.404053e-01 8.556519e-01 2.864748e-06 -2.163649e-05 6.935373e-05 -2.037734e-05 5.439453e-01 8.551636e-01
3.071265e+09 5.299072e-01 8.450317e-01 -5.213544e-05 5.314872e-05 -1.191124e-04 1.497567e-05 5.316772e-01 8.429565e-01
3.075015e+09 5.133057e-01 8.345337e-01 -1.803972e-05 9.887852e-06 -5.904585e-07 -3.110990e-05 5.167236e-01 8.325195e-01
3.078765e+09 4.940186e-01 8.286133e-01 -5.252659e-07 -8.500740e-05 -1.154840e-06 2.012402e-05 4.980469e-01 8.258667e-01
3.082515e+09 4.755859e-01 8.234253e-01 -2.262183e-05 -1.457892e-05 -7.546041e-06 7.864088e-06 4.785156e-01 8.229980e-01
3.086265e+09 4.555664e-01 8.243408e-01 2.009515e-05 -1.488347e-05 -1.577474e-05 -1.512840e-05 4.576416e-01 8.216553e-01
3.090015e+09 4.371948e-01 8.271484e-01 4.753843e-05 -4.269183e-06 7.686391e-05 3.417209e-05 4.403687e-01 8.247681e-01
3.093765e+09 4.207764e-01 8.304443e-01 2.676249e-05 5.682558e-05 1.598801e-05 1.532864e-05 4.234009e-01 8.308105e-01
3.097515e+09 4.074707e-01 8.358154e-01 -2.323277e-05 -1.492724e-05 -7.323921e-06 -4.420057e-05 4.096680e-01 8.358765e-01
3.101264e+09 3.919678e-01 8.408813e-01 -9.126961e-07 1.720432e-05 -3.606081e-06 6.244704e-05 3.964844e-01 8.392334e-01
3.105014e+09 3.822632e-01 8.449707e-01 4.290044e-05 4.019961e-05 8.270144e-05 -5.981326e-05 3.852539e-01 8.444824e-01
3.108764e+09 3.708496e-01 8.486328e-01 4.030205e-05 -4.284456e-05 -4.540756e-05 7.383525e-06 3.751831e-01 8.474121e-01
3.112514e+09 3.601685e-01 8.505859e-01 -2.799928e-05 4.171021e-05 -1.858920e-05 -1.138672e-04 3.634644e-01 8.494873e-01
3.116264e+09 3.491821e-01 8.526611e-01 1.913216e-05 -4.205853e-06 -4.189461e-05 3.025681e-05 3.527832e-01 8.510742e-01
3.120014e+09 3.378296e-01 8.547974e-01 1.184642e-05 -3.030151e-05 -5.552918e-05 -8.225441e-05 3.419189e-01 8.538208e-01
3.123764e+09 3.280640e-01 8.569946e-01 2.719462e-07 2.909824e-05 7.255375e-05 -4.232675e-05 3.305054e-01 8.562622e-01
3.127514e+09 3.165894e-01 8.607788e-01 3.753603e-05 -1.435354e-05 -1.649931e-05 7.043406e-05 3.200684e-01 8.593140e-01
3.131264e+09 3.073120e-01 8.631592e-01 1.005828e-05 5.614012e-05 4.328787e-06 5.518273e-05 3.098755e-01 8.616333e-01
3.135014e+09 2.986450e-01 8.664551e-01 5.595386e-06 6.043166e-05 -3.188103e-05 -5.291402e-05 3.020020e-01 8.649902e-01
3.138764e+09 2.907104e-01 8.667603e-01 1.913682e-05 -5.674362e-05 1.649279e-05 1.581945e-05 2.936401e-01 8.645020e-01
3.142514e+09 2.816162e-01 8.656616e-01 2.656877e-05 -3.064238e-05 2.510846e-06 1.287833e-04 2.855225e-01 8.638306e-01
3.146264e+09 2.718506e-01 8.646240e-01 -1.066364e-05 4.271232e-05 -4.542992e-05 -2.475455e-05 2.769775e-01 8.638306e-01
3.150014e+09 2.599487e-01 8.618164e-01 1.731515e-05 -5.194172e-05 -3.918633e-05 -4.398450e-05 2.639160e-01 8.601074e-01
3.153764e+09 2.473145e-01 8.591309e-01 -4.154816e-05 1.488253e-06 -2.999417e-05 1.175329e-05 2.508545e-01 8.588867e-01
3.157514e+09 2.313232e-01 8.572998e-01 2.034754e-05 6.048009e-05 4.315004e-05 1.335144e-05 2.334595e-01 8.563843e-01
3.161264e+09 2.113647e-01 8.582153e-01 -4.139543e-05 1.460314e-06 7.712469e-05 -2.863258e-05 2.152710e-01 8.577881e-01
3.165014e+09 1.937866e-01 8.616943e-01 1.687370e-05 -2.844818e-05 1.568347e-06 -7.322431e-05 1.965332e-01 8.605957e-01
3.168764e+09 1.746216e-01 8.679810e-01 2.197735e-05 -2.658553e-05 2.554432e-05 7.148460e-05 1.791382e-01 8.681641e-01
3.172514e+09 1.580200e-01 8.788452e-01 -9.058975e-06 8.235686e-06 1.463853e-05 4.530884e-06 1.621704e-01 8.770142e-01
3.176264e+09 1.452026e-01 8.904419e-01 -1.002029e-04 6.145984e-05 -1.410395e-05 2.807006e-05 1.470947e-01 8.900146e-01
3.180014e+09 1.329346e-01 9.033813e-01 2.751872e-05 2.834387e-05 1.923926e-05 -2.679415e-05 1.380005e-01 9.016113e-01
3.183764e+09 1.255493e-01 9.149170e-01 -5.466118e-05 2.638996e-05 -6.325543e-05 7.940084e-05 1.299438e-01 9.151611e-01
3.187514e+09 1.211548e-01 9.248047e-01 1.652166e-06 4.221871e-05 1.210719e-06 -2.172217e-05 1.250000e-01 9.248657e-01
3.191264e+09 1.172485e-01 9.323120e-01 -1.613051e-05 6.516650e-05 -5.040318e-06 -1.564622e-06 1.212158e-01 9.321899e-01
3.195014e+09 1.146851e-01 9.376831e-01 1.973286e-05 4.909188e-05 3.948063e-05 -2.082810e-05 1.191406e-01 9.387817e-01
3.198764e+09 1.110840e-01 9.400024e-01 -1.802482e-05 -6.917864e-06 -6.144866e-06 1.994707e-05 1.140747e-01 9.400024e-01
3.202514e+09 1.054688e-01 9.408569e-01 1.395270e-04 1.221150e-05 -2.281927e-05 3.790483e-06 1.094971e-01 9.416504e-01
3.206264e+09 9.783936e-02 9.421997e-01 -7.303432e-05 -1.617894e-05 -4.207715e-06 3.092363e-05 1.022949e-01 9.417725e-01
3.210014e+09 8.856201e-02 9.434814e-01 3.928319e-06 -1.024781e-05 -8.074194e-05 7.113814e-05 9.118652e-02 9.443970e-01
3.213764e+09 7.995605e-02 9.448242e-01 5.086139e-05 -9.950250e-06 3.210083e-05 -7.487833e-07 8.062744e-02 9.461060e-01
3.217514e+09 6.842041e-02 9.489746e-01 2.045184e-05 3.143772e-05 5.634874e-05 6.683171e-06 7.128906e-02 9.481812e-01
3.221264e+09 5.596924e-02 9.519043e-01 -4.547834e-05 1.820177e-05 5.046278e-05 2.613291e-05 5.987549e-02 9.525146e-01
3.225014e+09 4.425049e-02 9.564819e-01 -2.184510e-05 5.714595e-05 -4.388392e-05 -1.353025e-05 4.901123e-02 9.563599e-01
3.228764e+09 3.521729e-02 9.609985e-01 9.270385e-06 -3.226101e-05 -8.029491e-05 -3.534555e-05 3.820801e-02 9.619751e-01
3.232514e+09 2.288818e-02 9.656372e-01 -2.561137e-05 2.013333e-05 6.713718e-05 9.927899e-06 2.770996e-02 9.667358e-01
3.236264e+09 1.177979e-02 9.717407e-01 7.217284e-06 -3.235880e-06 8.748844e-06 2.443045e-05 1.489258e-02 9.718018e-01
3.240014e+09 -6.103516e-05 9.770508e-01 -5.851500e-06 -8.198898e-06 -4.104897e-05 9.164214e-06 2.929688e-03 9.765015e-01
3.243764e+09 -1.361084e-02 9.855347e-01 5.318224e-05 -4.558265e-05 2.665073e-05 7.411093e-05 -1.019287e-02 9.857178e-01
3.247514e+09 -2.508545e-02 9.963989e-01 -2.272427e-06 1.006499e-04 -1.175329e-06 2.177432e-05 -2.154541e-02 9.965820e-01
3.251264e+09 -3.607178e-02 1.008301e+00 -2.841093e-05 4.318170e-05 -5.665421e-05 -5.091727e-05 -3.302002e-02 1.009827e+00
3.255014e+09 -4.327393e-02 1.022949e+00 2.335757e-06 7.306784e-05 1.188442e-04 1.413375e-05 -3.948975e-02 1.023987e+00
3.258764e+09 -4.833984e-02 1.038269e+00 1.985766e-05 -4.568137e-06 -3.762543e-05 6.717816e-05 -4.345703e-02 1.038147e+00
3.262514e+09 -4.693604e-02 1.052673e+00 2.471358e-05 -3.315508e-05 -6.696954e-05 -2.073869e-05 -4.296875e-02 1.053650e+00
3.266264e+09 -4.205322e-02 1.064514e+00 -7.826835e-06 -7.619709e-05 3.332831e-05 -3.480911e-05 -3.723145e-02 1.065430e+00
3.270014e+09 -3.479004e-02 1.070801e+00 2.742186e-05 -7.957220e-06 2.086163e-05 9.612739e-05 -3.015137e-02 1.070618e+00
3.273764e+09 -2.783203e-02 1.072388e+00 4.539639e-05 1.714006e-05 -5.663931e-05 -5.092472e-05 -2.209473e-02 1.074890e+00
3.277514e+09 -2.014160e-02 1.069458e+00 1.461059e-05 6.630644e-05 -1.746230e-05 3.872998e-05 -1.617432e-02 1.069641e+00
3.281264e+09 -1.745605e-02 1.061707e+00 2.387911e-05 1.056269e-04 4.865229e-05 3.670156e-05 -1.184082e-02 1.060608e+00
3.285014e+09 -1.922607e-02 1.050781e+00 -2.901070e-05 -1.092069e-05 -4.132092e-05 1.168475e-04 -1.287842e-02 1.053467e+00
3.288764e+09 -2.667236e-02 1.039917e+00 1.113117e-05 1.017377e-05 9.063631e-06 -2.936274e-05 -1.971436e-02 1.041687e+00
3.292514e+09 -3.564453e-02 1.033325e+00 -4.896522e-05 3.528967e-05 -2.669916e-05 3.460608e-05 -2.935791e-02 1.032593e+00
3.296264e+09 -4.693604e-02 1.026306e+00 -4.578382e-05 -5.281717e-05 -9.803567e-06 -2.993271e-06 -4.205322e-02 1.026001e+00
3.300014e+09 -6.115723e-02 1.023804e+00 -1.581013e-05 -7.748231e-05 5.044043e-05 -6.072223e-06 -5.596924e-02 1.022644e+00
3.303763e+09 -7.403564e-02 1.022095e+00 -3.152713e-05 -5.960837e-05 3.445894e-05 6.501749e-05 -6.884766e-02 1.023132e+00
3.307513e+09 -8.734131e-02 1.021057e+00 2.303720e-05 5.065650e-05 -3.395416e-05 -3.241375e-05 -8.148193e-02 1.025269e+00
3.311263e+09 -9.613037e-02 1.024902e+00 -7.251278e-06 2.739206e-05 -4.057214e-05 -1.249462e-05 -9.216309e-02 1.023132e+00
3.315013e+09 -1.062012e-01 1.026978e+00 -1.068041e-05 -5.225837e-05 2.241507e-05 1.810677e-05 -1.032104e-01 1.027893e+00
3.318763e+09 -1.138916e-01 1.025391e+00 -3.580377e-05 -1.287088e-06 -2.959184e-05 -3.161095e-05 -1.091919e-01 1.027405e+00
3.322513e+09 -1.209106e-01 1.025208e+00 -4.431605e-05 3.794581e-05 -7.351488e-05 5.626678e-05 -1.181030e-01 1.026245e+00
3.326263e+09 -1.309814e-01 1.025208e+00 -2.057105e-05 2.262369e-05 -1.017302e-04 9.264052e-05 -1.287842e-01 1.026550e+00
3.330013e+09 -1.400757e-01 1.024231e+00 -2.525747e-06 4.759803e-05 6.247312e-05 5.292520e-05 -1.358032e-01 1.024658e+00
3.333763e+09 -1.508179e-01 1.024292e+00 -3.351085e-05 -2.471358e-05 -8.765608e-05 2.919883e-05 -1.461792e-01 1.023499e+00
3.337513e+09 -1.583252e-01 1.023193e+00 4.066154e-06 1.380499e-05 -6.467104e-05 -8.627772e-06 -1.535645e-01 1.024780e+00
3.341263e+09 -1.654053e-01 1.024292e+00 4.515052e-05 -8.825213e-05 -3.589876e-05 -1.101568e-05 -1.626587e-01 1.025085e+00
3.345013e+09 -1.730957e-01 1.025452e+00 -3.205985e-05 -5.705282e-06 -9.562075e-05 -1.808256e-05 -1.691895e-01 1.025269e+00
3.348763e+09 -1.792603e-01 1.022705e+00 -1.624227e-06 -8.814037e-05 -5.216524e-05 -4.976615e-05 -1.738281e-01 1.024475e+00
3.352513e+09 -1.846924e-01 1.023010e+00 -8.098781e-06 4.712120e-05 -9.112060e-06 -2.532266e-05 -1.795044e-01 1.023560e+00
3.356263e+09 -1.899414e-01 1.017517e+00 2.562813e-05 4.083291e-05 2.250075e-06 1.020283e-04 -1.844482e-01 1.018372e+00
3.360013e+09 -1.945190e-01 1.011963e+00 4.953146e-05 1.833215e-05 -2.489798e-05 2.609193e-05 -1.902466e-01 1.012939e+00
3.363763e+09 -2.011108e-01 1.005798e+00 -3.819168e-05 1.073070e-05 -6.872416e-05 -3.234297e-05 -1.974487e-01 1.005920e+00
3.367513e+09 -2.113037e-01 9.979248e-01 2.187863e-05 3.281049e-05 -6.740913e-05 -5.446374e-05 -2.061157e-01 9.983521e-01
3.371263e+09 -2.217407e-01 9.912109e-01 -2.735108e-05 5.746633e-05 -5.361438e-05 -1.173764e-04 -2.159424e-01 9.908447e-01
3.375013e+09 -2.332153e-01 9.863281e-01 -4.974008e-05 -3.061444e-05 -5.124137e-06 -1.579523e-06 -2.301636e-01 9.877319e-01
3.378763e+09 -2.468872e-01 9.832764e-01 2.524629e-05 -2.717227e-05 -5.051494e-05 1.811609e-05 -2.443848e-01 9.849854e-01
3.382513e+09 -2.587891e-01 9.842529e-01 3.361702e-05 4.886463e-05 -3.603473e-05 -1.107343e-05 -2.566528e-01 9.847412e-01
3.386263e+09 -2.708130e-01 9.850464e-01 3.603660e-05 1.072884e-06 6.790459e-05 -9.199232e-05 -2.633057e-01 9.866333e-01
3.390013e+09 -2.760010e-01 9.876709e-01 5.089492e-05 1.873821e-05 -5.167350e-05 -1.589209e-05 -2.723389e-01 9.880371e-01
3.393763e+09 -2.788696e-01 9.878540e-01 -5.865842e-05 5.159155e-05 6.353110e-05 8.741021e-05 -2.755127e-01 9.880981e-01
3.397513e+09 -2.801514e-01 9.862061e-01 4.369766e-06 -5.338341e-05 -1.505762e-05 -6.100163e-05 -2.753906e-01 9.871216e-01
3.401263e+09 -2.808228e-01 9.797974e-01 2.099574e-05 2.610125e-05 8.118898e-05 -8.657575e-06 -2.762451e-01 9.814453e-01
3.405013e+09 -2.808838e-01 9.714966e-01 -3.471971e-06 8.440018e-05 -1.958013e-05 2.743676e-05 -2.773438e-01 9.732056e-01
3.408763e+09 -2.841187e-01 9.607544e-01 8.366629e-05 3.062189e-05 8.204952e-06 -8.567236e-06 -2.803345e-01 9.607544e-01
3.412513e+09 -2.891235e-01 9.490356e-01 5.054474e-05 -1.040623e-04 -1.584738e-05 1.056865e-04 -2.845459e-01 9.487305e-01
3.416263e+09 -2.979736e-01 9.344482e-01 -1.036376e-05 6.995350e-05 -2.017245e-05 -6.230548e-06 -2.935791e-01 9.354248e-01
3.420013e+09 -3.073120e-01 9.219360e-01 2.740324e-05 3.469735e-05 3.463402e-05 -2.256967e-05 -3.039551e-01 9.224854e-01
3.423763e+09 -3.184814e-01 9.127808e-01 -9.816140e-05 1.373887e-05 5.207583e-05 -6.277114e-06 -3.168335e-01 9.136963e-01
3.427513e+09 -3.311768e-01 9.050293e-01 -8.802861e-06 1.550652e-05 1.108088e-05 3.713556e-05 -3.270264e-01 9.060669e-01
3.431263e+09 -3.432007e-01 8.959961e-01 -1.130067e-05 -2.923422e-05 -5.502999e-05 -5.573034e-06 -3.400269e-01 8.976440e-01
3.435013e+09 -3.529053e-01 8.908081e-01 -2.781674e-05 -1.014769e-05 -1.933426e-05 6.283075e-05 -3.513184e-01 8.912354e-01
3.438763e+09 -3.630371e-01 8.845215e-01 2.004392e-05 -1.162291e-05 -3.776699e-05 -4.621968e-05 -3.632812e-01 8.843994e-01
3.442513e+09 -3.735962e-01 8.762817e-01 4.310161e-05 3.099442e-06 5.297735e-05 1.630187e-05 -3.709717e-01 8.787842e-01
3.446263e+09 -3.840942e-01 8.696289e-01 2.652779e-05 2.227165e-05 5.438179e-05 -6.448478e-06 -3.803711e-01 8.731079e-01
3.450013e+09 -3.920898e-01 8.643799e-01 6.973743e-05 -1.818985e-04 2.659298e-05 8.199364e-06 -3.901978e-01 8.641357e-01
3.453763e+09 -4.023438e-01 8.568115e-01 2.134591e-05 -6.740913e-05 -2.572127e-05 2.690963e-05 -3.992310e-01 8.574219e-01
3.457513e+09 -4.139404e-01 8.512573e-01 1.052953e-05 2.258457e-05 -5.946681e-05 4.883856e-06 -4.093628e-01 8.526611e-01
3.461263e+09 -4.217529e-01 8.460083e-01 -2.804585e-05 8.501112e-06 2.357922e-05 -3.893860e-05 -4.194946e-01 8.482056e-01
3.465013e+09 -4.304199e-01 8.410034e-01 2.930872e-05 -2.053753e-05 1.454912e-05 2.744608e-05 -4.281616e-01 8.434448e-01
3.468763e+09 -4.379272e-01 8.383179e-01 6.200001e-05 1.001731e-05 2.391636e-06 -4.511699e-05 -4.353638e-01 8.401489e-01
3.472513e+09 -4.442139e-01 8.338013e-01 3.953651e-05 2.058409e-05 3.850646e-05 2.324022e-05 -4.408569e-01 8.344727e-01
3.476263e+09 -4.483643e-01 8.283081e-01 -2.024695e-05 -8.262321e-05 4.033372e-05 3.513694e-05 -4.451294e-01 8.307495e-01
3.480013e+09 -4.514160e-01 8.208008e-01 -1.890771e-05 -2.567098e-05 5.290285e-05 -6.355345e-06 -4.484863e-01 8.223267e-01
3.483763e+09 -4.556885e-01 8.118286e-01 -3.231689e-05 -4.934520e-05 -6.542355e-05 4.761294e-05 -4.531250e-01 8.132324e-01
3.487513e+09 -4.584351e-01 7.998657e-01 7.248297e-05 7.420778e-06 -1.113676e-05 -3.711507e-05 -4.577026e-01 8.018799e-01
3.491263e+09 -4.665527e-01 7.879639e-01 6.520748e-05 1.049414e-04 -1.939014e-05 -2.843142e-05 -4.635010e-01 7.886353e-01
3.495013e+09 -4.754639e-01 7.751465e-01 7.086433e-06 1.505204e-05 -2.969429e-05 -3.164262e-05 -4.728394e-01 7.758179e-01
3.498763e+09 -4.879150e-01 7.622681e-01 -3.998913e-05 -1.983717e-06 -2.421439e-06 4.456565e-05 -4.852295e-01 7.631836e-01
3.502512e+09 -5.021362e-01 7.516479e-01 2.814084e-05 -7.773936e-05 4.933029e-05 -3.043935e-05 -4.990845e-01 7.531738e-01
3.506262e+09 -5.153198e-01 7.429810e-01 1.629256e-05 2.479181e-05 -4.580989e-05 5.500764e-05 -5.129395e-01 7.456665e-01
3.510012e+09 -5.272827e-01 7.373657e-01 -4.773587e-05 -1.719967e-05 -5.071610e-05 -6.212667e-05 -5.255127e-01 7.404785e-01
3.513762e+09 -5.407104e-01 7.348022e-01 1.637638e-05 -8.985400e-05 8.217990e-06 4.959852e-05 -5.379028e-01 7.359619e-01
3.517512e+09 -5.515747e-01 7.312622e-01 1.687184e-05 5.094334e-05 -3.117509e-05 -3.332645e-05 -5.489502e-01 7.338257e-01
3.521262e+09 -5.572510e-01 7.286377e-01 1.049601e-05 4.229695e-05 -7.389858e-05 -1.089275e-05 -5.552368e-01 7.313843e-01
3.525012e+09 -5.637207e-01 7.241821e-01 1.149252e-05 -4.081987e-05 -1.668930e-05 5.421415e-05 -5.623169e-01 7.271118e-01
3.528762e+09 -5.687866e-01 7.188721e-01 -4.422665e-05 1.610443e-05 1.744647e-05 -1.827255e-05 -5.661011e-01 7.200928e-01
3.532512e+09 -5.738831e-01 7.110291e-01 2.597272e-05 -5.450472e-05 7.418916e-06 1.403037e-05 -5.703735e-01 7.128296e-01
3.536262e+09 -5.791626e-01 7.010193e-01 -3.221259e-05 1.154840e-06 3.107265e-05 -2.533756e-05 -5.774536e-01 7.027588e-01
3.540012e+09 -5.873718e-01 6.900330e-01 3.820658e-05 -6.229803e-05 2.473220e-05 -6.160140e-05 -5.857544e-01 6.931763e-01
3.543762e+09 -5.964661e-01 6.791687e-01 5.042553e-05 1.811236e-05 -5.876273e-05 4.827976e-06 -5.950317e-01 6.820068e-01
3.547512e+09 -6.084595e-01 6.689453e-01 -5.125999e-05 1.950562e-05 -1.126304e-04 -2.329797e-05 -6.064453e-01 6.724548e-01
3.551262e+09 -6.220093e-01 6.608887e-01 -4.757196e-06 -3.971718e-05 -7.330999e-05 3.445894e-05 -6.195984e-01 6.632080e-01
3.555012e+09 -6.348267e-01 6.548462e-01 -2.049282e-05 -1.371000e-05 7.599592e-06 -4.331768e-05 -6.325378e-01 6.566467e-01
3.558762e+09 -6.500244e-01 6.468506e-01 -2.864376e-05 8.840114e-06 6.771460e-05 -7.071719e-05 -6.466980e-01 6.504211e-01
3.562512e+09 -6.613464e-01 6.433716e-01 -6.140396e-05 2.909079e-05 8.091331e-06 4.848465e-05 -6.594238e-01 6.466370e-01
3.566262e+09 -6.734924e-01 6.383667e-01 -1.440570e-04 1.858920e-05 1.305193e-04 6.330013e-05 -6.720276e-01 6.416931e-01
3.570012e+09 -6.863098e-01 6.343384e-01 -4.053116e-06 -3.328547e-05 -4.886091e-05 8.102506e-06 -6.842651e-01 6.372986e-01
3.573762e+09 -6.987915e-01 6.318054e-01 -4.112720e-05 1.714937e-05 -4.909933e-06 -5.965307e-05 -6.957092e-01 6.328735e-01
3.577512e+09 -7.101746e-01 6.273804e-01 3.219582e-06 -1.791772e-05 7.756054e-06 -4.418194e-05 -7.091980e-01 6.307373e-01
3.581262e+09 -7.238770e-01 6.255493e-01 -3.460981e-05 2.568588e-05 6.023049e-05 8.866191e-05 -7.219849e-01 6.273193e-01
3.585012e+09 -7.375488e-01 6.241455e-01 -5.582348e-06 4.238077e-05 -2.795644e-05 1.477078e-05 -7.360840e-01 6.271362e-01
3.588762e+09 -7.506104e-01 6.257324e-01 2.685934e-05 -2.212822e-05 5.642697e-05 6.419048e-05 -7.476807e-01 6.287842e-01
3.592512e+09 -7.623901e-01 6.278687e-01 4.792586e-05 -2.740324e-05 -2.068095e-05 2.882816e-05 -7.606812e-01 6.322632e-01
3.596262e+09 -7.700195e-01 6.345215e-01 7.138774e-05 -1.280382e-05 5.751848e-06 -5.693361e-05 -7.670898e-01 6.366577e-01
3.600012e+09 -7.748413e-01 6.383057e-01 -2.827495e-06 4.365295e-05 -4.439801e-05 -8.394569e-05 -7.727051e-01 6.411743e-01
3.603762e+09 -7.778320e-01 6.421509e-01 2.506003e-05 -1.660548e-05 -8.243322e-05 2.125651e-05 -7.754517e-01 6.445312e-01
3.607512e+09 -7.760010e-01 6.429443e-01 1.706183e-06 5.796924e-05 2.196059e-05 4.154444e-05 -7.748413e-01 6.459961e-01
3.611262e+09 -7.758179e-01 6.397095e-01 -1.374818e-05 -2.397038e-05 -3.278442e-05 1.290254e-05 -7.727661e-01 6.435547e-01
3.615012e+09 -7.724609e-01 6.335449e-01 -1.437217e-05 5.840510e-05 2.210215e-05 -1.605414e-05 -7.706299e-01 6.367188e-01
3.618762e+09 -7.759399e-01 6.234131e-01 6.221235e-07 -8.219853e-05 4.706532e-05 1.057535e-04 -7.717896e-01 6.271362e-01
3.622512e+09 -7.798462e-01 6.139526e-01 -3.932230e-05 3.042258e-05 5.641207e-05 -1.676753e-05 -7.774048e-01 6.168213e-01
3.626262e+09 -7.875977e-01 6.026001e-01 -6.128475e-05 -1.539662e-05 -3.127195e-05 -9.670854e-06 -7.858276e-01 6.052246e-01
3.630012e+09 -7.962036e-01 5.933228e-01 2.995878e-05 2.338924e-05 -2.744049e-05 1.452491e-05 -7.956543e-01 5.958862e-01
3.633762e+09 -8.103027e-01 5.857544e-01 2.659857e-05 6.074086e-05 -3.710389e-06 6.847456e-05 -8.086548e-01 5.885010e-01
3.637512e+09 -8.222656e-01 5.811768e-01 5.010515e-05 5.001947e-05 2.263859e-05 -1.643412e-05 -8.204346e-01 5.842285e-01
3.641262e+09 -8.354492e-01 5.786133e-01 -7.551163e-06 -6.113201e-05 2.367049e-05 1.917034e-05 -8.351440e-01 5.819702e-01
3.645012e+09 -8.464355e-01 5.778809e-01 8.755177e-05 -8.083880e-06 5.780160e-05 6.008893e-06 -8.459473e-01 5.833740e-01
3.648762e+09 -8.572388e-01 5.802612e-01 3.158487e-05 3.075600e-05 1.792982e-05 7.767975e-05 -8.558350e-01 5.836792e-01
3.652512e+09 -8.637085e-01 5.825806e-01 -4.642084e-05 -1.639500e-05 -1.311302e-06 2.365559e-05 -8.627930e-01 5.860596e-01
3.656262e+09 -8.707886e-01 5.838623e-01 -8.423813e-07 -6.812625e-06 2.743676e-05 8.536503e-06 -8.690796e-01 5.878906e-01
3.660012e+09 -8.746338e-01 5.864258e-01 6.989762e-05 -5.975366e-05 1.849793e-05 1.771096e-05 -8.726196e-01 5.902100e-01
3.663762e+09 -8.777466e-01 5.880737e-01 4.628301e-05 6.176159e-05 2.235547e-05 -5.276501e-05 -8.770142e-01 5.918579e-01
3.667512e+09 -8.809204e-01 5.891724e-01 7.829443e-05 5.355850e-05 2.767891e-05 -5.084649e-05 -8.792725e-01 5.931396e-01
3.671262e+09 -8.823242e-01 5.914307e-01 3.066845e-05 -4.106760e-05 8.811057e-05 -1.505241e-04 -8.795166e-01 5.946655e-01
3.675012e+09 -8.820190e-01 5.933838e-01 5.748868e-05 3.981218e-05 -4.721060e-05 -3.826991e-05 -8.814087e-01 5.967407e-01
3.678762e+09 -8.804321e-01 5.951538e-01 2.115406e-05 1.398660e-05 5.023926e-05 -6.702542e-05 -8.773804e-01 5.979004e-01
3.682512e+09 -8.764038e-01 5.939331e-01 -2.904329e-06 -1.025386e-06 1.874939e-05 -4.133955e-05 -8.732910e-01 5.977173e-01
3.686262e+09 -8.682251e-01 5.915527e-01 2.751127e-05 -6.881729e-05 -4.497170e-05 -2.569705e-05 -8.665161e-01 5.938721e-01
3.690012e+09 -8.609009e-01 5.849609e-01 -1.399219e-05 2.119038e-05 -7.450581e-05 -8.180737e-05 -8.581543e-01 5.885010e-01
3.693762e+09 -8.524170e-01 5.749512e-01 -4.030392e-05 3.136322e-05 -3.944710e-05 -2.400577e-05 -8.494873e-01 5.781860e-01
3.697512e+09 -8.450317e-01 5.609131e-01 -4.245713e-05 5.637482e-05 -9.657443e-05 2.856553e-05 -8.436279e-01 5.637817e-01
3.701261e+09 -8.409424e-01 5.454712e-01 -2.964586e-05 4.765764e-05 -1.149066e-05 -3.859214e-05 -8.405151e-01 5.472412e-01
3.705011e+09 -8.421021e-01 5.269165e-01 -2.431683e-05 -4.070252e-05 3.404543e-05 2.226047e-05 -8.407593e-01 5.294800e-01
3.708761e+09 -8.487549e-01 5.083008e-01 -2.916157e-05 9.247661e-05 2.937950e-05 -3.783777e-05 -8.459473e-01 5.105591e-01
3.712511e+09 -8.560791e-01 4.920044e-01 -2.576411e-05 -7.341802e-05 6.250665e-05 7.573515e-06 -8.542480e-01 4.954834e-01
3.716261e+09 -8.665771e-01 4.796753e-01 -5.067140e-05 -3.066286e-05 6.724149e-06 -2.166070e-05 -8.651123e-01 4.822998e-01
3.720011e+09 -8.783569e-01 4.720459e-01 3.765337e-06 7.818919e-06 -5.532801e-05 -5.297363e-05 -8.772583e-01 4.745483e-01
3.723761e+09 -8.894653e-01 4.644165e-01 4.418567e-05 4.169345e-05 -6.026775e-05 -1.873821e-05 -8.873291e-01 4.680786e-01
3.727511e+09 -8.978882e-01 4.628296e-01 4.911795e-05 -9.063631e-06 -2.884120e-05 1.517124e-05 -8.957520e-01 4.666138e-01
3.731261e+09 -9.027100e-01 4.620361e-01 1.351535e-04 -3.841519e-05 -9.693950e-05 -1.797825e-05 -9.016113e-01 4.665527e-01
3.735011e+09 -9.035645e-01 4.622192e-01 4.547462e-05 -1.705065e-05 -1.226552e-05 2.024695e-05 -9.047241e-01 4.649048e-01
3.738761e+09 -9.046021e-01 4.589233e-01 -1.073107e-04 1.521409e-05 -6.936491e-06 -7.398427e-05 -9.017334e-01 4.620361e-01
3.742511e+09 -9.012451e-01 4.553223e-01 -6.962568e-05 -6.371364e-05 -7.992983e-05 4.660338e-05 -9.002686e-01 4.591675e-01
3.746261e+09 -8.973999e-01 4.477539e-01 -4.732609e-05 -4.279986e-05 2.104044e-05 6.568432e-05 -8.956909e-01 4.523926e-01
3.750011e+09 -8.960571e-01 4.396973e-01 -1.170114e-05 6.143376e-05 -8.269399e-05 5.691499e-05 -8.940430e-01 4.412231e-01
3.753761e+09 -8.937378e-01 4.304199e-01 -1.904741e-05 -3.938004e-05 -7.134676e-05 -9.289384e-05 -8.919067e-01 4.342651e-01
3.757511e+09 -8.937378e-01 4.203491e-01 -1.960341e-05 -2.710149e-07 2.362952e-05 1.916476e-05 -8.919678e-01 4.241333e-01
3.761261e+09 -8.927612e-01 4.109497e-01 -3.982335e-06 -7.381663e-05 -4.798546e-05 2.076477e-05 -8.914185e-01 4.146729e-01
3.765011e+09 -8.921509e-01 4.013062e-01 -3.941730e-05 -5.345792e-07 4.411489e-05 -4.602969e-05 -8.909912e-01 4.040527e-01
3.768761e+09 -8.919067e-01 3.912354e-01 -6.067753e-05 3.188476e-05 -3.679469e-05 6.059930e-05 -8.905640e-01 3.941040e-01
3.772511e+09 -8.901367e-01 3.808594e-01 -4.781783e-05 2.310798e-05 -1.422316e-05 1.040474e-04 -8.900146e-01 3.835449e-01
3.776261e+09 -8.903809e-01 3.689575e-01 -3.791042e-05 3.310665e-05 2.132729e-05 -2.961792e-05 -8.881836e-01 3.734131e-01
3.780011e+09 -8.875122e-01 3.575439e-01 3.850833e-05 -6.426126e-06 -7.766858e-05 3.633648e-05 -8.875732e-01 3.604736e-01
3.783761e+09 -8.871460e-01 3.440552e-01 5.414709e-05 -1.401827e-05 7.495657e-05 1.116097e-05 -8.867188e-01 3.471069e-01
3.787511e+09 -8.882446e-01 3.291016e-01 -2.272055e-05 1.831539e-05 -4.332513e-05 -7.359311e-05 -8.882446e-01 3.309326e-01
3.791261e+09 -8.923950e-01 3.140869e-01 -1.167972e-05 -4.045665e-06 5.821884e-05 6.139278e-06 -8.910522e-01 3.179932e-01
3.795011e+09 -8.984985e-01 3.023682e-01 6.524473e-05 -7.539615e-05 -3.548525e-05 3.699958e-05 -8.969727e-01 3.052368e-01
3.798761e+09 -9.042969e-01 2.904663e-01 -1.169275e-05 -4.031695e-06 -5.466864e-05 -1.703575e-05 -9.022827e-01 2.933350e-01
3.802511e+09 -9.112549e-01 2.820435e-01 3.176183e-05 5.042553e-05 -5.923212e-07 5.970150e-05 -9.092407e-01 2.852783e-01
3.806261e+09 -9.178467e-01 2.755737e-01 1.604110e-05 5.826727e-05 3.951415e-05 -1.165271e-05 -9.172363e-01 2.781982e-01
3.810011e+09 -9.206543e-01 2.711792e-01 -2.036337e-06 5.900394e-06 -5.913153e-05 1.747534e-05 -9.182129e-01 2.744141e-01
3.813761e+09 -9.218750e-01 2.678223e-01 1.903810e-05 -2.644770e-05 2.508610e-05 -4.123896e-06 -9.210815e-01 2.711182e-01
3.817511e+09 -9.215698e-01 2.630615e-01 8.301809e-05 -1.097471e-05 3.360212e-06 -1.083408e-05 -9.205933e-01 2.661743e-01
3.821261e+09 -9.188232e-01 2.584839e-01 2.283789e-05 -1.850352e-05 1.441687e-05 8.734316e-05 -9.166260e-01 2.606812e-01
3.825011e+09 -9.150391e-01 2.498169e-01 -5.865004e-06 -2.029352e-06 -4.980341e-05 8.121133e-06 -9.130859e-01 2.531128e-01
3.828761e+09 -9.105225e-01 2.396240e-01 8.885562e-05 3.707409e-05 1.742970e-05 -1.818314e-05 -9.097900e-01 2.440186e-01
3.832511e+09 -9.077148e-01 2.286377e-01 -1.987442e-05 -6.573275e-05 -1.357868e-05 -5.141273e-05 -9.072876e-01 2.315674e-01
3.836261e+09 -9.076538e-01 2.174072e-01 1.482293e-05 -1.456309e-05 2.050772e-06 1.250673e-05 -9.075317e-01 2.198486e-01
3.840011e+09 -9.077148e-01 2.046509e-01 -7.395446e-05 3.361329e-05 7.544458e-05 -1.228228e-05 -9.079590e-01 2.086182e-01
3.843761e+09 -9.110718e-01 1.947632e-01 5.898252e-05 2.026558e-05 3.223680e-05 -2.613664e-05 -9.097900e-01 1.978149e-01
3.847511e+09 -9.118042e-01 1.849976e-01 -4.477799e-05 2.434105e-05 6.275252e-05 -6.530061e-05 -9.113159e-01 1.882935e-01
3.851261e+09 -9.119263e-01 1.776123e-01 1.143739e-04 -1.376867e-05 -1.111254e-05 -3.465451e-06 -9.125366e-01 1.817017e-01
3.855011e+09 -9.117432e-01 1.706543e-01 -1.043454e-05 4.966184e-05 9.834766e-05 1.837313e-05 -9.107056e-01 1.740112e-01
3.858761e+09 -9.085083e-01 1.637573e-01 2.100877e-05 -1.274515e-05 -8.895993e-06 1.073703e-04 -9.075928e-01 1.668091e-01
3.862511e+09 -9.038696e-01 1.542969e-01 2.998114e-05 1.165196e-04 -5.906448e-05 -6.154180e-06 -9.041748e-01 1.572266e-01
3.866261e+09 -9.000854e-01 1.432495e-01 -6.445870e-05 4.451722e-06 5.126745e-05 8.886307e-05 -8.986206e-01 1.465454e-01
3.870011e+09 -8.957520e-01 1.306152e-01 -3.349595e-05 -1.805276e-05 4.766509e-06 -3.476255e-05 -8.953857e-01 1.339722e-01
3.873761e+09 -8.917236e-01 1.181030e-01 -6.511807e-06 7.708743e-05 -3.675371e-05 6.074458e-05 -8.916016e-01 1.197510e-01
3.877511e+09 -8.898315e-01 1.032104e-01 -4.909933e-05 -4.987791e-05 4.321337e-05 7.319078e-05 -8.910522e-01 1.051025e-01
3.881261e+09 -8.905640e-01 8.605957e-02 5.714223e-05 4.605949e-05 -1.439452e-05 -8.835644e-05 -8.912964e-01 9.027100e-02
3.885011e+09 -8.925781e-01 7.366943e-02 -8.236617e-06 4.377961e-05 -4.378334e-05 -1.355261e-05 -8.928833e-01 7.629395e-02
3.888761e+09 -8.938599e-01 5.987549e-02 -1.859665e-05 9.393692e-05 3.970042e-05 -1.170486e-05 -8.946533e-01 6.390381e-02
3.892511e+09 -8.956909e-01 4.821777e-02 -2.292544e-05 1.262352e-04 -8.092821e-05 4.726648e-05 -8.966675e-01 5.279541e-02
3.896261e+09 -8.960571e-01 3.686523e-02 2.799928e-05 1.625530e-05 5.166233e-05 2.813339e-05 -8.966064e-01 4.058838e-02
3.900010e+09 -8.964844e-01 2.630615e-02 8.234754e-05 -2.559274e-05 -3.593042e-05 -5.951524e-05 -8.974609e-01 2.941895e-02
3.903760e+09 -8.949585e-01 1.312256e-02 -2.309121e-05 1.887605e-05 -6.237999e-06 -3.817677e-05 -8.947754e-01 1.721191e-02
3.907510e+09 -8.932495e-01 -6.103516e-05 4.757196e-06 3.482774e-05 2.404675e-05 1.951866e-05 -8.951416e-01 3.479004e-03
3.911260e+09 -8.938599e-01 -1.593018e-02 6.258488e-06 -5.737692e-05 6.771460e-05 -6.321445e-05 -8.946533e-01 -1.202393e-02
3.915010e+09 -8.954468e-01 -3.222656e-02 -6.006099e-06 1.774449e-05 3.706478e-05 3.554113e-05 -8.959961e-01 -2.874756e-02
3.918760e+09 -8.995972e-01 -5.023193e-02 7.580593e-05 1.898408e-05 -1.439825e-05 7.556751e-06 -9.001465e-01 -4.479980e-02
3.922510e+09 -9.061279e-01 -6.353760e-02 -2.164301e-05 -1.389999e-05 4.327297e-05 -2.284721e-05 -9.064941e-01 -6.115723e-02
3.926260e+09 -9.151001e-01 -7.946777e-02 3.158487e-05 2.391450e-05 -4.287809e-05 -3.765151e-05 -9.157104e-01 -7.543945e-02
3.930010e+09 -9.221802e-01 -8.990479e-02 1.447648e-05 1.044497e-04 -2.425909e-05 -1.972541e-05 -9.235840e-01 -8.557129e-02
3.933760e+09 -9.309082e-01 -9.729004e-02 2.991781e-05 1.013651e-05 -5.142018e-05 8.415431e-06 -9.315186e-01 -9.448242e-02
3.937510e+09 -9.364014e-01 -1.024170e-01 5.413219e-05 -1.758337e-06 2.570078e-05 -4.222617e-06 -9.380493e-01 -9.906006e-02
3.941260e+09 -9.407349e-01 -1.079712e-01 3.411993e-05 -1.842156e-06 2.104789e-06 1.283828e-05 -9.411011e-01 -1.031494e-01
3.945010e+09 -9.404907e-01 -1.109619e-01 1.097471e-05 1.707114e-05 3.450550e-05 -1.358613e-05 -9.409790e-01 -1.078491e-01
3.948760e+09 -9.380493e-01 -1.188965e-01 -1.443923e-05 8.198991e-05 -2.761185e-05 -1.051426e-04 -9.389648e-01 -1.155396e-01
3.952510e+09 -9.354858e-01 -1.281738e-01 1.484528e-05 4.500523e-05 4.351139e-06 1.214966e-04 -9.353638e-01 -1.242676e-01
3.956260e+09 -9.320068e-01 -1.403198e-01 2.906844e-05 -3.682449e-05 -2.302974e-05 1.127422e-04 -9.323730e-01 -1.369629e-01
3.960010e+09 -9.301147e-01 -1.556396e-01 2.138317e-06 -4.593655e-05 -3.620982e-06 -8.497387e-05 -9.307861e-01 -1.520386e-01
3.963760e+09 -9.306641e-01 -1.726685e-01 -1.932681e-05 1.069084e-04 2.820045e-05 1.411065e-04 -9.313965e-01 -1.687012e-01
3.967510e+09 -9.335938e-01 -1.890259e-01 -9.811483e-07 -7.035676e-06 8.465350e-05 -5.836040e-05 -9.359131e-01 -1.855469e-01
3.971260e+09 -9.397583e-01 -2.052002e-01 -5.559623e-05 3.515929e-05 -2.643093e-05 -3.258139e-05 -9.421387e-01 -2.009277e-01
3.975010e+09 -9.480591e-01 -2.191772e-01 3.255345e-05 -3.640354e-05 -3.917143e-05 -1.213327e-05 -9.502563e-01 -2.160034e-01
3.978760e+09 -9.570312e-01 -2.334595e-01 2.239086e-05 -2.637692e-05 -5.421788e-05 -4.518777e-06 -9.573975e-01 -2.276611e-01
3.982510e+09 -9.664307e-01 -2.432251e-01 -2.851337e-05 3.991649e-06 1.482572e-05 -7.783994e-06 -9.674072e-01 -2.395630e-01
3.986260e+09 -9.757080e-01 -2.512207e-01 -1.378357e-07 6.097928e-05 -2.928078e-06 -5.054474e-05 -9.761353e-01 -2.480469e-01
3.990010e+09 -9.828491e-01 -2.588501e-01 -8.009374e-06 -5.671382e-05 -3.661215e-05 3.813580e-05 -9.857788e-01 -2.545776e-01
3.993760e+09 -9.915771e-01 -2.656250e-01 -9.096414e-05 7.054955e-05 6.416813e-06 3.897958e-05 -9.952393e-01 -2.611694e-01
3.997510e+09 -1.000854e+00 -2.715454e-01 6.233156e-05 3.426149e-05 4.113838e-05 -7.325038e-05 -1.002869e+00 -2.664795e-01
4.001260e+09 -1.010620e+00 -2.755737e-01 -2.512522e-05 2.504513e-05 -5.581882e-06 -1.729000e-06 -1.011597e+00 -2.711182e-01
4.005010e+09 -1.019043e+00 -2.770386e-01 -5.520508e-05 7.517263e-05 -6.967410e-05 -7.027015e-05 -1.020691e+00 -2.714233e-01
4.008760e+09 -1.026855e+00 -2.772217e-01 -7.732958e-05 4.116446e-05 -2.080202e-05 -3.079697e-05 -1.028564e+00 -2.717285e-01
4.012510e+09 -1.033997e+00 -2.727051e-01 -2.414733e-05 -4.836917e-05 2.139062e-05 -2.977811e-05 -1.035889e+00 -2.672729e-01
4.016260e+09 -1.036560e+00 -2.664795e-01 1.710653e-05 -4.142709e-05 1.031160e-05 -3.319420e-05 -1.038574e+00 -2.625732e-01
4.020010e+09 -1.035278e+00 -2.585449e-01 -5.107373e-06 8.584186e-05 6.192923e-05 -1.019016e-04 -1.037903e+00 -2.541504e-01
4.023760e+09 -1.030212e+00 -2.516479e-01 -5.060434e-05 -7.073954e-05 -3.945082e-06 7.146597e-05 -1.032043e+00 -2.468262e-01
4.027510e+09 -1.019470e+00 -2.468262e-01 4.950166e-05 -7.776543e-05 -4.936010e-06 -6.205589e-05 -1.020142e+00 -2.424316e-01
4.031260e+09 -1.005615e+00 -2.471313e-01 -1.914799e-05 4.737452e-05 4.828349e-05 3.924221e-05 -1.006775e+00 -2.414551e-01
4.035010e+09 -9.909058e-01 -2.485962e-01 8.029863e-06 -2.415478e-05 8.883327e-05 -3.299117e-05 -9.924316e-01 -2.443848e-01
4.038760e+09 -9.765015e-01 -2.568970e-01 -5.050562e-06 -1.507625e-05 -2.886355e-05 1.123101e-04 -9.780273e-01 -2.528076e-01
4.042510e+09 -9.642334e-01 -2.689819e-01 1.210347e-05 6.429479e-05 -3.613159e-05 -5.995110e-05 -9.661865e-01 -2.634888e-01
4.046260e+09 -9.553223e-01 -2.819214e-01 1.502037e-05 -5.543604e-05 -9.046867e-06 9.423122e-06 -9.568481e-01 -2.766724e-01
4.050010e+09 -9.483032e-01 -2.960205e-01 -5.465373e-05 -1.817942e-05 -6.251037e-05 -5.638227e-05 -9.512939e-01 -2.911377e-01
4.053760e+09 -9.451904e-01 -3.087158e-01 4.053116e-06 2.846681e-05 -5.637109e-05 8.165091e-05 -9.462891e-01 -3.046875e-01
4.057510e+09 -9.441528e-01 -3.182983e-01 -5.211681e-06 -5.615130e-05 -7.579476e-05 6.380305e-05 -9.461060e-01 -3.154907e-01
4.061260e+09 -9.416504e-01 -3.283081e-01 6.880611e-05 9.100884e-05 7.401407e-05 2.295151e-05 -9.445190e-01 -3.237915e-01
4.065010e+09 -9.407959e-01 -3.355103e-01 -1.845136e-05 5.542114e-05 -8.620322e-06 -5.264208e-05 -9.435425e-01 -3.312378e-01
4.068760e+09 -9.377441e-01 -3.409424e-01 7.984787e-05 -3.498420e-05 7.860363e-07 3.755651e-05 -9.404907e-01 -3.356934e-01
4.072510e+09 -9.341431e-01 -3.450317e-01 1.146570e-04 2.446771e-05 4.034862e-05 4.961342e-05 -9.366455e-01 -3.413696e-01
4.076260e+09 -9.281616e-01 -3.511963e-01 1.832936e-05 -1.430418e-05 -1.363456e-06 2.418645e-05 -9.301147e-01 -3.463135e-01
4.080010e+09 -9.224854e-01 -3.579102e-01 -7.569045e-05 -1.198947e-04 3.217533e-05 3.450923e-05 -9.244995e-01 -3.521729e-01
4.083760e+09 -9.168091e-01 -3.637695e-01 1.025572e-05 5.083159e-05 -6.919727e-06 2.227910e-05 -9.186401e-01 -3.588257e-01
4.087510e+09 -9.105225e-01 -3.717041e-01 3.981218e-05 1.316890e-05 3.266148e-05 -2.647005e-05 -9.120483e-01 -3.665771e-01
4.091260e+09 -9.069214e-01 -3.782959e-01 -6.467476e-05 -8.265674e-05 -4.681572e-05 -2.679229e-05 -9.089355e-01 -3.732910e-01
4.095010e+09 -9.021606e-01 -3.834229e-01 -3.610924e-05 -6.667525e-05 4.560873e-05 5.107373e-05 -9.053955e-01 -3.795776e-01
4.098760e+09 -8.988037e-01 -3.890381e-01 2.774969e-05 -3.205985e-05 -7.773750e-06 -1.481362e-05 -9.002075e-01 -3.842163e-01
4.102509e+09 -8.913574e-01 -3.914185e-01 -3.603473e-05 7.772073e-05 -2.758764e-05 2.871826e-05 -8.956299e-01 -3.880005e-01
4.106259e+09 -8.856201e-01 -3.931885e-01 -1.033116e-05 1.038425e-05 -3.562868e-05 -8.603930e-05 -8.865356e-01 -3.886108e-01
4.110009e+09 -8.749390e-01 -3.955078e-01 4.333258e-05 -2.703816e-05 -2.847798e-05 -8.866191e-06 -8.769531e-01 -3.916626e-01
4.113759e+09 -8.638306e-01 -3.991699e-01 2.834946e-06 -6.071478e-05 4.308298e-06 2.631918e-05 -8.648071e-01 -3.952026e-01
4.117509e+09 -8.504639e-01 -4.040527e-01 -2.966449e-05 1.754612e-05 1.198798e-05 -5.856529e-05 -8.520508e-01 -3.995361e-01
4.121259e+09 -8.345947e-01 -4.121094e-01 1.211651e-05 -3.680401e-05 -5.084276e-05 8.335710e-05 -8.372803e-01 -4.080811e-01
4.125009e+09 -8.219604e-01 -4.231567e-01 7.138401e-05 3.024563e-05 1.692213e-05 5.266629e-06 -8.254395e-01 -4.188232e-01
4.128759e+09 -8.120117e-01 -4.351807e-01 7.748604e-07 -5.389750e-05 -3.032200e-05 -2.179481e-05 -8.127441e-01 -4.306641e-01
4.132509e+09 -8.020020e-01 -4.487305e-01 2.131797e-05 -1.331978e-05 -2.041645e-05 5.993992e-06 -8.037109e-01 -4.434204e-01
4.136259e+09 -7.947998e-01 -4.606934e-01 3.444403e-05 -6.349385e-05 4.222989e-05 -3.628805e-05 -7.968750e-01 -4.553223e-01
4.140009e+09 -7.899170e-01 -4.715576e-01 2.077222e-05 6.143376e-05 3.171712e-05 -2.520159e-06 -7.922363e-01 -4.688110e-01
4.143759e+09 -7.850952e-01 -4.826660e-01 7.348135e-06 2.981909e-05 -1.981109e-05 -5.576387e-05 -7.869873e-01 -4.784546e-01
4.147509e+09 -7.805176e-01 -4.898682e-01 -6.279349e-05 1.370162e-05 2.258644e-05 7.024035e-06 -7.824707e-01 -4.869995e-01
4.151259e+09 -7.749634e-01 -4.967651e-01 1.475587e-05 5.973130e-05 -3.092736e-05 3.978238e-05 -7.771606e-01 -4.926758e-01
4.155009e+09 -7.672119e-01 -5.050049e-01 3.190711e-06 2.158899e-05 -4.070997e-05 1.195073e-05 -7.695312e-01 -5.009155e-01
4.158759e+09 -7.606812e-01 -5.119629e-01 2.159923e-05 7.064082e-06 -9.682029e-06 7.075816e-05 -7.620850e-01 -5.074463e-01
4.162509e+09 -7.512817e-01 -5.218506e-01 -7.480383e-06 -5.012378e-05 3.390014e-06 -1.093745e-04 -7.539673e-01 -5.178833e-01
4.166259e+09 -7.429810e-01 -5.333252e-01 3.075227e-06 1.003966e-06 3.354996e-05 1.048297e-05 -7.459106e-01 -5.289307e-01
4.170009e+09 -7.385254e-01 -5.444946e-01 -1.550093e-05 -2.548285e-05 5.398318e-05 4.444271e-06 -7.396240e-01 -5.418701e-01
4.173759e+09 -7.343140e-01 -5.579224e-01 -6.971881e-06 3.187545e-05 -9.144656e-06 9.523239e-06 -7.360229e-01 -5.544434e-01
4.177509e+09 -7.324829e-01 -5.700073e-01 -4.449859e-05 -2.132356e-05 -4.674867e-05 1.030788e-05 -7.362061e-01 -5.675049e-01
4.181259e+09 -7.337646e-01 -5.811768e-01 -1.379475e-05 -5.270168e-05 4.710630e-05 -1.033023e-05 -7.366943e-01 -5.765381e-01
4.185009e+09 -7.352905e-01 -5.883179e-01 -6.389618e-05 6.899983e-05 1.577847e-05 3.010407e-05 -7.386475e-01 -5.853882e-01
4.188759e+09 -7.380371e-01 -5.920410e-01 -3.022701e-05 1.563579e-04 -4.179776e-05 -8.881837e-05 -7.410889e-01 -5.894775e-01
4.192509e+09 -7.401733e-01 -5.933228e-01 -8.115545e-05 1.514331e-05 -3.799051e-05 1.019835e-04 -7.429199e-01 -5.891113e-01
4.196259e+09 -7.379150e-01 -5.939331e-01 -5.017966e-06 2.606586e-05 -1.653284e-05 3.271177e-05 -7.416992e-01 -5.902100e-01
4.200009e+09 -7.344360e-01 -5.916138e-01 -4.686415e-06 6.750226e-05 -8.582324e-05 7.378310e-05 -7.379761e-01 -5.899658e-01
4.203759e+09 -7.290039e-01 -5.919800e-01 2.942048e-06 -1.968257e-05 -2.785027e-05 2.886541e-05 -7.334595e-01 -5.890503e-01
4.207509e+09 -7.210083e-01 -5.922852e-01 -3.203936e-05 3.360212e-06 7.819757e-05 4.931539e-05 -7.235107e-01 -5.894165e-01
4.211259e+09 -7.123108e-01 -5.936279e-01 3.826618e-05 -1.307577e-06 -1.133792e-05 -3.526919e-06 -7.156372e-01 -5.916748e-01
4.215009e+09 -7.030334e-01 -5.973206e-01 5.675480e-05 -3.672019e-05 1.487602e-05 -7.802621e-06 -7.066040e-01 -5.957642e-01
4.218759e+09 -6.960449e-01 -6.011047e-01 -7.935613e-05 -3.264472e-05 -2.057292e-05 6.059185e-06 -6.981506e-01 -5.984497e-01
4.222509e+09 -6.876526e-01 -6.064148e-01 2.846681e-05 3.009290e-05 1.396835e-04 -6.392598e-06 -6.901550e-01 -6.032410e-01
4.226259e+09 -6.790161e-01 -6.113586e-01 -1.687836e-05 -1.246110e-05 -1.216680e-05 5.897507e-05 -6.822205e-01 -6.067200e-01
4.230009e+09 -6.703491e-01 -6.127625e-01 -2.048444e-06 6.327871e-06 -5.716085e-05 8.267164e-05 -6.735535e-01 -6.116638e-01
4.233759e+09 -6.600952e-01 -6.192627e-01 3.256463e-05 -3.421679e-06 9.180605e-05 -7.199496e-05 -6.638794e-01 -6.161194e-01
4.237509e+09 -6.492615e-01 -6.238098e-01 -5.604699e-05 -5.302951e-05 8.575618e-06 5.298108e-05 -6.532593e-01 -6.207886e-01
4.241259e+09 -6.387329e-01 -6.309814e-01 1.630560e-05 6.794930e-05 -7.802993e-05 8.881092e-05 -6.414185e-01 -6.284790e-01
4.245009e+09 -6.265259e-01 -6.409607e-01 -3.306195e-06 -2.188049e-05 -4.293770e-05 3.680959e-05 -6.301575e-01 -6.376648e-01
4.248759e+09 -6.155701e-01 -6.520386e-01 -2.485141e-05 1.269579e-05 -1.724809e-05 -1.057908e-04 -6.187744e-01 -6.503601e-01
4.252509e+09 -6.064148e-01 -6.654053e-01 5.007908e-05 1.614168e-05 -4.652515e-05 -5.223602e-05 -6.091614e-01 -6.633911e-01
4.256259e+09 -5.997925e-01 -6.809692e-01 -2.917275e-05 4.399568e-06 -6.817654e-05 1.652911e-05 -6.033936e-01 -6.786194e-01
4.260009e+09 -5.974731e-01 -6.963806e-01 -2.114102e-05 -2.077594e-05 -1.153816e-05 -3.598630e-06 -6.011963e-01 -6.951904e-01
4.263759e+09 -5.984192e-01 -7.110291e-01 8.627772e-06 1.355633e-04 -6.089732e-05 3.191829e-05 -6.014404e-01 -7.090454e-01
4.267509e+09 -6.003418e-01 -7.225952e-01 -5.794317e-05 1.640245e-05 -8.597225e-05 -5.228817e-05 -6.035156e-01 -7.197266e-01
4.271259e+09 -6.028442e-01 -7.312012e-01 -1.877546e-05 3.626011e-05 -2.118200e-05 -9.624660e-05 -6.073608e-01 -7.283936e-01
4.275009e+09 -6.051025e-01 -7.355957e-01 -2.034660e-05 -1.361221e-05 1.021102e-05 -7.367134e-05 -6.098633e-01 -7.332764e-01
4.278759e+09 -6.066284e-01 -7.391357e-01 2.305210e-05 7.111952e-05 1.819059e-05 -5.836412e-05 -6.107788e-01 -7.355957e-01
4.282509e+09 -6.068115e-01 -7.400513e-01 -9.858981e-06 -2.435222e-05 -2.910942e-05 -9.093434e-06 -6.098633e-01 -7.361450e-01
4.286259e+09 -6.019287e-01 -7.404785e-01 6.188080e-05 2.693757e-05 -5.070120e-06 3.659353e-05 -6.042480e-01 -7.388306e-01
4.290009e+09 -5.928955e-01 -7.434692e-01 -1.137331e-05 2.451800e-05 -7.445738e-05 1.481548e-05 -5.973511e-01 -7.406616e-01
4.293759e+09 -5.834961e-01 -7.471924e-01 -2.782419e-05 -2.297759e-05 -2.190471e-06 -1.146346e-04 -5.877075e-01 -7.440186e-01
4.297509e+09 -5.743408e-01 -7.548828e-01 -1.183525e-05 -1.789350e-05 -1.104176e-04 2.887845e-05 -5.784912e-01 -7.514038e-01
4.301258e+09 -5.643311e-01 -7.629395e-01 3.062561e-05 -1.834705e-05 4.343688e-06 2.673641e-05 -5.679321e-01 -7.607422e-01
4.305008e+09 -5.548706e-01 -7.738647e-01 4.238635e-05 -2.175570e-05 1.225248e-05 4.206225e-05 -5.605469e-01 -7.716675e-01
4.308758e+09 -5.487061e-01 -7.859497e-01 -6.576255e-05 2.844632e-05 2.408028e-05 -1.586229e-04 -5.529175e-01 -7.838745e-01
4.312508e+09 -5.432129e-01 -7.973633e-01 -2.085976e-05 4.292279e-05 3.064796e-05 -1.604483e-05 -5.466309e-01 -7.965088e-01
4.316258e+09 -5.383301e-01 -8.120117e-01 5.274313e-06 -5.407026e-06 -3.513135e-05 -1.102500e-05 -5.422974e-01 -8.088379e-01
4.320008e+09 -5.347290e-01 -8.243408e-01 5.180761e-05 -4.003942e-05 -3.441796e-05 2.784654e-05 -5.390015e-01 -8.217773e-01
4.323758e+09 -5.327759e-01 -8.374023e-01 -4.730001e-05 -2.931431e-05 3.368035e-05 -6.665289e-05 -5.372925e-01 -8.347168e-01
4.327508e+09 -5.311890e-01 -8.500366e-01 1.541749e-04 -7.055700e-06 2.199784e-06 1.354143e-05 -5.355835e-01 -8.475952e-01
4.331258e+09 -5.310669e-01 -8.621216e-01 2.207235e-05 6.358698e-05 2.923794e-05 9.158626e-06 -5.361938e-01 -8.613892e-01
4.335008e+09 -5.343628e-01 -8.756104e-01 -2.454780e-05 -7.804483e-07 -2.195686e-05 7.024780e-05 -5.383301e-01 -8.737183e-01
4.338758e+09 -5.374146e-01 -8.870239e-01 4.244223e-05 -2.184324e-05 -3.220513e-05 -6.154925e-05 -5.422363e-01 -8.839722e-01
4.342508e+09 -5.432129e-01 -8.950195e-01 8.169562e-06 5.238503e-05 1.318753e-05 -2.165511e-05 -5.480347e-01 -8.927002e-01
4.346258e+09 -5.488892e-01 -9.006348e-01 6.121397e-05 -1.018122e-04 3.089011e-05 -1.612492e-05 -5.543823e-01 -8.970947e-01
4.350008e+09 -5.553589e-01 -9.012451e-01 -9.070337e-05 7.132441e-05 -1.911633e-05 1.985207e-05 -5.591431e-01 -8.986816e-01
4.353758e+09 -5.594482e-01 -8.991089e-01 -1.335517e-05 5.318969e-05 -1.030602e-05 -2.907217e-05 -5.634155e-01 -8.955688e-01
4.357508e+09 -5.605469e-01 -8.937378e-01 2.971850e-06 -2.060924e-05 2.197921e-06 -8.971989e-05 -5.640869e-01 -8.931274e-01
4.361258e+09 -5.531006e-01 -8.894653e-01 2.071355e-05 1.381431e-05 4.627556e-05 -1.274645e-04 -5.588379e-01 -8.878174e-01
4.365008e+09 -5.463867e-01 -8.845825e-01 -2.338737e-05 -5.044043e-05 3.594533e-05 -5.326793e-05 -5.492554e-01 -8.816528e-01
4.368758e+09 -5.348511e-01 -8.816528e-01 -3.109127e-05 -6.004795e-05 4.260987e-05 9.062141e-05 -5.385132e-01 -8.783569e-01
4.372508e+09 -5.198364e-01 -8.829346e-01 8.651987e-07 -1.403969e-05 -3.084913e-05 1.614541e-05 -5.247192e-01 -8.808594e-01
4.376258e+09 -5.046997e-01 -8.883057e-01 -1.982972e-05 5.109608e-05 -5.245209e-06 3.719702e-05 -5.101318e-01 -8.859863e-01
4.380008e+09 -4.932861e-01 -8.955688e-01 1.181848e-06 7.571187e-06 -1.331419e-05 2.184324e-05 -4.973755e-01 -8.932495e-01
4.383758e+09 -4.804077e-01 -9.058838e-01 -8.035451e-06 4.803389e-05 4.605949e-05 4.069135e-05 -4.859619e-01 -9.030762e-01
4.387508e+09 -4.758911e-01 -9.155884e-01 1.197308e-05 -3.459863e-06 -1.187623e-05 1.015589e-04 -4.798584e-01 -9.144287e-01
4.391258e+09 -4.706421e-01 -9.258423e-01 -2.975762e-05 -9.430572e-06 3.913045e-05 -4.074723e-05 -4.729004e-01 -9.243164e-01
4.395008e+09 -4.672852e-01 -9.325562e-01 6.639957e-05 1.014620e-04 2.570264e-05 -1.852028e-05 -4.705811e-01 -9.320068e-01
4.398758e+09 -4.637451e-01 -9.396362e-01 1.119375e-04 -3.028661e-05 3.114715e-05 -5.672500e-05 -4.696045e-01 -9.360962e-01
4.402508e+09 -4.630127e-01 -9.417725e-01 -9.185821e-05 3.663450e-05 -3.474019e-05 -3.749691e-05 -4.683838e-01 -9.388428e-01
4.406258e+09 -4.607544e-01 -9.417114e-01 6.085634e-05 2.650917e-05 -5.350634e-05 2.299249e-05 -4.643555e-01 -9.388428e-01
4.410008e+09 -4.559326e-01 -9.401245e-01 7.692724e-05 9.782612e-06 -1.104623e-04 -4.763156e-05 -4.605713e-01 -9.373779e-01
4.413758e+09 -4.478760e-01 -9.374390e-01 -1.686439e-05 -2.714433e-05 4.109740e-05 7.869303e-05 -4.537354e-01 -9.359131e-01
4.417508e+09 -4.414062e-01 -9.339600e-01 4.325807e-05 -4.454702e-05 7.472932e-06 8.110702e-05 -4.463501e-01 -9.325562e-01
4.421258e+09 -4.313965e-01 -9.315796e-01 -3.181025e-05 7.763878e-05 -9.729527e-06 1.009461e-05 -4.357910e-01 -9.296875e-01
4.425008e+09 -4.207764e-01 -9.321289e-01 -3.851950e-06 3.545173e-05 -2.478063e-05 -4.734471e-05 -4.268188e-01 -9.284058e-01
4.428758e+09 -4.101562e-01 -9.273682e-01 3.423914e-05 5.495176e-05 3.054738e-06 -5.197525e-05 -4.151611e-01 -9.265137e-01
4.432508e+09 -3.995972e-01 -9.249268e-01 7.763505e-06 -7.154420e-05 -2.343953e-05 -7.374212e-05 -4.045410e-01 -9.236450e-01
4.436258e+09 -3.867798e-01 -9.201660e-01 5.823746e-05 3.449619e-06 2.124161e-05 -4.660338e-05 -3.914795e-01 -9.196777e-01
4.440008e+09 -3.726807e-01 -9.176636e-01 -2.783537e-05 -5.332381e-05 -4.705787e-05 -4.153326e-05 -3.774414e-01 -9.145508e-01
4.443758e+09 -3.591309e-01 -9.116211e-01 1.012301e-05 3.199093e-06 -4.255399e-05 -1.331046e-05 -3.633423e-01 -9.104004e-01
4.447508e+09 -3.415527e-01 -9.094849e-01 -2.729706e-05 -3.073551e-05 -5.389750e-05 2.317876e-05 -3.455200e-01 -9.075317e-01
4.451258e+09 -3.236084e-01 -9.064941e-01 -5.102530e-05 -6.018206e-05 -7.575378e-06 2.423860e-05 -3.272095e-01 -9.049072e-01
4.455008e+09 -3.041992e-01 -9.059448e-01 2.607703e-07 -1.173168e-04 -6.425381e-05 -6.772578e-06 -3.082886e-01 -9.059448e-01
4.458758e+09 -2.816162e-01 -9.096069e-01 -1.375191e-05 -2.625212e-05 1.431350e-05 1.777522e-05 -2.893066e-01 -9.067993e-01
4.462508e+09 -2.653198e-01 -9.137573e-01 -2.135336e-05 4.452467e-05 -2.800487e-05 4.498288e-06 -2.704468e-01 -9.111938e-01
4.466258e+09 -2.509155e-01 -9.177246e-01 3.725290e-08 -5.866215e-05 -3.031641e-05 -1.159236e-04 -2.538452e-01 -9.171753e-01
4.470008e+09 -2.371826e-01 -9.226685e-01 -1.351535e-05 1.133904e-04 6.226450e-05 -7.193536e-06 -2.418213e-01 -9.235229e-01
4.473758e+09 -2.247925e-01 -9.291992e-01 -2.646819e-05 1.380779e-05 6.474555e-05 6.970018e-06 -2.298584e-01 -9.279785e-01
4.477508e+09 -2.150269e-01 -9.303589e-01 2.223998e-05 5.873293e-05 4.805997e-05 -2.509356e-05 -2.185669e-01 -9.285278e-01
4.481258e+09 -2.046509e-01 -9.303589e-01 9.711832e-06 -7.836893e-05 -3.048778e-05 -9.570271e-06 -2.092285e-01 -9.281006e-01
4.485008e+09 -1.942139e-01 -9.272461e-01 3.626198e-05 2.620183e-05 3.577769e-05 -2.888776e-05 -1.998901e-01 -9.272461e-01
4.488758e+09 -1.831055e-01 -9.241943e-01 4.127622e-05 -6.119162e-05 -2.736598e-05 4.485250e-05 -1.865845e-01 -9.227905e-01
4.492508e+09 -1.678467e-01 -9.191895e-01 4.187226e-06 4.575402e-05 -6.004423e-05 1.277849e-04 -1.718750e-01 -9.166870e-01
4.496258e+09 -1.513062e-01 -9.168091e-01 -4.854426e-05 -2.257153e-05 -8.795410e-05 -8.088350e-05 -1.563110e-01 -9.146729e-01
4.500008e+09 -1.343384e-01 -9.122314e-01 4.266575e-05 -5.351752e-05 -6.802380e-06 -4.212558e-05 -1.383667e-01 -9.121094e-01
4.503757e+09 -1.150513e-01 -9.133301e-01 -8.349866e-05 1.004189e-04 -9.745359e-05 -3.065169e-05 -1.196899e-01 -9.127197e-01
4.507507e+09 -9.637451e-02 -9.158936e-01 -5.366281e-05 -3.173947e-05 6.235391e-05 -1.554191e-04 -1.018066e-01 -9.133911e-01
4.511257e+09 -8.178711e-02 -9.187012e-01 -4.706532e-05 3.040209e-05 -3.700145e-05 -1.160242e-05 -8.544922e-02 -9.186401e-01
4.515007e+09 -6.378174e-02 -9.224854e-01 -7.945299e-05 -4.750118e-05 -6.261468e-05 -6.069615e-05 -6.945801e-02 -9.216919e-01
4.518757e+09 -5.120850e-02 -9.254761e-01 -7.925555e-05 3.578514e-05 -5.599856e-05 -1.771003e-05 -5.718994e-02 -9.240112e-01
4.522507e+09 -3.906250e-02 -9.285278e-01 4.443899e-05 -8.821487e-06 -6.233808e-06 -1.979992e-06 -4.541016e-02 -9.287720e-01
4.526257e+09 -2.844238e-02 -9.293213e-01 -4.324131e-06 1.377054e-05 -9.070337e-05 2.603233e-05 -3.302002e-02 -9.307861e-01
4.530007e+09 -1.806641e-02 -9.313354e-01 2.962351e-05 1.730397e-06 -1.867767e-05 -5.966052e-06 -2.276611e-02 -9.313354e-01
4.533757e+09 -7.202148e-03 -9.315186e-01 3.846176e-05 -2.961606e-06 4.939735e-06 6.999448e-05 -1.257324e-02 -9.313354e-01
4.537507e+09 2.624512e-03 -9.331665e-01 -4.867092e-05 5.970523e-05 1.583248e-05 -4.957244e-05 -2.929688e-03 -9.323730e-01
4.541257e+09 1.367188e-02 -9.315186e-01 -3.574975e-05 -4.111975e-05 -3.132597e-05 -5.087629e-05 8.056641e-03 -9.318848e-01
4.545007e+09 2.301025e-02 -9.346924e-01 -4.680827e-06 -8.945353e-06 1.060404e-05 3.065728e-05 1.745605e-02 -9.328613e-01
4.548757e+09 3.149414e-02 -9.345703e-01 2.336130e-05 4.485250e-05 7.322058e-05 -5.824864e-05 2.685547e-02 -9.344482e-01
4.552507e+09 3.875732e-02 -9.343262e-01 -4.705787e-05 -2.979115e-05 -8.121133e-07 -8.219481e-05 3.356934e-02 -9.359741e-01
4.556257e+09 4.583740e-02 -9.346924e-01 1.673400e-05 4.296005e-05 -4.002824e-06 1.239404e-05 4.272461e-02 -9.332275e-01
4.560007e+09 5.371094e-02 -9.290771e-01 5.658716e-06 -6.633624e-05 4.804879e-05 8.399040e-05 4.870605e-02 -9.310303e-01
4.563757e+09 5.908203e-02 -9.244385e-01 -6.175041e-05 6.399304e-05 -4.484504e-05 5.396828e-05 5.322266e-02 -9.243774e-01
4.567507e+09 6.817627e-02 -9.174194e-01 -8.657575e-06 2.754666e-05 -8.033589e-06 2.475083e-05 6.341553e-02 -9.174194e-01
4.571257e+09 7.965088e-02 -9.096680e-01 5.422905e-05 -2.835691e-05 -1.263618e-05 -4.513189e-05 7.452393e-02 -9.107056e-01
4.575007e+09 9.307861e-02 -9.023438e-01 1.334399e-05 -1.846533e-05 -2.870709e-05 4.304573e-06 8.764648e-02 -9.028320e-01
4.578757e+09 1.083374e-01 -8.978882e-01 -1.883134e-05 -3.608502e-05 -5.099922e-05 5.170330e-05 1.044922e-01 -9.000244e-01
4.582507e+09 1.252441e-01 -8.958740e-01 3.568828e-05 -4.157051e-05 2.475642e-05 8.085743e-06 1.210938e-01 -8.973999e-01
4.586257e+09 1.434326e-01 -8.954468e-01 -4.325062e-06 1.376681e-05 -5.951524e-05 7.681549e-05 1.390381e-01 -8.973999e-01
4.590007e+09 1.589355e-01 -9.005737e-01 5.226210e-05 3.920868e-05 6.258022e-06 2.046116e-06 1.559448e-01 -9.034424e-01
4.593757e+09 1.723022e-01 -9.099121e-01 3.948808e-07 2.304837e-05 3.111362e-05 -7.369369e-05 1.696777e-01 -9.114990e-01
4.597507e+09 1.836548e-01 -9.185181e-01 -1.488905e-05 1.068879e-05 1.703948e-05 3.379583e-05 1.790771e-01 -9.216309e-01
4.601257e+09 1.889648e-01 -9.264526e-01 5.703047e-05 2.563000e-06 -2.577156e-05 -9.338558e-05 1.836548e-01 -9.291382e-01
4.605007e+09 1.908569e-01 -9.348755e-01 2.074707e-05 -1.667440e-05 -4.447624e-05 7.055700e-05 1.865845e-01 -9.369507e-01
4.608757e+09 1.926270e-01 -9.381714e-01 8.762628e-05 -5.739927e-05 -5.320460e-05 1.074001e-05 1.884766e-01 -9.410400e-01
4.612507e+09 1.930542e-01 -9.395752e-01 4.906207e-06 -5.248562e-05 -2.119131e-05 2.126954e-05 1.882324e-01 -9.419556e-01
4.616257e+09 1.934814e-01 -9.392700e-01 -9.020418e-05 1.777709e-05 5.271286e-05 -5.291030e-05 1.886597e-01 -9.409790e-01
4.620007e+09 1.959839e-01 -9.362183e-01 -4.754961e-05 -7.275492e-06 4.038215e-06 -9.670854e-05 1.916504e-01 -9.383545e-01
4.623757e+09 2.009277e-01 -9.343262e-01 9.858608e-05 1.575798e-05 5.037338e-05 1.672655e-05 1.964722e-01 -9.354858e-01
4.627507e+09 2.079468e-01 -9.321289e-01 1.448952e-05 -3.383122e-05 1.258217e-05 4.186295e-06 2.022095e-01 -9.333496e-01
4.631257e+09 2.146606e-01 -9.304810e-01 4.263408e-05 -2.515316e-05 -1.681410e-05 8.391216e-06 2.099609e-01 -9.309692e-01
4.635007e+09 2.225952e-01 -9.302979e-01 -2.019107e-06 9.236485e-05 1.889095e-05 4.854798e-05 2.156372e-01 -9.320679e-01
4.638757e+09 2.283325e-01 -9.314575e-01 1.078844e-05 -5.888194e-05 -5.717948e-05 -1.916662e-05 2.238159e-01 -9.343872e-01
4.642507e+09 2.349854e-01 -9.329834e-01 -4.395097e-05 -2.166256e-05 -2.120808e-05 -2.134591e-05 2.292480e-01 -9.346924e-01
4.646257e+09 2.409058e-01 -9.338989e-01 6.359816e-05 -3.397465e-06 9.629130e-05 -5.295128e-05 2.343140e-01 -9.371338e-01
4.650007e+09 2.441406e-01 -9.354858e-01 4.039519e-05 2.053007e-05 2.767704e-05 2.360344e-05 2.396240e-01 -9.379272e-01
4.653757e+09 2.497559e-01 -9.353027e-01 5.077198e-05 -6.181002e-05 -3.501773e-07 8.535385e-05 2.431030e-01 -9.375610e-01
4.657507e+09 2.556152e-01 -9.353638e-01 -8.095801e-05 -2.555549e-05 -2.061017e-06 -1.491234e-05 2.491455e-01 -9.370117e-01
4.661257e+09 2.636719e-01 -9.356079e-01 8.552894e-05 -2.686307e-05 -6.603822e-05 4.845113e-05 2.579956e-01 -9.377441e-01
4.665007e+09 2.730103e-01 -9.370728e-01 3.408082e-05 -3.515184e-05 2.358481e-05 -4.852563e-05 2.677002e-01 -9.385376e-01
4.668757e+09 2.813721e-01 -9.411621e-01 -3.129430e-05 -9.881333e-06 4.401430e-05 5.738810e-05 2.751465e-01 -9.436035e-01
4.672507e+09 2.881470e-01 -9.475708e-01 -1.493469e-05 -7.361174e-05 9.075552e-05 4.502386e-05 2.826538e-01 -9.490356e-01
4.676257e+09 2.927246e-01 -9.554443e-01 1.775660e-05 2.866238e-05 5.748495e-05 -2.294406e-05 2.877808e-01 -9.580688e-01
4.680007e+09 2.957764e-01 -9.615479e-01 -2.489984e-05 -3.098696e-05 -2.575666e-05 3.382377e-05 2.882690e-01 -9.644775e-01
4.683757e+09 2.934570e-01 -9.689331e-01 8.056313e-05 2.339482e-06 5.166978e-05 -6.783754e-05 2.893677e-01 -9.718628e-01
4.687507e+09 2.921143e-01 -9.721069e-01 -3.848039e-05 1.107529e-05 -8.389354e-06 -1.712888e-05 2.869873e-01 -9.757080e-01
4.691257e+09 2.896729e-01 -9.719238e-01 -2.116896e-05 -6.723218e-06 -1.076702e-05 1.055095e-05 2.817993e-01 -9.739380e-01
4.695007e+09 2.871094e-01 -9.678955e-01 2.375245e-05 2.305582e-05 -5.719066e-05 -1.964346e-05 2.823486e-01 -9.708252e-01
4.698757e+09 2.879028e-01 -9.603882e-01 2.438575e-05 6.968528e-05 -4.360452e-06 1.266040e-05 2.839966e-01 -9.626465e-01
4.702506e+09 2.947388e-01 -9.541016e-01 -3.775395e-05 -2.745353e-05 8.649379e-05 1.577288e-05 2.898560e-01 -9.565430e-01
4.706256e+09 3.060303e-01 -9.458008e-01 -3.032014e-05 -1.903623e-06 1.454260e-05 1.917314e-05 2.997437e-01 -9.495850e-01
4.710006e+09 3.186646e-01 -9.433594e-01 -1.374725e-05 1.886487e-05 9.216368e-06 -6.762519e-05 3.140259e-01 -9.471436e-01
4.713756e+09 3.331299e-01 -9.432983e-01 -3.243983e-05 -5.693734e-05 -2.501532e-06 2.763793e-05 3.302002e-01 -9.478149e-01
4.717506e+09 3.472900e-01 -9.498291e-01 -6.686896e-07 3.885664e-05 -5.328655e-05 -3.286079e-05 3.431396e-01 -9.505005e-01
4.721256e+09 3.609619e-01 -9.577026e-01 8.853525e-05 -1.902133e-05 4.780665e-05 -1.236424e-05 3.586426e-01 -9.605103e-01
4.725006e+09 3.707886e-01 -9.685059e-01 -5.808845e-05 2.110377e-05 -5.474314e-05 1.012161e-05 3.652954e-01 -9.714355e-01
4.728756e+09 3.759155e-01 -9.810181e-01 7.169321e-05 -9.872019e-07 2.086163e-05 -8.098036e-05 3.715210e-01 -9.834595e-01
4.732506e+09 3.773804e-01 -9.918823e-01 4.886836e-05 -1.623482e-05 -2.627820e-05 1.383722e-04 3.729248e-01 -9.958496e-01
4.736256e+09 3.751831e-01 -9.985962e-01 -2.093241e-05 4.086643e-05 -6.557908e-06 -2.302695e-06 3.693237e-01 -1.001404e+00
4.740006e+09 3.692627e-01 -1.005127e+00 -3.125519e-05 6.106496e-05 -7.987022e-05 6.008893e-05 3.627319e-01 -1.007019e+00
4.743756e+09 3.638916e-01 -1.004639e+00 7.133558e-05 -6.381795e-05 -3.626198e-05 -4.198775e-05 3.584595e-01 -1.008850e+00
4.747506e+09 3.583984e-01 -1.002563e+00 3.160536e-05 -1.336075e-05 -3.142655e-05 -5.462766e-05 3.537598e-01 -1.004211e+00
4.751256e+09 3.546753e-01 -9.968872e-01 4.789233e-05 6.983429e-05 6.220862e-05 7.525086e-06 3.513184e-01 -1.000610e+00
4.755006e+09 3.551025e-01 -9.920654e-01 4.079938e-05 -1.034886e-04 9.475648e-05 -2.396107e-05 3.495483e-01 -9.920044e-01
4.758756e+09 3.540039e-01 -9.816895e-01 -3.945827e-05 1.118407e-04 -6.376300e-06 -2.253801e-06 3.492432e-01 -9.843750e-01
4.762506e+09 3.573608e-01 -9.746094e-01 1.522154e-05 -9.667128e-05 3.005192e-05 -3.686175e-06 3.509521e-01 -9.764404e-01
4.766256e+09 3.562012e-01 -9.641724e-01 -8.217990e-06 9.917468e-05 8.863211e-05 7.475168e-05 3.512573e-01 -9.686279e-01
4.770006e+09 3.601685e-01 -9.530640e-01 4.762784e-05 2.312660e-05 -1.035035e-04 6.496906e-06 3.562622e-01 -9.554443e-01
4.773756e+09 3.641968e-01 -9.409790e-01 3.634021e-05 5.884469e-05 7.806346e-05 -1.555681e-05 3.594971e-01 -9.414673e-01
4.777506e+09 3.692627e-01 -9.276733e-01 -1.134127e-04 -7.573515e-05 3.679469e-05 -1.370907e-06 3.657837e-01 -9.285889e-01
4.781256e+09 3.782349e-01 -9.119263e-01 4.738569e-05 -5.625188e-07 8.646399e-05 2.026558e-06 3.728027e-01 -9.147339e-01
4.785006e+09 3.875732e-01 -8.969116e-01 1.411885e-05 9.081513e-05 3.781915e-05 -4.458427e-05 3.831787e-01 -8.993530e-01
4.788756e+09 3.995361e-01 -8.824463e-01 -3.393367e-05 2.040900e-05 5.626678e-05 -9.606034e-05 3.963013e-01 -8.856812e-01
4.792506e+09 4.160156e-01 -8.695679e-01 1.357310e-05 -4.253536e-05 5.690753e-05 6.429851e-05 4.099731e-01 -8.715210e-01
4.796256e+09 4.298096e-01 -8.586426e-01 1.821667e-05 -5.676225e-05 -2.662838e-05 -6.789342e-05 4.265747e-01 -8.626099e-01
4.800006e+09 4.470825e-01 -8.517456e-01 5.564839e-05 9.953976e-06 6.416813e-05 -3.544614e-05 4.432983e-01 -8.547974e-01
4.803756e+09 4.628296e-01 -8.473511e-01 4.223734e-05 -3.368221e-05 -2.541021e-05 4.978478e-05 4.566650e-01 -8.492432e-01
4.807506e+09 4.727173e-01 -8.420410e-01 1.715496e-05 4.491583e-05 3.963709e-05 -8.905679e-05 4.701538e-01 -8.455811e-01
4.811256e+09 4.831543e-01 -8.377686e-01 -6.225333e-05 -2.796203e-05 1.790002e-06 1.547206e-05 4.792480e-01 -8.398438e-01
4.815006e+09 4.915161e-01 -8.328247e-01 5.574152e-05 -3.765523e-05 7.209927e-05 2.621859e-05 4.862671e-01 -8.347168e-01
4.818756e+09 4.962769e-01 -8.234863e-01 -2.748147e-05 -9.108335e-07 6.008893e-06 -5.706772e-05 4.919434e-01 -8.274536e-01
4.822506e+09 5.023193e-01 -8.122559e-01 -3.745779e-05 -4.371628e-05 -1.777057e-05 8.283183e-06 4.981689e-01 -8.162231e-01
4.826256e+09 5.089722e-01 -7.979736e-01 -7.160939e-06 -2.299901e-06 -2.261251e-06 -7.428229e-05 5.059204e-01 -8.010864e-01
4.830006e+09 5.164795e-01 -7.846680e-01 -8.200109e-05 1.078472e-04 7.376075e-07 -1.023263e-04 5.121460e-01 -7.866211e-01
4.833756e+09 5.272827e-01 -7.694702e-01 -1.633912e-05 2.628937e-05 -7.226318e-05 1.753122e-05 5.232544e-01 -7.722778e-01
4.837506e+09 5.404053e-01 -7.534790e-01 -1.410395e-05 -9.135157e-05 -1.034886e-05 -9.156764e-05 5.355225e-01 -7.554932e-01
4.841256e+09 5.524902e-01 -7.395630e-01 -2.947077e-05 3.007986e-05 -9.266287e-05 -1.073256e-04 5.491943e-01 -7.421875e-01
4.845006e+09 5.675049e-01 -7.257690e-01 5.118921e-05 -2.318621e-05 7.048994e-05 -9.179115e-05 5.646973e-01 -7.293091e-01
4.848756e+09 5.815735e-01 -7.139587e-01 -6.408989e-05 -6.049126e-05 6.224960e-05 1.116991e-04 5.779419e-01 -7.174072e-01
4.852506e+09 5.936584e-01 -7.044067e-01 2.527609e-05 8.147210e-06 -3.789365e-05 -5.840138e-05 5.901794e-01 -7.074890e-01
4.856256e+09 6.055908e-01 -6.941223e-01 6.183051e-06 1.793262e-05 -5.549937e-05 9.313226e-06 6.019897e-01 -6.969299e-01
4.860006e+09 6.166077e-01 -6.818848e-01 1.463667e-05 2.856925e-05 4.099309e-05 3.005564e-05 6.135864e-01 -6.848755e-01
4.863756e+09 6.277161e-01 -6.704407e-01 -2.489239e-05 1.574494e-05 9.959936e-05 -7.733703e-06 6.242371e-01 -6.724854e-01
4.867506e+09 6.385498e-01 -6.588745e-01 5.353242e-06 -5.353615e-05 -1.307391e-05 -4.827045e-06 6.368408e-01 -6.605530e-01
4.871256e+09 6.517639e-01 -6.445007e-01 3.086962e-05 2.078712e-06 -6.679446e-06 -6.187335e-05 6.479187e-01 -6.479187e-01
4.875006e+09 6.643982e-01 -6.332092e-01 1.176819e-05 -1.199730e-05 -4.570931e-05 -1.696497e-05 6.612549e-01 -6.374207e-01
4.878756e+09 6.789551e-01 -6.228943e-01 3.100187e-05 1.366287e-04 -4.739687e-05 2.710521e-05 6.755676e-01 -6.257629e-01
4.882506e+09 6.920166e-01 -6.146545e-01 -1.441408e-05 -4.661269e-06 6.988645e-06 1.224130e-04 6.885681e-01 -6.185303e-01
4.886256e+09 7.035522e-01 -6.077271e-01 2.008677e-05 -4.964322e-05 -4.135817e-05 -3.052875e-05 6.999207e-01 -6.102295e-01
4.890006e+09 7.140198e-01 -6.010437e-01 -1.023188e-04 -3.320724e-05 1.993775e-05 6.806478e-05 7.108154e-01 -6.047974e-01
4.893756e+09 7.212524e-01 -5.957642e-01 4.777312e-05 1.544133e-05 -1.450703e-04 -3.915280e-05 7.176514e-01 -5.983276e-01
4.897506e+09 7.256470e-01 -5.883179e-01 8.625537e-05 -1.026317e-04 1.835823e-05 -8.348376e-06 7.227783e-01 -5.901489e-01
4.901255e+09 7.298584e-01 -5.780640e-01 -1.303852e-06 -8.563977e-06 2.838112e-05 -3.492460e-05 7.259521e-01 -5.809937e-01
4.905005e+09 7.320557e-01 -5.658569e-01 -2.380088e-05 -6.456673e-05 -3.659353e-05 7.709116e-05 7.300415e-01 -5.688477e-01
4.908755e+09 7.355957e-01 -5.512695e-01 -3.481656e-05 4.521757e-05 -6.429851e-05 -9.216368e-06 7.330933e-01 -5.555420e-01
4.912505e+09 7.407227e-01 -5.351562e-01 -3.626011e-05 -1.173094e-05 2.123788e-05 2.299622e-05 7.399902e-01 -5.392456e-01
4.916255e+09 7.492065e-01 -5.184937e-01 -6.095693e-05 4.187226e-06 -6.516930e-06 -2.451241e-06 7.481079e-01 -5.217896e-01
4.920005e+09 7.622070e-01 -5.022583e-01 6.639957e-05 -3.383309e-05 4.907139e-06 -1.298729e-05 7.597656e-01 -5.056763e-01
4.923755e+09 7.774658e-01 -4.862671e-01 -1.369342e-04 5.798787e-05 4.223362e-05 -1.360849e-05 7.744751e-01 -4.903564e-01
4.927505e+09 7.927856e-01 -4.761963e-01 -7.312745e-06 -2.597272e-05 -1.027063e-04 9.475648e-05 7.910156e-01 -4.797363e-01
4.931255e+09 8.090820e-01 -4.676514e-01 2.156757e-05 3.055297e-05 -3.746897e-05 6.221235e-07 8.076782e-01 -4.744263e-01
4.935005e+09 8.246460e-01 -4.647217e-01 -1.929700e-06 5.453825e-05 6.367639e-05 9.272248e-06 8.226318e-01 -4.683838e-01
4.938755e+09 8.382568e-01 -4.636841e-01 -4.766136e-05 -2.331659e-05 -8.452684e-06 4.170835e-05 8.358765e-01 -4.691162e-01
4.942505e+09 8.460083e-01 -4.644165e-01 7.113069e-05 -1.346171e-04 -4.269183e-06 -1.063570e-04 8.447876e-01 -4.706421e-01
4.946255e+09 8.520508e-01 -4.663696e-01 -9.589642e-05 -1.175329e-04 -3.411062e-05 -2.798811e-05 8.507690e-01 -4.713745e-01
4.950005e+09 8.565063e-01 -4.642944e-01 1.545250e-05 -3.688224e-05 7.875264e-05 4.369020e-05 8.542480e-01 -4.708862e-01
4.953755e+09 8.546753e-01 -4.644165e-01 -6.233901e-05 8.315966e-05 1.256913e-05 8.860976e-05 8.548584e-01 -4.680786e-01
4.957505e+09 8.577881e-01 -4.580688e-01 4.160404e-05 -7.066876e-05 -2.568774e-05 2.091564e-05 8.550415e-01 -4.653320e-01
4.961255e+09 8.563232e-01 -4.533691e-01 2.384186e-06 -4.301034e-05 4.315376e-05 -9.708107e-06 8.563232e-01 -4.580078e-01
4.965005e+09 8.599243e-01 -4.467163e-01 1.453608e-05 -2.248213e-05 -4.753470e-06 4.642084e-05 8.568726e-01 -4.523315e-01
4.968755e+09 8.613281e-01 -4.406738e-01 -2.709776e-05 1.273155e-04 -1.911446e-05 4.971400e-05 8.598022e-01 -4.451294e-01
4.972505e+09 8.649292e-01 -4.353027e-01 -1.709908e-05 6.587431e-05 -4.757196e-06 4.661083e-05 8.637695e-01 -4.405518e-01
4.976255e+09 8.677368e-01 -4.289551e-01 -1.394898e-04 1.683831e-05 -5.400553e-05 -3.188848e-06 8.670044e-01 -4.355469e-01
4.980005e+09 8.718872e-01 -4.274292e-01 2.616644e-05 1.264736e-05 8.093566e-05 8.907914e-05 8.698730e-01 -4.333496e-01
4.983755e+09 8.735352e-01 -4.231567e-01 -4.366785e-05 1.005530e-04 -8.755177e-05 1.946837e-05 8.716431e-01 -4.289551e-01
4.987505e+09 8.751831e-01 -4.188843e-01 8.968636e-06 -6.132759e-07 -3.792718e-05 -6.823614e-05 8.738403e-01 -4.265137e-01
4.991255e+09 8.763428e-01 -4.153442e-01 -7.405132e-05 1.736581e-04 -3.389269e-05 -8.421391e-05 8.736572e-01 -4.206543e-01
4.995005e+09 8.784180e-01 -4.100952e-01 -2.141297e-05 -5.209818e-05 -9.968877e-06 9.370595e-05 8.756714e-01 -4.169922e-01
4.998755e+09 8.786621e-01 -4.066162e-01 1.688953e-05 1.304690e-05 1.512468e-05 1.028925e-04 8.778687e-01 -4.124146e-01
5.002505e+09 8.827515e-01 -4.024658e-01 4.106760e-05 -6.997213e-05 6.752461e-05 -1.058131e-04 8.817139e-01 -4.093628e-01
5.006255e+09 8.875122e-01 -3.984985e-01 3.989600e-05 -9.771436e-06 -1.009703e-04 2.211332e-05 8.851318e-01 -4.060059e-01
5.010005e+09 8.920288e-01 -3.975220e-01 4.867092e-05 6.702915e-05 -2.162531e-05 4.706904e-06 8.888550e-01 -4.047852e-01
5.013755e+09 8.933716e-01 -3.976440e-01 -7.725880e-05 5.465001e-05 -3.910065e-05 -6.504357e-06 8.939819e-01 -4.041748e-01
5.017505e+09 8.964233e-01 -3.981323e-01 -3.533065e-05 1.258105e-04 -7.791817e-05 9.229034e-05 8.941650e-01 -4.049683e-01
5.021255e+09 8.970337e-01 -3.973999e-01 -9.551644e-05 6.998330e-05 -1.078099e-04 2.323091e-05 8.937988e-01 -4.056396e-01
5.025005e+09 8.948364e-01 -3.983765e-01 -6.293505e-05 3.266707e-05 4.487485e-05 -6.974861e-05 8.939209e-01 -4.052124e-01
5.028755e+09 8.939209e-01 -3.961182e-01 2.871640e-05 3.319792e-05 8.388609e-05 4.185736e-05 8.905029e-01 -4.031982e-01
5.032505e+09 8.900757e-01 -3.922729e-01 -6.470084e-05 2.925470e-05 -3.776513e-05 -3.663637e-05 8.886108e-01 -3.997192e-01
5.036255e+09 8.911133e-01 -3.861694e-01 5.690381e-05 3.459677e-05 -7.125363e-05 1.533702e-05 8.875732e-01 -3.926392e-01
5.040005e+09 8.906860e-01 -3.804932e-01 5.796924e-05 -2.514571e-05 -3.254786e-05 2.191588e-05 8.887939e-01 -3.865356e-01
5.043755e+09 8.952637e-01 -3.714600e-01 1.717731e-05 4.447624e-05 4.485995e-05 -6.920472e-05 8.925781e-01 -3.802490e-01
5.047505e+09 9.016113e-01 -3.675537e-01 1.312234e-05 -3.967434e-05 -4.093722e-05 -5.114079e-05 8.992310e-01 -3.732910e-01
5.051255e+09 9.085083e-01 -3.613281e-01 1.030639e-04 8.106232e-05 1.953915e-05 -4.918501e-05 9.066162e-01 -3.704834e-01
5.055005e+09 9.154663e-01 -3.614502e-01 -3.241003e-06 -2.106465e-05 2.369285e-05 4.020333e-05 9.141846e-01 -3.681641e-01
5.058755e+09 9.222412e-01 -3.618774e-01 9.050965e-05 -2.749264e-06 1.447927e-05 -3.080815e-06 9.218140e-01 -3.711548e-01
5.062505e+09 9.286499e-01 -3.671875e-01 -5.391613e-05 1.806766e-05 2.348423e-05 1.469254e-04 9.247437e-01 -3.745728e-01
5.066255e+09 9.302368e-01 -3.720703e-01 1.358241e-04 -6.649643e-05 1.392737e-04 -5.985796e-05 9.283447e-01 -3.785400e-01
5.070005e+09 9.293213e-01 -3.750000e-01 5.181134e-05 5.660951e-05 4.182570e-06 -1.602713e-05 9.284058e-01 -3.839111e-01
5.073755e+09 9.273071e-01 -3.788452e-01 -4.861131e-05 1.040101e-05 7.748604e-05 -6.160140e-05 9.254761e-01 -3.856201e-01
5.077505e+09 9.233398e-01 -3.794556e-01 -1.740921e-05 1.248904e-06 2.272613e-05 -3.481098e-05 9.205933e-01 -3.861694e-01
5.081255e+09 9.176025e-01 -3.770142e-01 -5.077571e-05 2.108142e-05 -7.329136e-05 -2.927333e-05 9.166260e-01 -3.833618e-01
5.085005e+09 9.145508e-01 -3.725586e-01 4.907697e-05 6.940216e-06 -3.147498e-05 -8.255243e-06 9.114380e-01 -3.789062e-01
5.088755e+09 9.111328e-01 -3.667603e-01 1.697615e-05 4.388765e-05 -7.800758e-06 -7.250905e-05 9.096680e-01 -3.729858e-01
5.092505e+09 9.093018e-01 -3.609009e-01 4.150718e-05 -5.150214e-05 -4.031137e-05 -5.096197e-05 9.075928e-01 -3.675537e-01
5.096255e+09 9.080200e-01 -3.543701e-01 -6.482750e-05 4.284084e-05 4.154071e-05 2.106279e-05 9.057617e-01 -3.618774e-01
5.100004e+09 9.049072e-01 -3.485718e-01 3.754161e-05 -1.311861e-05 -7.547066e-05 3.059208e-05 9.042358e-01 -3.547974e-01
5.103754e+09 9.024048e-01 -3.419189e-01 -2.016127e-05 1.194980e-05 -2.557412e-05 2.020225e-05 9.016113e-01 -3.472900e-01
5.107504e+09 8.987427e-01 -3.345947e-01 -8.340925e-05 5.848706e-05 9.869784e-05 9.171665e-06 8.975220e-01 -3.388672e-01
5.111254e+09 8.952026e-01 -3.245850e-01 1.284480e-05 -1.163781e-04 5.749613e-05 6.242469e-05 8.932495e-01 -3.296509e-01
5.115004e+09 8.942871e-01 -3.129883e-01 6.522983e-05 3.372133e-05 4.650652e-05 -9.866804e-05 8.918457e-01 -3.189697e-01
5.118754e+09 8.911743e-01 -2.976685e-01 -5.881861e-05 -6.873906e-05 4.252046e-05 -8.694828e-06 8.899536e-01 -3.030396e-01
5.122504e+09 8.919678e-01 -2.825928e-01 -2.223998e-06 -7.950142e-05 -1.869351e-05 -5.508214e-05 8.897095e-01 -2.866821e-01
5.126254e+09 8.950806e-01 -2.680664e-01 7.826462e-05 -6.429479e-05 -5.386770e-06 4.531071e-05 8.940430e-01 -2.719727e-01
5.130004e+09 9.024048e-01 -2.525024e-01 -9.673834e-05 -7.233769e-05 -6.183982e-06 -1.021475e-04 9.015503e-01 -2.571411e-01
5.133754e+09 9.103394e-01 -2.398682e-01 -1.106188e-04 1.463220e-04 1.551956e-05 -3.281049e-05 9.091187e-01 -2.449951e-01
5.137504e+09 9.185181e-01 -2.307739e-01 1.547858e-04 -4.241616e-05 1.274049e-05 -4.732981e-05 9.176636e-01 -2.346191e-01
5.141254e+09 9.274292e-01 -2.235107e-01 -6.999075e-05 9.562820e-05 -6.638095e-05 -3.168732e-05 9.254761e-01 -2.287598e-01
5.145004e+09 9.321289e-01 -2.203979e-01 7.107854e-06 -9.501725e-05 -8.262694e-05 1.490116e-06 9.320068e-01 -2.274170e-01
5.148754e+09 9.343262e-01 -2.199097e-01 -3.792346e-06 7.046759e-05 -3.497861e-05 -2.320297e-05 9.334717e-01 -2.244263e-01
5.152504e+09 9.311523e-01 -2.172241e-01 -2.794713e-05 7.578731e-05 -3.487617e-05 5.237758e-05 9.308472e-01 -2.230835e-01
5.156254e+09 9.244385e-01 -2.135010e-01 -4.660711e-05 -6.325543e-05 -1.290590e-04 -4.373491e-06 9.239502e-01 -2.192383e-01
5.160004e+09 9.146118e-01 -2.072144e-01 -2.483279e-05 1.925044e-05 8.358061e-05 4.317611e-05 9.147949e-01 -2.111816e-01
5.163754e+09 9.034424e-01 -1.947021e-01 -1.551956e-05 -1.169667e-04 -2.430566e-05 -1.000613e-05 9.030151e-01 -1.992798e-01
5.167504e+09 8.930664e-01 -1.773071e-01 -2.260506e-05 2.237782e-05 5.397946e-05 -9.921938e-05 8.919067e-01 -1.823120e-01
5.171254e+09 8.846436e-01 -1.588745e-01 -1.876056e-05 7.381290e-05 5.608425e-06 2.818182e-05 8.846436e-01 -1.624756e-01
5.175004e+09 8.790283e-01 -1.372681e-01 1.513399e-05 -4.537404e-06 -7.299706e-05 -7.312372e-05 8.784180e-01 -1.412354e-01
5.178754e+09 8.749390e-01 -1.151123e-01 -6.573275e-05 -5.628914e-06 -1.078025e-04 -6.598234e-05 8.756714e-01 -1.186523e-01
5.182504e+09 8.736572e-01 -9.234619e-02 2.419762e-05 2.576225e-05 -7.582828e-05 5.872920e-05 8.740845e-01 -9.613037e-02
5.186254e+09 8.736572e-01 -7.006836e-02 -4.084408e-05 6.379560e-06 -3.361702e-05 -2.257153e-05 8.757324e-01 -7.342529e-02
5.190004e+09 8.755493e-01 -4.864502e-02 8.584559e-05 -5.094707e-05 1.118407e-04 -1.388788e-04 8.767090e-01 -5.456543e-02
5.193754e+09 8.784180e-01 -2.935791e-02 -3.328919e-05 -5.615130e-05 -1.000986e-04 -2.444535e-05 8.785400e-01 -3.308105e-02
5.197504e+09 8.799438e-01 -9.338379e-03 -6.651878e-05 -1.120120e-04 3.138930e-05 -6.483123e-05 8.800659e-01 -1.336670e-02
5.201254e+09 8.823853e-01 1.049805e-02 5.012006e-05 -6.534159e-05 2.124719e-05 -4.136935e-06 8.834839e-01 4.516602e-03
5.205004e+09 8.867188e-01 2.899170e-02 -4.999340e-06 9.606779e-05 -3.867596e-05 6.642193e-05 8.875732e-01 2.404785e-02
5.208754e+09 8.894653e-01 4.754639e-02 -9.881705e-05 7.215887e-05 -7.288903e-05 -1.481324e-04 8.900146e-01 4.241943e-02
5.212504e+09 8.930664e-01 6.567383e-02 1.258403e-04 1.812726e-05 -5.377457e-05 -4.865229e-05 8.956909e-01 6.030273e-02
5.216254e+09 8.994751e-01 8.142090e-02 5.616620e-05 1.988932e-05 -3.415905e-05 -2.308562e-05 8.992920e-01 7.727051e-02
5.220004e+09 9.045410e-01 9.643555e-02 1.428649e-06 -2.758391e-05 -8.449703e-05 -1.358241e-05 9.065552e-01 9.136963e-02
5.223754e+09 9.091187e-01 1.079712e-01 3.488362e-05 2.848543e-05 -8.314848e-06 -4.321337e-05 9.107056e-01 1.024170e-01
5.227504e+09 9.130859e-01 1.184082e-01 3.755093e-06 5.172193e-05 1.110137e-05 5.780905e-05 9.135132e-01 1.137695e-01
5.231254e+09 9.133301e-01 1.276245e-01 -4.484504e-05 7.634982e-05 4.608929e-05 6.120652e-06 9.150391e-01 1.218872e-01
5.235004e+09 9.124146e-01 1.370239e-01 3.194809e-05 8.165836e-06 -3.399700e-05 9.616464e-05 9.140015e-01 1.317749e-01
5.238754e+09 9.064941e-01 1.458740e-01 -6.003305e-05 3.579631e-05 4.948303e-05 6.483123e-05 9.094238e-01 1.412964e-01
5.242504e+09 9.010010e-01 1.571655e-01 5.981699e-05 9.503216e-06 -3.835186e-05 -7.497147e-06 9.031982e-01 1.522217e-01
5.246254e+09 8.955078e-01 1.707764e-01 -4.823133e-05 -2.074987e-05 3.548898e-05 -6.748363e-06 8.967285e-01 1.672363e-01
5.250004e+09 8.895874e-01 1.878662e-01 1.716986e-05 -1.259148e-06 -1.583807e-05 3.228337e-05 8.900146e-01 1.835327e-01
5.253754e+09 8.848267e-01 2.067261e-01 -8.239597e-05 2.662838e-05 -6.870925e-05 -1.630187e-05 8.853149e-01 2.009277e-01
5.257504e+09 8.826904e-01 2.255249e-01 -1.461431e-05 3.549084e-05 -1.409184e-05 2.657063e-06 8.842773e-01 2.208252e-01
5.261254e+09 8.832397e-01 2.438965e-01 4.476309e-05 -4.459172e-05 -1.149066e-05 1.679454e-05 8.851318e-01 2.402344e-01
5.265004e+09 8.859863e-01 2.619629e-01 4.861504e-05 6.768852e-06 6.262213e-06 -4.525855e-05 8.883667e-01 2.571411e-01
5.268754e+09 8.903198e-01 2.771606e-01 4.358962e-05 -6.178766e-05 -3.219768e-05 6.515160e-05 8.928833e-01 2.725830e-01
5.272504e+09 8.960571e-01 2.885742e-01 8.092076e-05 7.599592e-07 -1.040772e-04 -3.998727e-05 8.976440e-01 2.842407e-01
5.276254e+09 9.007568e-01 2.975464e-01 -4.474074e-06 -3.752112e-05 -1.199543e-05 1.363903e-04 9.031982e-01 2.930298e-01
5.280004e+09 9.047852e-01 3.059692e-01 -1.845136e-05 2.886169e-05 -9.275228e-05 -5.749613e-05 9.065552e-01 3.005371e-01
5.283754e+09 9.048462e-01 3.106079e-01 1.586784e-10 -6.274092e-10 3.486499e-05 6.797537e-05 9.065552e-01 3.048706e-01
5.287504e+09 9.044189e-01 3.153687e-01 -1.061708e-04 -2.954900e-05 8.314848e-06 -7.583573e-05 9.060669e-01 3.099365e-01
5.291254e+09 9.020996e-01 3.214722e-01 2.984516e-05 3.520213e-05 -1.166016e-06 7.417426e-05 9.037476e-01 3.161621e-01
5.295004e+09 8.977661e-01 3.267822e-01 -6.509945e-06 3.887806e-06 2.844632e-05 -5.237758e-06 8.990479e-01 3.231201e-01
5.298754e+09 8.938599e-01 3.347168e-01 -7.422641e-05 8.970499e-06 4.919618e-05 1.081675e-04 8.964233e-01 3.308105e-01
5.302503e+09 8.911133e-01 3.436279e-01 6.064773e-06 -7.876009e-05 1.537800e-05 -7.597730e-05 8.941650e-01 3.379517e-01
5.306253e+09 8.884888e-01 3.519287e-01 -5.699322e-05 3.850088e-05 -2.011061e-04 -2.157688e-05 8.913574e-01 3.475952e-01
5.310003e+09 8.859863e-01 3.607178e-01 1.633242e-04 4.671514e-06 -1.991168e-05 -6.937608e-05 8.900146e-01 3.540649e-01
5.313753e+09 8.850098e-01 3.675537e-01 -6.102026e-06 7.959828e-05 1.023337e-05 5.657598e-05 8.884888e-01 3.616943e-01
5.317503e+09 8.833008e-01 3.733521e-01 4.633330e-06 -7.243361e-06 1.474842e-05 4.113466e-05 8.864746e-01 3.679199e-01
5.321253e+09 8.823242e-01 3.798218e-01 -2.554059e-05 -4.285015e-05 3.286265e-05 -2.054498e-05 8.851318e-01 3.746948e-01
5.325003e+09 8.808594e-01 3.856812e-01 -9.190291e-05 1.043081e-05 5.502254e-05 -1.413450e-04 8.836060e-01 3.800049e-01
5.328753e+09 8.803711e-01 3.912354e-01 -1.160353e-04 1.181588e-04 -5.090609e-06 -2.834387e-05 8.816528e-01 3.853760e-01
5.332503e+09 8.790283e-01 3.976440e-01 -3.580377e-05 -6.482005e-07 4.420429e-05 1.238957e-04 8.824463e-01 3.923950e-01
5.336253e+09 8.778076e-01 4.039307e-01 2.011377e-05 1.884159e-05 -6.055832e-05 1.133233e-04 8.823242e-01 3.975220e-01
5.340003e+09 8.813477e-01 4.076538e-01 -1.415610e-07 4.405528e-05 4.594214e-06 -1.556054e-05 8.830566e-01 4.030762e-01
5.343753e+09 8.835449e-01 4.111328e-01 -7.072464e-06 -2.653524e-05 -3.586337e-05 6.366521e-06 8.874512e-01 4.068604e-01
5.347503e+09 8.858643e-01 4.122925e-01 3.933907e-06 -8.185580e-05 4.109368e-05 2.244487e-05 8.898315e-01 4.069824e-01
5.351253e+09 8.897705e-01 4.102173e-01 2.227724e-06 -1.294166e-04 -3.656372e-05 -3.831834e-05 8.930664e-01 4.044800e-01
5.355003e+09 8.892822e-01 4.052734e-01 4.573539e-05 -2.739206e-05 -4.700385e-06 1.575891e-05 8.929443e-01 3.986206e-01
5.358753e+09 8.869019e-01 3.984985e-01 1.473054e-04 2.299994e-05 5.316734e-05 5.628914e-06 8.896484e-01 3.923340e-01
5.362503e+09 8.792114e-01 3.911743e-01 -9.554625e-05 3.784895e-06 -3.922731e-05 -9.690970e-05 8.826904e-01 3.862915e-01
5.366253e+09 8.690796e-01 3.856201e-01 -3.924593e-05 6.788224e-05 4.248321e-05 -5.161390e-05 8.718262e-01 3.804932e-01
5.370003e+09 8.548584e-01 3.848267e-01 -2.993271e-05 5.343184e-05 -1.842156e-05 6.154925e-05 8.587036e-01 3.798828e-01
5.373753e+09 8.406982e-01 3.865356e-01 -7.017329e-05 1.555309e-05 -1.862273e-05 1.770072e-05 8.447266e-01 3.818970e-01
5.377503e+09 8.285522e-01 3.945923e-01 5.251169e-05 -4.470721e-05 1.671538e-05 5.473569e-05 8.311768e-01 3.893433e-01
5.381253e+09 8.164673e-01 4.045410e-01 2.030283e-06 -8.482113e-05 7.190555e-05 -4.113838e-05 8.199463e-01 3.988037e-01
5.385003e+09 8.092041e-01 4.152832e-01 -1.098774e-05 -3.299676e-05 1.908466e-05 6.853417e-05 8.126221e-01 4.118652e-01
5.388753e+09 8.043213e-01 4.281616e-01 -2.009794e-05 6.936491e-05 -6.746501e-06 4.443154e-05 8.067627e-01 4.246216e-01
5.392503e+09 8.038330e-01 4.425049e-01 1.423061e-05 5.325675e-05 1.635589e-05 -3.183819e-05 8.069458e-01 4.367676e-01
5.396253e+09 8.049316e-01 4.523926e-01 -1.756661e-05 -2.926216e-05 4.747510e-05 2.111867e-05 8.093262e-01 4.467773e-01
5.400003e+09 8.088989e-01 4.611206e-01 -4.941970e-05 -2.341345e-05 -7.155817e-06 1.223292e-06 8.134766e-01 4.557495e-01
5.403753e+09 8.142700e-01 4.671021e-01 5.657226e-05 -3.835559e-05 -1.440570e-05 2.440996e-06 8.176880e-01 4.606934e-01
5.407503e+09 8.186035e-01 4.678345e-01 -1.285225e-05 9.605289e-05 7.230043e-05 3.227219e-05 8.217163e-01 4.631958e-01
5.411253e+09 8.204956e-01 4.698486e-01 1.303852e-06 1.682062e-05 6.254762e-05 -2.536923e-05 8.250122e-01 4.638672e-01
5.415003e+09 8.217163e-01 4.685059e-01 5.151331e-05 1.004785e-04 7.206574e-05 3.235415e-05 8.241577e-01 4.631958e-01
5.418753e+09 8.202515e-01 4.664917e-01 -3.475882e-05 -1.412630e-05 -5.023554e-05 -3.574416e-05 8.250732e-01 4.613647e-01
5.422503e+09 8.184204e-01 4.676514e-01 6.156415e-05 1.543388e-05 -2.367422e-06 2.975948e-05 8.217163e-01 4.621582e-01
5.426253e+09 8.145142e-01 4.683228e-01 -1.863670e-05 -1.902692e-06 8.764863e-05 -8.773804e-05 8.171387e-01 4.625244e-01
5.430003e+09 8.092041e-01 4.689941e-01 6.181002e-05 5.909801e-05 -3.303774e-05 -2.358295e-05 8.124390e-01 4.632568e-01
5.433753e+09 8.029175e-01 4.716187e-01 3.157556e-05 -4.970282e-05 8.001179e-05 -4.225969e-05 8.073120e-01 4.670410e-01
5.437503e+09 7.994385e-01 4.749756e-01 7.511675e-05 7.662922e-06 -6.115437e-05 2.467632e-05 8.029175e-01 4.705811e-01
5.441253e+09 7.927856e-01 4.785156e-01 -4.551187e-05 -1.684204e-05 5.632266e-05 -5.275384e-05 7.957764e-01 4.745483e-01
5.445003e+09 7.857666e-01 4.849854e-01 2.475083e-05 1.165457e-05 -3.051758e-05 -9.469688e-06 7.903442e-01 4.800415e-01
5.448753e+09 7.801514e-01 4.921265e-01 1.310743e-05 3.647432e-05 4.839152e-06 -5.875528e-05 7.844238e-01 4.865112e-01
5.452503e+09 7.739258e-01 4.995728e-01 2.600811e-05 -1.568720e-05 -1.423061e-05 4.586577e-05 7.771606e-01 4.960938e-01
5.456253e+09 7.683105e-01 5.109253e-01 9.236485e-05 5.041063e-05 -3.746152e-05 -9.592623e-05 7.727051e-01 5.040283e-01
5.460003e+09 7.664185e-01 5.222168e-01 5.905330e-05 -4.619360e-06 -7.086992e-05 -1.202896e-04 7.684937e-01 5.157471e-01
5.463753e+09 7.644043e-01 5.328369e-01 -3.168732e-05 9.411573e-05 3.337115e-05 2.406910e-05 7.681885e-01 5.287476e-01
5.467503e+09 7.657471e-01 5.458374e-01 1.831353e-05 5.968660e-05 -6.234273e-05 -6.430969e-05 7.706909e-01 5.399780e-01
5.471253e+09 7.696533e-01 5.554199e-01 3.251806e-05 -1.955591e-05 -4.849583e-05 -2.219900e-05 7.745972e-01 5.507202e-01
5.475003e+09 7.775879e-01 5.608521e-01 -2.225861e-05 -2.215244e-05 -5.112588e-05 -8.227676e-05 7.806396e-01 5.560303e-01
5.478753e+09 7.828979e-01 5.631104e-01 3.248453e-06 -2.423488e-05 9.903312e-05 -9.161234e-05 7.874756e-01 5.588989e-01
5.482503e+09 7.894897e-01 5.603027e-01 2.598856e-06 -1.049461e-05 1.716241e-05 1.239683e-05 7.914429e-01 5.543213e-01
5.486253e+09 7.885132e-01 5.557251e-01 8.386374e-05 2.078712e-05 2.980232e-06 -7.596239e-05 7.923584e-01 5.505981e-01
5.490003e+09 7.861328e-01 5.476685e-01 -1.430511e-06 -6.138533e-05 -4.146248e-05 2.156943e-05 7.880249e-01 5.421143e-01
5.493753e+09 7.767334e-01 5.416260e-01 -1.785159e-05 -7.337704e-05 -1.100153e-04 -4.171580e-05 7.791138e-01 5.371094e-01
5.497503e+09 7.634277e-01 5.368652e-01 -3.161840e-05 5.923212e-06 3.069639e-05 9.775162e-06 7.673340e-01 5.309448e-01
5.501252e+09 7.472534e-01 5.329590e-01 3.787503e-05 -9.782612e-06 -6.897748e-05 -1.183823e-04 7.511597e-01 5.293579e-01
5.505002e+09 7.283936e-01 5.366211e-01 -1.065806e-05 5.432218e-05 -1.217872e-04 -5.177408e-05 7.318115e-01 5.323486e-01
5.508752e+09 7.114258e-01 5.430298e-01 -2.951920e-05 -7.755309e-05 -4.598126e-05 2.137572e-05 7.145996e-01 5.384521e-01
5.512502e+09 6.935425e-01 5.538330e-01 3.529713e-05 -5.593151e-05 -2.487749e-05 -2.420880e-05 6.967773e-01 5.500793e-01
5.516252e+09 6.781921e-01 5.653992e-01 1.082122e-04 -7.838756e-05 -4.049763e-05 -7.806718e-05 6.813965e-01 5.627747e-01
5.520002e+09 6.646729e-01 5.795593e-01 2.582744e-05 -7.183105e-05 -1.382176e-05 2.151355e-06 6.694946e-01 5.779724e-01
5.523752e+09 6.553955e-01 5.947571e-01 -2.981164e-05 2.240390e-05 -2.628192e-06 2.898648e-05 6.562500e-01 5.919189e-01
5.527502e+09 6.449585e-01 6.111450e-01 7.721782e-05 -1.619384e-05 -4.113466e-05 1.075119e-04 6.492615e-01 6.073608e-01
5.531252e+09 6.384888e-01 6.241455e-01 6.634742e-06 8.307025e-05 9.052455e-05 -2.858788e-05 6.419983e-01 6.213379e-01
5.535002e+09 6.297913e-01 6.369019e-01 2.041459e-05 -3.850088e-05 2.972037e-05 9.860098e-05 6.364441e-01 6.333313e-01
5.538752e+09 6.246338e-01 6.477661e-01 -2.559274e-05 1.544319e-05 5.750358e-05 3.586337e-05 6.301880e-01 6.455688e-01
5.542502e+09 6.187439e-01 6.589355e-01 5.263463e-05 -1.438335e-05 -3.080070e-05 -5.521625e-05 6.251831e-01 6.546936e-01
5.546252e+09 6.140442e-01 6.687012e-01 -5.867332e-07 1.351628e-05 -1.546368e-05 4.745275e-05 6.201782e-01 6.650391e-01
5.550002e+09 6.094971e-01 6.770020e-01 -9.004027e-05 -4.689395e-05 -3.547966e-05 6.569922e-05 6.130981e-01 6.726990e-01
5.553752e+09 6.034851e-01 6.846313e-01 -8.914620e-05 -3.028661e-05 -1.516938e-04 -5.283207e-05 6.080322e-01 6.821594e-01
5.557502e+09 5.968933e-01 6.899109e-01 -6.004423e-05 1.845509e-05 -5.609170e-05 -2.183393e-05 6.018677e-01 6.869507e-01
5.561252e+09 5.892639e-01 6.947021e-01 -1.669675e-05 9.068102e-05 -8.179247e-05 5.716830e-05 5.947876e-01 6.918335e-01
5.565002e+09 5.826111e-01 6.977539e-01 -6.326661e-05 -1.557916e-05 -1.009330e-04 -7.466972e-05 5.869141e-01 6.950684e-01
5.568752e+09 5.712585e-01 7.001953e-01 8.561183e-06 -7.040799e-07 2.606027e-05 2.576411e-05 5.759277e-01 6.986694e-01
5.572502e+09 5.593567e-01 7.037354e-01 3.760681e-05 1.761131e-05 2.370588e-05 1.118332e-05 5.645752e-01 7.022400e-01
5.576252e+09 5.450439e-01 7.103271e-01 -2.515316e-05 -5.628541e-05 -5.894154e-05 -1.518950e-04 5.504150e-01 7.065430e-01
5.580002e+09 5.305786e-01 7.138977e-01 -3.136136e-05 -7.688999e-06 -2.324581e-06 1.304597e-04 5.332642e-01 7.116394e-01
5.583752e+09 5.134277e-01 7.247925e-01 8.291006e-05 -2.375990e-05 2.321601e-05 1.098029e-05 5.188599e-01 7.233887e-01
5.587502e+09 4.974976e-01 7.361450e-01 -1.896173e-05 -4.567578e-05 1.819991e-05 2.605841e-05 5.028076e-01 7.337646e-01
5.591252e+09 4.847412e-01 7.502441e-01 3.380701e-05 -5.989522e-05 8.199364e-06 5.644560e-05 4.894409e-01 7.478027e-01
5.595002e+09 4.736328e-01 7.651978e-01 -1.557544e-05 7.508323e-05 -7.511675e-05 -1.808628e-05 4.788208e-01 7.622681e-01
5.598752e+09 4.655762e-01 7.780151e-01 -5.834922e-05 4.827976e-06 -2.324581e-05 9.087473e-05 4.719849e-01 7.766724e-01
5.602502e+09 4.608765e-01 7.911377e-01 -3.386661e-05 1.617149e-05 3.300793e-05 2.462789e-05 4.657593e-01 7.885742e-01
5.606252e+09 4.594116e-01 8.018799e-01 -1.636893e-05 4.492328e-05 7.067621e-05 7.876754e-05 4.646606e-01 8.004761e-01
5.610002e+09 4.568481e-01 8.084106e-01 2.768636e-05 3.118627e-05 -2.399832e-05 9.279698e-05 4.611206e-01 8.068237e-01
5.613752e+09 4.537354e-01 8.118286e-01 4.534423e-05 2.894551e-06 1.144037e-05 2.817623e-05 4.633179e-01 8.082886e-01
5.617502e+09 4.511719e-01 8.128662e-01 7.705763e-06 1.269113e-05 -6.772950e-05 -5.304813e-06 4.562988e-01 8.095093e-01
5.621252e+09 4.405518e-01 8.105469e-01 8.592010e-05 -4.358217e-05 7.869303e-05 -6.999075e-05 4.468994e-01 8.061523e-01
5.625002e+09 4.291992e-01 8.088989e-01 1.890119e-05 -1.149625e-05 2.491474e-05 -1.351684e-04 4.353027e-01 8.058472e-01
5.628752e+09 4.149170e-01 8.092651e-01 2.812594e-05 -3.863499e-05 -7.509813e-05 -1.844019e-05 4.187012e-01 8.049927e-01
5.632502e+09 3.963623e-01 8.123779e-01 5.241483e-05 1.542270e-05 1.294538e-05 4.134327e-05 4.029541e-01 8.073730e-01
5.636252e+09 3.796997e-01 8.174438e-01 -2.793223e-05 -1.754612e-05 -1.232848e-04 -1.150370e-05 3.861694e-01 8.153687e-01
5.640002e+09 3.630371e-01 8.278198e-01 -8.297712e-05 -7.953867e-05 -2.149493e-05 1.032352e-04 3.691406e-01 8.242188e-01
5.643752e+09 3.482056e-01 8.397827e-01 1.048669e-05 4.599616e-05 -4.667789e-05 7.824972e-05 3.536377e-01 8.366089e-01
5.647502e+09 3.352051e-01 8.527832e-01 -4.944578e-05 -6.667897e-05 3.987551e-05 -7.768720e-05 3.418579e-01 8.499146e-01
5.651252e+09 3.255615e-01 8.672485e-01 -5.115196e-05 1.776218e-05 3.228337e-05 -1.354963e-04 3.299561e-01 8.652954e-01
5.655002e+09 3.195801e-01 8.814087e-01 -9.827316e-05 -1.563132e-05 -2.034381e-05 -4.123896e-05 3.248901e-01 8.800659e-01
5.658752e+09 3.157959e-01 8.953247e-01 1.551863e-05 -1.836009e-05 -4.232302e-05 -3.863871e-05 3.226318e-01 8.924561e-01
5.662502e+09 3.123779e-01 9.069824e-01 -6.271526e-05 -1.527742e-05 -6.130338e-05 9.776652e-05 3.190918e-01 9.060669e-01
5.666252e+09 3.131714e-01 9.191284e-01 8.252263e-05 -1.028180e-05 -2.012402e-05 1.772493e-05 3.181152e-01 9.164429e-01
5.670002e+09 3.127441e-01 9.296875e-01 3.281981e-06 -8.174405e-05 1.354143e-04 -2.972782e-06 3.205566e-01 9.268799e-01
5.673752e+09 3.184814e-01 9.348755e-01 2.941489e-05 4.834682e-05 1.006242e-09 7.696030e-10 3.248901e-01 9.318237e-01
5.677502e+09 3.210449e-01 9.379272e-01 -2.349354e-05 -3.856421e-05 8.974224e-06 -4.656613e-05 3.299561e-01 9.364624e-01
5.681252e+09 3.275757e-01 9.392090e-01 -2.818555e-05 2.597645e-05 -2.820045e-05 -4.161894e-05 3.366699e-01 9.381104e-01
5.685002e+09 3.344727e-01 9.363403e-01 -1.059100e-05 5.493686e-05 -4.986301e-05 2.170727e-05 3.414307e-01 9.343872e-01
5.688752e+09 3.373413e-01 9.304199e-01 -1.194142e-05 3.819354e-05 2.793595e-05 4.125386e-05 3.445435e-01 9.277954e-01
5.692502e+09 3.390503e-01 9.185791e-01 -2.961233e-05 9.225681e-06 3.723800e-05 1.137927e-04 3.465576e-01 9.172363e-01
5.696252e+09 3.353882e-01 9.073486e-01 -3.601424e-05 1.308136e-05 -1.443550e-05 1.883134e-06 3.415527e-01 9.045410e-01
5.700002e+09 3.284302e-01 8.933716e-01 1.583248e-06 -4.046038e-05 5.263835e-06 -1.520477e-05 3.353882e-01 8.919067e-01
5.703751e+09 3.155518e-01 8.797607e-01 6.227195e-05 -5.547330e-05 -4.051626e-05 1.962855e-05 3.236084e-01 8.796997e-01
5.707501e+09 3.005371e-01 8.704834e-01 1.934823e-06 3.167894e-06 -7.358938e-05 -1.874566e-05 3.078613e-01 8.685913e-01
5.711251e+09 2.819214e-01 8.648682e-01 5.777460e-06 9.460840e-06 4.330277e-05 -4.810467e-05 2.877197e-01 8.625488e-01
5.715001e+09 2.590942e-01 8.616333e-01 -5.484372e-05 9.376556e-05 7.464364e-05 -2.367422e-05 2.661743e-01 8.610229e-01
5.718751e+09 2.402344e-01 8.648071e-01 4.873611e-06 -2.020039e-05 -3.872812e-05 -8.013844e-05 2.452393e-01 8.630981e-01
5.722501e+09 2.184448e-01 8.717041e-01 -1.051128e-04 2.556294e-05 1.752563e-05 -3.084540e-05 2.246704e-01 8.697510e-01
5.726251e+09 2.018433e-01 8.801270e-01 -1.401640e-06 -1.642108e-05 -3.747642e-06 -8.642673e-05 2.085571e-01 8.807373e-01
5.730001e+09 1.867065e-01 8.922119e-01 -1.765788e-06 9.648502e-05 -3.740191e-06 -1.462772e-04 1.926270e-01 8.927612e-01
5.733751e+09 1.770630e-01 9.058228e-01 3.209896e-05 2.399646e-05 -5.867705e-05 7.394701e-06 1.835327e-01 9.050293e-01
5.737501e+09 1.675415e-01 9.173584e-01 -1.715124e-05 1.487043e-05 5.205348e-05 -6.676465e-05 1.772461e-01 9.149170e-01
5.741251e+09 1.651611e-01 9.270020e-01 -4.845113e-05 -3.622100e-05 7.114187e-05 2.161413e-05 1.734009e-01 9.261475e-01
5.745001e+09 1.643066e-01 9.340210e-01 -5.485117e-05 6.870925e-05 -7.331744e-05 -3.676489e-05 1.719971e-01 9.327393e-01
5.748751e+09 1.616211e-01 9.405518e-01 1.127273e-04 -2.898276e-06 2.815202e-05 4.247576e-05 1.704712e-01 9.382935e-01
5.752501e+09 1.577148e-01 9.417114e-01 -2.617948e-05 2.926216e-05 -3.956258e-05 5.048886e-05 1.668701e-01 9.404297e-01
5.756251e+09 1.542358e-01 9.421387e-01 1.929328e-05 -6.927550e-05 -2.416037e-05 -1.218915e-05 1.636963e-01 9.420166e-01
5.760001e+09 1.507568e-01 9.415283e-01 4.578382e-06 -6.467104e-05 -1.350641e-04 6.161630e-05 1.560059e-01 9.406128e-01
5.763751e+09 1.414795e-01 9.418335e-01 -9.987503e-05 2.548844e-05 -1.088344e-05 -2.845749e-05 1.511230e-01 9.415283e-01
5.767501e+09 1.350708e-01 9.425049e-01 -1.945440e-05 1.188368e-05 1.457147e-05 -1.774170e-06 1.427612e-01 9.423218e-01
5.771251e+09 1.263428e-01 9.453125e-01 -8.904934e-05 9.611249e-07 9.232014e-05 3.310293e-05 1.313477e-01 9.445801e-01
5.775001e+09 1.187744e-01 9.479370e-01 2.542883e-05 5.628169e-05 -7.234048e-06 8.810312e-07 1.247559e-01 9.502563e-01
5.778751e+09 1.090698e-01 9.509888e-01 6.649643e-06 -6.251782e-05 -2.963096e-05 1.208633e-04 1.168823e-01 9.509888e-01
5.782501e+09 1.002197e-01 9.530640e-01 -9.598583e-05 4.626811e-06 1.789257e-05 2.720393e-05 1.082153e-01 9.542236e-01
5.786251e+09 9.259033e-02 9.584961e-01 8.062646e-05 -5.839393e-05 2.386793e-05 -4.696473e-05 9.924316e-02 9.586182e-01
5.790001e+09 8.465576e-02 9.623413e-01 -3.439002e-05 1.661852e-05 1.418218e-05 5.739182e-05 8.953857e-02 9.628906e-01
5.793751e+09 7.482910e-02 9.678955e-01 -9.072572e-05 6.882846e-05 -2.367795e-05 -1.205131e-05 8.245850e-02 9.672852e-01
5.797501e+09 6.646729e-02 9.738159e-01 -7.072091e-05 -1.152456e-04 6.456301e-05 -2.236664e-05 7.507324e-02 9.742432e-01
5.801251e+09 6.182861e-02 9.800415e-01 7.800013e-05 -8.734316e-05 -1.359731e-05 7.665902e-05 6.951904e-02 9.819946e-01
5.805001e+09 5.603027e-02 9.895630e-01 -3.283471e-05 4.632771e-05 -5.859882e-05 8.224696e-05 6.390381e-02 9.883423e-01
5.808751e+09 5.541992e-02 9.944458e-01 -8.309633e-05 7.137656e-06 -2.305582e-05 6.332248e-05 6.079102e-02 9.946289e-01
5.812501e+09 5.603027e-02 9.998169e-01 -9.326264e-06 2.759136e-05 7.681921e-05 6.522983e-06 6.353760e-02 1.000977e+00
5.816251e+09 5.725098e-02 1.000854e+00 -9.909272e-07 2.690032e-05 3.282726e-05 8.748472e-05 6.390381e-02 1.002197e+00
5.820001e+09 5.743408e-02 9.988403e-01 -1.122989e-05 -3.253110e-05 -5.040318e-06 -4.481897e-05 6.665039e-02 9.989624e-01
5.823751e+09 5.969238e-02 9.939575e-01 1.464002e-10 -6.143637e-10 4.881620e-05 9.956956e-05 6.616211e-02 9.940186e-01
5.827501e+09 5.609131e-02 9.858398e-01 -3.517047e-05 -2.868474e-07 -3.592670e-05 -5.529076e-05 6.250000e-02 9.843140e-01
5.831251e+09 4.852295e-02 9.765015e-01 -3.510714e-05 5.654991e-05 -7.719174e-05 -3.545359e-05 5.816650e-02 9.761963e-01
5.835001e+09 3.948975e-02 9.699707e-01 7.381663e-05 6.843358e-06 -1.435727e-05 1.596287e-06 4.602051e-02 9.678345e-01
5.838751e+09 2.636719e-02 9.604492e-01 1.745857e-05 2.841093e-05 -3.959984e-06 2.924167e-05 3.570557e-02 9.612427e-01
5.842501e+09 1.171875e-02 9.577026e-01 -2.479181e-05 -5.449355e-05 -2.997741e-05 -1.108088e-05 1.708984e-02 9.573975e-01
5.846251e+09 -2.929688e-03 9.558105e-01 2.194382e-05 -3.535487e-05 5.294383e-05 2.294779e-05 2.746582e-03 9.575806e-01
5.850001e+09 -2.020264e-02 9.598389e-01 7.793307e-06 6.975234e-05 -1.590513e-05 -1.281034e-05 -1.263428e-02 9.609375e-01
5.853751e+09 -3.015137e-02 9.644775e-01 -6.316975e-05 6.960705e-05 -2.206862e-05 1.346469e-04 -2.636719e-02 9.667358e-01
5.857501e+09 -3.759766e-02 9.741821e-01 7.932633e-05 -4.426390e-05 -2.859905e-05 -5.669147e-05 -3.308105e-02 9.739990e-01
5.861251e+09 -4.425049e-02 9.826050e-01 8.222461e-05 3.073364e-06 -1.045540e-04 8.703023e-05 -3.656006e-02 9.815063e-01
5.865001e+09 -4.602051e-02 9.858398e-01 -6.593764e-05 -4.904345e-05 -5.154312e-05 2.083555e-05 -4.095459e-02 9.874268e-01
5.868751e+09 -4.455566e-02 9.884644e-01 5.650893e-05 1.906976e-05 9.322166e-05 -7.190555e-05 -3.845215e-02 9.888306e-01
5.872501e+09 -4.302979e-02 9.863281e-01 3.701635e-05 3.103167e-05 4.015490e-05 1.143664e-05 -3.424072e-02 9.870605e-01
5.876251e+09 -3.869629e-02 9.799805e-01 5.502254e-06 2.346933e-05 -6.294250e-05 6.896257e-05 -3.210449e-02 9.802246e-01
5.880001e+09 -3.729248e-02 9.701538e-01 -8.406118e-05 -6.217510e-06 5.114824e-05 1.187697e-04 -3.149414e-02 9.694214e-01
5.883751e+09 -3.930664e-02 9.575806e-01 -2.728216e-05 -9.760261e-07 -4.243851e-05 3.517419e-05 -3.472900e-02 9.589844e-01
5.887501e+09 -4.467773e-02 9.468994e-01 -1.484621e-05 4.704110e-06 -5.876645e-05 2.133101e-05 -3.790283e-02 9.462280e-01
5.891251e+09 -5.096436e-02 9.329834e-01 1.234841e-05 5.692244e-06 6.288290e-05 9.905547e-05 -4.705811e-02 9.315186e-01
5.895001e+09 -6.237793e-02 9.202271e-01 1.055673e-04 2.786517e-05 -3.244914e-05 -2.651475e-05 -5.657959e-02 9.205933e-01
5.898751e+09 -7.336426e-02 9.071655e-01 -1.026317e-05 5.502999e-05 1.739711e-05 -4.597753e-05 -6.805420e-02 9.085083e-01
5.902500e+09 -8.526611e-02 8.964233e-01 -3.148057e-05 6.161630e-06 1.017749e-05 2.818927e-05 -7.977295e-02 8.973999e-01
5.906250e+09 -9.967041e-02 8.872681e-01 8.363277e-06 5.639344e-05 5.747192e-06 -1.509674e-05 -9.558105e-02 8.884888e-01
5.910000e+09 -1.154175e-01 8.792725e-01 -8.118525e-05 1.071021e-05 1.865998e-05 4.151091e-05 -1.094360e-01 8.786621e-01
5.913750e+09 -1.311035e-01 8.707275e-01 1.224875e-05 6.222352e-05 1.356006e-06 8.639693e-05 -1.265869e-01 8.721313e-01
5.917500e+09 -1.495361e-01 8.648071e-01 -3.198162e-05 3.267266e-05 7.587671e-05 -3.639236e-05 -1.450195e-01 8.679810e-01
5.921250e+09 -1.653442e-01 8.616333e-01 -5.843490e-05 -8.080527e-05 1.666993e-04 7.046759e-05 -1.631470e-01 8.653564e-01
5.925000e+09 -1.838379e-01 8.608398e-01 1.199916e-05 6.156042e-05 -2.337992e-05 6.080046e-05 -1.802979e-01 8.646240e-01
5.928750e+09 -2.008667e-01 8.628540e-01 9.642914e-06 1.563784e-05 -4.239380e-06 -4.398450e-05 -1.964111e-01 8.667603e-01
5.932500e+09 -2.140503e-01 8.679810e-01 3.187545e-05 2.357736e-05 1.175702e-05 4.388392e-05 -2.102661e-01 8.698120e-01
5.936250e+09 -2.259521e-01 8.740845e-01 -4.318729e-05 -5.588308e-05 -8.105487e-05 -5.324930e-05 -2.197876e-01 8.753662e-01
5.940000e+09 -2.308960e-01 8.787231e-01 -5.158409e-05 5.805120e-05 -8.812547e-05 -3.779680e-05 -2.272949e-01 8.814087e-01
5.943750e+09 -2.364502e-01 8.817749e-01 4.603341e-05 -1.086667e-05 7.681921e-05 -7.156283e-06 -2.317505e-01 8.837280e-01
5.947500e+09 -2.378540e-01 8.823853e-01 -1.179986e-05 3.817119e-05 1.057796e-05 3.006682e-05 -2.315063e-01 8.843994e-01
5.951250e+09 -2.382812e-01 8.789673e-01 -1.679361e-05 1.505017e-06 -2.785772e-05 3.357418e-05 -2.327881e-01 8.839722e-01
5.955000e+09 -2.405396e-01 8.726196e-01 -1.479685e-05 6.250292e-05 6.987154e-05 -1.603812e-04 -2.373047e-01 8.760986e-01
5.958750e+09 -2.463989e-01 8.652954e-01 4.497170e-05 1.015440e-04 7.089972e-05 2.398342e-05 -2.426758e-01 8.669434e-01
5.962500e+09 -2.553711e-01 8.558350e-01 -2.743676e-05 -5.885959e-05 2.184510e-05 7.352978e-05 -2.507935e-01 8.574829e-01
5.966250e+09 -2.674561e-01 8.489380e-01 6.641075e-05 3.509223e-05 -7.575750e-05 -8.154660e-06 -2.623291e-01 8.492432e-01
5.970000e+09 -2.798462e-01 8.403931e-01 -8.401275e-05 -1.988932e-05 7.851422e-05 -3.696233e-05 -2.772217e-01 8.426514e-01
5.973750e+09 -2.964478e-01 8.367310e-01 -1.407787e-05 -2.278201e-05 9.398907e-06 -6.031245e-05 -2.939453e-01 8.389893e-01
5.977500e+09 -3.129272e-01 8.372192e-01 8.299574e-05 2.998859e-06 -3.047287e-06 -1.189411e-04 -3.100586e-01 8.405762e-01
5.981250e+09 -3.305664e-01 8.398438e-01 -6.716326e-05 2.331287e-05 8.515269e-05 -5.253404e-05 -3.261108e-01 8.440552e-01
5.985000e+09 -3.427734e-01 8.458252e-01 -4.200451e-05 -2.391823e-05 3.264286e-05 2.727099e-05 -3.406372e-01 8.487549e-01
5.988750e+09 -3.561401e-01 8.559570e-01 -8.193776e-05 -4.456192e-05 -6.458908e-05 -4.010648e-05 -3.524170e-01 8.577881e-01
5.992500e+09 -3.661499e-01 8.638916e-01 8.217990e-05 8.928776e-05 -9.524077e-05 5.434453e-05 -3.604736e-01 8.659058e-01
5.996250e+09 -3.722534e-01 8.704224e-01 2.660230e-05 2.853014e-05 -1.519918e-06 -1.080930e-04 -3.688965e-01 8.757935e-01
6.000000e+09 -3.756714e-01 8.802490e-01 1.646858e-05 1.214165e-05 1.031533e-04 1.156554e-04 -3.729248e-01 8.839722e-01
