# Hz S RI R 50
! RAW DATA - UNCALIBRATED
3.000000e+04 -9.240112e-01 1.150513e-01 1.312345e-04 -1.606345e-04 -1.531020e-04 8.763373e-05 1.044556e+00 1.287231e-01
3.779981e+06 -1.018127e+00 -2.807617e-03 -1.282245e-05 5.799159e-05 -1.224689e-05 2.679229e-05 9.786377e-01 3.356934e-03
7.529962e+06 -1.013794e+00 5.187988e-03 -4.189089e-06 -1.344364e-05 -1.030974e-05 -1.573097e-05 9.832153e-01 2.563477e-02
1.127994e+07 -1.003967e+00 4.028320e-03 -2.332591e-05 -1.117028e-05 8.841045e-06 -1.162756e-05 1.000549e+00 3.808594e-02
1.502992e+07 -9.941406e-01 -7.751465e-03 1.174863e-06 7.122289e-06 8.455943e-06 3.555790e-06 1.001831e+00 3.955078e-02
1.877991e+07 -9.869995e-01 -1.293945e-02 1.189206e-05 -1.559965e-06 2.100132e-05 -4.151650e-05 1.006042e+00 7.208252e-02
2.252989e+07 -9.804688e-01 -1.953125e-02 -2.328306e-07 -1.969002e-05 1.406856e-05 -3.908202e-05 1.017456e+00 8.142090e-02
2.627987e+07 -9.739380e-01 -2.954102e-02 -1.457427e-05 3.306195e-06 1.246855e-05 5.918369e-05 1.030273e+00 8.123779e-02
3.002985e+07 -9.700928e-01 -4.309082e-02 -3.919005e-05 -4.141033e-05 1.152977e-06 1.822505e-05 1.037964e+00 7.440186e-02
3.377983e+07 -9.694824e-01 -6.201172e-02 -3.374182e-06 1.211651e-05 1.660362e-05 -2.865121e-05 1.039978e+00 7.165527e-02
3.752981e+07 -9.709473e-01 -8.050537e-02 1.171511e-05 6.388873e-07 9.004027e-06 3.811531e-05 1.036743e+00 6.903076e-02
4.127979e+07 -9.776001e-01 -9.674072e-02 1.153536e-05 -3.143214e-05 3.424101e-05 4.014559e-05 1.027283e+00 7.025146e-02
4.502978e+07 -9.852905e-01 -1.111450e-01 -5.048513e-05 -1.704320e-05 -1.678523e-05 7.385388e-06 1.015869e+00 7.269287e-02
4.877976e+07 -9.948120e-01 -1.207275e-01 -1.007505e-05 -2.199784e-05 3.625266e-05 -1.707114e-05 1.003479e+00 8.026123e-02
5.252974e+07 -1.003296e+00 -1.273193e-01 -1.217518e-05 -7.571653e-07 1.145154e-05 3.755093e-05 9.915161e-01 9.075928e-02
5.627972e+07 -1.010803e+00 -1.300049e-01 -5.774200e-07 -3.619678e-05 -4.642084e-05 -4.630536e-06 9.785156e-01 1.045532e-01
6.002970e+07 -1.016907e+00 -1.284790e-01 8.055940e-06 -2.276711e-05 -3.661029e-06 7.905066e-06 9.685669e-01 1.209106e-01
6.377968e+07 -1.019531e+00 -1.260376e-01 2.710521e-05 -2.949871e-05 2.997741e-05 5.595386e-05 9.622803e-01 1.375122e-01
6.752966e+07 -1.016602e+00 -1.191406e-01 -3.109686e-05 7.027760e-06 2.552941e-05 -2.639368e-05 9.581909e-01 1.545410e-01
7.127964e+07 -1.011414e+00 -1.154785e-01 -6.950647e-05 -1.132861e-05 4.993752e-06 -2.659485e-05 9.575195e-01 1.707764e-01
7.502962e+07 -1.003113e+00 -1.143799e-01 5.616993e-05 2.643466e-05 1.878385e-05 -1.554936e-05 9.591064e-01 1.867065e-01
7.877961e+07 -9.924927e-01 -1.142578e-01 1.033209e-05 -2.956577e-05 3.296137e-05 3.097206e-05 9.622803e-01 2.019653e-01
8.252959e+07 -9.813232e-01 -1.188354e-01 4.297122e-06 -3.532879e-05 2.907403e-05 -3.036112e-07 9.675293e-01 2.155762e-01
8.627957e+07 -9.692993e-01 -1.256104e-01 -6.136298e-05 -5.316734e-05 1.766533e-05 5.454570e-05 9.731445e-01 2.244873e-01
9.002955e+07 -9.604492e-01 -1.361084e-01 3.506429e-06 1.171511e-05 -2.430379e-05 -3.368966e-05 9.804688e-01 2.322388e-01
9.377953e+07 -9.529419e-01 -1.479492e-01 5.694106e-06 -6.232876e-06 -1.419522e-05 9.927899e-06 9.844971e-01 2.377319e-01
9.752951e+07 -9.471436e-01 -1.609497e-01 -2.758019e-05 -1.076609e-05 1.984835e-05 -1.465343e-05 9.886475e-01 2.415771e-01
1.012795e+08 -9.438477e-01 -1.750488e-01 4.727766e-05 -2.335384e-05 -8.039176e-06 -4.833192e-05 9.888916e-01 2.442017e-01
1.050295e+08 -9.410400e-01 -1.875000e-01 7.202849e-06 2.396666e-05 3.129244e-05 4.382804e-06 9.871826e-01 2.463989e-01
1.087795e+08 -9.423218e-01 -2.009888e-01 -4.485250e-06 3.381260e-05 -1.428835e-05 -3.379770e-06 9.841309e-01 2.500610e-01
1.125294e+08 -9.451294e-01 -2.117920e-01 4.256144e-06 2.430193e-05 2.320856e-05 -2.117828e-06 9.772339e-01 2.546387e-01
1.162794e+08 -9.494629e-01 -2.211914e-01 5.088747e-06 -2.179667e-05 -2.429634e-05 1.935475e-05 9.708862e-01 2.626343e-01
1.200294e+08 -9.542236e-01 -2.272339e-01 -2.868101e-05 -1.713820e-05 2.486818e-05 -2.473220e-05 9.630127e-01 2.721558e-01
1.237794e+08 -9.580078e-01 -2.333984e-01 -4.617870e-05 1.801923e-05 -4.222617e-06 -1.605786e-05 9.543457e-01 2.858887e-01
1.275294e+08 -9.605103e-01 -2.360229e-01 4.040077e-05 -2.389401e-05 -1.252629e-05 2.175383e-05 9.484253e-01 2.988281e-01
1.312793e+08 -9.592896e-01 -2.374878e-01 5.767215e-06 -5.923677e-06 1.557916e-05 4.091114e-05 9.443970e-01 3.159180e-01
1.350293e+08 -9.574585e-01 -2.385254e-01 7.404014e-08 5.865004e-06 -2.510659e-05 -3.795885e-05 9.428101e-01 3.321533e-01
1.387793e+08 -9.511719e-01 -2.392578e-01 8.958392e-06 1.168810e-05 -1.575518e-05 -1.747068e-05 9.442749e-01 3.499756e-01
1.425293e+08 -9.431152e-01 -2.416382e-01 -5.728565e-06 1.778826e-05 -7.309392e-05 1.385435e-05 9.484253e-01 3.660278e-01
1.462793e+08 -9.335327e-01 -2.451172e-01 -6.178394e-06 -2.958812e-05 -3.054738e-06 -2.388470e-05 9.554443e-01 3.801270e-01
1.500292e+08 -9.235229e-01 -2.521973e-01 -3.185123e-07 -3.564730e-05 6.252900e-06 1.920387e-05 9.636841e-01 3.911743e-01
1.537792e+08 -9.127808e-01 -2.608032e-01 -3.054738e-07 -3.570877e-05 -3.237650e-05 5.099550e-05 9.730225e-01 3.972168e-01
1.575292e+08 -9.020996e-01 -2.721558e-01 8.896925e-06 -6.029848e-06 1.579337e-05 2.901070e-05 9.816284e-01 4.010620e-01
1.612792e+08 -8.941650e-01 -2.847900e-01 2.689101e-05 -1.899898e-07 -6.329268e-06 -1.291186e-05 9.899292e-01 4.006348e-01
1.650292e+08 -8.869019e-01 -3.005981e-01 -2.994435e-06 2.048910e-08 3.846921e-05 1.806393e-05 9.949951e-01 3.967896e-01
1.687792e+08 -8.823853e-01 -3.166504e-01 1.787115e-05 -1.809839e-05 -6.761402e-06 3.057905e-05 9.951172e-01 3.905640e-01
1.725291e+08 -8.788452e-01 -3.326416e-01 2.715178e-05 1.787022e-05 3.042631e-06 1.778360e-05 9.918823e-01 3.842773e-01
1.762791e+08 -8.800049e-01 -3.493652e-01 2.722070e-05 2.397969e-05 1.602527e-05 1.312327e-05 9.843140e-01 3.787231e-01
1.800291e+08 -8.829346e-01 -3.645630e-01 2.944097e-05 2.508610e-05 5.386770e-05 1.658127e-05 9.737549e-01 3.757935e-01
1.837791e+08 -8.870850e-01 -3.784790e-01 1.485739e-05 -1.941156e-05 3.293855e-06 2.888264e-06 9.594116e-01 3.738403e-01
1.875291e+08 -8.952026e-01 -3.902588e-01 4.221685e-06 -1.221057e-05 6.705988e-06 7.348135e-06 9.448242e-01 3.764648e-01
1.912790e+08 -9.022827e-01 -3.990479e-01 1.224782e-05 4.227273e-06 2.245046e-05 9.469688e-06 9.303589e-01 3.815918e-01
1.950290e+08 -9.101562e-01 -4.041748e-01 -4.500151e-06 -3.457442e-05 5.822163e-06 -6.624497e-06 9.149170e-01 3.908081e-01
1.987790e+08 -9.174805e-01 -4.078979e-01 -2.537668e-05 -1.433678e-05 1.825392e-06 -2.047140e-05 9.024048e-01 4.014893e-01
2.025290e+08 -9.224854e-01 -4.100342e-01 4.213303e-06 -3.590435e-05 5.961955e-05 -6.631017e-07 8.913574e-01 4.142456e-01
2.062790e+08 -9.240112e-01 -4.106445e-01 -1.451559e-05 1.885928e-06 -1.262408e-05 -7.757917e-07 8.831177e-01 4.268799e-01
2.100290e+08 -9.240112e-01 -4.104004e-01 -7.228926e-06 1.274608e-05 5.155802e-05 1.879036e-05 8.753662e-01 4.423828e-01
2.137789e+08 -9.224854e-01 -4.118652e-01 -6.509013e-06 1.859292e-05 3.124960e-05 -5.125999e-06 8.711548e-01 4.557495e-01
2.175289e+08 -9.188843e-01 -4.152222e-01 6.580260e-06 5.089678e-06 2.473965e-05 -9.458512e-06 8.683472e-01 4.678345e-01
2.212789e+08 -9.151001e-01 -4.197388e-01 2.047606e-05 -2.605841e-06 -3.518164e-05 -4.190952e-06 8.673096e-01 4.791260e-01
2.250289e+08 -9.116211e-01 -4.261475e-01 1.541153e-05 3.999099e-06 -4.876032e-05 -1.613796e-05 8.668823e-01 4.868164e-01
2.287789e+08 -9.078979e-01 -4.346924e-01 -2.502091e-05 -8.756295e-06 2.787076e-05 -1.448952e-05 8.654785e-01 4.926758e-01
2.325288e+08 -9.061890e-01 -4.458618e-01 1.028180e-05 -3.724545e-05 1.267809e-05 -2.347864e-06 8.631592e-01 4.978027e-01
2.362788e+08 -9.069824e-01 -4.560547e-01 -2.212822e-06 6.281771e-06 -1.551490e-05 8.931383e-06 8.585815e-01 5.003662e-01
2.400288e+08 -9.097290e-01 -4.671631e-01 -5.180947e-06 6.661285e-06 3.668014e-06 7.817522e-06 8.510742e-01 5.025635e-01
2.437788e+08 -9.141235e-01 -4.768677e-01 5.937181e-06 -7.445924e-07 -3.525428e-05 2.007931e-06 8.424072e-01 5.048218e-01
2.475288e+08 -9.225464e-01 -4.846191e-01 5.947426e-06 -2.490170e-05 -1.925882e-05 1.095235e-06 8.303223e-01 5.080566e-01
2.512787e+08 -9.326172e-01 -4.896851e-01 2.082624e-05 2.160482e-05 -1.910143e-05 4.307367e-06 8.170166e-01 5.139160e-01
2.550287e+08 -9.424438e-01 -4.913330e-01 -1.647137e-05 3.839657e-05 -3.660098e-07 -6.436370e-06 8.026123e-01 5.217896e-01
2.587787e+08 -9.523926e-01 -4.907837e-01 -4.636496e-05 4.214421e-05 -4.036911e-05 2.975203e-05 7.882080e-01 5.302124e-01
2.625287e+08 -9.597778e-01 -4.846802e-01 -1.538545e-06 1.234934e-05 1.864228e-05 -1.399498e-05 7.732544e-01 5.440063e-01
2.662787e+08 -9.649658e-01 -4.759521e-01 1.661666e-05 -3.854372e-05 2.793223e-05 -2.264977e-05 7.597046e-01 5.573730e-01
2.700286e+08 -9.652100e-01 -4.653931e-01 3.131479e-05 5.721301e-05 1.204759e-05 -1.692865e-05 7.481689e-01 5.739136e-01
2.737786e+08 -9.617920e-01 -4.548950e-01 1.027063e-05 5.977601e-05 3.470480e-05 3.877096e-05 7.385864e-01 5.906982e-01
2.775286e+08 -9.549561e-01 -4.449463e-01 1.047645e-05 1.095515e-05 -1.562852e-05 1.226924e-05 7.304688e-01 6.086426e-01
2.812786e+08 -9.423218e-01 -4.381714e-01 -1.793541e-05 -2.228096e-05 -2.707168e-05 -1.811236e-05 7.243042e-01 6.252441e-01
2.850286e+08 -9.291382e-01 -4.333496e-01 2.406538e-06 -3.086962e-05 1.735985e-06 3.258139e-05 7.219849e-01 6.426392e-01
2.887786e+08 -9.139404e-01 -4.332275e-01 -1.490116e-07 2.449937e-05 3.848411e-05 -1.510046e-05 7.193604e-01 6.594849e-01
2.925285e+08 -8.988037e-01 -4.345703e-01 -1.049228e-05 -1.101661e-05 -2.964213e-05 5.885959e-05 7.190552e-01 6.736450e-01
2.962785e+08 -8.822632e-01 -4.396973e-01 -1.118146e-05 1.191720e-05 -2.280809e-05 1.641177e-05 7.203369e-01 6.884766e-01
3.000285e+08 -8.699951e-01 -4.483643e-01 3.188848e-05 -8.203089e-05 5.751848e-06 -5.313754e-05 7.221680e-01 6.958008e-01
3.037785e+08 -8.600464e-01 -4.570923e-01 -2.026372e-05 6.631017e-07 -6.949063e-06 3.441237e-07 7.227173e-01 7.041016e-01
3.075285e+08 -8.509521e-01 -4.685669e-01 2.319366e-05 -7.860363e-07 3.788993e-05 -8.832663e-06 7.236328e-01 7.104492e-01
3.112784e+08 -8.441772e-01 -4.794312e-01 -1.105480e-05 1.780782e-05 1.239404e-05 -3.381632e-06 7.208862e-01 7.167358e-01
3.150284e+08 -8.381958e-01 -4.890137e-01 -3.290363e-06 -1.154654e-05 -3.294274e-05 5.594641e-05 7.180786e-01 7.208252e-01
3.187784e+08 -8.362427e-01 -4.974976e-01 2.712570e-05 2.834201e-05 -1.730770e-05 3.295764e-05 7.120361e-01 7.253418e-01
3.225284e+08 -8.331299e-01 -5.052490e-01 2.024136e-05 -6.452203e-06 2.245605e-05 4.647300e-05 7.047119e-01 7.308350e-01
3.262784e+08 -8.303833e-01 -5.107422e-01 -2.318993e-05 6.549060e-06 1.602247e-05 2.865307e-05 6.977539e-01 7.369995e-01
3.300284e+08 -8.282471e-01 -5.150146e-01 -5.845446e-06 1.732260e-07 2.296455e-05 -3.870577e-06 6.895752e-01 7.443237e-01
3.337783e+08 -8.235474e-01 -5.180664e-01 2.272800e-05 -2.406538e-05 2.466142e-05 -1.376867e-05 6.814575e-01 7.536621e-01
3.375283e+08 -8.176880e-01 -5.202026e-01 8.939765e-06 5.607493e-06 3.388152e-06 1.250394e-05 6.745605e-01 7.650146e-01
3.412783e+08 -8.094482e-01 -5.225830e-01 -3.594494e-10 -3.402647e-10 -9.775162e-06 1.845881e-06 6.684570e-01 7.775879e-01
3.450283e+08 -8.007812e-01 -5.259399e-01 5.857088e-06 -1.578592e-07 1.074746e-06 8.421019e-06 6.654663e-01 7.893066e-01
3.487783e+08 -7.906494e-01 -5.295410e-01 4.627556e-05 -2.471358e-05 3.416836e-05 -9.978190e-06 6.646729e-01 8.006592e-01
3.525282e+08 -7.802734e-01 -5.358276e-01 3.339350e-05 4.022568e-05 9.372365e-06 3.848691e-06 6.661987e-01 8.110352e-01
3.562782e+08 -7.684937e-01 -5.430908e-01 -3.899261e-05 -2.839230e-05 1.617894e-05 -3.612600e-05 6.686401e-01 8.200684e-01
3.600282e+08 -7.573242e-01 -5.521851e-01 2.031028e-05 -1.231954e-05 -1.978129e-06 -2.972409e-05 6.732178e-01 8.252563e-01
3.637782e+08 -7.456055e-01 -5.628662e-01 1.166109e-05 -6.203540e-06 4.509091e-05 9.503216e-06 6.768188e-01 8.280029e-01
3.675282e+08 -7.367554e-01 -5.756836e-01 1.848489e-05 2.912059e-05 8.055009e-06 -1.168344e-05 6.799316e-01 8.266602e-01
3.712781e+08 -7.276001e-01 -5.883789e-01 -2.443977e-05 -2.905540e-05 -1.103431e-05 2.599135e-05 6.813965e-01 8.235474e-01
3.750281e+08 -7.208862e-01 -6.027832e-01 3.873557e-05 4.986301e-06 6.129034e-06 1.111440e-05 6.796265e-01 8.182983e-01
3.787781e+08 -7.149658e-01 -6.174316e-01 -3.026612e-05 -2.307631e-05 -1.418311e-05 5.476177e-07 6.749268e-01 8.121338e-01
3.825281e+08 -7.117310e-01 -6.324463e-01 -2.719648e-05 -1.722015e-05 2.825633e-05 5.155429e-05 6.672363e-01 8.071899e-01
3.862781e+08 -7.103271e-01 -6.438599e-01 -6.603077e-06 -2.964959e-05 3.606826e-05 1.282059e-05 6.566772e-01 8.031006e-01
3.900280e+08 -7.105103e-01 -6.556396e-01 -2.708100e-05 -1.133233e-05 -3.013760e-05 -4.155748e-05 6.452026e-01 8.000488e-01
3.937780e+08 -7.111206e-01 -6.667480e-01 -1.363456e-05 6.000698e-05 9.929296e-06 -1.803972e-06 6.325684e-01 7.994385e-01
3.975280e+08 -7.109985e-01 -6.751709e-01 9.546056e-06 2.968684e-05 4.869886e-06 1.555774e-05 6.195068e-01 8.011475e-01
4.012780e+08 -7.108154e-01 -6.826172e-01 -2.319552e-05 3.633276e-05 1.557730e-05 -2.495944e-05 6.072998e-01 8.040161e-01
4.050280e+08 -7.109375e-01 -6.873779e-01 -2.414361e-05 -1.149997e-05 1.411699e-05 3.253855e-05 5.941772e-01 8.096313e-01
4.087780e+08 -7.089233e-01 -6.915894e-01 5.735084e-05 2.881140e-05 -1.977198e-05 1.079775e-05 5.841064e-01 8.146973e-01
4.125279e+08 -7.042847e-01 -6.961670e-01 1.395494e-05 -5.410612e-05 -1.183711e-05 1.193676e-05 5.751343e-01 8.198853e-01
4.162779e+08 -6.989136e-01 -7.008667e-01 -2.628192e-05 3.636628e-05 -1.027528e-05 -5.418900e-06 5.669556e-01 8.257446e-01
4.200279e+08 -6.932983e-01 -7.075806e-01 -4.284084e-07 -2.394430e-05 -4.413538e-06 1.891702e-05 5.604248e-01 8.303833e-01
4.237779e+08 -6.858521e-01 -7.149048e-01 -6.095972e-06 -5.892478e-06 1.959503e-05 -1.796894e-05 5.548096e-01 8.333130e-01
4.275279e+08 -6.809692e-01 -7.244263e-01 -4.518032e-05 -5.267560e-06 -7.173046e-06 -1.998059e-05 5.500488e-01 8.359985e-01
4.312778e+08 -6.742554e-01 -7.352295e-01 1.165271e-05 -2.431124e-05 -9.977259e-06 -1.845974e-05 5.452881e-01 8.359985e-01
4.350278e+08 -6.718140e-01 -7.464600e-01 1.784973e-05 -1.838990e-05 2.987683e-06 2.592616e-05 5.371094e-01 8.348389e-01
4.387778e+08 -6.701050e-01 -7.597656e-01 1.202244e-05 -6.237999e-06 -8.841977e-06 1.764856e-05 5.302124e-01 8.317261e-01
4.425278e+08 -6.706543e-01 -7.720947e-01 1.774728e-05 -3.060512e-05 2.279691e-05 -1.226366e-05 5.207520e-01 8.275757e-01
4.462778e+08 -6.739502e-01 -7.827759e-01 -1.869164e-05 -3.012642e-05 7.234048e-06 -2.118759e-07 5.089722e-01 8.240356e-01
4.500278e+08 -6.787720e-01 -7.912598e-01 8.242205e-08 6.086193e-06 -7.790979e-06 6.021000e-06 4.947510e-01 8.220825e-01
4.537777e+08 -6.868286e-01 -7.965698e-01 2.113357e-05 -1.244061e-05 -3.071874e-05 3.863126e-05 4.780884e-01 8.201294e-01
4.575277e+08 -6.933594e-01 -7.997437e-01 1.769140e-05 -4.883856e-05 -4.248694e-06 -2.165139e-05 4.592896e-01 8.201904e-01
4.612777e+08 -7.006836e-01 -7.977905e-01 2.772920e-05 3.622100e-05 4.409626e-05 -7.107854e-06 4.406128e-01 8.242188e-01
4.650277e+08 -7.061768e-01 -7.947998e-01 9.180978e-06 5.975366e-06 5.736016e-06 -3.079418e-06 4.232788e-01 8.286133e-01
4.687777e+08 -7.083130e-01 -7.875366e-01 9.038020e-06 -6.171875e-06 7.072464e-06 -3.521144e-05 4.049072e-01 8.364258e-01
4.725276e+08 -7.067261e-01 -7.793579e-01 -2.847053e-06 1.823995e-05 -3.514439e-05 -3.429130e-06 3.881836e-01 8.458862e-01
4.762776e+08 -7.024536e-01 -7.692871e-01 -1.559034e-05 -4.233792e-05 5.387701e-06 1.009135e-05 3.726807e-01 8.572998e-01
4.800276e+08 -6.950073e-01 -7.607422e-01 2.468377e-05 4.225224e-05 2.946518e-05 6.549060e-06 3.599243e-01 8.699951e-01
4.837776e+08 -6.841431e-01 -7.545776e-01 -2.158061e-05 -3.630854e-05 -6.759539e-06 2.214126e-05 3.489380e-01 8.842163e-01
4.875276e+08 -6.706543e-01 -7.506104e-01 3.983453e-05 3.617629e-05 -4.084036e-05 3.470853e-05 3.416748e-01 8.973389e-01
4.912775e+08 -6.561279e-01 -7.481689e-01 2.453476e-05 1.807138e-05 9.838492e-06 -4.414096e-05 3.370361e-01 9.098511e-01
4.950275e+08 -6.392822e-01 -7.492065e-01 -5.993992e-06 1.225434e-05 -3.232621e-05 2.265722e-05 3.336792e-01 9.202271e-01
4.987775e+08 -6.253662e-01 -7.520142e-01 2.731010e-05 -2.463348e-05 3.317371e-05 1.380593e-05 3.306885e-01 9.293213e-01
5.025275e+08 -6.107788e-01 -7.579346e-01 -2.132356e-05 1.239590e-05 3.966317e-05 1.222081e-05 3.292236e-01 9.357300e-01
5.062775e+08 -5.986328e-01 -7.656250e-01 -4.274771e-05 1.256168e-05 9.738840e-06 1.144782e-05 3.273926e-01 9.379883e-01
5.100274e+08 -5.883789e-01 -7.743530e-01 -1.566857e-05 -5.503744e-05 1.381990e-05 -1.776963e-06 3.241577e-01 9.397583e-01
5.137774e+08 -5.797729e-01 -7.839966e-01 3.105029e-06 6.116461e-06 -3.810506e-06 -7.210765e-06 3.197632e-01 9.410400e-01
5.175274e+08 -5.734863e-01 -7.922363e-01 -3.066286e-05 6.329268e-06 4.134700e-05 -1.258589e-05 3.140869e-01 9.407349e-01
5.212774e+08 -5.689087e-01 -8.001099e-01 -3.124587e-06 -1.227297e-05 1.430139e-05 -1.492817e-05 3.055420e-01 9.406128e-01
5.250274e+08 -5.661621e-01 -8.048706e-01 -1.536123e-05 5.401671e-08 -1.645926e-05 1.791958e-05 2.951660e-01 9.406738e-01
5.287774e+08 -5.643311e-01 -8.079224e-01 -2.766773e-05 1.098961e-07 -3.668712e-06 7.799827e-08 2.852173e-01 9.429932e-01
5.325273e+08 -5.607300e-01 -8.099365e-01 2.139062e-05 -4.922599e-05 -2.330169e-05 1.222827e-05 2.723999e-01 9.461060e-01
5.362773e+08 -5.577393e-01 -8.098145e-01 -2.105907e-05 3.582984e-05 2.142508e-05 1.966115e-05 2.607422e-01 9.505005e-01
5.400273e+08 -5.500488e-01 -8.082275e-01 6.419607e-06 1.533050e-05 1.046807e-05 -2.807193e-05 2.489624e-01 9.581909e-01
5.437773e+08 -5.436401e-01 -8.067627e-01 5.184114e-05 -1.047552e-05 -5.989801e-06 -9.699259e-06 2.396851e-01 9.640503e-01
5.475273e+08 -5.314941e-01 -8.041382e-01 8.145813e-06 3.344379e-06 1.706649e-07 -4.734378e-06 2.288818e-01 9.746094e-01
5.512772e+08 -5.209351e-01 -8.043213e-01 3.666617e-06 1.420826e-05 1.937151e-06 -5.370751e-05 2.227173e-01 9.840088e-01
5.550272e+08 -5.057983e-01 -8.059692e-01 -3.072992e-05 1.279078e-05 2.443418e-05 2.305768e-05 2.180176e-01 9.956665e-01
5.587772e+08 -4.924316e-01 -8.101807e-01 2.164766e-05 -2.926402e-05 5.836599e-06 1.287181e-05 2.160034e-01 1.002686e+00
5.625272e+08 -4.778442e-01 -8.146362e-01 -2.217293e-05 2.277270e-05 -1.822412e-05 -1.966488e-05 2.161255e-01 1.009888e+00
5.662772e+08 -4.650269e-01 -8.236084e-01 -4.519708e-06 1.094677e-05 1.938175e-05 -1.032930e-05 2.194214e-01 1.013916e+00
5.700272e+08 -4.525757e-01 -8.328247e-01 2.923049e-05 -7.450581e-07 -2.230890e-05 3.868714e-06 2.197876e-01 1.014832e+00
5.737771e+08 -4.419556e-01 -8.438721e-01 1.736917e-05 -1.854543e-05 6.011128e-05 -7.748604e-07 2.209473e-01 1.010864e+00
5.775271e+08 -4.321289e-01 -8.556519e-01 -1.007225e-05 8.712523e-06 -5.608425e-06 -1.762249e-05 2.195435e-01 1.005859e+00
5.812771e+08 -4.266968e-01 -8.686523e-01 1.880899e-05 4.011393e-05 7.256866e-06 -2.343208e-05 2.156982e-01 9.976807e-01
5.850271e+08 -4.230347e-01 -8.812256e-01 -3.804266e-05 -9.423122e-06 2.347305e-05 4.523993e-05 2.077637e-01 9.893188e-01
5.887771e+08 -4.219971e-01 -8.922119e-01 4.310533e-05 5.088747e-06 -3.806874e-05 1.603737e-06 1.979370e-01 9.815674e-01
5.925270e+08 -4.222412e-01 -9.025879e-01 -1.152419e-05 2.748333e-05 -1.644250e-05 1.359265e-05 1.836548e-01 9.751587e-01
5.962770e+08 -4.260254e-01 -9.101562e-01 -1.735613e-05 -2.020411e-05 -2.582557e-06 -1.443643e-05 1.685791e-01 9.688721e-01
6.000270e+08 -4.287109e-01 -9.145508e-01 2.834573e-05 2.484396e-05 2.915785e-05 -9.922311e-06 1.516724e-01 9.666748e-01
6.037770e+08 -4.316406e-01 -9.149170e-01 1.462363e-05 1.904555e-05 1.547206e-05 1.186784e-05 1.364136e-01 9.654541e-01
6.075270e+08 -4.330444e-01 -9.129028e-01 -5.679205e-05 -1.098216e-05 4.447624e-05 8.393079e-06 1.174316e-01 9.678345e-01
6.112769e+08 -4.335327e-01 -9.094849e-01 4.178286e-05 -1.474470e-05 -3.608875e-05 1.764111e-05 1.019897e-01 9.718018e-01
6.150269e+08 -4.282227e-01 -9.053345e-01 1.055188e-05 -2.017245e-06 -1.979340e-05 1.191907e-05 8.630371e-02 9.772339e-01
6.187769e+08 -4.235840e-01 -8.988647e-01 -1.794007e-05 1.182966e-05 -9.500235e-05 -2.503395e-05 7.238770e-02 9.833984e-01
6.225269e+08 -4.143066e-01 -8.956909e-01 1.055934e-05 -2.008863e-06 8.828938e-07 -1.918618e-05 6.066895e-02 9.906006e-01
6.262769e+08 -4.043579e-01 -8.941650e-01 8.929521e-06 5.562603e-05 -3.243983e-05 8.104369e-06 5.224609e-02 9.982300e-01
6.300268e+08 -3.916626e-01 -8.947754e-01 -5.774200e-07 -5.230680e-05 4.476309e-05 2.156943e-06 4.339600e-02 1.006165e+00
6.337768e+08 -3.794556e-01 -8.963013e-01 -2.468564e-05 3.514998e-05 -2.006431e-10 1.821832e-10 3.808594e-02 1.010376e+00
6.375268e+08 -3.679810e-01 -9.007568e-01 3.091618e-05 1.967326e-05 1.564622e-06 3.368966e-05 3.332520e-02 1.015564e+00
6.412768e+08 -3.580933e-01 -9.075317e-01 9.166077e-06 1.700502e-05 -1.636054e-05 7.219613e-06 3.009033e-02 1.016235e+00
6.450268e+08 -3.495483e-01 -9.155884e-01 1.506694e-05 -1.988932e-05 1.294725e-05 -2.563931e-06 2.441406e-02 1.016541e+00
6.487768e+08 -3.430176e-01 -9.240723e-01 -1.474656e-05 -1.948234e-05 -4.805997e-05 -7.860363e-07 2.056885e-02 1.013489e+00
6.525267e+08 -3.400879e-01 -9.324951e-01 -1.203269e-06 -2.031215e-05 -3.424659e-05 -2.259575e-05 1.373291e-02 1.009155e+00
6.562767e+08 -3.376465e-01 -9.389648e-01 -1.596287e-06 1.911540e-05 1.051836e-05 -1.716521e-05 5.676270e-03 1.003540e+00
6.600267e+08 -3.386230e-01 -9.440918e-01 -2.786517e-06 -1.197914e-06 4.115514e-06 -1.753308e-05 -5.798340e-03 9.992676e-01
6.637767e+08 -3.401489e-01 -9.459839e-01 -3.568828e-06 -1.472794e-05 3.710389e-06 5.351007e-05 -1.751709e-02 9.945679e-01
6.675267e+08 -3.410645e-01 -9.468384e-01 -2.697110e-06 -4.729629e-05 1.675915e-05 -1.046713e-05 -3.222656e-02 9.909058e-01
6.712766e+08 -3.410034e-01 -9.436646e-01 5.568936e-05 -6.817654e-05 1.403783e-05 -2.033822e-05 -4.699707e-02 9.886475e-01
6.750266e+08 -3.384399e-01 -9.394531e-01 -8.325092e-06 -3.589317e-06 -1.761504e-05 -3.504008e-05 -6.311035e-02 9.896240e-01
6.787766e+08 -3.356323e-01 -9.352417e-01 -1.673959e-05 3.881194e-05 1.738779e-05 3.996119e-05 -7.775879e-02 9.918213e-01
6.825266e+08 -3.280640e-01 -9.288940e-01 -3.102981e-05 2.612546e-05 3.339536e-05 -1.605973e-05 -9.191895e-02 9.983521e-01
6.862766e+08 -3.204956e-01 -9.236450e-01 3.694743e-05 -1.695752e-05 -6.398186e-06 -1.974870e-06 -1.041260e-01 1.002319e+00
6.900266e+08 -3.086548e-01 -9.187012e-01 1.390465e-05 6.025657e-06 2.143532e-05 2.395734e-05 -1.143188e-01 1.011230e+00
6.937765e+08 -2.973022e-01 -9.166870e-01 5.576387e-05 2.414361e-05 2.072006e-05 3.696792e-05 -1.211548e-01 1.018311e+00
6.975265e+08 -2.835693e-01 -9.149170e-01 3.618374e-05 -3.742427e-05 2.695248e-06 9.915791e-06 -1.259155e-01 1.024963e+00
7.012765e+08 -2.708740e-01 -9.153442e-01 6.949529e-06 -2.362020e-05 -1.186877e-05 -2.018362e-05 -1.282959e-01 1.029236e+00
7.050265e+08 -2.556152e-01 -9.171143e-01 -8.412637e-06 -3.670342e-06 2.587214e-06 1.151022e-05 -1.289062e-01 1.031189e+00
7.087765e+08 -2.435303e-01 -9.231567e-01 -2.485886e-05 4.928932e-05 -4.561618e-06 -3.434531e-05 -1.289673e-01 1.029358e+00
7.125264e+08 -2.301025e-01 -9.287109e-01 4.670769e-05 3.352761e-07 -2.346374e-05 1.325086e-05 -1.287231e-01 1.026428e+00
7.162764e+08 -2.197876e-01 -9.373169e-01 2.319738e-05 2.355315e-05 -5.255453e-06 -2.138782e-05 -1.307373e-01 1.021423e+00
7.200264e+08 -2.098999e-01 -9.447632e-01 -1.436099e-06 2.615526e-05 -2.633408e-05 6.578863e-06 -1.336060e-01 1.012268e+00
7.237764e+08 -2.030029e-01 -9.540405e-01 -2.774596e-05 -5.474314e-06 -1.531094e-06 -2.934597e-05 -1.381836e-01 1.004211e+00
7.275264e+08 -1.982422e-01 -9.624634e-01 -1.673028e-05 -6.102398e-05 3.983267e-05 -1.230650e-05 -1.465454e-01 9.957886e-01
7.312763e+08 -1.951904e-01 -9.698486e-01 3.576279e-06 -3.867224e-05 -1.894776e-05 -1.093093e-05 -1.545410e-01 9.876099e-01
7.350263e+08 -1.909790e-01 -9.761353e-01 -5.050749e-05 -2.225861e-05 1.305714e-05 8.037314e-07 -1.662598e-01 9.798584e-01
7.387763e+08 -1.903687e-01 -9.808960e-01 -1.782738e-05 -2.792478e-05 -1.258962e-05 -8.993782e-06 -1.770630e-01 9.727173e-01
7.425263e+08 -1.880493e-01 -9.819946e-01 -9.546056e-06 2.919510e-05 -1.647603e-05 6.211922e-07 -1.892700e-01 9.670410e-01
7.462763e+08 -1.859131e-01 -9.837646e-01 2.023950e-05 2.229959e-05 -8.530170e-05 -3.639609e-06 -2.006226e-01 9.647217e-01
7.500262e+08 -1.818848e-01 -9.845581e-01 -4.964322e-05 -8.601695e-06 -5.731359e-06 -1.353025e-05 -2.124023e-01 9.613037e-01
7.537762e+08 -1.752930e-01 -9.851074e-01 -3.320538e-05 -8.020550e-06 -4.886836e-05 -8.031726e-06 -2.220459e-01 9.591675e-01
7.575262e+08 -1.680298e-01 -9.851074e-01 -6.502494e-06 3.733486e-05 2.884865e-05 1.172721e-05 -2.320557e-01 9.591675e-01
7.612762e+08 -1.598511e-01 -9.878540e-01 2.431124e-05 -9.357929e-06 -1.543574e-05 -1.581106e-05 -2.393799e-01 9.575195e-01
7.650262e+08 -1.513062e-01 -9.895020e-01 2.909079e-05 -2.749078e-05 6.331131e-06 3.700145e-06 -2.459106e-01 9.554443e-01
7.687762e+08 -1.432495e-01 -9.937744e-01 2.508610e-05 4.407018e-06 -3.563613e-05 -7.266179e-06 -2.498169e-01 9.530029e-01
7.725261e+08 -1.354980e-01 -1.000061e+00 7.161871e-06 3.713183e-05 -1.402199e-05 1.384038e-05 -2.551880e-01 9.482422e-01
7.762761e+08 -1.286011e-01 -1.008301e+00 1.641084e-05 -6.278045e-06 -8.240342e-06 2.569705e-05 -2.587280e-01 9.420166e-01
7.800261e+08 -1.249390e-01 -1.014526e+00 -1.642946e-05 6.285496e-06 5.307421e-05 -9.618700e-06 -2.625122e-01 9.338989e-01
7.837761e+08 -1.228027e-01 -1.023621e+00 -1.586415e-05 2.016500e-05 4.354864e-06 -1.612771e-05 -2.680054e-01 9.235229e-01
7.875261e+08 -1.212158e-01 -1.029785e+00 -9.654090e-06 3.660284e-05 -7.767230e-07 1.144223e-05 -2.765503e-01 9.133911e-01
7.912760e+08 -1.235962e-01 -1.035583e+00 2.949871e-05 -2.765842e-05 3.460981e-05 2.373569e-05 -2.855225e-01 9.010010e-01
7.950260e+08 -1.246948e-01 -1.039124e+00 -1.613982e-05 1.319777e-05 -2.790242e-06 4.103407e-05 -2.969360e-01 8.895874e-01
7.987760e+08 -1.284180e-01 -1.040771e+00 -1.017563e-05 2.263859e-05 -1.792889e-05 2.023950e-05 -3.099365e-01 8.779297e-01
8.025260e+08 -1.307983e-01 -1.040344e+00 -1.130439e-05 -5.094334e-06 2.115996e-10 -1.836327e-10 -3.252563e-01 8.685303e-01
8.062760e+08 -1.344604e-01 -1.037476e+00 -8.476432e-06 -3.810041e-06 -1.709815e-05 7.110648e-06 -3.405762e-01 8.613281e-01
8.100260e+08 -1.354980e-01 -1.032349e+00 -1.978129e-06 1.947116e-05 -3.115460e-05 1.778454e-05 -3.577271e-01 8.544312e-01
8.137759e+08 -1.353760e-01 -1.026978e+00 -2.228469e-05 -3.246590e-06 2.453476e-05 2.999604e-05 -3.734131e-01 8.498535e-01
8.175259e+08 -1.313477e-01 -1.018250e+00 -2.226979e-05 -3.265217e-06 1.264457e-05 9.209849e-06 -3.903198e-01 8.471680e-01
8.212759e+08 -1.272583e-01 -1.011658e+00 -6.068498e-06 5.836412e-05 1.928769e-05 9.686686e-06 -4.052734e-01 8.446655e-01
8.250259e+08 -1.203613e-01 -1.005005e+00 6.457791e-05 2.247468e-05 1.951121e-05 6.373972e-06 -4.202271e-01 8.442993e-01
8.287759e+08 -1.113281e-01 -9.989014e-01 5.643349e-06 2.560206e-06 5.159527e-06 2.028141e-05 -4.321289e-01 8.433228e-01
8.325258e+08 -1.024780e-01 -9.927368e-01 -1.900829e-05 1.182966e-05 2.335757e-06 1.339614e-05 -4.442139e-01 8.439941e-01
8.362758e+08 -9.252930e-02 -9.918213e-01 1.956616e-05 2.061017e-06 -5.620532e-06 -1.361035e-05 -4.541626e-01 8.428345e-01
8.400258e+08 -8.209229e-02 -9.887695e-01 3.278628e-05 -1.933798e-05 7.383525e-06 -1.097657e-05 -4.639282e-01 8.419189e-01
8.437758e+08 -7.440186e-02 -9.899292e-01 -3.338046e-05 5.392358e-06 3.689155e-05 3.556162e-05 -4.743042e-01 8.397217e-01
8.475258e+08 -6.671143e-02 -9.899902e-01 1.882389e-05 5.674362e-05 1.394749e-05 -1.048390e-05 -4.830933e-01 8.359985e-01
8.512757e+08 -6.158447e-02 -9.902954e-01 7.282943e-07 2.100877e-05 5.595386e-06 -3.089942e-05 -4.924927e-01 8.322754e-01
8.550257e+08 -5.554199e-02 -9.891968e-01 -5.949289e-06 -9.621959e-06 -2.903491e-05 3.414601e-05 -5.029907e-01 8.278809e-01
8.587757e+08 -5.322266e-02 -9.881592e-01 2.472848e-05 -1.628883e-05 -3.939494e-05 -4.943833e-05 -5.140381e-01 8.228760e-01
8.625257e+08 -4.998779e-02 -9.828491e-01 2.147630e-06 -1.973659e-05 1.413375e-05 -1.055375e-05 -5.270996e-01 8.181763e-01
8.662757e+08 -4.779053e-02 -9.772339e-01 -2.376735e-06 1.270790e-05 2.043135e-05 -5.103648e-06 -5.399170e-01 8.137207e-01
8.700256e+08 -4.315186e-02 -9.674683e-01 -2.232566e-05 3.531575e-06 -2.402440e-05 -3.531203e-05 -5.559082e-01 8.114624e-01
8.737756e+08 -3.649902e-02 -9.585571e-01 1.533702e-05 4.146248e-05 -2.744608e-05 7.934868e-06 -5.708008e-01 8.088989e-01
8.775256e+08 -2.716064e-02 -9.464722e-01 -1.046248e-05 2.267025e-05 3.890134e-05 -2.545863e-05 -5.876465e-01 8.090210e-01
8.812756e+08 -1.556396e-02 -9.352417e-01 6.110407e-06 1.654029e-05 4.309043e-05 6.768852e-06 -6.025391e-01 8.120117e-01
8.850256e+08 -1.586914e-03 -9.250488e-01 2.590008e-05 2.571009e-05 -2.484582e-05 -2.549402e-05 -6.182251e-01 8.172607e-01
8.887756e+08 1.391602e-02 -9.153442e-01 -3.855117e-05 1.651235e-05 3.513135e-05 2.290867e-05 -6.311035e-01 8.241577e-01
8.925255e+08 3.320312e-02 -9.064941e-01 5.508214e-05 -2.963841e-05 7.471070e-06 -9.466428e-06 -6.417847e-01 8.350220e-01
8.962755e+08 5.413818e-02 -9.004517e-01 -1.523085e-05 3.477186e-05 -1.465995e-05 1.763459e-05 -6.500854e-01 8.432617e-01
9.000255e+08 7.061768e-02 -8.978882e-01 2.593547e-05 1.437217e-05 -3.432669e-05 1.974404e-07 -6.495972e-01 8.567505e-01
9.037755e+08 9.191895e-02 -8.956909e-01 1.011603e-05 -1.121964e-05 -8.778647e-06 1.341384e-05 -6.495361e-01 8.645630e-01
9.075255e+08 1.114502e-01 -8.973999e-01 -1.239963e-05 -3.151596e-05 -2.614036e-05 2.949871e-05 -6.442261e-01 8.715210e-01
9.112754e+08 1.306763e-01 -8.988647e-01 -5.209818e-05 3.792346e-05 -2.432801e-05 8.823350e-06 -6.367188e-01 8.720093e-01
9.150254e+08 1.467285e-01 -9.039917e-01 -1.405086e-05 -1.342595e-05 -1.860410e-05 8.232892e-06 -6.283569e-01 8.707275e-01
9.187754e+08 1.626587e-01 -9.099121e-01 -3.561843e-06 5.777925e-06 4.204363e-05 3.620423e-05 -6.214600e-01 8.643799e-01
9.225254e+08 1.782837e-01 -9.177856e-01 -1.885742e-05 4.093349e-05 -1.410674e-05 -7.369556e-06 -6.176758e-01 8.534546e-01
9.262754e+08 1.900024e-01 -9.251709e-01 -1.012161e-05 1.125783e-05 1.406670e-05 1.093466e-05 -6.158447e-01 8.413696e-01
9.300254e+08 1.994629e-01 -9.335327e-01 1.098216e-05 1.311395e-05 2.161972e-05 -1.034420e-05 -6.154785e-01 8.287354e-01
9.337753e+08 2.066040e-01 -9.395142e-01 1.910236e-05 -1.043547e-05 5.144626e-06 3.519282e-05 -6.199341e-01 8.152466e-01
9.375253e+08 2.119751e-01 -9.458618e-01 7.741153e-06 4.905835e-05 1.425110e-05 7.430092e-06 -6.274414e-01 8.030396e-01
9.412753e+08 2.161255e-01 -9.493408e-01 -1.708604e-05 2.263859e-05 -1.968816e-06 3.167056e-05 -6.343994e-01 7.922363e-01
9.450253e+08 2.194214e-01 -9.509277e-01 1.620129e-05 -4.677102e-05 1.337007e-05 -2.217479e-05 -6.442261e-01 7.827759e-01
9.487753e+08 2.228394e-01 -9.491577e-01 8.605421e-07 2.418645e-05 2.405792e-05 -5.666167e-05 -6.550293e-01 7.765503e-01
9.525252e+08 2.287598e-01 -9.476318e-01 -5.626678e-05 -1.104921e-05 -1.380406e-05 -4.004315e-05 -6.640015e-01 7.714844e-01
9.562752e+08 2.359009e-01 -9.428101e-01 -5.988032e-05 -5.364418e-06 1.313817e-05 -7.716008e-06 -6.725464e-01 7.683105e-01
9.600252e+08 2.446899e-01 -9.398193e-01 2.469122e-05 6.270036e-05 -1.430744e-06 -7.465715e-07 -6.801147e-01 7.670898e-01
9.637752e+08 2.559814e-01 -9.356689e-01 -1.398288e-05 -1.337379e-05 -5.004928e-06 4.096515e-05 -6.848145e-01 7.662354e-01
9.675252e+08 2.675171e-01 -9.332275e-01 2.739020e-05 -3.409944e-05 1.186505e-06 1.509953e-05 -6.878052e-01 7.647705e-01
9.712751e+08 2.824097e-01 -9.326172e-01 -3.029825e-06 -2.703164e-07 1.939759e-05 3.906153e-05 -6.885376e-01 7.638550e-01
9.750251e+08 2.965088e-01 -9.346924e-01 -5.367026e-05 -1.703948e-05 3.423542e-06 4.878268e-05 -6.868896e-01 7.611084e-01
9.787751e+08 3.091431e-01 -9.382324e-01 -1.865439e-05 -3.238581e-05 -1.386553e-05 -2.531707e-05 -6.832275e-01 7.565308e-01
9.825251e+08 3.194580e-01 -9.449463e-01 -1.581851e-05 4.758127e-06 -1.238659e-07 7.163268e-06 -6.783447e-01 7.474365e-01
9.862751e+08 3.297119e-01 -9.525146e-01 3.886968e-05 -2.119690e-05 3.620237e-05 -1.728162e-05 -6.749878e-01 7.358398e-01
9.900250e+08 3.361206e-01 -9.622192e-01 -1.637265e-05 1.086667e-05 -2.320483e-05 9.667128e-06 -6.718750e-01 7.227173e-01
9.937750e+08 3.406372e-01 -9.708252e-01 -1.402572e-05 -5.045533e-05 -4.778802e-05 7.778406e-06 -6.704102e-01 7.068481e-01
9.975250e+08 3.397827e-01 -9.785767e-01 2.455339e-05 -3.462099e-05 1.211837e-05 -3.017485e-05 -6.720581e-01 6.885376e-01
1.001275e+09 3.385620e-01 -9.838867e-01 -2.677739e-05 -8.514151e-06 7.570721e-06 -1.799315e-05 -6.761475e-01 6.709595e-01
1.005025e+09 3.335571e-01 -9.862061e-01 -1.640618e-05 4.735962e-05 1.026504e-05 -5.630776e-06 -6.817932e-01 6.533508e-01
1.008775e+09 3.283081e-01 -9.874268e-01 8.586794e-07 2.441183e-05 1.580920e-05 1.189765e-05 -6.911926e-01 6.357727e-01
1.012525e+09 3.241577e-01 -9.840698e-01 2.300926e-05 1.419522e-05 1.306273e-05 3.143214e-06 -7.018433e-01 6.195068e-01
1.016275e+09 3.200684e-01 -9.771729e-01 -2.427958e-05 3.422610e-05 -2.512336e-05 1.995824e-05 -7.135620e-01 6.057434e-01
1.020025e+09 3.185425e-01 -9.688721e-01 -5.415641e-07 6.018672e-06 -3.016088e-06 5.774666e-06 -7.270508e-01 5.933838e-01
1.023775e+09 3.175049e-01 -9.581299e-01 -1.476333e-05 2.904981e-05 2.205372e-05 -1.414865e-05 -7.415771e-01 5.836792e-01
1.027525e+09 3.208618e-01 -9.488525e-01 -5.549937e-05 7.193536e-06 -1.713075e-05 -1.629069e-05 -7.543945e-01 5.757446e-01
1.031275e+09 3.248291e-01 -9.380493e-01 -2.806261e-05 4.028529e-05 2.137572e-05 1.846720e-05 -7.668457e-01 5.696411e-01
1.035025e+09 3.317261e-01 -9.278564e-01 1.715776e-05 1.376495e-05 3.926270e-05 -1.589023e-05 -7.761230e-01 5.652466e-01
1.038775e+09 3.410034e-01 -9.187012e-01 8.609612e-06 6.911810e-06 -2.915412e-05 1.745299e-05 -7.862549e-01 5.617676e-01
1.042525e+09 3.502197e-01 -9.116211e-01 -8.634292e-06 -6.927177e-06 7.384457e-06 -1.065340e-05 -7.933350e-01 5.588379e-01
1.046275e+09 3.605957e-01 -9.047241e-01 3.079325e-05 7.074699e-05 -1.734681e-05 5.408190e-06 -7.994995e-01 5.548096e-01
1.050025e+09 3.706055e-01 -9.004517e-01 -8.849427e-06 3.016554e-05 2.589636e-05 -9.480864e-07 -8.033447e-01 5.507202e-01
1.053775e+09 3.806763e-01 -8.985596e-01 -2.982840e-05 2.215989e-05 5.574897e-06 1.018867e-05 -8.058472e-01 5.451050e-01
1.057525e+09 3.895264e-01 -8.979492e-01 -6.832182e-06 4.280731e-05 5.539507e-05 -2.210215e-05 -8.092651e-01 5.394897e-01
1.061275e+09 3.952026e-01 -8.985596e-01 4.069135e-05 -3.978610e-05 -1.471117e-05 1.063943e-05 -8.121338e-01 5.310059e-01
1.065025e+09 4.012451e-01 -8.992920e-01 -1.842342e-05 -1.642853e-06 1.445762e-06 7.563503e-07 -8.152466e-01 5.219116e-01
1.068775e+09 4.032593e-01 -8.984985e-01 -2.200156e-05 4.200265e-06 -8.902978e-06 6.447546e-06 -8.200073e-01 5.128784e-01
1.072525e+09 4.070435e-01 -8.970947e-01 -1.088716e-06 1.222268e-05 -2.681091e-05 1.936406e-05 -8.236694e-01 5.031738e-01
1.076275e+09 4.086304e-01 -8.950195e-01 -3.103726e-05 3.369525e-06 -2.171658e-05 -2.249517e-05 -8.297729e-01 4.931641e-01
1.080025e+09 4.096680e-01 -8.892822e-01 -2.631545e-05 -1.463667e-05 2.211519e-05 3.837049e-07 -8.365479e-01 4.841919e-01
1.083775e+09 4.119263e-01 -8.828735e-01 2.267584e-05 2.041273e-05 -4.978478e-05 -1.859665e-05 -8.424072e-01 4.747314e-01
1.087525e+09 4.154663e-01 -8.762207e-01 -2.289750e-05 1.634471e-05 -7.232651e-06 -7.494818e-06 -8.497925e-01 4.677124e-01
1.091275e+09 4.201050e-01 -8.685913e-01 2.247095e-05 5.725399e-05 2.750941e-05 2.179481e-05 -8.583984e-01 4.610596e-01
1.095025e+09 4.270630e-01 -8.612671e-01 -8.344650e-07 -2.469309e-05 2.479739e-05 5.599111e-06 -8.657227e-01 4.555054e-01
1.098775e+09 4.345703e-01 -8.540039e-01 1.642667e-05 -1.087133e-05 5.720183e-06 6.673858e-06 -8.716431e-01 4.516602e-01
1.102524e+09 4.444580e-01 -8.477783e-01 -5.621091e-05 -2.981350e-05 -1.441594e-05 -7.556751e-06 -8.770752e-01 4.488525e-01
1.106274e+09 4.545898e-01 -8.447876e-01 7.048249e-06 2.552383e-05 -8.993782e-06 1.363829e-05 -8.801880e-01 4.466553e-01
1.110024e+09 4.658813e-01 -8.411865e-01 1.274608e-05 3.235601e-05 -1.336448e-05 1.497753e-05 -8.812256e-01 4.443970e-01
1.113774e+09 4.755859e-01 -8.411255e-01 -2.011657e-05 -2.056547e-05 2.307631e-05 8.428469e-06 -8.812256e-01 4.409790e-01
1.117524e+09 4.860229e-01 -8.419800e-01 1.445692e-05 1.380779e-05 -9.424984e-07 -2.619438e-05 -8.790894e-01 4.354248e-01
1.121274e+09 4.938354e-01 -8.432007e-01 -1.098309e-05 1.781434e-05 -1.801178e-05 -4.622340e-05 -8.760376e-01 4.280396e-01
1.125024e+09 5.016479e-01 -8.478394e-01 4.453957e-05 -8.542091e-06 -1.793727e-06 1.749769e-05 -8.726807e-01 4.187622e-01
1.128774e+09 5.072021e-01 -8.497925e-01 -5.645677e-06 -6.749760e-06 7.181428e-06 7.461291e-06 -8.710327e-01 4.082642e-01
1.132524e+09 5.120239e-01 -8.543701e-01 -6.178394e-06 -5.527399e-07 -6.241724e-06 1.899432e-05 -8.703003e-01 3.961792e-01
1.136274e+09 5.144653e-01 -8.572998e-01 -8.690637e-06 -6.981194e-06 2.183579e-05 1.517124e-05 -8.696899e-01 3.833618e-01
1.140024e+09 5.145874e-01 -8.612671e-01 1.696125e-05 -1.704972e-05 -4.829094e-05 4.946068e-05 -8.706665e-01 3.699951e-01
1.143774e+09 5.155640e-01 -8.623657e-01 -6.676652e-06 5.576760e-06 9.726733e-06 3.504753e-05 -8.749390e-01 3.565063e-01
1.147524e+09 5.155029e-01 -8.629761e-01 1.080800e-05 -1.754053e-05 -2.872664e-06 -5.254056e-06 -8.785400e-01 3.444824e-01
1.151274e+09 5.144043e-01 -8.617554e-01 -4.143640e-05 1.483038e-05 -2.506748e-05 -9.389594e-06 -8.843384e-01 3.320312e-01
1.155024e+09 5.152588e-01 -8.588867e-01 -1.642387e-05 1.087412e-05 1.495890e-05 -7.125549e-06 -8.899536e-01 3.203735e-01
1.158774e+09 5.174561e-01 -8.571777e-01 3.377348e-05 3.049150e-06 2.750196e-05 2.940185e-05 -8.952637e-01 3.107910e-01
1.162524e+09 5.189209e-01 -8.527832e-01 -1.650956e-05 1.092348e-05 -1.611374e-05 -4.743226e-06 -9.004517e-01 3.010254e-01
1.166274e+09 5.228271e-01 -8.496094e-01 -2.891012e-05 9.890646e-06 4.736707e-06 -1.605507e-05 -9.039307e-01 2.939453e-01
1.170024e+09 5.256958e-01 -8.470459e-01 3.555790e-05 2.189539e-05 7.990748e-07 3.367476e-05 -9.073486e-01 2.855835e-01
1.173774e+09 5.304565e-01 -8.465576e-01 6.218441e-06 5.564652e-07 1.062639e-06 1.902692e-05 -9.093628e-01 2.763062e-01
1.177524e+09 5.347290e-01 -8.464966e-01 -2.094917e-05 2.329610e-05 -1.209415e-05 1.947209e-05 -9.113770e-01 2.677002e-01
1.181274e+09 5.365601e-01 -8.468628e-01 4.036352e-06 2.559088e-05 2.980232e-07 -1.460686e-05 -9.119263e-01 2.581787e-01
1.185024e+09 5.377808e-01 -8.489380e-01 -9.953976e-06 5.432405e-06 -2.847426e-05 3.312714e-05 -9.113770e-01 2.473755e-01
1.188774e+09 5.381470e-01 -8.518066e-01 -4.038215e-06 -2.565607e-05 4.601479e-05 -2.041832e-05 -9.124146e-01 2.355957e-01
1.192524e+09 5.361328e-01 -8.528442e-01 1.679361e-05 -1.113769e-05 -2.362765e-05 -1.221895e-06 -9.125977e-01 2.222290e-01
1.196274e+09 5.303955e-01 -8.527832e-01 -3.353320e-05 2.220832e-05 5.517155e-06 2.162438e-05 -9.134521e-01 2.072754e-01
1.200024e+09 5.258179e-01 -8.500977e-01 -2.522580e-05 3.547594e-05 -3.866851e-06 4.316494e-05 -9.165039e-01 1.922607e-01
1.203774e+09 5.180664e-01 -8.438110e-01 -3.001653e-05 -1.527183e-05 -3.425218e-05 -6.668270e-06 -9.210815e-01 1.755981e-01
1.207524e+09 5.118408e-01 -8.351440e-01 1.411512e-05 5.129352e-05 6.761402e-06 -3.804080e-05 -9.257812e-01 1.580811e-01
1.211274e+09 5.072021e-01 -8.230591e-01 2.333336e-05 -1.660921e-05 2.246723e-05 4.842877e-07 -9.345703e-01 1.418457e-01
1.215024e+09 5.039062e-01 -8.094482e-01 1.852214e-05 1.662411e-06 -1.676288e-05 1.387950e-05 -9.435425e-01 1.258545e-01
1.218774e+09 5.037231e-01 -7.943726e-01 -3.952533e-06 -2.523325e-05 -8.024275e-06 2.599694e-05 -9.550171e-01 1.118164e-01
1.222524e+09 5.064087e-01 -7.774658e-01 -5.885959e-06 3.060326e-05 -1.499057e-05 3.398396e-06 -9.686890e-01 9.893799e-02
1.226274e+09 5.108032e-01 -7.609863e-01 4.867464e-05 -2.057105e-05 1.460966e-05 1.145899e-05 -9.826660e-01 8.782959e-02
1.230024e+09 5.189209e-01 -7.460938e-01 -1.072884e-05 -1.976267e-05 1.408719e-05 3.367290e-05 -9.970093e-01 8.038330e-02
1.233774e+09 5.275879e-01 -7.307129e-01 1.534261e-05 3.911927e-05 -5.209818e-06 -3.264658e-05 -1.011902e+00 7.586670e-02
1.237524e+09 5.393066e-01 -7.173462e-01 3.869087e-05 -9.173527e-06 -2.753921e-05 -2.201274e-05 -1.024048e+00 7.440186e-02
1.241274e+09 5.519409e-01 -7.052002e-01 -2.457574e-05 -8.536503e-06 -2.143532e-05 -2.996624e-05 -1.034058e+00 7.391357e-02
1.245024e+09 5.650024e-01 -6.955566e-01 3.748760e-05 -2.841651e-05 9.475276e-06 -2.853200e-05 -1.041199e+00 7.611084e-02
1.248774e+09 5.778809e-01 -6.876221e-01 -3.072433e-05 2.271868e-05 1.910236e-05 2.614222e-06 -1.046387e+00 7.696533e-02
1.252524e+09 5.916138e-01 -6.798096e-01 -5.685724e-07 6.326474e-06 2.236292e-05 -1.060590e-05 -1.047607e+00 7.867432e-02
1.256274e+09 6.046753e-01 -6.748047e-01 3.216974e-05 -3.464520e-06 -9.644777e-06 3.609061e-05 -1.046692e+00 7.794189e-02
1.260024e+09 6.165771e-01 -6.708984e-01 -4.099682e-05 -3.710389e-06 4.425645e-05 1.578405e-05 -1.043945e+00 7.543945e-02
1.263774e+09 6.278076e-01 -6.676636e-01 -1.830142e-05 -8.015893e-06 1.189485e-05 2.489425e-06 -1.041565e+00 7.019043e-02
1.267524e+09 6.365356e-01 -6.646729e-01 -1.997501e-05 1.083873e-05 1.670886e-05 -1.015142e-05 -1.039490e+00 6.372070e-02
1.271274e+09 6.444092e-01 -6.609497e-01 -9.698793e-06 -3.244542e-05 8.697622e-06 1.599826e-05 -1.039001e+00 5.603027e-02
1.275024e+09 6.510010e-01 -6.569824e-01 -8.499250e-06 2.440810e-05 2.977625e-05 1.952797e-05 -1.038940e+00 4.663086e-02
1.278774e+09 6.569214e-01 -6.515503e-01 9.348616e-06 8.451752e-07 2.701767e-05 1.041032e-05 -1.039734e+00 3.710938e-02
1.282524e+09 6.632080e-01 -6.451416e-01 1.078099e-05 1.981109e-05 -4.258007e-05 8.171424e-06 -1.043579e+00 2.838135e-02
1.286274e+09 6.694336e-01 -6.359863e-01 1.558196e-05 1.403503e-06 2.191961e-05 -3.430806e-05 -1.047241e+00 2.124023e-02
1.290024e+09 6.755371e-01 -6.266479e-01 1.449510e-05 1.390092e-05 -1.202617e-05 -2.520159e-06 -1.052551e+00 1.525879e-02
1.293774e+09 6.835327e-01 -6.163330e-01 -2.682954e-05 -5.299598e-05 -9.331852e-06 1.410488e-05 -1.057495e+00 1.049805e-02
1.297524e+09 6.937256e-01 -6.040039e-01 1.483224e-05 -2.404675e-05 -3.007799e-05 3.067777e-06 -1.061829e+00 1.013184e-02
1.301273e+09 7.055664e-01 -5.937500e-01 4.407391e-05 4.214793e-05 4.038587e-05 2.389774e-06 -1.064758e+00 1.068115e-02
1.305023e+09 7.186890e-01 -5.830688e-01 3.718026e-05 -2.232380e-05 1.640152e-05 1.117587e-06 -1.064819e+00 1.324463e-02
1.308773e+09 7.338257e-01 -5.735474e-01 -1.481082e-05 -1.416169e-05 -8.026138e-06 -4.191324e-05 -1.062927e+00 1.727295e-02
1.312523e+09 7.498779e-01 -5.662842e-01 5.699694e-07 -6.391201e-06 -2.552755e-06 -2.015289e-05 -1.056335e+00 2.008057e-02
1.316273e+09 7.656250e-01 -5.610352e-01 -1.625344e-05 3.727339e-05 -2.247468e-05 6.984919e-06 -1.047424e+00 2.178955e-02
1.320023e+09 7.827759e-01 -5.584106e-01 8.120202e-06 -1.860783e-05 -1.048390e-05 2.027024e-06 -1.034302e+00 2.160645e-02
1.323773e+09 7.987671e-01 -5.567627e-01 2.175942e-05 8.376315e-06 -3.999099e-05 -1.726113e-05 -1.020264e+00 1.916504e-02
1.327523e+09 8.126831e-01 -5.582886e-01 2.246909e-05 -3.645197e-05 -6.396323e-06 1.935661e-05 -1.004883e+00 1.312256e-02
1.331273e+09 8.248901e-01 -5.617676e-01 3.223494e-05 -3.546476e-06 -1.871400e-05 3.196858e-05 -9.907837e-01 3.967285e-03
1.335023e+09 8.350830e-01 -5.656128e-01 -1.478009e-06 -1.918804e-05 -3.032759e-05 6.932765e-06 -9.757690e-01 -9.033203e-03
1.338773e+09 8.427124e-01 -5.700684e-01 2.586283e-06 6.558374e-06 -3.883615e-06 -3.264658e-05 -9.642944e-01 -2.429199e-02
1.342523e+09 8.480835e-01 -5.742188e-01 6.004050e-05 -1.035631e-06 -1.666788e-05 -1.100823e-06 -9.544067e-01 -4.003906e-02
1.346273e+09 8.505859e-01 -5.778809e-01 -3.362820e-05 6.004795e-05 1.044618e-05 9.335112e-06 -9.461670e-01 -5.780029e-02
1.350023e+09 8.500977e-01 -5.784302e-01 2.976507e-06 3.805943e-05 2.039224e-05 -3.145821e-05 -9.404907e-01 -7.513428e-02
1.353773e+09 8.504028e-01 -5.773926e-01 -5.025044e-05 3.337860e-05 -1.704879e-05 1.784042e-05 -9.371338e-01 -9.405518e-02
1.357523e+09 8.491211e-01 -5.747070e-01 -8.861069e-06 -7.087365e-06 1.804903e-06 -1.434609e-05 -9.355469e-01 -1.095581e-01
1.361273e+09 8.480225e-01 -5.695801e-01 9.302050e-06 3.886223e-05 -1.233909e-05 1.257006e-05 -9.356079e-01 -1.250610e-01
1.365023e+09 8.486938e-01 -5.628662e-01 -2.911314e-05 4.205480e-05 -4.198030e-05 -6.929040e-06 -9.368286e-01 -1.385498e-01
1.368773e+09 8.506470e-01 -5.547485e-01 7.867813e-06 1.987815e-05 3.384426e-05 -3.906898e-05 -9.380493e-01 -1.508179e-01
1.372523e+09 8.535156e-01 -5.474854e-01 -2.027303e-05 1.107715e-05 -1.504738e-05 3.430061e-06 -9.392700e-01 -1.609497e-01
1.376273e+09 8.574829e-01 -5.390625e-01 -3.583170e-05 3.358349e-06 2.538785e-05 1.989305e-06 -9.404297e-01 -1.677856e-01
1.380023e+09 8.641357e-01 -5.314331e-01 9.649899e-06 8.447096e-07 -2.837181e-05 7.200986e-05 -9.397583e-01 -1.757202e-01
1.383773e+09 8.697510e-01 -5.264282e-01 6.832182e-06 3.307872e-05 -4.414469e-07 2.248958e-05 -9.377441e-01 -1.826172e-01
1.387523e+09 8.760986e-01 -5.228271e-01 -1.711957e-05 -2.749264e-05 -1.349673e-05 -3.259629e-06 -9.349976e-01 -1.881104e-01
1.391273e+09 8.818970e-01 -5.204468e-01 -3.080815e-06 -3.926642e-05 1.084525e-05 -1.340918e-05 -9.299927e-01 -1.956177e-01
1.395023e+09 8.873291e-01 -5.197754e-01 -2.972782e-05 4.284084e-05 1.814216e-05 5.688518e-06 -9.251099e-01 -2.038574e-01
1.398773e+09 8.897095e-01 -5.197754e-01 -1.452491e-05 1.814961e-05 3.933720e-05 2.067536e-05 -9.177856e-01 -2.122803e-01
1.402523e+09 8.909302e-01 -5.202637e-01 -1.225248e-05 -7.530674e-06 -6.312970e-06 8.312520e-06 -9.113159e-01 -2.218018e-01
1.406273e+09 8.886719e-01 -5.215454e-01 1.013372e-05 -5.545095e-06 2.797134e-05 -1.255609e-05 -9.048462e-01 -2.327271e-01
1.410023e+09 8.851929e-01 -5.195312e-01 -2.507120e-06 -4.509836e-05 -7.228926e-06 -2.326816e-05 -8.987427e-01 -2.445068e-01
1.413773e+09 8.797607e-01 -5.176392e-01 4.704110e-06 1.959689e-05 1.296401e-06 1.235493e-05 -8.939209e-01 -2.572021e-01
1.417523e+09 8.729248e-01 -5.115356e-01 8.957461e-06 7.166993e-06 -1.065573e-05 -5.594455e-06 -8.900146e-01 -2.715454e-01
1.421273e+09 8.675537e-01 -5.042725e-01 1.005270e-05 -5.523674e-06 -1.147389e-06 -1.994800e-05 -8.878174e-01 -2.846680e-01
1.425023e+09 8.628540e-01 -4.946899e-01 1.377426e-05 -1.158472e-05 -2.046302e-05 -4.930794e-05 -8.861084e-01 -2.979736e-01
1.428773e+09 8.590698e-01 -4.837036e-01 -1.372211e-05 -2.682209e-05 -1.099613e-05 1.729187e-05 -8.873291e-01 -3.108521e-01
1.432523e+09 8.571777e-01 -4.710693e-01 2.772361e-05 -2.334453e-05 -3.774837e-05 -8.357689e-06 -8.889160e-01 -3.227539e-01
1.436273e+09 8.570557e-01 -4.588623e-01 -2.617761e-05 4.209578e-06 3.219116e-06 -9.756535e-06 -8.905640e-01 -3.330078e-01
1.440023e+09 8.582764e-01 -4.462891e-01 -8.082949e-06 1.874845e-05 4.330650e-06 9.879004e-06 -8.931274e-01 -3.413696e-01
1.443773e+09 8.612671e-01 -4.354248e-01 -1.835637e-05 2.443232e-05 -8.661300e-07 -3.465265e-05 -8.941040e-01 -3.488770e-01
1.447523e+09 8.655396e-01 -4.258423e-01 -1.998805e-05 4.800037e-06 -3.224611e-05 3.256649e-05 -8.958130e-01 -3.536377e-01
1.451273e+09 8.706665e-01 -4.155273e-01 1.944788e-05 1.667067e-06 -2.433173e-05 1.010671e-05 -8.957520e-01 -3.578491e-01
1.455023e+09 8.764648e-01 -4.083252e-01 6.742775e-07 -4.564971e-05 1.028646e-05 1.685135e-05 -8.928833e-01 -3.621826e-01
1.458773e+09 8.816528e-01 -4.016113e-01 1.397729e-05 2.728589e-05 -1.127087e-05 3.247708e-05 -8.902588e-01 -3.666382e-01
1.462523e+09 8.864746e-01 -3.977661e-01 -2.362393e-05 -2.805702e-05 -3.139675e-05 -3.570691e-05 -8.852539e-01 -3.718872e-01
1.466273e+09 8.913574e-01 -3.934326e-01 1.986884e-05 -4.775822e-06 -2.195500e-05 2.335571e-05 -8.796997e-01 -3.782959e-01
1.470023e+09 8.941650e-01 -3.906860e-01 -1.292676e-05 3.770366e-05 9.452924e-06 -1.059845e-05 -8.741455e-01 -3.852539e-01
1.473773e+09 8.949585e-01 -3.880615e-01 -2.654735e-06 -6.679911e-06 -1.743902e-06 1.078146e-05 -8.687134e-01 -3.939819e-01
1.477523e+09 8.963623e-01 -3.848267e-01 1.597777e-05 1.351349e-06 4.285946e-06 1.789350e-05 -8.640137e-01 -4.022827e-01
1.481273e+09 8.952637e-01 -3.814087e-01 -1.591071e-05 -3.993884e-05 2.452731e-05 1.287460e-05 -8.593750e-01 -4.129639e-01
1.485023e+09 8.945923e-01 -3.769531e-01 5.305745e-06 1.332071e-05 -4.746020e-06 5.328096e-06 -8.571167e-01 -4.239502e-01
1.488773e+09 8.934326e-01 -3.715820e-01 3.465638e-05 -2.931245e-05 9.866431e-06 -2.994947e-05 -8.549194e-01 -4.323730e-01
1.492523e+09 8.929443e-01 -3.643799e-01 -3.847666e-05 -3.246590e-06 -6.295741e-07 -4.705414e-05 -8.535767e-01 -4.419556e-01
1.496273e+09 8.931885e-01 -3.571167e-01 8.031726e-06 2.012961e-05 1.239683e-05 -5.143695e-06 -8.530884e-01 -4.502563e-01
1.500022e+09 8.930664e-01 -3.491211e-01 -7.015187e-06 5.926006e-06 3.399327e-06 -1.754891e-05 -8.529663e-01 -4.575195e-01
1.503772e+09 8.959351e-01 -3.411865e-01 4.863366e-06 2.003461e-05 -1.444947e-06 -4.610047e-06 -8.524780e-01 -4.629517e-01
1.507522e+09 8.998413e-01 -3.332520e-01 3.152341e-05 -2.361462e-05 8.843839e-06 1.616683e-05 -8.501587e-01 -4.671631e-01
1.511272e+09 9.042358e-01 -3.272095e-01 3.818888e-06 -6.264541e-06 3.218185e-06 -9.844080e-06 -8.475342e-01 -4.711304e-01
1.515022e+09 9.102173e-01 -3.214722e-01 1.966767e-05 1.644716e-06 -1.496077e-05 -1.550652e-05 -8.439331e-01 -4.738770e-01
1.518772e+09 9.157104e-01 -3.178101e-01 8.756295e-06 -2.568029e-05 1.181941e-05 2.156198e-05 -8.374634e-01 -4.764404e-01
1.522522e+09 9.218140e-01 -3.154297e-01 -2.074055e-05 -2.814271e-05 -2.138223e-05 -3.465451e-06 -8.292847e-01 -4.805908e-01
1.526272e+09 9.268188e-01 -3.154297e-01 3.270106e-06 2.745073e-07 4.355796e-06 1.391675e-05 -8.197021e-01 -4.849854e-01
1.530022e+09 9.301758e-01 -3.159180e-01 -3.370456e-05 1.033209e-05 1.448579e-05 -3.136508e-05 -8.093872e-01 -4.909668e-01
1.533772e+09 9.317017e-01 -3.173218e-01 -1.191348e-05 -1.408625e-05 -1.534354e-06 -8.050120e-07 -7.976074e-01 -4.993286e-01
1.537522e+09 9.311523e-01 -3.192749e-01 -8.083880e-06 -2.023578e-05 -6.052107e-05 -4.243106e-06 -7.865601e-01 -5.103760e-01
1.541272e+09 9.279785e-01 -3.203125e-01 7.526018e-06 -1.236796e-05 2.145674e-05 1.906510e-05 -7.757568e-01 -5.222168e-01
1.545022e+09 9.229126e-01 -3.197632e-01 9.588897e-06 -3.803149e-05 -1.399778e-06 -8.586328e-06 -7.655029e-01 -5.349731e-01
1.548772e+09 9.182739e-01 -3.179932e-01 -1.925603e-05 -1.602806e-06 1.696032e-05 8.887611e-06 -7.572632e-01 -5.519409e-01
1.552522e+09 9.117432e-01 -3.135986e-01 -2.033263e-05 -2.751686e-05 -1.539569e-05 -8.065253e-06 -7.505493e-01 -5.678101e-01
1.556272e+09 9.057007e-01 -3.065186e-01 -3.482588e-05 -9.346753e-06 1.702737e-05 1.082197e-06 -7.462158e-01 -5.857544e-01
1.560022e+09 9.020996e-01 -2.978516e-01 -2.141297e-05 2.415664e-05 -2.849847e-06 -1.320429e-05 -7.431030e-01 -6.013184e-01
1.563772e+09 8.975830e-01 -2.875977e-01 -5.176291e-05 -4.328787e-05 -1.861062e-05 5.818903e-06 -7.426147e-01 -6.187134e-01
1.567522e+09 8.957520e-01 -2.760620e-01 -1.352746e-05 5.435199e-06 -1.347903e-05 -1.869258e-05 -7.443237e-01 -6.339111e-01
1.571272e+09 8.945312e-01 -2.645874e-01 1.655892e-06 1.986325e-05 -1.313351e-05 -3.776513e-05 -7.470703e-01 -6.474609e-01
1.575022e+09 8.956299e-01 -2.533569e-01 -3.815163e-06 6.291084e-06 2.142880e-05 -4.181638e-07 -7.504272e-01 -6.578369e-01
1.578772e+09 8.992310e-01 -2.416992e-01 2.202764e-05 5.490333e-05 -1.581851e-06 3.038440e-06 -7.538452e-01 -6.676025e-01
1.582522e+09 9.032593e-01 -2.305298e-01 1.596101e-05 7.973984e-06 -3.995933e-05 2.373010e-06 -7.559814e-01 -6.740112e-01
1.586272e+09 9.079590e-01 -2.212524e-01 3.862940e-05 1.655892e-05 -5.967449e-06 -1.088390e-05 -7.582397e-01 -6.795044e-01
1.590022e+09 9.135132e-01 -2.133179e-01 -7.152557e-06 4.606321e-05 5.390495e-06 -4.399568e-05 -7.581787e-01 -6.828003e-01
1.593772e+09 9.185181e-01 -2.069092e-01 2.592988e-05 8.786097e-06 1.862366e-05 1.883134e-06 -7.570190e-01 -6.858521e-01
1.597522e+09 9.230347e-01 -2.013550e-01 -5.470589e-06 2.614781e-05 2.314337e-05 1.605041e-05 -7.533569e-01 -6.887817e-01
1.601272e+09 9.271240e-01 -1.970215e-01 -7.134862e-06 6.039627e-06 -2.091937e-05 2.866797e-05 -7.481079e-01 -6.949463e-01
1.605022e+09 9.287720e-01 -1.925659e-01 2.892688e-05 -3.066286e-05 -1.738872e-05 2.834015e-06 -7.421265e-01 -6.990967e-01
1.608772e+09 9.306641e-01 -1.893311e-01 5.885959e-05 3.586709e-05 1.610490e-06 4.629605e-06 -7.352905e-01 -7.053833e-01
1.612522e+09 9.282837e-01 -1.826172e-01 -1.075398e-05 1.860131e-05 -6.807968e-06 1.400523e-05 -7.290039e-01 -7.138672e-01
1.616272e+09 9.267578e-01 -1.763916e-01 -1.316424e-05 5.604699e-06 -3.968365e-05 -1.344830e-05 -7.233887e-01 -7.238159e-01
1.620022e+09 9.233398e-01 -1.670532e-01 3.155321e-06 -5.105138e-05 -1.461245e-05 6.373972e-06 -7.179565e-01 -7.342529e-01
1.623772e+09 9.204102e-01 -1.563721e-01 -1.115724e-05 2.496317e-05 5.543232e-06 -5.097687e-05 -7.158203e-01 -7.453003e-01
1.627522e+09 9.191284e-01 -1.433105e-01 -2.442859e-05 -2.080202e-05 1.322571e-05 1.212209e-05 -7.141724e-01 -7.563477e-01
1.631272e+09 9.171753e-01 -1.290894e-01 -1.805462e-05 3.115833e-05 -4.526600e-05 -8.564442e-06 -7.138672e-01 -7.653809e-01
1.635022e+09 9.182739e-01 -1.134033e-01 1.372676e-05 -1.212396e-05 1.091883e-05 -3.825873e-05 -7.165527e-01 -7.741089e-01
1.638772e+09 9.212036e-01 -9.796143e-02 -7.703900e-06 7.127225e-05 -1.320895e-05 -1.956429e-05 -7.189331e-01 -7.804565e-01
1.642522e+09 9.249878e-01 -8.062744e-02 2.453290e-05 2.773292e-05 3.792578e-06 -5.378388e-08 -7.238159e-01 -7.825317e-01
1.646272e+09 9.321899e-01 -6.500244e-02 6.969552e-06 -6.143935e-06 -1.182035e-05 -3.022328e-05 -7.250366e-01 -7.831421e-01
1.650022e+09 9.410400e-01 -4.974365e-02 -1.399219e-05 -4.055351e-05 -2.516061e-05 -2.704561e-06 -7.278442e-01 -7.824707e-01
1.653772e+09 9.510498e-01 -3.631592e-02 2.059713e-05 -1.194142e-05 -1.262315e-05 2.614036e-05 -7.255859e-01 -7.768555e-01
1.657522e+09 9.627075e-01 -2.355957e-02 4.200265e-05 1.587719e-05 1.235679e-05 5.980022e-06 -7.213745e-01 -7.727661e-01
1.661272e+09 9.738159e-01 -1.452637e-02 6.693974e-05 -1.565740e-05 -5.160458e-06 1.858454e-05 -7.140503e-01 -7.651978e-01
1.665022e+09 9.864502e-01 -6.713867e-03 7.589534e-05 5.070493e-05 -1.125596e-05 -3.247149e-05 -7.044067e-01 -7.611084e-01
1.668772e+09 9.977417e-01 -2.380371e-03 1.674145e-05 -5.533919e-06 -4.862621e-05 -1.966581e-05 -6.914673e-01 -7.589111e-01
1.672522e+09 1.007874e+00 1.159668e-03 -6.755814e-05 -1.717359e-05 -3.049150e-05 6.662682e-06 -6.777954e-01 -7.567749e-01
1.676272e+09 1.016846e+00 1.831055e-03 -1.181476e-05 -2.029911e-05 -1.421850e-05 -2.975576e-06 -6.639404e-01 -7.583618e-01
1.680022e+09 1.022400e+00 2.868652e-03 -2.397969e-05 -3.407523e-05 -1.414586e-05 4.909001e-06 -6.489868e-01 -7.623291e-01
1.683772e+09 1.026367e+00 1.953125e-03 -2.752244e-05 7.661059e-05 3.630295e-06 -2.378225e-05 -6.356201e-01 -7.666016e-01
1.687522e+09 1.026550e+00 3.051758e-03 -4.863366e-06 2.585165e-05 -3.717653e-05 -4.267320e-06 -6.229858e-01 -7.734985e-01
1.691272e+09 1.026428e+00 6.103516e-03 -1.021381e-05 5.923212e-06 5.270354e-06 -1.899060e-05 -6.111450e-01 -7.808228e-01
1.695022e+09 1.024475e+00 7.995605e-03 -4.602969e-05 -2.905726e-06 -1.724437e-05 3.379770e-06 -6.019897e-01 -7.890625e-01
1.698772e+09 1.022949e+00 1.348877e-02 -2.478249e-05 -2.810173e-05 7.591024e-05 -1.203269e-05 -5.941162e-01 -7.956543e-01
1.702521e+09 1.020203e+00 2.154541e-02 -2.779067e-05 -3.515184e-05 -3.706664e-07 3.281422e-05 -5.872192e-01 -8.028564e-01
1.706271e+09 1.018188e+00 2.935791e-02 -9.591226e-06 -7.334165e-06 -5.381554e-05 -8.717179e-07 -5.808105e-01 -8.084717e-01
1.710021e+09 1.018372e+00 3.875732e-02 1.427624e-05 -1.258589e-05 -6.365590e-06 -1.082988e-05 -5.771484e-01 -8.108521e-01
1.713771e+09 1.018616e+00 4.870605e-02 3.031269e-05 1.868233e-06 -3.609248e-05 -2.140366e-05 -5.716553e-01 -8.128052e-01
1.717521e+09 1.020691e+00 5.865479e-02 -5.486980e-05 1.002848e-05 -3.419630e-05 1.444109e-05 -5.644531e-01 -8.140869e-01
1.721271e+09 1.025452e+00 6.652832e-02 -3.073364e-05 -4.943833e-05 1.937523e-05 4.842132e-05 -5.573120e-01 -8.129272e-01
1.725021e+09 1.030212e+00 7.324219e-02 3.962591e-05 1.604110e-05 -5.055964e-05 -8.895993e-06 -5.491333e-01 -8.105469e-01
1.728771e+09 1.034668e+00 7.861328e-02 6.854534e-07 9.470433e-05 -3.713742e-05 -6.137043e-05 -5.388184e-01 -8.093262e-01
1.732521e+09 1.038330e+00 8.245850e-02 2.100877e-05 -1.212209e-05 -2.327189e-05 -1.727045e-05 -5.252686e-01 -8.081665e-01
1.736271e+09 1.041565e+00 8.276367e-02 -1.586415e-05 -1.442712e-05 -1.112372e-05 6.518327e-06 -5.125122e-01 -8.057861e-01
1.740021e+09 1.042175e+00 8.435059e-02 9.996817e-06 6.388873e-07 -2.570823e-05 -4.546717e-06 -4.970703e-01 -8.080444e-01
1.743771e+09 1.041870e+00 8.160400e-02 -3.322726e-06 -2.158340e-07 1.639873e-05 -4.201941e-05 -4.808960e-01 -8.099365e-01
1.747521e+09 1.039490e+00 8.074951e-02 7.060356e-06 -6.203540e-06 -3.212877e-05 8.402392e-06 -4.648438e-01 -8.135376e-01
1.751271e+09 1.033508e+00 8.117676e-02 -3.860891e-05 3.072433e-05 4.057772e-05 3.175437e-05 -4.485474e-01 -8.192749e-01
1.755021e+09 1.026367e+00 8.258057e-02 -3.110804e-05 1.800060e-05 -7.910281e-05 -4.247576e-05 -4.342651e-01 -8.258057e-01
1.758771e+09 1.017822e+00 8.654785e-02 -1.966953e-05 4.548579e-05 7.392839e-06 1.754891e-05 -4.193115e-01 -8.349609e-01
1.762521e+09 1.009888e+00 9.210205e-02 -6.508082e-06 -5.412102e-05 -1.986511e-05 8.185394e-06 -4.064941e-01 -8.451538e-01
1.766271e+09 1.000244e+00 9.832764e-02 1.388229e-05 -5.844980e-06 -9.686686e-06 -1.261756e-05 -3.964233e-01 -8.548584e-01
1.770021e+09 9.929810e-01 1.068726e-01 -1.910515e-05 3.270060e-05 -1.812913e-05 1.288578e-05 -3.868408e-01 -8.640747e-01
1.773771e+09 9.852295e-01 1.160278e-01 6.482750e-05 -5.046651e-05 -2.968684e-05 4.471466e-05 -3.798828e-01 -8.740234e-01
1.777521e+09 9.803467e-01 1.265869e-01 -1.929700e-05 3.309920e-05 -3.075600e-05 2.253987e-05 -3.735962e-01 -8.811035e-01
1.781271e+09 9.761353e-01 1.374512e-01 -1.050159e-05 5.454198e-05 -1.024269e-05 1.283176e-05 -3.678589e-01 -8.899536e-01
1.785021e+09 9.737549e-01 1.471558e-01 9.890646e-06 7.580966e-06 -3.299862e-05 5.946308e-05 -3.626709e-01 -8.953857e-01
1.788771e+09 9.715576e-01 1.560669e-01 -2.184696e-05 -3.613159e-05 1.005828e-06 2.246909e-05 -3.572388e-01 -8.977661e-01
1.792521e+09 9.711914e-01 1.646729e-01 -2.628192e-05 -2.257526e-05 -4.904345e-05 3.432110e-05 -3.524780e-01 -9.017334e-01
1.796271e+09 9.706421e-01 1.697998e-01 -1.724716e-05 -1.141801e-06 4.170649e-05 3.047846e-05 -3.457031e-01 -9.033813e-01
1.800021e+09 9.697266e-01 1.757202e-01 -3.026798e-05 3.942102e-05 -3.049150e-06 2.290867e-05 -3.381958e-01 -9.037476e-01
1.803771e+09 9.670410e-01 1.784668e-01 -3.883056e-05 -3.699027e-05 1.757592e-05 3.918633e-05 -3.302002e-01 -9.047852e-01
1.807521e+09 9.635010e-01 1.821899e-01 3.160164e-05 -1.158193e-05 -7.331837e-06 6.647781e-06 -3.179321e-01 -9.061279e-01
1.811271e+09 9.588623e-01 1.859741e-01 -1.538172e-05 -7.606298e-05 -4.998874e-06 -6.543938e-06 -3.065796e-01 -9.072266e-01
1.815021e+09 9.526367e-01 1.901855e-01 -2.825819e-05 -3.588200e-05 6.169081e-05 -8.758157e-06 -2.949829e-01 -9.116821e-01
1.818771e+09 9.451904e-01 1.947632e-01 3.428757e-05 -4.487112e-06 -2.120715e-05 1.824368e-05 -2.822266e-01 -9.174805e-01
1.822521e+09 9.368896e-01 2.022705e-01 -2.372824e-05 -1.594424e-06 -4.423410e-05 -1.300126e-06 -2.698364e-01 -9.254150e-01
1.826271e+09 9.277344e-01 2.094727e-01 9.540468e-06 -4.027784e-05 -1.551956e-05 -1.508743e-06 -2.581177e-01 -9.321289e-01
1.830021e+09 9.198608e-01 2.192383e-01 -1.006573e-05 4.734099e-05 -2.611428e-06 -1.949724e-05 -2.494507e-01 -9.429932e-01
1.833771e+09 9.135132e-01 2.302246e-01 -2.498366e-05 1.209229e-05 3.481098e-05 -1.326948e-05 -2.404175e-01 -9.531250e-01
1.837521e+09 9.082031e-01 2.423706e-01 -5.513430e-06 -2.121367e-05 2.573058e-05 -2.776645e-05 -2.377319e-01 -9.619141e-01
1.841271e+09 9.036865e-01 2.536621e-01 -5.318969e-05 1.043826e-05 6.378628e-06 -1.301803e-05 -2.348022e-01 -9.708862e-01
1.845021e+09 9.017944e-01 2.663574e-01 -3.502239e-06 -2.372544e-07 -1.395028e-05 -2.100319e-05 -2.332153e-01 -9.779663e-01
1.848771e+09 9.002686e-01 2.785034e-01 -2.061762e-05 -8.482486e-06 4.986674e-05 3.053620e-05 -2.333374e-01 -9.816895e-01
1.852521e+09 9.017944e-01 2.911377e-01 -5.177781e-05 3.182516e-05 -4.178658e-05 -2.259761e-05 -2.324219e-01 -9.833374e-01
1.856271e+09 9.028931e-01 3.014526e-01 -4.887581e-05 -1.043081e-05 -2.479646e-06 -3.258931e-06 -2.317505e-01 -9.818115e-01
1.860021e+09 9.055176e-01 3.113403e-01 -1.557171e-05 2.014451e-05 -3.773719e-05 1.835823e-05 -2.290649e-01 -9.793701e-01
1.863771e+09 9.093628e-01 3.190918e-01 -3.045611e-05 3.311783e-05 1.333561e-05 1.478568e-05 -2.243652e-01 -9.723511e-01
1.867521e+09 9.129639e-01 3.258667e-01 -2.125651e-05 5.463511e-05 6.485730e-06 -2.162345e-05 -2.168579e-01 -9.685059e-01
1.871271e+09 9.175415e-01 3.306885e-01 -1.941621e-05 -2.227724e-05 4.422665e-05 3.024936e-06 -2.065430e-01 -9.637451e-01
1.875021e+09 9.204102e-01 3.342896e-01 -1.045689e-05 -4.937500e-05 2.594665e-06 1.168996e-05 -1.932983e-01 -9.591064e-01
1.878771e+09 9.226074e-01 3.355713e-01 -1.863018e-05 6.799027e-05 -2.665818e-05 2.028793e-05 -1.779175e-01 -9.577637e-01
1.882521e+09 9.230347e-01 3.378906e-01 -3.244914e-05 1.852587e-05 -3.405288e-05 -7.524341e-05 -1.656494e-01 -9.577637e-01
1.886271e+09 9.228516e-01 3.386841e-01 -3.108755e-05 -5.069375e-05 -3.387406e-05 -5.845353e-05 -1.496582e-01 -9.598999e-01
1.890021e+09 9.196167e-01 3.393555e-01 9.348616e-06 -3.407151e-05 -3.127009e-05 -5.498901e-05 -1.352539e-01 -9.636230e-01
1.893771e+09 9.165039e-01 3.415527e-01 -1.088250e-05 6.213784e-06 1.745299e-06 1.332071e-05 -1.219482e-01 -9.674072e-01
1.897521e+09 9.122925e-01 3.444824e-01 -3.404915e-06 4.881993e-05 -8.315779e-06 5.308539e-08 -1.086426e-01 -9.741211e-01
1.901270e+09 9.065552e-01 3.489990e-01 -3.357232e-05 2.587587e-05 7.466879e-06 1.612585e-06 -9.735107e-02 -9.824829e-01
1.905020e+09 9.003906e-01 3.551636e-01 2.567470e-05 -1.242384e-05 1.717545e-05 -3.479607e-05 -8.911133e-02 -9.890747e-01
1.908770e+09 8.953247e-01 3.622437e-01 1.775194e-05 1.229346e-06 9.020325e-06 -9.955838e-06 -8.099365e-02 -9.965210e-01
1.912520e+09 8.920898e-01 3.710327e-01 9.633601e-06 -3.516860e-05 7.436611e-06 1.613051e-06 -7.336426e-02 -1.002380e+00
1.916270e+09 8.889771e-01 3.794556e-01 4.760176e-05 -1.108274e-05 -7.292256e-06 3.149360e-05 -6.903076e-02 -1.008179e+00
1.920020e+09 8.887939e-01 3.894043e-01 -3.592670e-05 -2.542511e-06 -1.688721e-06 -4.976289e-06 -6.542969e-02 -1.012024e+00
1.923770e+09 8.890991e-01 3.976440e-01 -1.179613e-05 1.362897e-05 -1.847930e-05 -2.160855e-05 -6.176758e-02 -1.014282e+00
1.927520e+09 8.901978e-01 4.036865e-01 -3.383309e-05 1.928210e-05 -8.294592e-07 1.681736e-06 -5.883789e-02 -1.013367e+00
1.931270e+09 8.944092e-01 4.107056e-01 1.944043e-05 3.015995e-05 -2.633221e-05 -2.351776e-05 -5.310059e-02 -1.010986e+00
1.935020e+09 8.959351e-01 4.144897e-01 3.354624e-05 -6.923825e-05 2.625398e-05 -1.032092e-05 -4.650879e-02 -1.007141e+00
1.938770e+09 8.975830e-01 4.161377e-01 -7.059425e-06 4.936010e-05 2.024323e-05 -3.246963e-05 -3.857422e-02 -1.003906e+00
1.942520e+09 8.975830e-01 4.172363e-01 -1.052395e-05 4.887953e-05 -2.028607e-05 4.106760e-05 -2.886963e-02 -9.997559e-01
1.946270e+09 8.956909e-01 4.172363e-01 -1.657195e-05 -1.531467e-05 -3.593042e-06 -3.584102e-05 -1.617432e-02 -9.970093e-01
1.950020e+09 8.920898e-01 4.171143e-01 1.502316e-05 -1.301989e-05 -2.223440e-05 -1.524575e-05 -1.403809e-03 -9.958496e-01
1.953770e+09 8.870239e-01 4.185791e-01 -1.497567e-06 2.101250e-05 -1.111720e-05 -1.185667e-05 1.086426e-02 -9.947510e-01
1.957520e+09 8.798218e-01 4.202271e-01 5.029142e-07 -5.636737e-05 7.677823e-06 1.014723e-05 2.563477e-02 -9.959106e-01
1.961270e+09 8.713989e-01 4.232178e-01 -2.613664e-05 1.935475e-05 -5.163252e-06 -2.364255e-05 3.887939e-02 -1.000000e+00
1.965020e+09 8.621216e-01 4.275513e-01 -1.670048e-05 -6.522238e-05 -3.632158e-08 -8.413102e-06 5.206299e-02 -1.005798e+00
1.968770e+09 8.539429e-01 4.334106e-01 5.237386e-05 1.806021e-05 -6.386638e-05 -2.320856e-05 6.311035e-02 -1.011353e+00
1.972520e+09 8.442993e-01 4.416504e-01 9.834766e-07 3.605895e-05 -4.443899e-05 -1.153722e-05 7.263184e-02 -1.018005e+00
1.976270e+09 8.349609e-01 4.525757e-01 1.383945e-05 -4.246086e-05 -1.091417e-05 -1.166761e-05 7.855225e-02 -1.024841e+00
1.980020e+09 8.278809e-01 4.624023e-01 4.292279e-05 1.034513e-05 -3.454462e-05 -4.000589e-05 8.471680e-02 -1.030334e+00
1.983770e+09 8.205566e-01 4.754028e-01 4.051626e-05 -4.395843e-06 1.526065e-05 3.685616e-05 8.923340e-02 -1.034912e+00
1.987520e+09 8.158569e-01 4.887085e-01 -4.138798e-06 -4.426017e-05 -2.530031e-05 1.247972e-07 9.136963e-02 -1.037231e+00
1.991270e+09 8.128052e-01 5.020142e-01 5.162135e-05 -3.624707e-06 -4.813448e-05 4.606321e-05 9.381104e-02 -1.039124e+00
1.995020e+09 8.120728e-01 5.156860e-01 3.493764e-05 2.450868e-05 1.705997e-05 -8.640811e-06 9.497070e-02 -1.038757e+00
1.998770e+09 8.127441e-01 5.277710e-01 -3.283098e-05 -5.367771e-05 -2.997555e-05 4.322454e-05 9.722900e-02 -1.037476e+00
2.002520e+09 8.146973e-01 5.393677e-01 2.110377e-06 -2.916344e-05 1.475681e-05 -3.525987e-06 1.010742e-01 -1.035889e+00
2.006270e+09 8.182983e-01 5.466309e-01 -2.063811e-06 -2.205931e-05 -5.114824e-06 2.802536e-05 1.033936e-01 -1.030945e+00
2.010020e+09 8.214111e-01 5.535278e-01 1.762807e-05 -4.252046e-05 1.674704e-05 1.050346e-05 1.071167e-01 -1.026978e+00
2.013770e+09 8.240967e-01 5.578003e-01 5.185604e-05 -6.188825e-05 -7.894821e-06 1.590606e-05 1.122437e-01 -1.023010e+00
2.017520e+09 8.245850e-01 5.593262e-01 -2.587400e-05 5.409122e-06 1.418963e-05 3.346428e-05 1.181641e-01 -1.017700e+00
2.021270e+09 8.221436e-01 5.612183e-01 1.573935e-06 -2.172962e-05 1.817942e-06 2.286211e-05 1.243286e-01 -1.012329e+00
2.025020e+09 8.182983e-01 5.615845e-01 1.034513e-05 8.028932e-06 -4.285946e-06 2.624840e-05 1.310425e-01 -1.006470e+00
2.028770e+09 8.127441e-01 5.634766e-01 -1.808628e-05 -5.240738e-05 -1.214352e-05 6.987713e-06 1.387329e-01 -1.001892e+00
2.032520e+09 8.054199e-01 5.682983e-01 2.131797e-05 8.864328e-06 -5.494803e-08 -1.727603e-05 1.461792e-01 -9.979858e-01
2.036270e+09 7.976074e-01 5.734863e-01 2.243929e-05 -5.725771e-06 -2.220459e-05 3.612973e-05 1.537476e-01 -9.944458e-01
2.040020e+09 7.897339e-01 5.808105e-01 4.352257e-05 -4.113838e-05 -7.607043e-06 2.397597e-05 1.600952e-01 -9.920654e-01
2.043770e+09 7.817993e-01 5.885620e-01 -6.892905e-05 -1.982972e-05 -4.168041e-05 2.402812e-05 1.676025e-01 -9.884644e-01
2.047520e+09 7.757568e-01 5.996704e-01 2.904236e-05 9.529293e-06 3.258139e-05 2.890266e-05 1.717529e-01 -9.849854e-01
2.051270e+09 7.714233e-01 6.096191e-01 -1.011603e-05 3.652647e-05 -1.128577e-05 -3.762729e-05 1.769409e-01 -9.810181e-01
2.055020e+09 7.676392e-01 6.191406e-01 -1.965184e-05 1.347996e-05 -1.899712e-05 -2.226420e-05 1.807251e-01 -9.761353e-01
2.058770e+09 7.664185e-01 6.280518e-01 -2.964400e-05 -2.194196e-06 -1.628138e-05 3.289245e-05 1.863403e-01 -9.680176e-01
2.062520e+09 7.649536e-01 6.368408e-01 -4.902482e-05 -4.073605e-05 1.725182e-05 -4.347414e-05 1.895752e-01 -9.600830e-01
2.066270e+09 7.642822e-01 6.442261e-01 1.632050e-05 -2.096780e-05 -1.128577e-05 2.273731e-05 1.948853e-01 -9.487305e-01
2.070020e+09 7.650146e-01 6.494141e-01 -5.383044e-07 7.315539e-06 -1.220964e-05 2.460554e-05 2.031250e-01 -9.387817e-01
2.073770e+09 7.640381e-01 6.548462e-01 -9.452924e-06 2.861768e-05 1.067668e-05 5.811080e-05 2.131958e-01 -9.283447e-01
2.077520e+09 7.626953e-01 6.580200e-01 -1.817290e-05 -1.334585e-06 -1.238286e-05 -1.056306e-05 2.233887e-01 -9.196777e-01
2.081270e+09 7.619019e-01 6.606445e-01 -1.763366e-05 -8.597039e-06 -5.051866e-05 -3.175810e-05 2.376099e-01 -9.116821e-01
2.085020e+09 7.581787e-01 6.630249e-01 -2.593547e-05 -4.578009e-05 3.890693e-05 -7.143244e-06 2.492676e-01 -9.057617e-01
2.088770e+09 7.556152e-01 6.644897e-01 1.618266e-05 -2.083927e-05 2.125651e-05 1.056585e-05 2.634888e-01 -9.007568e-01
2.092520e+09 7.517090e-01 6.665649e-01 -9.928830e-06 -1.548324e-05 -1.770537e-05 -1.762714e-05 2.767334e-01 -8.976440e-01
2.096270e+09 7.463379e-01 6.677856e-01 -3.525242e-05 -7.675216e-05 -6.936491e-06 4.054420e-05 2.883301e-01 -8.959351e-01
2.100020e+09 7.388306e-01 6.693115e-01 -2.803653e-05 -2.445653e-05 -1.764391e-06 -5.258014e-06 2.992554e-01 -8.939819e-01
2.103769e+09 7.318726e-01 6.719360e-01 -1.328997e-05 -2.352707e-05 7.034279e-06 1.222640e-05 3.080444e-01 -8.936157e-01
2.107519e+09 7.230225e-01 6.771240e-01 3.765523e-05 -5.007908e-05 1.834426e-05 6.948598e-06 3.157349e-01 -8.919678e-01
2.111269e+09 7.159424e-01 6.822510e-01 1.466647e-05 -4.440174e-05 -1.399219e-05 -1.565926e-05 3.231201e-01 -8.891602e-01
2.115019e+09 7.088623e-01 6.888428e-01 -2.688169e-05 -4.770607e-05 -4.541874e-05 -1.386926e-05 3.283691e-01 -8.873291e-01
2.118769e+09 7.033081e-01 6.962280e-01 5.321577e-06 3.086589e-05 1.710840e-06 -2.100039e-05 3.336182e-01 -8.825073e-01
2.122519e+09 6.995850e-01 7.055054e-01 1.515541e-05 1.139939e-06 -2.113450e-05 -1.050904e-05 3.394165e-01 -8.773804e-01
2.126269e+09 6.978149e-01 7.118530e-01 7.004477e-06 8.150470e-06 -2.383813e-05 3.010593e-05 3.448486e-01 -8.721924e-01
2.130019e+09 6.981812e-01 7.171021e-01 3.948808e-07 4.560500e-05 4.985183e-05 -1.829118e-06 3.497314e-01 -8.654175e-01
2.133769e+09 6.993408e-01 7.207031e-01 -1.241826e-05 1.418684e-05 6.312504e-06 3.220327e-05 3.576660e-01 -8.560791e-01
2.137519e+09 7.006226e-01 7.224731e-01 -3.747875e-06 -2.779998e-07 5.376525e-06 -1.980923e-05 3.638306e-01 -8.475952e-01
2.141269e+09 7.010498e-01 7.200928e-01 -2.196804e-05 4.328042e-05 4.243106e-05 2.342090e-05 3.735352e-01 -8.359985e-01
2.145019e+09 6.994629e-01 7.152100e-01 3.394112e-05 -4.937872e-06 2.523884e-05 3.578141e-06 3.834839e-01 -8.265381e-01
2.148769e+09 6.948853e-01 7.096558e-01 -2.749078e-05 2.021901e-05 8.959323e-07 -1.800479e-06 3.961182e-01 -8.152466e-01
2.152519e+09 6.881714e-01 7.036743e-01 -3.630295e-05 -1.010112e-05 3.498048e-05 6.442517e-05 4.108276e-01 -8.062134e-01
2.156269e+09 6.774292e-01 6.990356e-01 -2.413429e-05 -2.398901e-05 2.042390e-05 -4.101358e-05 4.255371e-01 -7.979126e-01
2.160019e+09 6.647949e-01 6.965942e-01 -2.945960e-05 -2.186745e-06 -3.560446e-06 -1.062825e-05 4.431152e-01 -7.907104e-01
2.163769e+09 6.512451e-01 6.953125e-01 -4.012138e-05 -1.040101e-05 2.025906e-05 -1.415052e-05 4.614258e-01 -7.864990e-01
2.167519e+09 6.364746e-01 6.968994e-01 -5.786493e-05 -2.677739e-05 1.225993e-05 -2.461299e-05 4.818115e-01 -7.846069e-01
2.171269e+09 6.215210e-01 7.001343e-01 1.387857e-05 1.611654e-05 1.762807e-05 4.383922e-05 4.978638e-01 -7.861938e-01
2.175019e+09 6.073608e-01 7.052002e-01 6.057322e-06 -2.993830e-05 -2.590939e-06 2.280809e-05 5.158691e-01 -7.888184e-01
2.178769e+09 5.945435e-01 7.131348e-01 -2.798066e-05 6.673485e-05 7.933006e-06 1.053698e-05 5.289917e-01 -7.933960e-01
2.182519e+09 5.831909e-01 7.214966e-01 1.413561e-05 1.647882e-05 -3.569759e-06 -1.943111e-05 5.406494e-01 -7.998047e-01
2.186269e+09 5.740356e-01 7.304077e-01 2.221018e-05 6.350502e-05 1.509581e-05 5.300157e-06 5.485840e-01 -8.051147e-01
2.190019e+09 5.637817e-01 7.412109e-01 -2.542138e-05 2.905913e-05 3.563426e-05 -2.679788e-05 5.543213e-01 -8.105469e-01
2.193769e+09 5.561523e-01 7.503662e-01 -4.842132e-05 2.721325e-05 -3.940053e-05 3.408454e-05 5.580444e-01 -8.121948e-01
2.197519e+09 5.504150e-01 7.614746e-01 -1.415983e-05 -1.647603e-05 -2.889708e-05 -5.055964e-05 5.596924e-01 -8.123169e-01
2.201269e+09 5.480347e-01 7.704468e-01 3.851205e-05 4.895404e-05 -1.270697e-05 -1.812354e-06 5.630493e-01 -8.112793e-01
2.205019e+09 5.459595e-01 7.791748e-01 1.256075e-05 -1.434982e-05 -1.366809e-05 9.133480e-06 5.675659e-01 -8.083496e-01
2.208769e+09 5.444336e-01 7.866211e-01 1.020078e-05 1.597870e-05 -4.394352e-05 3.295019e-05 5.692139e-01 -8.021240e-01
2.212519e+09 5.455322e-01 7.924194e-01 8.045137e-05 -9.022653e-06 -6.242841e-05 -3.665686e-06 5.763550e-01 -7.970581e-01
2.216269e+09 5.462036e-01 7.957153e-01 -5.274639e-05 -3.993511e-06 1.378730e-05 -3.672764e-05 5.806885e-01 -7.908936e-01
2.220019e+09 5.462646e-01 7.960815e-01 4.916452e-06 -1.476798e-05 6.321073e-05 -2.565980e-05 5.880127e-01 -7.833862e-01
2.223769e+09 5.447388e-01 7.948608e-01 -3.219768e-05 -2.515502e-05 -2.188422e-05 3.469177e-05 5.950928e-01 -7.774048e-01
2.227519e+09 5.406494e-01 7.914429e-01 4.062802e-05 -3.482401e-05 -2.708286e-06 3.263913e-05 6.046753e-01 -7.694702e-01
2.231269e+09 5.320435e-01 7.890625e-01 -3.480911e-05 5.825236e-05 1.619942e-05 -1.441780e-05 6.132202e-01 -7.637329e-01
2.235019e+09 5.241089e-01 7.851562e-01 -1.022313e-05 -1.603179e-05 6.230548e-06 -2.143718e-05 6.235962e-01 -7.568970e-01
2.238769e+09 5.126343e-01 7.850952e-01 4.697591e-06 3.866293e-05 -8.843839e-06 3.555231e-05 6.348267e-01 -7.515259e-01
2.242519e+09 5.009766e-01 7.870483e-01 5.612150e-06 -2.263300e-05 -5.675107e-05 -1.943856e-05 6.463013e-01 -7.462158e-01
2.246269e+09 4.880981e-01 7.907104e-01 -3.279932e-05 -2.569519e-05 4.255585e-05 2.122112e-05 6.567383e-01 -7.446289e-01
2.250019e+09 4.752808e-01 7.969360e-01 7.110648e-06 8.304138e-06 2.129842e-05 1.955219e-05 6.663208e-01 -7.419434e-01
2.253769e+09 4.649658e-01 8.042603e-01 -5.229563e-05 -2.739951e-05 -1.518149e-05 -5.356967e-06 6.757812e-01 -7.398071e-01
2.257519e+09 4.570923e-01 8.118286e-01 8.419156e-07 3.899261e-05 1.616124e-05 1.258869e-05 6.831665e-01 -7.392578e-01
2.261269e+09 4.499512e-01 8.198242e-01 2.739578e-05 -5.237013e-05 1.266226e-05 1.806766e-06 6.884766e-01 -7.384644e-01
2.265019e+09 4.434204e-01 8.272095e-01 -9.505078e-06 2.256408e-05 1.065657e-04 3.282726e-05 6.923218e-01 -7.362671e-01
2.268769e+09 4.389038e-01 8.344116e-01 -2.662651e-06 -1.565367e-05 -1.923274e-05 -7.353723e-06 6.948242e-01 -7.311401e-01
2.272519e+09 4.346313e-01 8.385010e-01 -1.351722e-05 -2.413243e-05 1.652539e-05 1.288950e-05 6.990356e-01 -7.254028e-01
2.276269e+09 4.303589e-01 8.433838e-01 9.950250e-06 -2.982281e-05 5.602837e-06 -5.712733e-05 7.016602e-01 -7.169800e-01
2.280019e+09 4.254761e-01 8.447876e-01 -4.076585e-05 3.496185e-05 -5.156919e-05 1.103804e-05 7.079163e-01 -7.078552e-01
2.283769e+09 4.203491e-01 8.476562e-01 5.147606e-05 -2.644211e-05 -4.233047e-05 1.099892e-05 7.149048e-01 -6.982422e-01
2.287519e+09 4.128418e-01 8.504639e-01 -2.147257e-05 -1.688674e-05 -4.228577e-05 2.014451e-05 7.249146e-01 -6.879883e-01
2.291269e+09 4.054565e-01 8.537598e-01 1.112744e-05 -4.489720e-05 5.777553e-05 -2.375618e-05 7.359009e-01 -6.806641e-01
2.295019e+09 3.980713e-01 8.554077e-01 3.492273e-05 -4.982576e-06 3.290176e-05 7.379800e-06 7.460938e-01 -6.760254e-01
2.298769e+09 3.915405e-01 8.588257e-01 -4.696101e-05 -4.229322e-05 4.296750e-05 5.498528e-06 7.572632e-01 -6.710205e-01
2.302518e+09 3.823242e-01 8.615723e-01 2.538785e-05 -7.596612e-05 3.194623e-05 -3.647991e-05 7.665405e-01 -6.697998e-01
2.306268e+09 3.742676e-01 8.643188e-01 -6.595626e-06 -1.623202e-05 3.463961e-05 1.277588e-05 7.749023e-01 -6.700439e-01
2.310018e+09 3.659668e-01 8.677979e-01 5.401671e-06 3.210083e-05 -7.302500e-06 5.465467e-06 7.818604e-01 -6.709595e-01
2.313768e+09 3.575439e-01 8.702393e-01 -3.826432e-05 -1.884997e-05 -2.643652e-05 -2.920441e-05 7.838135e-01 -6.715088e-01
2.317518e+09 3.479004e-01 8.746948e-01 -1.334958e-05 -3.288127e-05 -3.926829e-05 -3.106706e-05 7.864380e-01 -6.699219e-01
2.321268e+09 3.389282e-01 8.793945e-01 5.844235e-05 -3.523752e-05 -1.371559e-05 9.169802e-06 7.857666e-01 -6.683350e-01
2.325018e+09 3.284912e-01 8.850098e-01 -2.121553e-06 -2.396293e-05 2.291426e-05 -5.504861e-05 7.832031e-01 -6.641235e-01
2.328768e+09 3.201294e-01 8.924561e-01 -3.109500e-05 -5.770847e-05 2.115592e-05 4.975498e-05 7.821045e-01 -6.579590e-01
2.332518e+09 3.132324e-01 8.994751e-01 -2.648681e-05 3.730506e-05 -1.665205e-05 5.564652e-06 7.807007e-01 -6.509399e-01
2.336268e+09 3.087158e-01 9.089355e-01 4.293383e-10 5.005916e-10 2.423488e-05 2.603792e-05 7.798462e-01 -6.417236e-01
2.340018e+09 3.051147e-01 9.152832e-01 -4.176050e-05 3.580377e-05 -1.216307e-05 -2.241880e-05 7.801514e-01 -6.322632e-01
2.343768e+09 3.007202e-01 9.212036e-01 2.879836e-05 -2.111867e-05 3.560260e-05 -7.120520e-05 7.800293e-01 -6.218872e-01
2.347518e+09 2.993164e-01 9.244995e-01 2.285093e-05 5.593151e-05 -2.814643e-05 -1.874194e-05 7.816162e-01 -6.110840e-01
2.351268e+09 2.956543e-01 9.266357e-01 -8.611009e-06 -3.930368e-05 2.899766e-05 -1.124293e-05 7.839966e-01 -5.989380e-01
2.355018e+09 2.937012e-01 9.263916e-01 -6.589293e-05 2.756715e-06 -1.586415e-05 -1.489930e-05 7.873535e-01 -5.875244e-01
2.358768e+09 2.877197e-01 9.259644e-01 2.862513e-05 -2.107210e-05 -4.080497e-05 7.471070e-06 7.910156e-01 -5.758667e-01
2.362518e+09 2.797241e-01 9.248047e-01 5.684048e-05 -3.454089e-05 1.295377e-05 2.025999e-05 7.969971e-01 -5.650635e-01
2.366268e+09 2.708130e-01 9.252319e-01 -1.779757e-05 2.983212e-05 1.808628e-06 -1.285318e-05 8.032837e-01 -5.555420e-01
2.370018e+09 2.597046e-01 9.266968e-01 -1.162291e-06 1.557823e-05 -5.031005e-05 -9.026378e-06 8.102417e-01 -5.467529e-01
2.373768e+09 2.495728e-01 9.313965e-01 2.684630e-05 9.944662e-06 -1.010019e-05 -1.642108e-05 8.181763e-01 -5.382080e-01
2.377518e+09 2.385254e-01 9.360962e-01 -1.401640e-05 -2.488494e-05 8.856878e-07 -1.096819e-05 8.233643e-01 -5.339355e-01
2.381268e+09 2.314453e-01 9.440308e-01 8.456409e-07 -6.392971e-05 -4.240498e-05 -4.395097e-05 8.281860e-01 -5.305786e-01
2.385018e+09 2.236328e-01 9.523926e-01 -3.993511e-06 -3.040768e-07 4.336052e-05 -3.838912e-06 8.298340e-01 -5.271606e-01
2.388768e+09 2.192383e-01 9.611206e-01 8.363277e-06 4.896149e-05 3.445894e-05 2.405420e-05 8.297119e-01 -5.244751e-01
2.392518e+09 2.161255e-01 9.705200e-01 -1.662318e-05 6.810762e-06 -4.101917e-05 5.438551e-05 8.262939e-01 -5.211182e-01
2.396268e+09 2.154541e-01 9.774780e-01 -5.798414e-06 2.365373e-05 -8.612871e-06 -5.831197e-05 8.209229e-01 -5.136108e-01
2.400018e+09 2.172852e-01 9.837036e-01 -2.622604e-05 3.000163e-05 -1.523830e-05 -3.589503e-05 8.155518e-01 -5.048218e-01
2.403768e+09 2.186279e-01 9.868164e-01 -2.309494e-05 -9.663403e-06 1.515914e-05 -1.942739e-06 8.102417e-01 -4.918213e-01
2.407518e+09 2.213135e-01 9.879150e-01 -6.726012e-05 2.905726e-06 2.274849e-05 -7.664785e-06 8.056030e-01 -4.776001e-01
2.411268e+09 2.229004e-01 9.878540e-01 1.576170e-05 -5.377829e-05 -6.474555e-06 5.130470e-05 8.045654e-01 -4.612427e-01
2.415018e+09 2.235718e-01 9.858398e-01 -2.757646e-06 -1.586601e-05 -1.607183e-05 1.333468e-05 8.061523e-01 -4.447632e-01
2.418768e+09 2.241821e-01 9.832764e-01 2.335198e-05 1.713634e-06 3.654510e-06 -2.655387e-05 8.098145e-01 -4.273682e-01
2.422518e+09 2.226562e-01 9.791870e-01 2.077967e-05 -6.906688e-05 1.617521e-05 2.449937e-05 8.156128e-01 -4.116821e-01
2.426268e+09 2.206421e-01 9.738770e-01 -8.990988e-06 1.508929e-05 -6.224215e-05 -7.197261e-06 8.231812e-01 -3.975220e-01
2.430018e+09 2.144775e-01 9.682617e-01 6.835908e-06 -3.905222e-05 3.473833e-05 -3.896654e-06 8.310547e-01 -3.842163e-01
2.433768e+09 2.094116e-01 9.623413e-01 1.295656e-05 4.073605e-05 5.606096e-06 -1.899432e-06 8.397217e-01 -3.749390e-01
2.437518e+09 2.011719e-01 9.563599e-01 -1.253188e-05 7.077120e-06 -2.688356e-05 3.556907e-05 8.484497e-01 -3.651123e-01
2.441268e+09 1.916504e-01 9.536743e-01 -2.345257e-05 -9.741634e-06 -1.684390e-05 -1.293793e-05 8.556519e-01 -3.598022e-01
2.445018e+09 1.809692e-01 9.512939e-01 1.891982e-05 1.757313e-05 1.611933e-05 5.201250e-05 8.628540e-01 -3.537598e-01
2.448768e+09 1.681519e-01 9.526367e-01 -7.840618e-05 1.861900e-05 -1.984835e-05 -4.466251e-05 8.668213e-01 -3.496704e-01
2.452518e+09 1.586914e-01 9.563599e-01 -5.422160e-05 -3.650784e-05 -9.583309e-06 -3.739633e-05 8.718262e-01 -3.454590e-01
2.456268e+09 1.499023e-01 9.603882e-01 -4.221871e-05 2.133846e-05 7.466227e-05 5.783886e-05 8.738403e-01 -3.424683e-01
2.460018e+09 1.420288e-01 9.677124e-01 1.625344e-05 -5.576015e-05 -1.717359e-05 -2.261996e-05 8.740234e-01 -3.383179e-01
2.463768e+09 1.377563e-01 9.747314e-01 -4.041567e-05 -2.935529e-06 -6.270781e-05 3.081933e-05 8.721924e-01 -3.348389e-01
2.467518e+09 1.370239e-01 9.824829e-01 7.479638e-05 -2.694502e-05 3.849622e-06 1.895009e-06 8.680420e-01 -3.283691e-01
2.471268e+09 1.386719e-01 9.873657e-01 -3.457069e-06 1.046062e-04 -2.970919e-05 3.100373e-05 8.637085e-01 -3.220215e-01
2.475018e+09 1.418457e-01 9.911499e-01 -1.716614e-05 7.102266e-05 -3.672205e-05 6.021932e-06 8.588867e-01 -3.117676e-01
2.478768e+09 1.475220e-01 9.888306e-01 7.041916e-05 -3.488734e-05 1.018867e-06 7.725786e-06 8.541260e-01 -2.986450e-01
2.482518e+09 1.504517e-01 9.856567e-01 1.978874e-05 1.408160e-06 2.031494e-05 7.590279e-06 8.502808e-01 -2.838745e-01
2.486268e+09 1.516113e-01 9.781494e-01 -1.859479e-05 3.835559e-05 8.882955e-06 3.067963e-05 8.479004e-01 -2.663574e-01
2.490018e+09 1.499023e-01 9.692383e-01 -5.749613e-05 -2.785400e-05 -2.086163e-05 2.307817e-05 8.483887e-01 -2.478027e-01
2.493768e+09 1.464844e-01 9.603271e-01 -2.938323e-05 -3.388524e-05 3.749970e-06 -7.639639e-06 8.525391e-01 -2.281494e-01
2.497518e+09 1.409302e-01 9.530029e-01 3.463216e-05 1.844950e-05 -2.114102e-06 -2.466328e-05 8.596191e-01 -2.094727e-01
2.501267e+09 1.317139e-01 9.462280e-01 -6.293878e-06 -2.458692e-05 -1.824461e-05 -3.019348e-05 8.691406e-01 -1.926880e-01
2.505017e+09 1.213989e-01 9.392700e-01 -1.032837e-05 3.173016e-05 1.514796e-05 -2.025627e-06 8.796997e-01 -1.777954e-01
2.508767e+09 1.116943e-01 9.346313e-01 -4.071044e-06 -2.935994e-07 -6.782822e-06 -1.514237e-05 8.929443e-01 -1.639404e-01
2.512517e+09 1.005249e-01 9.320068e-01 6.457791e-06 2.520345e-05 1.515727e-05 -1.157448e-05 9.057617e-01 -1.549683e-01
2.516267e+09 8.740234e-02 9.301758e-01 6.502494e-06 -3.272854e-05 2.095196e-05 -1.358241e-05 9.183350e-01 -1.475830e-01
2.520017e+09 7.623291e-02 9.295654e-01 4.026294e-05 1.947209e-05 -5.881116e-05 -1.685321e-05 9.287109e-01 -1.442871e-01
2.523767e+09 6.573486e-02 9.306030e-01 2.487749e-05 1.780689e-06 -2.510287e-05 2.134591e-06 9.368896e-01 -1.396484e-01
2.527517e+09 5.413818e-02 9.318237e-01 -5.861744e-05 4.168600e-06 4.304387e-05 4.037283e-05 9.437256e-01 -1.366577e-01
2.531267e+09 4.370117e-02 9.336548e-01 1.779571e-05 4.279986e-05 -2.954714e-05 -3.866293e-05 9.485474e-01 -1.341553e-01
2.535017e+09 3.558350e-02 9.401855e-01 -2.541021e-05 -5.135685e-05 -4.706904e-06 1.964439e-05 9.510498e-01 -1.306763e-01
2.538767e+09 2.783203e-02 9.439697e-01 2.050400e-05 1.437962e-06 -2.843328e-05 8.117408e-06 9.537964e-01 -1.251221e-01
2.542517e+09 2.215576e-02 9.498901e-01 1.973659e-05 -4.789606e-05 -1.102872e-05 -1.767557e-05 9.551392e-01 -1.199341e-01
2.546267e+09 2.026367e-02 9.544067e-01 4.018471e-05 1.096353e-05 5.630404e-05 -1.441315e-05 9.564209e-01 -1.143188e-01
2.550017e+09 1.947021e-02 9.568481e-01 4.068948e-06 2.814922e-07 7.785857e-07 -2.183206e-05 9.567871e-01 -1.077271e-01
2.553767e+09 2.038574e-02 9.565430e-01 2.504513e-05 5.071983e-05 4.844740e-06 -9.952579e-06 9.567871e-01 -9.924316e-02
2.557517e+09 1.995850e-02 9.528198e-01 5.453080e-05 -2.076104e-05 3.879145e-05 3.114529e-05 9.566650e-01 -9.118652e-02
2.561267e+09 1.940918e-02 9.461060e-01 -6.455928e-06 -2.495572e-05 4.693493e-05 -6.422400e-06 9.553833e-01 -8.117676e-02
2.565017e+09 1.599121e-02 9.369507e-01 -2.391636e-06 -2.468377e-05 -1.802295e-05 -4.258566e-05 9.549561e-01 -6.970215e-02
2.568767e+09 7.507324e-03 9.274292e-01 -4.190579e-05 1.348928e-05 -1.837127e-05 -1.721084e-06 9.566650e-01 -5.676270e-02
2.572517e+09 -2.807617e-03 9.171753e-01 5.652755e-05 -4.540011e-05 -3.694370e-05 4.655123e-05 9.589844e-01 -4.333496e-02
2.576267e+09 -1.684570e-02 9.074707e-01 -3.760681e-05 -5.206466e-05 1.131557e-07 9.571202e-06 9.631958e-01 -2.832031e-02
2.580017e+09 -3.369141e-02 9.016113e-01 -7.679220e-06 -8.795876e-06 2.741814e-05 5.140901e-05 9.687500e-01 -1.495361e-02
2.583767e+09 -5.041504e-02 8.970337e-01 1.784414e-05 4.282594e-05 -3.585592e-05 -2.456084e-05 9.760132e-01 -8.544922e-04
2.587517e+09 -6.768799e-02 8.957520e-01 2.026372e-05 9.745359e-06 -5.695596e-05 8.404255e-06 9.864502e-01 8.850098e-03
2.591267e+09 -8.459473e-02 8.976440e-01 -7.228926e-06 -1.729373e-05 1.068190e-04 3.970414e-05 9.949951e-01 1.733398e-02
2.595017e+09 -9.997559e-02 9.005737e-01 2.575107e-05 -6.660819e-06 -5.215406e-06 6.109849e-05 1.003723e+00 2.368164e-02
2.598767e+09 -1.139526e-01 9.053345e-01 3.472529e-05 -1.451932e-05 -5.104393e-05 5.424768e-05 1.010132e+00 2.777100e-02
2.602517e+09 -1.254272e-01 9.078979e-01 -5.889684e-06 2.486259e-05 1.912750e-05 1.178123e-05 1.014038e+00 3.173828e-02
2.606267e+09 -1.357422e-01 9.118652e-01 -3.208965e-05 3.983080e-05 2.120994e-05 7.783994e-06 1.017212e+00 3.417969e-02
2.610017e+09 -1.464844e-01 9.148560e-01 -2.609938e-05 1.496449e-05 -3.721565e-06 2.827868e-05 1.018127e+00 4.010010e-02
2.613767e+09 -1.554565e-01 9.174194e-01 3.542192e-05 -3.095903e-05 4.829466e-05 -1.677126e-05 1.017151e+00 4.748535e-02
2.617517e+09 -1.630249e-01 9.190063e-01 -6.203726e-05 -4.164875e-06 1.974218e-05 4.215911e-05 1.016418e+00 5.499268e-02
2.621267e+09 -1.714478e-01 9.205933e-01 -2.895668e-05 -1.952052e-06 -1.946837e-05 -2.194569e-05 1.016785e+00 6.536865e-02
2.625017e+09 -1.807861e-01 9.213867e-01 -2.880394e-05 5.643070e-05 -3.565289e-05 -2.974272e-05 1.019836e+00 7.653809e-02
2.628767e+09 -1.887817e-01 9.222412e-01 2.227724e-06 -3.338419e-05 -2.164766e-05 3.446825e-05 1.024170e+00 8.666992e-02
2.632517e+09 -1.965332e-01 9.205322e-01 7.853378e-06 8.968636e-06 -2.032705e-05 -1.977757e-05 1.030457e+00 9.472656e-02
2.636267e+09 -2.037354e-01 9.199219e-01 3.185496e-05 -3.186055e-05 -5.415827e-05 -8.331612e-05 1.035522e+00 1.021729e-01
2.640017e+09 -2.113037e-01 9.164429e-01 5.514175e-05 -5.612522e-05 1.053326e-05 -3.207847e-05 1.041077e+00 1.082764e-01
2.643767e+09 -2.189941e-01 9.121094e-01 -2.549961e-06 -2.592616e-05 -1.275167e-05 -5.551055e-05 1.045105e+00 1.111450e-01
2.647517e+09 -2.308960e-01 9.082031e-01 6.709248e-05 -3.863499e-05 -1.754612e-05 -4.545227e-05 1.048157e+00 1.121826e-01
2.651267e+09 -2.424927e-01 9.038086e-01 -3.372505e-05 -1.083314e-05 3.101863e-05 1.740083e-05 1.049377e+00 1.144409e-01
2.655017e+09 -2.569580e-01 8.976440e-01 3.335625e-05 -4.936755e-05 -3.363565e-05 -6.298348e-05 1.049194e+00 1.181030e-01
2.658767e+09 -2.724609e-01 8.939819e-01 7.096678e-06 -4.235655e-05 -1.805276e-05 -1.365412e-05 1.046997e+00 1.190796e-01
2.662517e+09 -2.867432e-01 8.931885e-01 1.423061e-06 4.272535e-05 5.007908e-05 1.915544e-05 1.044373e+00 1.223145e-01
2.666267e+09 -3.042603e-01 8.939819e-01 1.267157e-05 8.242205e-07 -1.292583e-05 6.197952e-06 1.039856e+00 1.246338e-01
2.670017e+09 -3.200684e-01 8.975830e-01 1.905486e-05 -3.255159e-05 2.504140e-05 -1.041591e-05 1.036926e+00 1.303101e-01
2.673767e+09 -3.338013e-01 9.028931e-01 -2.336502e-05 -9.421259e-05 4.155748e-05 -2.635643e-06 1.032471e+00 1.329346e-01
2.677517e+09 -3.437500e-01 9.069824e-01 3.763661e-05 2.473593e-06 2.108887e-05 5.062670e-05 1.027039e+00 1.378174e-01
2.681267e+09 -3.519897e-01 9.125366e-01 -1.416169e-05 2.422184e-05 2.752990e-06 4.696846e-05 1.021362e+00 1.425171e-01
2.685017e+09 -3.597412e-01 9.162598e-01 4.277751e-05 -1.397356e-05 3.230758e-05 -2.502836e-05 1.013977e+00 1.475830e-01
2.688767e+09 -3.665771e-01 9.176025e-01 8.925796e-05 -1.930445e-05 1.974963e-05 -4.104339e-05 1.007507e+00 1.548462e-01
2.692517e+09 -3.711548e-01 9.177856e-01 -3.275648e-05 -7.768348e-05 5.693361e-05 7.178634e-06 9.996948e-01 1.627197e-01
2.696267e+09 -3.790894e-01 9.160767e-01 -4.306436e-05 1.402572e-05 5.523860e-05 -2.108514e-05 9.937134e-01 1.738281e-01
2.700016e+09 -3.887939e-01 9.148560e-01 2.789125e-05 2.723746e-05 2.175011e-05 3.787316e-05 9.893188e-01 1.834717e-01
2.703766e+09 -3.983154e-01 9.118042e-01 -2.240762e-05 1.560710e-05 1.132488e-05 1.785345e-05 9.865112e-01 1.956787e-01
2.707516e+09 -4.106445e-01 9.128418e-01 -2.487004e-05 5.011261e-05 1.327880e-05 1.383014e-05 9.857788e-01 2.042847e-01
2.711266e+09 -4.234009e-01 9.158325e-01 4.000962e-05 5.492195e-05 -2.048723e-05 -1.983531e-05 9.869385e-01 2.117310e-01
2.715016e+09 -4.328003e-01 9.212646e-01 5.528331e-06 -1.724530e-05 4.423782e-06 2.223998e-05 9.885864e-01 2.165527e-01
2.718766e+09 -4.426880e-01 9.267578e-01 -2.188981e-05 -7.238612e-05 1.349766e-05 1.406576e-05 9.887085e-01 2.173462e-01
2.722516e+09 -4.493408e-01 9.359741e-01 -1.484156e-05 -4.549697e-05 9.328127e-06 6.568059e-05 9.865112e-01 2.161865e-01
2.726266e+09 -4.531860e-01 9.448242e-01 -5.046651e-05 2.347678e-05 1.363456e-06 1.861248e-05 9.804688e-01 2.116089e-01
2.730016e+09 -4.556274e-01 9.516602e-01 3.757700e-05 -3.302470e-05 4.079193e-05 1.182221e-05 9.696655e-01 2.092896e-01
2.733766e+09 -4.531860e-01 9.582520e-01 3.676862e-05 -2.400763e-05 1.885463e-05 3.866851e-06 9.568481e-01 2.077637e-01
2.737516e+09 -4.505615e-01 9.636841e-01 -1.023710e-05 -4.427508e-05 1.483317e-05 1.230557e-05 9.398193e-01 2.095947e-01
2.741266e+09 -4.456787e-01 9.675903e-01 -3.064610e-05 6.685033e-06 1.935661e-05 -2.961233e-05 9.221191e-01 2.145996e-01
2.745016e+09 -4.399414e-01 9.681396e-01 -2.666377e-05 1.542270e-05 -2.205744e-05 -7.946044e-06 9.042969e-01 2.239990e-01
2.748766e+09 -4.336548e-01 9.660034e-01 6.379560e-06 -3.369711e-05 3.386475e-05 -2.763420e-05 8.890991e-01 2.369995e-01
2.752516e+09 -4.275513e-01 9.635010e-01 1.607463e-06 -2.543069e-05 -3.184192e-06 -4.090834e-06 8.751831e-01 2.516479e-01
2.756266e+09 -4.197388e-01 9.573364e-01 5.192310e-05 5.440786e-05 -3.430992e-05 -1.382269e-05 8.636475e-01 2.682495e-01
2.760016e+09 -4.135742e-01 9.509888e-01 -3.168359e-06 -1.729745e-05 6.931834e-06 -1.454260e-05 8.540039e-01 2.845459e-01
2.763766e+09 -4.113159e-01 9.399414e-01 2.250262e-05 -1.575984e-05 2.588890e-05 -4.352257e-05 8.472900e-01 3.011475e-01
2.767516e+09 -4.063721e-01 9.279785e-01 2.647936e-05 -7.618219e-05 -3.279746e-05 -5.519018e-06 8.432617e-01 3.161621e-01
2.771266e+09 -4.063721e-01 9.138794e-01 2.327561e-05 -2.458133e-05 -3.715977e-05 -2.788566e-05 8.376465e-01 3.303223e-01
2.775016e+09 -4.069214e-01 8.991089e-01 -4.080683e-05 2.362579e-05 3.732182e-05 -1.493469e-05 8.344116e-01 3.447266e-01
2.778766e+09 -4.143066e-01 8.859863e-01 1.586229e-05 -4.285574e-05 -4.769862e-05 4.976988e-06 8.317871e-01 3.579712e-01
2.782516e+09 -4.234619e-01 8.719482e-01 1.977943e-05 -3.401190e-05 8.025207e-06 -6.259419e-06 8.304443e-01 3.715820e-01
2.786266e+09 -4.358521e-01 8.619385e-01 -4.392117e-06 -7.108226e-05 -5.302019e-06 -1.013046e-05 8.307495e-01 3.822632e-01
2.790016e+09 -4.476929e-01 8.567505e-01 3.427267e-05 1.989678e-05 6.558374e-06 1.844857e-05 8.311157e-01 3.925781e-01
2.793766e+09 -4.620361e-01 8.548584e-01 2.331659e-05 5.491823e-05 1.741014e-05 3.930368e-05 8.317871e-01 4.013062e-01
2.797516e+09 -4.730225e-01 8.573608e-01 -1.650304e-06 -4.481524e-05 -1.419522e-05 2.979115e-05 8.330078e-01 4.083862e-01
2.801266e+09 -4.804688e-01 8.621216e-01 1.448393e-05 -1.700222e-05 -3.623217e-05 -1.419336e-06 8.336182e-01 4.111328e-01
2.805016e+09 -4.850464e-01 8.682251e-01 3.954768e-05 1.140311e-05 -5.118921e-05 1.816452e-05 8.314209e-01 4.126587e-01
2.808766e+09 -4.848022e-01 8.745728e-01 2.110936e-05 1.918152e-05 6.109476e-07 -2.375990e-05 8.266602e-01 4.136353e-01
2.812516e+09 -4.802856e-01 8.781738e-01 5.364418e-05 -5.599111e-06 -6.703660e-05 -5.148351e-06 8.182373e-01 4.137573e-01
2.816266e+09 -4.736938e-01 8.798828e-01 -6.389990e-05 -3.931671e-05 -2.719462e-06 -2.795085e-05 8.067017e-01 4.169922e-01
2.820016e+09 -4.667969e-01 8.751221e-01 -8.330494e-05 6.537139e-05 -2.859347e-05 -4.009902e-05 7.945557e-01 4.219971e-01
2.823766e+09 -4.584351e-01 8.692627e-01 -1.693517e-05 -9.803101e-06 -1.759455e-05 -2.937391e-05 7.795410e-01 4.296265e-01
2.827516e+09 -4.541016e-01 8.586426e-01 -1.096167e-06 1.746323e-05 4.928559e-06 3.358908e-05 7.651978e-01 4.441528e-01
2.831266e+09 -4.535522e-01 8.475342e-01 7.115304e-06 2.677180e-05 8.057803e-05 -5.822629e-06 7.537842e-01 4.588013e-01
2.835016e+09 -4.539795e-01 8.346558e-01 -4.668534e-05 4.122779e-05 1.799874e-05 -3.793649e-05 7.438965e-01 4.763794e-01
2.838766e+09 -4.579468e-01 8.230591e-01 -2.495386e-05 -2.820604e-05 -4.472211e-05 7.171184e-06 7.382812e-01 4.956055e-01
2.842516e+09 -4.622192e-01 8.118896e-01 -5.016432e-10 -5.661036e-10 -1.067761e-05 -1.021801e-05 7.355347e-01 5.148926e-01
2.846266e+09 -4.691162e-01 8.035889e-01 5.624257e-06 -1.773704e-05 4.798174e-06 -2.111495e-05 7.346191e-01 5.320435e-01
2.850016e+09 -4.760132e-01 7.938232e-01 -2.036989e-05 3.513135e-05 9.093434e-06 -1.920294e-05 7.362061e-01 5.473633e-01
2.853766e+09 -4.826660e-01 7.861328e-01 -1.116656e-06 1.821760e-05 -5.073845e-06 1.071393e-05 7.404175e-01 5.606689e-01
2.857516e+09 -4.905396e-01 7.786865e-01 9.118579e-06 5.634502e-07 -1.136959e-05 -3.173389e-05 7.427979e-01 5.710449e-01
2.861266e+09 -4.990234e-01 7.720947e-01 -8.752197e-05 1.292676e-05 -4.676357e-05 6.528944e-05 7.459717e-01 5.781860e-01
2.865016e+09 -5.087891e-01 7.647705e-01 2.883933e-05 -2.554059e-05 2.913363e-05 5.822629e-06 7.470703e-01 5.852661e-01
2.868766e+09 -5.183105e-01 7.611084e-01 -2.877787e-06 -2.732500e-05 -2.098083e-05 -2.324581e-05 7.476196e-01 5.916748e-01
2.872516e+09 -5.288086e-01 7.574463e-01 -9.380281e-06 8.052588e-05 -4.710630e-06 3.251061e-05 7.465210e-01 5.982056e-01
2.876266e+09 -5.383301e-01 7.567139e-01 1.269579e-05 -6.205961e-05 -1.324899e-05 3.928691e-05 7.457886e-01 6.041260e-01
2.880016e+09 -5.460205e-01 7.571411e-01 -1.610070e-05 4.375726e-05 -4.568323e-05 -5.117059e-05 7.426147e-01 6.102295e-01
2.883766e+09 -5.517578e-01 7.589111e-01 -2.459250e-05 -3.723614e-05 -7.514842e-06 4.514586e-06 7.399292e-01 6.156006e-01
2.887516e+09 -5.544434e-01 7.571411e-01 3.214926e-06 -5.342066e-05 -5.898997e-06 -2.158619e-05 7.354736e-01 6.216431e-01
2.891266e+09 -5.565186e-01 7.573853e-01 4.120171e-05 -1.544505e-05 1.884252e-05 -2.861023e-05 7.306519e-01 6.273193e-01
2.895016e+09 -5.560303e-01 7.520752e-01 7.318333e-06 2.731197e-05 -1.669303e-05 2.410077e-05 7.238159e-01 6.336060e-01
2.898766e+09 -5.562134e-01 7.445679e-01 -3.186986e-05 7.068738e-06 1.507252e-05 -4.322082e-05 7.163086e-01 6.416016e-01
2.902515e+09 -5.596313e-01 7.348022e-01 -3.086403e-05 -1.082011e-05 -1.263991e-05 -4.021451e-05 7.069397e-01 6.506042e-01
2.906265e+09 -5.640259e-01 7.229004e-01 -3.995001e-05 -1.144037e-05 -3.339536e-05 -1.832657e-05 6.974792e-01 6.627197e-01
2.910015e+09 -5.742188e-01 7.100830e-01 1.701526e-05 1.917500e-05 2.016127e-05 4.626438e-05 6.903076e-01 6.777344e-01
2.913765e+09 -5.851440e-01 6.984863e-01 5.656108e-05 4.906580e-05 5.982071e-05 7.051975e-06 6.853638e-01 6.944580e-01
2.917515e+09 -5.991211e-01 6.884155e-01 7.323921e-06 -4.567206e-05 1.581479e-05 -1.109391e-05 6.827087e-01 7.116089e-01
2.921265e+09 -6.151123e-01 6.817627e-01 -1.093745e-05 2.724864e-05 -1.237355e-05 2.626702e-05 6.830444e-01 7.291260e-01
2.925015e+09 -6.300659e-01 6.769409e-01 -3.214926e-05 -1.131557e-05 4.499778e-05 5.361438e-05 6.882935e-01 7.446899e-01
2.928765e+09 -6.453857e-01 6.761475e-01 2.293102e-05 1.082197e-05 1.760945e-05 4.387647e-05 6.953125e-01 7.556152e-01
2.932515e+09 -6.590576e-01 6.777344e-01 2.846122e-06 -4.715472e-05 4.392117e-05 -3.459305e-05 7.023926e-01 7.639160e-01
2.936265e+09 -6.689453e-01 6.798096e-01 -3.995746e-05 3.542751e-05 1.153350e-05 5.834922e-05 7.095947e-01 7.662964e-01
2.940015e+09 -6.773071e-01 6.814575e-01 -1.648441e-06 2.814084e-05 2.746098e-05 1.292489e-05 7.136841e-01 7.662354e-01
2.943765e+09 -6.838379e-01 6.827393e-01 5.587190e-05 3.285706e-06 -1.479685e-05 4.336983e-05 7.135010e-01 7.639771e-01
2.947515e+09 -6.881104e-01 6.808472e-01 3.284961e-05 -7.336959e-06 -3.726035e-05 -5.097315e-05 7.086182e-01 7.620239e-01
2.951265e+09 -6.923828e-01 6.790161e-01 5.124602e-06 -8.882023e-06 3.627688e-05 -7.711723e-05 7.008667e-01 7.615356e-01
2.955015e+09 -6.961060e-01 6.741333e-01 4.398823e-05 3.000349e-05 -2.305768e-05 -3.284216e-05 6.924438e-01 7.642822e-01
2.958765e+09 -7.005005e-01 6.687622e-01 -4.018191e-06 -9.355135e-06 1.314282e-05 -4.743226e-06 6.817017e-01 7.685547e-01
2.962515e+09 -7.066040e-01 6.613159e-01 2.624281e-05 1.980551e-05 2.510287e-05 -7.200986e-06 6.717529e-01 7.780151e-01
2.966265e+09 -7.109375e-01 6.555176e-01 1.071952e-06 -1.828186e-05 2.624467e-06 1.743808e-05 6.620483e-01 7.885132e-01
2.970015e+09 -7.174072e-01 6.489868e-01 1.593679e-05 -3.597699e-05 2.356619e-05 -6.176531e-05 6.557007e-01 7.991333e-01
2.973765e+09 -7.237549e-01 6.412354e-01 4.735216e-05 -1.583248e-05 5.138665e-05 5.263835e-06 6.526489e-01 8.093262e-01
2.977515e+09 -7.277832e-01 6.323853e-01 -3.024936e-06 -2.818368e-05 2.357550e-05 -1.584366e-05 6.489258e-01 8.182983e-01
2.981265e+09 -7.343140e-01 6.226807e-01 1.654029e-06 -2.806634e-05 -5.015358e-05 -4.229695e-05 6.473999e-01 8.281250e-01
2.985015e+09 -7.413940e-01 6.113892e-01 -1.873914e-05 -1.103617e-06 4.270673e-05 4.689395e-05 6.446533e-01 8.334351e-01
2.988765e+09 -7.490234e-01 5.989380e-01 1.100264e-05 -2.759136e-05 -5.460531e-05 1.478940e-06 6.436768e-01 8.388672e-01
2.992515e+09 -7.601929e-01 5.874023e-01 4.600361e-05 -6.309524e-05 6.237999e-06 -1.333654e-05 6.398926e-01 8.432007e-01
2.996265e+09 -7.733765e-01 5.761719e-01 6.800890e-05 4.148483e-05 2.130773e-05 1.268368e-05 6.377563e-01 8.481445e-01
3.000015e+09 -7.916870e-01 5.676270e-01 1.085550e-05 1.424924e-06 3.223121e-05 3.875792e-05 6.336670e-01 8.486328e-01
3.003765e+09 -8.057251e-01 5.624390e-01 2.924353e-06 -5.684420e-05 3.201142e-05 -7.532910e-05 6.312866e-01 8.515015e-01
3.007515e+09 -8.211060e-01 5.590210e-01 -1.625344e-05 6.679446e-06 3.284588e-05 3.943592e-05 6.267700e-01 8.547974e-01
3.011265e+09 -8.344727e-01 5.588989e-01 -4.039332e-05 -4.478544e-05 3.427267e-07 -8.014590e-05 6.242676e-01 8.566895e-01
3.015015e+09 -8.425293e-01 5.597534e-01 4.608557e-05 -1.611561e-05 -5.582720e-05 2.047047e-05 6.211548e-01 8.584595e-01
3.018765e+09 -8.484497e-01 5.604858e-01 -2.442114e-05 1.242384e-06 7.212907e-05 -1.875311e-05 6.171875e-01 8.596802e-01
3.022515e+09 -8.502197e-01 5.599976e-01 5.425140e-05 6.910414e-06 -6.600469e-05 1.760572e-05 6.109619e-01 8.574829e-01
3.026265e+09 -8.522339e-01 5.578003e-01 2.727145e-06 -4.067551e-06 -4.770607e-05 -2.717227e-05 6.041260e-01 8.581543e-01
3.030015e+09 -8.518677e-01 5.486450e-01 1.078099e-05 3.673695e-05 -3.802404e-05 -5.988404e-05 5.946655e-01 8.578491e-01
3.033765e+09 -8.518677e-01 5.383301e-01 -2.466515e-05 5.456433e-05 8.624420e-05 2.253801e-06 5.850830e-01 8.604126e-01
3.037515e+09 -8.564453e-01 5.272827e-01 5.576760e-06 -4.379451e-05 2.576783e-05 4.475936e-06 5.754395e-01 8.618164e-01
3.041265e+09 -8.616943e-01 5.134888e-01 -2.214313e-05 1.513772e-05 5.278736e-05 2.274290e-05 5.686646e-01 8.690796e-01
3.045015e+09 -8.701172e-01 5.018921e-01 5.267560e-05 6.546825e-05 4.463643e-05 7.151440e-05 5.639648e-01 8.734131e-01
3.048765e+09 -8.807373e-01 4.911499e-01 1.403317e-05 -2.095103e-05 -5.736947e-06 7.935613e-05 5.605469e-01 8.766479e-01
3.052515e+09 -8.912354e-01 4.819946e-01 -1.408253e-05 2.760440e-06 3.717095e-05 -1.677871e-05 5.599976e-01 8.792114e-01
3.056265e+09 -9.041748e-01 4.769287e-01 -3.101304e-05 9.765849e-06 -4.789606e-05 -2.407283e-05 5.597534e-01 8.754883e-01
3.060015e+09 -9.172363e-01 4.716187e-01 -2.800673e-05 -3.103167e-05 -7.930677e-06 8.787494e-06 5.588989e-01 8.693848e-01
3.063765e+09 -9.270020e-01 4.713745e-01 -1.659244e-05 -6.587058e-05 5.805865e-05 2.983958e-05 5.552368e-01 8.612671e-01
3.067515e+09 -9.355469e-01 4.707031e-01 -3.340840e-05 3.181957e-05 -4.585087e-05 4.553422e-05 5.475464e-01 8.492432e-01
3.071265e+09 -9.432983e-01 4.715576e-01 5.489960e-05 4.280359e-05 -1.938269e-05 5.020574e-05 5.373535e-01 8.389893e-01
3.075015e+09 -9.494019e-01 4.739380e-01 3.547408e-05 -1.759827e-05 2.160855e-05 2.263486e-05 5.197144e-01 8.281860e-01
3.078765e+09 -9.531250e-01 4.749146e-01 -3.260374e-05 3.103539e-05 5.631894e-05 3.773347e-05 5.010986e-01 8.222046e-01
3.082515e+09 -9.570923e-01 4.765015e-01 -1.213476e-04 -6.368756e-05 5.951524e-05 -1.418591e-05 4.809570e-01 8.191528e-01
3.086265e+09 -9.598999e-01 4.799805e-01 1.886114e-05 5.954504e-05 -1.246110e-06 2.470054e-05 4.609375e-01 8.185425e-01
3.090015e+09 -9.578857e-01 4.821777e-01 8.155406e-05 3.679842e-05 -5.085021e-07 2.207793e-05 4.429321e-01 8.214111e-01
3.093765e+09 -9.553833e-01 4.858398e-01 7.141009e-05 7.157400e-05 -4.886836e-05 -2.450123e-05 4.270630e-01 8.284302e-01
3.097515e+09 -9.509888e-01 4.887085e-01 -7.774308e-05 -4.585832e-05 6.678328e-05 -2.064928e-05 4.127808e-01 8.329468e-01
3.101264e+09 -9.432373e-01 4.888306e-01 -1.967885e-05 2.938323e-05 -2.161041e-05 -2.257898e-05 4.001465e-01 8.368530e-01
3.105014e+09 -9.331665e-01 4.866943e-01 2.283230e-05 -7.060543e-05 1.667067e-05 4.062057e-05 3.874512e-01 8.419800e-01
3.108764e+09 -9.240112e-01 4.808960e-01 1.988746e-05 7.148832e-06 1.384690e-05 -1.008715e-05 3.768921e-01 8.430176e-01
3.112514e+09 -9.154053e-01 4.721069e-01 7.143989e-05 2.314523e-05 -2.114289e-05 1.643319e-05 3.658447e-01 8.489380e-01
3.116264e+09 -9.064331e-01 4.599609e-01 -3.146008e-05 -8.657575e-06 1.601875e-06 -4.663318e-05 3.554077e-01 8.489990e-01
3.120014e+09 -9.046631e-01 4.469604e-01 1.087114e-04 2.310425e-05 4.707277e-05 5.161762e-05 3.442993e-01 8.517456e-01
3.123764e+09 -9.044189e-01 4.349365e-01 -2.712011e-06 -5.148724e-05 -3.789086e-06 -6.606337e-06 3.328247e-01 8.553467e-01
3.127514e+09 -9.068604e-01 4.236450e-01 -2.283230e-05 -2.887100e-06 4.788861e-06 2.370402e-05 3.227539e-01 8.583984e-01
3.131264e+09 -9.130859e-01 4.169922e-01 -3.398210e-05 -5.991384e-05 6.789342e-05 -2.123788e-05 3.127441e-01 8.613892e-01
3.135014e+09 -9.195557e-01 4.104004e-01 -2.000853e-05 4.823133e-05 1.851842e-05 -2.629310e-05 3.035889e-01 8.635254e-01
3.138764e+09 -9.237671e-01 4.114990e-01 1.155585e-05 -9.058416e-05 2.168305e-05 2.589263e-05 2.954712e-01 8.646240e-01
3.142514e+09 -9.249878e-01 4.132080e-01 5.703419e-06 -2.678111e-05 -2.726540e-05 1.561828e-05 2.869873e-01 8.638916e-01
3.146264e+09 -9.241333e-01 4.161377e-01 4.204363e-05 2.818927e-05 6.798282e-05 4.045665e-06 2.775879e-01 8.619385e-01
3.150014e+09 -9.164429e-01 4.187012e-01 1.677033e-05 1.121033e-05 8.322671e-05 3.111362e-05 2.672119e-01 8.591919e-01
3.153764e+09 -9.080811e-01 4.210815e-01 -6.700307e-05 4.588813e-05 -1.878943e-05 6.338581e-06 2.514648e-01 8.576050e-01
3.157514e+09 -8.973389e-01 4.165649e-01 -5.438924e-06 -4.589930e-05 2.756715e-05 4.414096e-05 2.353516e-01 8.556519e-01
3.161264e+09 -8.868408e-01 4.087524e-01 4.437938e-05 7.790700e-05 1.466367e-05 -1.284108e-05 2.171021e-01 8.568726e-01
3.165014e+09 -8.784790e-01 4.002075e-01 -8.352101e-06 -5.996227e-05 -5.117431e-05 -5.817041e-05 1.990967e-01 8.599854e-01
3.168764e+09 -8.711548e-01 3.880615e-01 -2.840534e-06 2.242811e-05 -1.625158e-05 4.002638e-05 1.795654e-01 8.671265e-01
3.172514e+09 -8.673706e-01 3.762817e-01 2.263486e-05 -1.556054e-05 -5.876645e-06 -4.041940e-05 1.639404e-01 8.769531e-01
3.176264e+09 -8.657837e-01 3.640747e-01 -6.305799e-05 7.569790e-05 2.846308e-05 1.878478e-05 1.482544e-01 8.890991e-01
3.180014e+09 -8.643188e-01 3.541260e-01 6.084889e-05 -5.326420e-05 7.342547e-06 3.565662e-05 1.384888e-01 9.028931e-01
3.183764e+09 -8.646240e-01 3.455200e-01 -4.665554e-05 1.302361e-05 1.203828e-05 3.999472e-05 1.310425e-01 9.147949e-01
3.187514e+09 -8.631592e-01 3.355713e-01 -1.455657e-05 -3.509969e-05 1.070276e-05 4.554167e-05 1.265259e-01 9.247437e-01
3.191264e+09 -8.635254e-01 3.257446e-01 1.168437e-05 2.049282e-05 -1.010299e-05 -4.850700e-05 1.234741e-01 9.324341e-01
3.195014e+09 -8.640747e-01 3.161621e-01 -4.079938e-05 4.306436e-06 -2.829358e-05 -1.732260e-06 1.200562e-01 9.373779e-01
3.198764e+09 -8.643188e-01 3.060913e-01 3.192574e-05 -6.648153e-05 4.084408e-05 -2.375059e-05 1.145630e-01 9.403076e-01
3.202514e+09 -8.656616e-01 2.950439e-01 -7.450581e-09 7.449090e-05 4.809722e-05 -7.405877e-06 1.107178e-01 9.403687e-01
3.206264e+09 -8.695068e-01 2.839966e-01 3.974512e-05 6.962940e-05 -1.076609e-05 -2.853107e-06 1.036377e-01 9.416504e-01
3.210014e+09 -8.729248e-01 2.745972e-01 -2.257526e-05 -3.952906e-05 -7.967278e-05 -3.889203e-06 9.454346e-02 9.419556e-01
3.213764e+09 -8.781738e-01 2.671509e-01 5.628169e-05 7.025898e-06 -6.025657e-05 1.000240e-05 8.386230e-02 9.452515e-01
3.217514e+09 -8.842163e-01 2.601929e-01 -9.286404e-05 1.126528e-05 -3.200769e-05 -3.150851e-05 7.281494e-02 9.490356e-01
3.221264e+09 -8.880615e-01 2.550049e-01 -4.238635e-05 -8.300692e-05 -3.091991e-06 3.366545e-05 6.225586e-02 9.519043e-01
3.225014e+09 -8.915405e-01 2.503662e-01 4.522502e-05 4.235655e-05 1.822505e-05 -3.836118e-06 5.133057e-02 9.554443e-01
3.228764e+09 -8.932495e-01 2.458496e-01 -3.694557e-05 2.607703e-08 1.115873e-04 5.494058e-05 4.162598e-02 9.619751e-01
3.232514e+09 -8.933105e-01 2.388916e-01 -1.713727e-05 7.152557e-06 -9.270757e-05 2.697110e-05 2.917480e-02 9.653931e-01
3.236264e+09 -8.928223e-01 2.315674e-01 3.735535e-05 1.865439e-05 -1.453236e-05 -7.484853e-05 1.617432e-02 9.698486e-01
3.240014e+09 -8.911133e-01 2.208252e-01 1.733657e-05 1.155771e-05 3.733858e-05 5.224720e-05 4.455566e-03 9.763794e-01
3.243764e+09 -8.927002e-01 2.077026e-01 1.456030e-05 3.493391e-05 -3.094785e-05 -3.356673e-05 -8.239746e-03 9.862061e-01
3.247514e+09 -8.964844e-01 1.936646e-01 -3.219768e-05 -6.584451e-05 -5.669519e-05 6.488711e-05 -1.995850e-02 9.951782e-01
3.251264e+09 -9.038086e-01 1.786499e-01 -1.469441e-05 2.211705e-05 2.954900e-05 6.210804e-05 -2.960205e-02 1.007690e+00
3.255014e+09 -9.136353e-01 1.657104e-01 -4.442409e-05 -1.041591e-05 -5.077943e-05 -4.585832e-06 -3.912354e-02 1.021851e+00
3.258764e+09 -9.262085e-01 1.549683e-01 2.093613e-05 -8.944422e-05 -1.594424e-05 -5.090609e-05 -4.205322e-02 1.039307e+00
3.262514e+09 -9.393921e-01 1.468506e-01 3.287382e-05 8.976087e-06 -3.435090e-05 -2.662651e-05 -4.156494e-02 1.053467e+00
3.266264e+09 -9.528809e-01 1.424561e-01 3.283843e-05 4.776567e-05 1.260173e-05 -2.669170e-06 -3.619385e-02 1.064514e+00
3.270014e+09 -9.647217e-01 1.403809e-01 -4.463270e-05 -4.902855e-05 4.591420e-06 -4.070997e-05 -2.789307e-02 1.071960e+00
3.273764e+09 -9.750977e-01 1.406860e-01 2.653897e-05 1.767091e-05 7.809140e-06 -6.962568e-06 -2.093506e-02 1.072388e+00
3.277514e+09 -9.815674e-01 1.417236e-01 -7.292628e-05 -2.325699e-05 -6.255135e-05 1.069531e-05 -1.391602e-02 1.067871e+00
3.281264e+09 -9.841919e-01 1.417236e-01 4.621595e-05 2.442673e-05 3.656000e-05 4.204549e-05 -8.972168e-03 1.060425e+00
3.285014e+09 -9.851685e-01 1.404419e-01 5.431473e-05 1.132861e-05 3.693253e-05 -5.208701e-05 -1.208496e-02 1.049683e+00
3.288764e+09 -9.867554e-01 1.374512e-01 5.661976e-06 -8.522999e-06 7.800013e-05 -3.223494e-05 -1.745605e-02 1.040283e+00
3.292514e+09 -9.858398e-01 1.314697e-01 -1.141429e-05 -5.660951e-05 4.503876e-05 2.591684e-05 -2.764893e-02 1.031250e+00
3.296264e+09 -9.871826e-01 1.247559e-01 2.838485e-05 1.269951e-05 1.564808e-05 -3.876537e-05 -3.881836e-02 1.024353e+00
3.300014e+09 -9.886475e-01 1.163330e-01 -5.717203e-05 -2.568588e-05 2.267212e-05 1.080334e-07 -5.480957e-02 1.022583e+00
3.303763e+09 -9.912720e-01 1.086426e-01 2.306513e-05 2.152845e-05 3.604963e-05 -7.804483e-06 -6.793213e-02 1.020203e+00
3.307513e+09 -9.949951e-01 1.003418e-01 -1.158565e-05 7.432327e-05 -2.205744e-05 -2.799556e-06 -8.068848e-02 1.023254e+00
3.311263e+09 -9.985352e-01 9.167480e-02 -2.357364e-05 -6.021559e-05 2.862141e-05 4.450977e-05 -8.966064e-02 1.023254e+00
3.315013e+09 -1.000244e+00 8.306885e-02 -1.214743e-04 -2.957880e-05 -1.313165e-05 5.126745e-05 -9.973145e-02 1.026306e+00
3.318763e+09 -1.002563e+00 7.531738e-02 -4.464760e-05 -1.046807e-05 -8.915365e-05 9.067357e-06 -1.081543e-01 1.027161e+00
3.322513e+09 -1.005554e+00 6.542969e-02 -3.008172e-06 -3.430806e-05 -8.561835e-05 1.607463e-05 -1.169434e-01 1.026489e+00
3.326263e+09 -1.011108e+00 5.426025e-02 -1.789816e-05 -3.129989e-05 -2.160855e-05 3.859587e-05 -1.239624e-01 1.024353e+00
3.330013e+09 -1.016296e+00 4.492188e-02 1.190323e-05 1.469627e-06 1.952425e-05 -6.883405e-06 -1.329956e-01 1.023438e+00
3.333763e+09 -1.023621e+00 3.643799e-02 -5.062297e-05 -5.939975e-05 2.708659e-05 5.764887e-05 -1.424561e-01 1.022705e+00
3.337513e+09 -1.031372e+00 2.862549e-02 9.495020e-05 -4.613400e-05 1.563691e-05 -1.407042e-05 -1.510010e-01 1.022339e+00
3.341263e+09 -1.041077e+00 2.624512e-02 -4.757196e-05 -2.526119e-05 2.480671e-05 4.579872e-05 -1.596069e-01 1.023926e+00
3.345013e+09 -1.047607e+00 2.502441e-02 -2.969801e-05 2.536923e-05 2.301671e-05 -1.853704e-05 -1.655273e-01 1.024963e+00
3.348763e+09 -1.050720e+00 2.886963e-02 2.973014e-06 -4.467554e-06 -2.651103e-05 -1.586974e-05 -1.713867e-01 1.023804e+00
3.352513e+09 -1.049927e+00 3.179932e-02 -8.946285e-06 -2.531148e-05 4.824996e-05 -7.005036e-05 -1.766357e-01 1.021423e+00
3.356263e+09 -1.046204e+00 3.594971e-02 -8.981675e-06 -4.470721e-05 -3.859028e-05 3.270060e-05 -1.812744e-01 1.017456e+00
3.360013e+09 -1.036133e+00 3.564453e-02 -2.381392e-05 3.575906e-05 3.117509e-05 -2.817065e-05 -1.867676e-01 1.013123e+00
3.363763e+09 -1.022522e+00 3.344727e-02 5.942769e-06 -8.937437e-06 6.856024e-05 -1.244992e-05 -1.943359e-01 1.007080e+00
3.367513e+09 -1.008728e+00 2.545166e-02 5.944073e-05 2.668053e-05 -8.332077e-06 9.678304e-06 -2.032471e-01 9.978027e-01
3.371263e+09 -9.947510e-01 1.275635e-02 -4.154816e-05 -1.477450e-05 2.750568e-05 -3.975630e-05 -2.133789e-01 9.912109e-01
3.375013e+09 -9.826050e-01 -4.211426e-03 5.642325e-05 5.045533e-05 7.435679e-05 2.754107e-05 -2.272339e-01 9.873657e-01
3.378763e+09 -9.733276e-01 -2.319336e-02 -8.030236e-05 -5.342811e-05 4.022010e-05 -2.176128e-05 -2.391357e-01 9.844360e-01
3.382513e+09 -9.687500e-01 -4.370117e-02 2.086721e-05 -3.133528e-05 2.873316e-05 1.421198e-06 -2.513428e-01 9.853516e-01
3.386263e+09 -9.653931e-01 -6.335449e-02 -8.990988e-06 -2.537854e-05 -1.516007e-05 3.703311e-05 -2.608032e-01 9.853516e-01
3.390013e+09 -9.657593e-01 -8.233643e-02 -2.694502e-05 1.523644e-06 -9.635463e-06 -3.179535e-05 -2.683716e-01 9.882202e-01
3.393763e+09 -9.686890e-01 -9.851074e-02 8.373708e-05 -9.126961e-06 -7.616356e-06 -4.040077e-05 -2.700195e-01 9.882812e-01
3.397513e+09 -9.716187e-01 -1.131592e-01 5.657226e-05 -2.691522e-05 3.925525e-05 -3.787503e-05 -2.709351e-01 9.851685e-01
3.401263e+09 -9.753418e-01 -1.269531e-01 -5.350634e-05 -1.627579e-05 -2.460554e-05 -4.516542e-05 -2.704468e-01 9.822388e-01
3.405013e+09 -9.782715e-01 -1.385498e-01 1.182966e-05 2.063438e-05 -2.057105e-05 8.184090e-05 -2.720337e-01 9.727173e-01
3.408763e+09 -9.805298e-01 -1.493530e-01 -4.998595e-05 -5.872175e-05 -1.488626e-05 3.533997e-05 -2.745972e-01 9.624634e-01
3.412513e+09 -9.831543e-01 -1.595459e-01 7.603690e-05 -1.913682e-05 1.771003e-05 7.351488e-05 -2.798462e-01 9.489136e-01
3.416263e+09 -9.859009e-01 -1.690674e-01 -4.975125e-05 -5.844980e-05 2.679229e-05 6.074831e-05 -2.879028e-01 9.359741e-01
3.420013e+09 -9.883423e-01 -1.762695e-01 4.696846e-05 8.203834e-05 -1.914799e-05 -9.155273e-05 -3.002930e-01 9.234009e-01
3.423763e+09 -9.912720e-01 -1.846924e-01 -6.194785e-05 -2.210587e-05 -3.807619e-05 -1.548789e-05 -3.111572e-01 9.138794e-01
3.427513e+09 -9.930420e-01 -1.893921e-01 8.907169e-06 4.465133e-05 -1.348741e-05 -4.232116e-05 -3.230591e-01 9.054565e-01
3.431263e+09 -9.944458e-01 -1.942749e-01 -6.315857e-05 -3.073364e-06 -4.383549e-05 -4.089624e-05 -3.366089e-01 8.987427e-01
3.435013e+09 -9.923706e-01 -1.976929e-01 -9.399652e-05 -3.638119e-05 7.554889e-05 -6.228313e-05 -3.464355e-01 8.912354e-01
3.438763e+09 -9.890137e-01 -2.008667e-01 -3.058929e-06 4.588393e-06 1.626369e-05 -1.700595e-05 -3.565063e-01 8.863525e-01
3.442513e+09 -9.830933e-01 -2.038574e-01 2.149120e-05 -1.230277e-05 1.349393e-05 1.836754e-05 -3.647461e-01 8.788452e-01
3.446263e+09 -9.763184e-01 -2.107544e-01 -3.697351e-05 1.540594e-05 -9.873882e-06 1.559965e-05 -3.753662e-01 8.726196e-01
3.450013e+09 -9.687500e-01 -2.197876e-01 -6.139278e-06 4.932657e-05 1.134444e-05 2.813525e-06 -3.846436e-01 8.669434e-01
3.453763e+09 -9.628296e-01 -2.312012e-01 -3.696233e-05 -8.457154e-05 -2.326071e-05 6.962940e-05 -3.941040e-01 8.594971e-01
3.457513e+09 -9.575806e-01 -2.427368e-01 -1.223013e-05 7.822365e-05 -3.618002e-05 4.841015e-05 -4.040527e-01 8.542480e-01
3.461263e+09 -9.560547e-01 -2.548828e-01 1.526251e-05 -4.277006e-05 8.583441e-05 2.111867e-05 -4.140015e-01 8.489380e-01
3.465013e+09 -9.584961e-01 -2.687378e-01 -6.090477e-05 -7.536262e-06 5.261600e-05 5.879998e-05 -4.217529e-01 8.453369e-01
3.468763e+09 -9.608765e-01 -2.780762e-01 1.822412e-05 3.185868e-05 -1.386367e-05 -4.324876e-05 -4.305420e-01 8.419800e-01
3.472513e+09 -9.659424e-01 -2.852173e-01 -9.017065e-06 3.323890e-05 1.041740e-04 -2.358109e-05 -4.356079e-01 8.364258e-01
3.476263e+09 -9.710693e-01 -2.889404e-01 -3.013760e-06 -3.461912e-05 3.831461e-05 -3.059395e-05 -4.400635e-01 8.315430e-01
3.480013e+09 -9.735107e-01 -2.915649e-01 -2.995692e-05 6.016344e-06 -2.229773e-05 4.059635e-05 -4.432983e-01 8.242798e-01
3.483763e+09 -9.753418e-01 -2.902222e-01 1.484901e-05 -4.183128e-05 3.880076e-05 -3.329106e-05 -4.462891e-01 8.150635e-01
3.487513e+09 -9.731445e-01 -2.888794e-01 3.283285e-05 2.823956e-05 5.784631e-05 -1.313537e-05 -4.515991e-01 8.046265e-01
3.491263e+09 -9.707031e-01 -2.875977e-01 5.947426e-05 -5.068630e-05 1.292769e-05 2.127234e-05 -4.586182e-01 7.914429e-01
3.495013e+09 -9.645996e-01 -2.881470e-01 1.192093e-05 1.477078e-06 4.221313e-05 -2.565235e-05 -4.672241e-01 7.772217e-01
3.498763e+09 -9.595947e-01 -2.908936e-01 -4.495308e-05 -2.987310e-05 -5.396456e-05 4.953891e-05 -4.801636e-01 7.648926e-01
3.502512e+09 -9.551392e-01 -2.941284e-01 -3.628433e-05 -6.330758e-05 1.741201e-05 -4.660338e-05 -4.923706e-01 7.551270e-01
3.506262e+09 -9.512329e-01 -2.979736e-01 -3.055297e-05 -3.356487e-05 7.077307e-05 5.297363e-06 -5.072021e-01 7.489014e-01
3.510012e+09 -9.491577e-01 -3.007202e-01 -1.490116e-08 6.005913e-05 -6.340817e-05 1.177192e-05 -5.219727e-01 7.406006e-01
3.513762e+09 -9.459839e-01 -3.042603e-01 8.094311e-05 -6.069243e-05 -3.941357e-06 6.622449e-05 -5.330200e-01 7.385864e-01
3.517512e+09 -9.430542e-01 -3.057861e-01 -4.391000e-05 4.551560e-05 -1.817942e-06 5.809963e-05 -5.433960e-01 7.374878e-01
3.521262e+09 -9.407959e-01 -3.046875e-01 5.032122e-05 -7.552281e-05 -2.415851e-05 -2.758577e-06 -5.509033e-01 7.340088e-01
3.525012e+09 -9.345093e-01 -3.050537e-01 1.886766e-05 1.255702e-05 1.380220e-05 -3.092922e-05 -5.566406e-01 7.291870e-01
3.528762e+09 -9.289551e-01 -3.050537e-01 1.256913e-05 6.258115e-05 -5.617738e-06 4.864112e-05 -5.617065e-01 7.244263e-01
3.532512e+09 -9.207153e-01 -3.052368e-01 2.487004e-05 8.386374e-05 -4.629418e-05 1.060963e-05 -5.664673e-01 7.161865e-01
3.536262e+09 -9.129028e-01 -3.092041e-01 -5.251914e-05 -1.216531e-04 5.411729e-05 -4.298612e-05 -5.732422e-01 7.071838e-01
3.540012e+09 -9.022217e-01 -3.134155e-01 1.490116e-08 1.984462e-05 2.027489e-05 -3.230013e-05 -5.791931e-01 6.961060e-01
3.543762e+09 -8.955078e-01 -3.181152e-01 -3.036670e-05 -3.337488e-05 1.421943e-05 4.364923e-05 -5.905151e-01 6.853943e-01
3.547512e+09 -8.899536e-01 -3.249512e-01 1.209602e-05 2.116896e-05 2.544373e-05 -3.099442e-06 -6.024170e-01 6.753845e-01
3.551262e+09 -8.850708e-01 -3.312988e-01 4.226714e-05 3.467128e-05 5.480275e-05 5.331635e-05 -6.145630e-01 6.669617e-01
3.555012e+09 -8.806763e-01 -3.352051e-01 3.929809e-05 -1.862645e-09 -3.598258e-05 -5.472824e-05 -6.289368e-01 6.603088e-01
3.558762e+09 -8.760376e-01 -3.398438e-01 2.123415e-05 -1.212955e-05 -5.315989e-05 4.231930e-05 -6.422424e-01 6.546631e-01
3.562512e+09 -8.721313e-01 -3.441162e-01 -3.353134e-05 -2.891384e-05 -2.881140e-05 9.400398e-05 -6.545105e-01 6.506348e-01
3.566262e+09 -8.661499e-01 -3.474731e-01 4.586950e-05 1.066178e-05 5.587935e-08 -7.629767e-05 -6.670532e-01 6.459656e-01
3.570012e+09 -8.585815e-01 -3.520508e-01 -2.148375e-05 -6.745011e-05 1.649186e-05 8.309260e-05 -6.786804e-01 6.417847e-01
3.573762e+09 -8.497925e-01 -3.588867e-01 2.152473e-05 7.681549e-06 3.012642e-05 1.188368e-06 -6.917114e-01 6.378174e-01
3.577512e+09 -8.426514e-01 -3.663330e-01 6.210059e-06 5.081296e-05 4.367903e-05 7.114932e-05 -7.034912e-01 6.346130e-01
3.581262e+09 -8.352661e-01 -3.765259e-01 3.089756e-05 -6.217510e-06 1.536310e-05 3.713369e-05 -7.168579e-01 6.334839e-01
3.585012e+09 -8.308716e-01 -3.892212e-01 3.403798e-05 9.287149e-06 -4.364923e-05 -4.711747e-05 -7.310791e-01 6.311035e-01
3.588762e+09 -8.285522e-01 -4.013672e-01 4.342198e-05 3.563613e-05 -2.344698e-05 -3.014132e-05 -7.435303e-01 6.326904e-01
3.592512e+09 -8.283691e-01 -4.126587e-01 4.037842e-05 -1.490116e-08 -1.496077e-05 -4.063919e-05 -7.543335e-01 6.376343e-01
3.596262e+09 -8.306885e-01 -4.229126e-01 -3.109127e-05 -5.439669e-05 5.387515e-05 3.455952e-05 -7.628174e-01 6.423340e-01
3.600012e+09 -8.325806e-01 -4.312744e-01 -9.295531e-06 -6.210525e-06 1.295283e-05 4.988536e-05 -7.672729e-01 6.467285e-01
3.603762e+09 -8.359985e-01 -4.368896e-01 -4.013628e-05 -2.003089e-05 -4.757568e-05 -3.635511e-05 -7.698364e-01 6.502686e-01
3.607512e+09 -8.375854e-01 -4.401855e-01 1.840945e-05 -7.682480e-06 7.630512e-05 -3.177300e-05 -7.688599e-01 6.516724e-01
3.611262e+09 -8.375854e-01 -4.437866e-01 -1.525506e-05 -3.657117e-05 5.891174e-05 1.406297e-05 -7.678223e-01 6.483765e-01
3.615012e+09 -8.347778e-01 -4.459839e-01 3.032014e-05 7.271022e-05 -8.927658e-06 -1.449324e-05 -7.658691e-01 6.429443e-01
3.618762e+09 -8.311768e-01 -4.500122e-01 -6.631017e-05 4.072115e-05 -7.906463e-06 7.351860e-06 -7.675171e-01 6.323853e-01
3.622512e+09 -8.250732e-01 -4.566650e-01 1.807418e-05 1.205597e-05 7.433817e-06 2.016034e-05 -7.725830e-01 6.216431e-01
3.626262e+09 -8.212280e-01 -4.624023e-01 1.210719e-05 -3.775395e-05 3.971532e-05 6.438419e-05 -7.794800e-01 6.113281e-01
3.630012e+09 -8.163452e-01 -4.722290e-01 3.017485e-06 -2.432615e-05 -2.054684e-05 3.486499e-05 -7.899780e-01 6.011963e-01
3.633762e+09 -8.149414e-01 -4.805908e-01 -1.849607e-05 4.758313e-05 -6.686524e-05 4.861131e-05 -8.043823e-01 5.937500e-01
3.637512e+09 -8.128052e-01 -4.908447e-01 -1.542643e-05 -5.739182e-05 -4.261360e-05 -2.865121e-05 -8.168335e-01 5.888062e-01
3.641262e+09 -8.100586e-01 -4.982300e-01 7.520616e-05 1.112372e-04 -5.766749e-06 -5.412847e-05 -8.287354e-01 5.889893e-01
3.645012e+09 -8.074951e-01 -5.068970e-01 1.268461e-05 -3.948808e-05 4.342943e-05 9.294599e-07 -8.411865e-01 5.875244e-01
3.648762e+09 -8.060303e-01 -5.166626e-01 -8.586049e-05 4.678965e-06 3.956072e-05 -3.451668e-05 -8.506470e-01 5.905762e-01
3.652512e+09 -8.037720e-01 -5.252075e-01 9.505357e-10 -1.888907e-10 -2.978370e-05 -7.061288e-06 -8.569336e-01 5.917969e-01
3.656262e+09 -8.013306e-01 -5.366211e-01 -4.142523e-05 6.204471e-05 5.981699e-05 -3.947690e-05 -8.629150e-01 5.953979e-01
3.660012e+09 -7.982178e-01 -5.495605e-01 -8.568913e-05 -1.594424e-05 5.200133e-05 4.708022e-05 -8.677979e-01 5.968628e-01
3.663762e+09 -7.990112e-01 -5.633545e-01 9.468198e-05 2.233684e-05 1.185760e-05 5.655363e-05 -8.712769e-01 5.968628e-01
3.667512e+09 -8.013916e-01 -5.776978e-01 -1.560897e-05 -7.869303e-05 -4.682690e-06 4.643574e-05 -8.732910e-01 6.000977e-01
3.671262e+09 -8.091431e-01 -5.915527e-01 6.482005e-06 -1.112297e-04 5.381927e-05 -1.266971e-05 -8.750610e-01 6.003418e-01
3.675012e+09 -8.172607e-01 -6.045532e-01 9.989738e-05 1.268089e-05 -4.196540e-05 6.968901e-05 -8.741455e-01 6.019897e-01
3.678762e+09 -8.312988e-01 -6.105957e-01 6.226450e-05 7.838011e-06 1.241639e-05 2.842583e-05 -8.697510e-01 6.038208e-01
3.682512e+09 -8.446045e-01 -6.130371e-01 -1.234561e-05 -8.258969e-05 -2.382509e-05 1.985952e-05 -8.668213e-01 6.038208e-01
3.686262e+09 -8.563232e-01 -6.106567e-01 1.254305e-05 -5.909055e-05 -1.805648e-05 -4.267320e-06 -8.602295e-01 6.004639e-01
3.690012e+09 -8.633423e-01 -6.019287e-01 4.966184e-05 2.645329e-05 4.642457e-05 1.728907e-05 -8.520508e-01 5.942993e-01
3.693762e+09 -8.649902e-01 -5.917969e-01 -9.311363e-06 -6.215181e-06 1.707952e-05 7.169321e-06 -8.442383e-01 5.852661e-01
3.697512e+09 -8.630981e-01 -5.807495e-01 -3.105402e-05 6.654114e-05 -2.564490e-05 3.289431e-06 -8.377075e-01 5.706787e-01
3.701261e+09 -8.535767e-01 -5.728149e-01 -9.277835e-06 -2.631545e-05 -3.684312e-05 2.533384e-05 -8.354492e-01 5.543213e-01
3.705011e+09 -8.403320e-01 -5.680542e-01 8.044392e-05 4.033744e-05 2.398714e-05 5.484000e-05 -8.353271e-01 5.352173e-01
3.708761e+09 -8.261719e-01 -5.660400e-01 -2.487935e-05 3.723055e-05 4.460663e-05 1.964718e-05 -8.413086e-01 5.178223e-01
3.712511e+09 -8.118896e-01 -5.691528e-01 4.382432e-05 -8.569658e-05 7.439032e-05 5.138665e-05 -8.493652e-01 5.014648e-01
3.716261e+09 -7.977905e-01 -5.733032e-01 2.505630e-05 2.357922e-05 -1.689047e-05 4.575029e-05 -8.600464e-01 4.885864e-01
3.720011e+09 -7.866211e-01 -5.817261e-01 -1.415610e-07 8.216500e-05 -1.392793e-06 5.951617e-06 -8.717651e-01 4.804688e-01
3.723761e+09 -7.763062e-01 -5.887451e-01 5.397573e-05 4.306063e-05 4.982576e-05 3.064424e-05 -8.836670e-01 4.748535e-01
3.727511e+09 -7.673950e-01 -5.972290e-01 -3.502890e-05 -3.034249e-05 -1.529977e-05 3.797002e-05 -8.908691e-01 4.735718e-01
3.731261e+09 -7.606201e-01 -6.044922e-01 1.242980e-04 4.170835e-05 -5.639344e-05 -6.709248e-06 -8.959351e-01 4.721069e-01
3.735011e+09 -7.488403e-01 -6.103516e-01 -6.368756e-05 3.336370e-05 5.390262e-06 4.477566e-06 -8.981934e-01 4.714966e-01
3.738761e+09 -7.404175e-01 -6.174316e-01 -9.452924e-06 -2.690777e-05 5.260110e-05 5.084276e-05 -8.966675e-01 4.693604e-01
3.742511e+09 -7.282715e-01 -6.264648e-01 -2.204254e-05 1.255795e-05 2.830662e-05 1.622736e-05 -8.942261e-01 4.653320e-01
3.746261e+09 -7.188721e-01 -6.339722e-01 -5.010888e-05 3.438443e-05 -1.381896e-05 3.187545e-05 -8.908081e-01 4.583130e-01
3.750011e+09 -7.119141e-01 -6.450806e-01 -6.856769e-05 -5.942583e-05 2.881698e-05 1.305155e-05 -8.893433e-01 4.497681e-01
3.753761e+09 -7.033081e-01 -6.572876e-01 -3.114529e-05 -3.433600e-05 -3.458001e-05 3.963523e-05 -8.865967e-01 4.406738e-01
3.757511e+09 -6.979980e-01 -6.691284e-01 3.121048e-05 1.410209e-05 5.719811e-05 -2.792105e-05 -8.855591e-01 4.291992e-01
3.761261e+09 -6.964722e-01 -6.793213e-01 9.536743e-06 -1.162067e-04 1.182035e-05 -5.119294e-05 -8.861084e-01 4.202881e-01
3.765011e+09 -6.928101e-01 -6.878052e-01 -6.403774e-06 7.103011e-05 4.394352e-05 2.919883e-05 -8.859863e-01 4.098511e-01
3.768761e+09 -6.904297e-01 -6.958008e-01 4.762784e-05 -9.447336e-06 -3.264099e-05 -2.347305e-05 -8.848877e-01 4.001465e-01
3.772511e+09 -6.870728e-01 -6.970215e-01 -1.276191e-05 -1.620501e-06 1.318567e-05 2.524070e-05 -8.853760e-01 3.903809e-01
3.776261e+09 -6.820068e-01 -7.006226e-01 -5.434453e-05 -1.691282e-06 -3.100745e-05 2.447516e-05 -8.838501e-01 3.787842e-01
3.780011e+09 -6.753540e-01 -7.027588e-01 -3.293157e-06 6.712228e-05 4.944205e-05 8.725375e-05 -8.828735e-01 3.664551e-01
3.783761e+09 -6.660156e-01 -7.066650e-01 -8.933991e-05 -3.208965e-05 1.137704e-05 8.790940e-05 -8.825073e-01 3.530273e-01
3.787511e+09 -6.542358e-01 -7.138062e-01 1.279265e-05 -3.974140e-05 1.011789e-04 5.500019e-05 -8.826294e-01 3.384399e-01
3.791261e+09 -6.426392e-01 -7.218628e-01 -5.080178e-05 -6.396323e-06 1.342036e-05 -3.245659e-06 -8.871460e-01 3.243408e-01
3.795011e+09 -6.343994e-01 -7.297363e-01 -7.915497e-05 -4.612654e-05 6.365031e-05 -8.384511e-05 -8.919678e-01 3.114014e-01
3.798761e+09 -6.259155e-01 -7.416992e-01 -1.254678e-05 -6.336719e-05 9.036809e-05 -8.769333e-05 -8.995972e-01 2.996216e-01
3.802511e+09 -6.226807e-01 -7.536011e-01 2.215430e-05 7.953495e-06 2.507120e-06 -6.683543e-05 -9.061279e-01 2.922974e-01
3.806261e+09 -6.173096e-01 -7.642212e-01 6.221235e-06 5.218014e-05 4.401058e-05 3.268942e-05 -9.125977e-01 2.850952e-01
3.810011e+09 -6.156006e-01 -7.727051e-01 5.678087e-05 3.798306e-05 -6.835442e-06 1.654495e-06 -9.157715e-01 2.820435e-01
3.813761e+09 -6.145020e-01 -7.786865e-01 3.146566e-05 1.419522e-05 1.464412e-05 4.849583e-05 -9.177246e-01 2.772217e-01
3.817511e+09 -6.127930e-01 -7.827148e-01 6.610528e-05 -5.808100e-05 -2.860650e-05 1.273863e-05 -9.169922e-01 2.741089e-01
3.821261e+09 -6.099854e-01 -7.859497e-01 -4.701316e-05 2.966449e-05 -4.515052e-05 -2.623722e-05 -9.128418e-01 2.681885e-01
3.825011e+09 -6.052246e-01 -7.904663e-01 3.743917e-05 6.557629e-05 -3.675371e-05 -3.384613e-05 -9.097900e-01 2.602539e-01
3.828761e+09 -5.988159e-01 -7.921143e-01 -5.925819e-05 -1.259521e-05 -5.479530e-05 1.908466e-05 -9.066162e-01 2.496338e-01
3.832511e+09 -5.915527e-01 -7.965698e-01 8.445233e-05 -6.551296e-05 -3.788434e-05 7.729977e-07 -9.046021e-01 2.384644e-01
3.836261e+09 -5.860596e-01 -8.045044e-01 -3.080815e-06 -3.609620e-05 3.733113e-05 -2.605096e-05 -9.042358e-01 2.267456e-01
3.840011e+09 -5.819702e-01 -8.106689e-01 -1.600385e-05 8.521229e-05 1.695380e-05 6.369129e-05 -9.049072e-01 2.141724e-01
3.843761e+09 -5.782471e-01 -8.167725e-01 1.608580e-05 -6.525218e-05 -4.528090e-06 -3.578328e-05 -9.064331e-01 2.051392e-01
3.847511e+09 -5.769653e-01 -8.224487e-01 -2.245605e-05 1.276098e-05 -6.359816e-05 -5.577877e-05 -9.080200e-01 1.954346e-01
3.851261e+09 -5.767822e-01 -8.272705e-01 -4.199147e-05 2.092496e-05 1.999363e-05 8.136779e-05 -9.095459e-01 1.894531e-01
3.855011e+09 -5.754395e-01 -8.276978e-01 -4.533678e-05 4.731119e-06 1.234934e-05 -2.613291e-05 -9.089966e-01 1.806030e-01
3.858761e+09 -5.753784e-01 -8.276367e-01 6.456859e-06 1.133606e-05 7.748604e-05 8.532405e-05 -9.061279e-01 1.740723e-01
3.862511e+09 -5.715332e-01 -8.276367e-01 7.404387e-05 3.563240e-05 -2.194382e-05 1.120381e-05 -9.013672e-01 1.626587e-01
3.866261e+09 -5.675049e-01 -8.241577e-01 -5.450845e-05 -4.345179e-05 -1.705997e-05 -1.033209e-05 -8.969116e-01 1.538086e-01
3.870011e+09 -5.627441e-01 -8.236084e-01 4.145503e-05 4.164129e-05 5.463604e-06 4.464760e-06 -8.935547e-01 1.400757e-01
3.873761e+09 -5.564575e-01 -8.230591e-01 -3.114343e-06 -5.717948e-05 3.064424e-05 3.609061e-05 -8.894653e-01 1.266479e-01
3.877511e+09 -5.509033e-01 -8.245850e-01 2.859533e-05 -4.276261e-05 -8.341670e-05 -3.176183e-05 -8.889160e-01 1.115723e-01
3.881261e+09 -5.454102e-01 -8.245239e-01 -2.535433e-05 -3.242865e-06 4.773494e-06 7.552095e-06 -8.890991e-01 9.710693e-02
3.885011e+09 -5.415039e-01 -8.244019e-01 9.541214e-05 -8.081645e-05 -6.008893e-06 -5.969778e-05 -8.911133e-01 8.337402e-02
3.888761e+09 -5.378418e-01 -8.198853e-01 2.864003e-05 -1.536682e-06 2.011657e-06 1.986790e-05 -8.933716e-01 7.012939e-02
3.892511e+09 -5.341797e-01 -8.184204e-01 3.503263e-05 3.034063e-05 8.787960e-06 4.730746e-05 -8.943481e-01 5.841064e-02
3.896261e+09 -5.285645e-01 -8.128052e-01 2.242252e-05 -3.355742e-05 6.413087e-05 5.966797e-05 -8.965454e-01 4.791260e-02
3.900010e+09 -5.218506e-01 -8.048096e-01 -8.632243e-05 4.630536e-05 -3.477000e-05 -1.741759e-05 -8.956299e-01 3.710938e-02
3.903760e+09 -5.101929e-01 -7.976074e-01 -5.120412e-05 5.580485e-05 -5.078316e-05 -3.062189e-05 -8.946533e-01 2.410889e-02
3.907510e+09 -4.956665e-01 -7.918091e-01 4.461408e-05 -4.723668e-06 2.287142e-05 4.020892e-05 -8.936157e-01 1.049805e-02
3.911260e+09 -4.801636e-01 -7.883911e-01 1.275633e-05 -1.906790e-05 2.823398e-05 1.582690e-05 -8.934326e-01 -5.249023e-03
3.915010e+09 -4.624023e-01 -7.886963e-01 2.530962e-05 6.519258e-05 4.301965e-05 -2.207235e-05 -8.949585e-01 -2.124023e-02
3.918760e+09 -4.461060e-01 -7.912598e-01 -2.876297e-05 4.296005e-05 4.026573e-06 1.042616e-05 -9.008789e-01 -3.845215e-02
3.922510e+09 -4.301758e-01 -7.977905e-01 1.294911e-05 -8.149445e-05 -2.895854e-05 -4.155934e-05 -9.067383e-01 -5.346680e-02
3.926260e+09 -4.186401e-01 -8.051758e-01 -7.046759e-05 -1.931936e-05 2.108514e-05 -3.702193e-05 -9.146729e-01 -6.713867e-02
3.930010e+09 -4.083252e-01 -8.148804e-01 -6.146729e-08 2.093241e-05 3.365427e-05 -6.361678e-05 -9.243774e-01 -7.867432e-02
3.933760e+09 -4.030151e-01 -8.211060e-01 -2.257898e-05 -8.108094e-06 4.134327e-05 1.895428e-05 -9.322510e-01 -8.624268e-02
3.937510e+09 -4.006348e-01 -8.268433e-01 1.286343e-05 2.261065e-05 2.786517e-06 7.580966e-05 -9.378662e-01 -9.143066e-02
3.941260e+09 -3.963623e-01 -8.309326e-01 1.598150e-05 8.051842e-05 -2.012216e-05 -2.740324e-05 -9.417114e-01 -9.582520e-02
3.945010e+09 -3.918457e-01 -8.310547e-01 1.057163e-04 9.145588e-05 -9.712763e-06 -1.522433e-05 -9.404907e-01 -1.005249e-01
3.948760e+09 -3.861084e-01 -8.299561e-01 -9.599142e-06 1.434889e-05 4.138798e-05 1.894683e-05 -9.394531e-01 -1.077271e-01
3.952510e+09 -3.786011e-01 -8.285522e-01 -8.578598e-05 4.611909e-06 -4.459918e-05 8.412451e-05 -9.362183e-01 -1.172485e-01
3.956260e+09 -3.696899e-01 -8.267212e-01 -3.156438e-05 -7.610396e-05 -3.347546e-05 5.483627e-06 -9.328613e-01 -1.290894e-01
3.960010e+09 -3.596191e-01 -8.260498e-01 3.487617e-05 -1.105666e-05 -1.564994e-05 4.156865e-05 -9.316406e-01 -1.439209e-01
3.963760e+09 -3.499146e-01 -8.267212e-01 -1.598522e-05 6.511435e-05 4.359335e-05 -2.252311e-05 -9.314575e-01 -1.604004e-01
3.967510e+09 -3.398438e-01 -8.278809e-01 -5.122647e-05 3.510341e-05 3.545731e-05 -1.474470e-05 -9.360352e-01 -1.784668e-01
3.971260e+09 -3.287354e-01 -8.303223e-01 9.585172e-06 2.740882e-05 -1.375377e-05 -2.568401e-05 -9.425659e-01 -1.937866e-01
3.975010e+09 -3.195190e-01 -8.319092e-01 6.179884e-05 -5.019829e-05 3.796443e-05 6.363168e-05 -9.503174e-01 -2.091064e-01
3.978760e+09 -3.084717e-01 -8.341064e-01 -8.496642e-05 2.108514e-05 -5.122274e-05 -6.350502e-05 -9.602051e-01 -2.207031e-01
3.982510e+09 -2.983398e-01 -8.350220e-01 -3.235415e-06 -1.638476e-05 9.696931e-05 4.969537e-06 -9.682007e-01 -2.310181e-01
3.986260e+09 -2.863159e-01 -8.370972e-01 2.956204e-05 -2.289750e-05 -4.561618e-05 5.869940e-05 -9.777222e-01 -2.403564e-01
3.990010e+09 -2.713013e-01 -8.397827e-01 6.871298e-05 2.473965e-05 6.152317e-05 -7.152930e-05 -9.866333e-01 -2.479248e-01
3.993760e+09 -2.589722e-01 -8.436279e-01 -2.936646e-05 1.560897e-06 8.993596e-05 -2.281368e-05 -9.954224e-01 -2.538452e-01
3.997510e+09 -2.425537e-01 -8.510132e-01 5.524978e-05 -1.941994e-05 -4.873145e-06 -7.594004e-06 -1.004517e+00 -2.576294e-01
4.001260e+09 -2.273560e-01 -8.612671e-01 9.691343e-06 6.472692e-06 -7.424504e-05 -7.828698e-05 -1.013428e+00 -2.615356e-01
4.005010e+09 -2.160034e-01 -8.760376e-01 -1.256689e-04 6.262213e-05 -1.441613e-04 3.060699e-05 -1.021362e+00 -2.633057e-01
4.008760e+09 -2.074585e-01 -8.891602e-01 -7.081777e-05 1.493841e-06 -4.920736e-05 1.541525e-05 -1.031860e+00 -2.633057e-01
4.012510e+09 -2.026367e-01 -9.051514e-01 4.491955e-05 -4.667789e-06 -1.548976e-05 -4.926696e-05 -1.035278e+00 -2.600708e-01
4.016260e+09 -2.019653e-01 -9.205933e-01 -8.665025e-05 2.548844e-05 -8.261204e-05 4.761666e-05 -1.038635e+00 -2.537842e-01
4.020010e+09 -2.041626e-01 -9.347534e-01 -9.518117e-06 -6.895512e-05 4.723668e-05 -6.094575e-06 -1.038269e+00 -2.453003e-01
4.023760e+09 -2.085571e-01 -9.450684e-01 -7.683784e-05 -3.062189e-05 -4.919618e-05 1.544133e-05 -1.031860e+00 -2.396240e-01
4.027510e+09 -2.156982e-01 -9.501343e-01 6.729737e-05 -5.906448e-05 -3.622472e-05 7.678568e-05 -1.020752e+00 -2.346802e-01
4.031260e+09 -2.205200e-01 -9.522095e-01 1.592748e-05 3.838725e-05 7.073581e-05 2.391636e-06 -1.006531e+00 -2.333984e-01
4.035010e+09 -2.220459e-01 -9.534912e-01 3.210455e-05 -6.871298e-05 1.683086e-05 -4.795566e-05 -9.927979e-01 -2.366333e-01
4.038760e+09 -2.213135e-01 -9.524536e-01 -3.528967e-05 1.111813e-05 1.551583e-05 -4.168041e-05 -9.780884e-01 -2.449341e-01
4.042510e+09 -2.195435e-01 -9.512939e-01 -2.559647e-05 -6.610155e-05 4.893169e-05 -4.727766e-05 -9.666138e-01 -2.573242e-01
4.046260e+09 -2.180786e-01 -9.517212e-01 1.307949e-05 -6.145984e-05 -2.000481e-06 9.260606e-06 -9.574585e-01 -2.700806e-01
4.050010e+09 -2.147217e-01 -9.524536e-01 -6.836653e-05 -3.430992e-06 2.350099e-05 1.159683e-05 -9.512329e-01 -2.847290e-01
4.053760e+09 -2.108765e-01 -9.533691e-01 -2.952665e-05 1.592562e-06 -5.070120e-05 -7.718801e-06 -9.484863e-01 -2.975464e-01
4.057510e+09 -2.093506e-01 -9.550781e-01 5.278736e-05 -3.614649e-05 7.891655e-05 -2.911687e-05 -9.462891e-01 -3.082275e-01
4.061260e+09 -2.062378e-01 -9.564819e-01 -7.581338e-05 -5.788356e-05 -3.105029e-05 -1.003221e-05 -9.453735e-01 -3.158569e-01
4.065010e+09 -2.023315e-01 -9.547729e-01 6.614998e-05 -3.452972e-05 -4.609302e-05 -3.324077e-05 -9.445190e-01 -3.236694e-01
4.068760e+09 -1.989746e-01 -9.542236e-01 2.308004e-05 -1.313910e-05 6.830692e-05 -3.862381e-05 -9.420776e-01 -3.292236e-01
4.072510e+09 -1.916504e-01 -9.555664e-01 -3.926642e-05 -5.021691e-06 5.142763e-05 -2.221018e-05 -9.364014e-01 -3.344116e-01
4.076260e+09 -1.865234e-01 -9.545898e-01 -2.604537e-05 1.783296e-05 -2.383813e-05 1.809373e-05 -9.306641e-01 -3.385620e-01
4.080010e+09 -1.785278e-01 -9.570923e-01 -3.236532e-05 -1.464039e-05 -6.859004e-05 4.141405e-05 -9.252930e-01 -3.460693e-01
4.083760e+09 -1.715698e-01 -9.615479e-01 -6.455928e-05 -2.917647e-05 6.196648e-05 4.966930e-05 -9.194946e-01 -3.534546e-01
4.087510e+09 -1.644897e-01 -9.661255e-01 -1.265854e-05 -8.562952e-05 -5.669147e-05 -1.229718e-05 -9.144287e-01 -3.607178e-01
4.091260e+09 -1.637573e-01 -9.746094e-01 1.004413e-04 -4.525483e-05 5.321205e-05 -1.758337e-06 -9.090576e-01 -3.670044e-01
4.095010e+09 -1.620483e-01 -9.806519e-01 1.949258e-05 1.308788e-05 1.570210e-06 2.348050e-05 -9.053955e-01 -3.740234e-01
4.098760e+09 -1.629639e-01 -9.866333e-01 -5.881116e-05 -6.071106e-05 -5.795434e-05 5.377084e-05 -9.019165e-01 -3.776245e-01
4.102509e+09 -1.665649e-01 -9.883423e-01 1.668558e-05 -6.744266e-05 6.791949e-05 -3.842637e-05 -8.955078e-01 -3.806763e-01
4.106259e+09 -1.713257e-01 -9.868774e-01 9.230524e-05 1.169741e-05 4.709139e-05 -3.170222e-06 -8.872681e-01 -3.820190e-01
4.110009e+09 -1.728516e-01 -9.824219e-01 -3.110617e-06 -5.954504e-05 1.019239e-05 4.522875e-05 -8.782959e-01 -3.852539e-01
4.113759e+09 -1.718140e-01 -9.751587e-01 -2.309866e-05 -8.312985e-06 5.142391e-05 -5.507097e-05 -8.665161e-01 -3.887329e-01
4.117509e+09 -1.691895e-01 -9.669800e-01 -7.262826e-05 8.703023e-05 -4.547462e-05 -3.073364e-06 -8.517456e-01 -3.937378e-01
4.121259e+09 -1.617432e-01 -9.595337e-01 -1.662225e-05 6.724522e-05 -1.552980e-05 -1.977198e-05 -8.386230e-01 -4.028320e-01
4.125009e+09 -1.542969e-01 -9.532471e-01 2.287887e-05 8.206815e-06 9.795278e-05 -5.815178e-05 -8.255005e-01 -4.122314e-01
4.128759e+09 -1.399536e-01 -9.494019e-01 8.182228e-05 -1.607090e-05 1.800060e-05 -2.252869e-05 -8.149414e-01 -4.262085e-01
4.132509e+09 -1.295166e-01 -9.470825e-01 -7.844344e-05 5.364046e-05 3.319047e-05 3.023446e-05 -8.049316e-01 -4.381104e-01
4.136259e+09 -1.203613e-01 -9.482422e-01 -4.883111e-05 -9.660423e-05 -2.637692e-05 -3.221445e-05 -7.988892e-01 -4.517212e-01
4.140009e+09 -1.106567e-01 -9.480591e-01 6.873906e-05 2.468005e-05 -1.752470e-05 1.960341e-05 -7.946167e-01 -4.619141e-01
4.143759e+09 -1.049194e-01 -9.468384e-01 -5.231798e-05 -2.801418e-05 -3.129244e-05 -1.000986e-05 -7.894897e-01 -4.728394e-01
4.147509e+09 -9.600830e-02 -9.460449e-01 -3.588200e-05 -3.119558e-05 2.489239e-05 8.681789e-06 -7.837524e-01 -4.805908e-01
4.151259e+09 -9.020996e-02 -9.434204e-01 1.617149e-05 6.049126e-05 -8.371472e-05 -1.445785e-05 -7.795410e-01 -4.885254e-01
4.155009e+09 -7.995605e-02 -9.400024e-01 4.546717e-05 5.879998e-05 -6.028637e-05 -2.942979e-05 -7.713623e-01 -4.954224e-01
4.158759e+09 -7.073975e-02 -9.365234e-01 -7.788464e-05 -7.334724e-05 3.905222e-05 3.475696e-05 -7.644653e-01 -5.031738e-01
4.162509e+09 -5.694580e-02 -9.312744e-01 -3.902614e-05 3.722310e-05 4.020892e-05 -3.427826e-05 -7.551880e-01 -5.125732e-01
4.166259e+09 -4.199219e-02 -9.285278e-01 -3.886968e-05 -2.606027e-05 -3.637560e-05 -1.428463e-05 -7.485962e-01 -5.233154e-01
4.170009e+09 -2.563477e-02 -9.312744e-01 -5.853549e-05 -1.802668e-05 7.812306e-05 3.382564e-06 -7.426147e-01 -5.362549e-01
4.173759e+09 -1.074219e-02 -9.315796e-01 -1.955591e-05 -1.312047e-05 4.500523e-05 3.580377e-05 -7.384644e-01 -5.489502e-01
4.177509e+09 1.953125e-03 -9.373169e-01 1.644995e-05 -3.253110e-06 -9.055436e-05 -9.216368e-06 -7.381592e-01 -5.609741e-01
4.181259e+09 1.556396e-02 -9.450073e-01 -6.437302e-06 -5.472079e-05 -1.680851e-05 7.957965e-05 -7.400513e-01 -5.722656e-01
4.185009e+09 2.441406e-02 -9.508057e-01 -6.338954e-05 5.141646e-05 -3.967434e-05 -6.516278e-05 -7.418823e-01 -5.784912e-01
4.188759e+09 3.167725e-02 -9.586792e-01 4.338846e-05 1.043081e-07 1.590233e-05 2.015103e-05 -7.445068e-01 -5.825806e-01
4.192509e+09 3.881836e-02 -9.623413e-01 -1.337379e-05 -1.700595e-06 -1.058280e-04 -8.881092e-06 -7.462158e-01 -5.844116e-01
4.196259e+09 4.296875e-02 -9.665527e-01 -3.332831e-05 -1.513399e-05 -1.629442e-05 1.343060e-05 -7.445679e-01 -5.843506e-01
4.200009e+09 4.748535e-02 -9.677734e-01 3.676489e-05 -7.627159e-05 -7.804018e-06 5.087350e-06 -7.404175e-01 -5.826416e-01
4.203759e+09 5.456543e-02 -9.702148e-01 3.312901e-05 -6.536022e-06 -8.441508e-06 -5.559996e-05 -7.355347e-01 -5.823975e-01
4.207509e+09 5.993652e-02 -9.713135e-01 -5.602464e-05 -2.328306e-05 2.359040e-06 2.065301e-05 -7.273560e-01 -5.836792e-01
4.211259e+09 6.445312e-02 -9.718628e-01 -1.382306e-04 3.594160e-05 3.488362e-05 5.771592e-05 -7.194214e-01 -5.849609e-01
4.215009e+09 7.208252e-02 -9.745483e-01 3.313180e-06 -4.925765e-06 6.890669e-05 -3.928319e-05 -7.103882e-01 -5.890503e-01
4.218759e+09 7.360840e-02 -9.732666e-01 -4.285946e-05 2.131239e-05 1.673028e-05 8.097664e-05 -7.015076e-01 -5.922546e-01
4.222509e+09 7.635498e-02 -9.732666e-01 7.450581e-08 -2.150610e-05 -4.049949e-05 3.200024e-05 -6.942749e-01 -5.981445e-01
4.226259e+09 7.867432e-02 -9.693604e-01 -6.635115e-05 1.301616e-05 1.499429e-05 -7.004477e-06 -6.853638e-01 -6.012573e-01
4.230009e+09 7.885742e-02 -9.616699e-01 3.666990e-05 -3.310107e-05 3.575161e-05 -9.406358e-06 -6.767578e-01 -6.058960e-01
4.233759e+09 8.135986e-02 -9.511108e-01 -7.632002e-05 -3.676862e-05 5.197152e-05 -2.289936e-05 -6.673279e-01 -6.095276e-01
4.237509e+09 9.033203e-02 -9.407349e-01 2.305955e-05 7.318705e-05 -1.652166e-06 4.002638e-05 -6.566467e-01 -6.153259e-01
4.241259e+09 9.954834e-02 -9.266968e-01 -6.679446e-06 9.951182e-06 -1.914427e-05 5.966797e-05 -6.470337e-01 -6.226807e-01
4.245009e+09 1.123657e-01 -9.168701e-01 -3.303215e-05 -3.658608e-05 -8.215010e-05 -8.744746e-05 -6.339722e-01 -6.320496e-01
4.248759e+09 1.298828e-01 -9.056396e-01 -2.669170e-05 6.133318e-05 3.335066e-06 -1.600850e-05 -6.249695e-01 -6.439514e-01
4.252509e+09 1.484375e-01 -8.988647e-01 -3.990531e-05 1.648068e-05 2.765656e-05 -4.285946e-06 -6.146240e-01 -6.578064e-01
4.256259e+09 1.681519e-01 -8.956299e-01 2.007186e-05 -2.991967e-05 2.830476e-05 -7.135049e-05 -6.095276e-01 -6.726685e-01
4.260009e+09 1.875000e-01 -8.964844e-01 8.334219e-05 7.063895e-05 -9.272248e-05 -9.089708e-06 -6.058655e-01 -6.895142e-01
4.263759e+09 2.032471e-01 -8.999634e-01 1.022778e-05 -3.694184e-05 -5.875155e-05 8.650124e-05 -6.059570e-01 -7.027283e-01
4.267509e+09 2.194214e-01 -9.036255e-01 -5.405024e-05 -6.914139e-06 2.440065e-07 -3.414415e-05 -6.101074e-01 -7.148438e-01
4.271259e+09 2.308350e-01 -9.106445e-01 4.424155e-05 -4.382432e-05 5.796924e-05 -8.084998e-05 -6.121216e-01 -7.233276e-01
4.275009e+09 2.390137e-01 -9.155884e-01 -2.707355e-05 -3.503636e-06 4.354864e-06 -5.422160e-05 -6.153564e-01 -7.281494e-01
4.278759e+09 2.434082e-01 -9.205322e-01 3.403518e-06 -5.062204e-06 -5.451962e-05 3.008172e-05 -6.170654e-01 -7.300415e-01
4.282509e+09 2.480469e-01 -9.240112e-01 -5.719811e-05 -4.574656e-05 -3.878027e-05 5.393103e-05 -6.148682e-01 -7.312012e-01
4.286259e+09 2.509155e-01 -9.255371e-01 -6.372482e-05 -3.553927e-05 -6.720796e-05 -7.018447e-06 -6.101074e-01 -7.318115e-01
4.290009e+09 2.529297e-01 -9.240723e-01 -5.009025e-05 -5.543604e-05 8.600764e-06 -8.491334e-06 -6.032715e-01 -7.333984e-01
4.293759e+09 2.529297e-01 -9.197998e-01 4.034862e-05 -6.012246e-05 5.469471e-05 -6.717071e-05 -5.942383e-01 -7.388306e-01
4.297509e+09 2.569580e-01 -9.153442e-01 5.016476e-05 1.185760e-05 -7.255375e-05 -1.155585e-05 -5.842285e-01 -7.449341e-01
4.301258e+09 2.595215e-01 -9.103394e-01 -1.349300e-05 2.007559e-05 -1.624785e-05 -2.039503e-05 -5.740967e-01 -7.550049e-01
4.305008e+09 2.644653e-01 -9.040527e-01 -3.364682e-05 6.604940e-06 5.188957e-05 -2.001598e-05 -5.660400e-01 -7.645264e-01
4.308758e+09 2.699585e-01 -8.956299e-01 -4.059449e-05 1.675263e-05 -2.056919e-05 3.333762e-05 -5.594482e-01 -7.774658e-01
4.312508e+09 2.744751e-01 -8.878784e-01 -1.288280e-04 -5.513430e-06 1.722947e-05 -1.700409e-05 -5.549316e-01 -7.911987e-01
4.316258e+09 2.794800e-01 -8.763428e-01 6.788224e-05 8.750707e-06 4.630163e-05 7.461756e-05 -5.500488e-01 -8.032837e-01
4.320008e+09 2.884521e-01 -8.665161e-01 6.800517e-05 -1.328811e-05 -6.191805e-05 9.424984e-07 -5.455322e-01 -8.161011e-01
4.323758e+09 2.980957e-01 -8.563232e-01 -1.291037e-04 -5.699694e-06 -6.426126e-06 -3.560260e-05 -5.443115e-01 -8.294067e-01
4.327508e+09 3.131104e-01 -8.463745e-01 -7.480755e-05 2.352893e-05 4.552305e-06 1.122523e-05 -5.438843e-01 -8.422852e-01
4.331258e+09 3.269043e-01 -8.405762e-01 -6.446242e-05 -1.383945e-05 -3.906898e-05 2.293661e-05 -5.449219e-01 -8.553467e-01
4.335008e+09 3.434448e-01 -8.350220e-01 -3.729947e-05 -1.036003e-05 2.961606e-05 2.332777e-05 -5.457764e-01 -8.680420e-01
4.338758e+09 3.565674e-01 -8.336792e-01 -4.054978e-05 -4.942343e-05 -1.074001e-04 -1.499802e-05 -5.510864e-01 -8.784790e-01
4.342508e+09 3.719482e-01 -8.347778e-01 1.056492e-05 -8.167326e-05 4.472211e-05 -1.512095e-05 -5.568848e-01 -8.870239e-01
4.346258e+09 3.842773e-01 -8.381958e-01 2.052821e-05 -3.059953e-05 6.456301e-05 5.849078e-05 -5.636597e-01 -8.903809e-01
4.350008e+09 3.931274e-01 -8.426514e-01 -3.036857e-05 -8.720160e-05 7.365644e-05 1.502037e-05 -5.689087e-01 -8.931274e-01
4.353758e+09 4.011230e-01 -8.482056e-01 1.363736e-05 1.762994e-06 4.657544e-06 1.144316e-05 -5.710449e-01 -8.886719e-01
4.357508e+09 4.057007e-01 -8.500366e-01 5.112216e-05 1.209602e-05 -6.517395e-05 1.115352e-05 -5.714722e-01 -8.839722e-01
4.361258e+09 4.088135e-01 -8.514404e-01 -1.261905e-04 1.143664e-05 2.348796e-05 -1.263246e-05 -5.666504e-01 -8.793335e-01
4.365008e+09 4.129028e-01 -8.515015e-01 5.119666e-05 -1.001731e-05 5.831569e-05 -4.728511e-05 -5.578613e-01 -8.770142e-01
4.368758e+09 4.188843e-01 -8.487549e-01 -6.763265e-06 -1.193862e-05 2.469309e-05 -1.924857e-05 -5.465698e-01 -8.726807e-01
4.372508e+09 4.230347e-01 -8.436279e-01 -9.909272e-06 -7.320195e-05 5.118549e-05 -1.384318e-05 -5.324707e-01 -8.732910e-01
4.376258e+09 4.321899e-01 -8.435669e-01 -6.586313e-06 -7.866323e-05 7.126480e-05 -9.749085e-06 -5.177002e-01 -8.803711e-01
4.380008e+09 4.431152e-01 -8.410645e-01 -3.427453e-05 -1.558848e-05 6.527454e-05 2.025440e-05 -5.058594e-01 -8.865967e-01
4.383758e+09 4.532471e-01 -8.423462e-01 -2.424791e-05 1.368299e-05 -4.416332e-05 -2.288818e-05 -4.931641e-01 -8.977051e-01
4.387508e+09 4.633179e-01 -8.463745e-01 2.736598e-05 9.395927e-05 1.483597e-05 -4.017726e-06 -4.869995e-01 -9.070435e-01
4.391258e+09 4.717407e-01 -8.516846e-01 1.021102e-05 5.251914e-05 -1.884624e-05 -8.141249e-05 -4.813232e-01 -9.188232e-01
4.395008e+09 4.797363e-01 -8.554688e-01 2.459809e-05 -1.393631e-05 -4.010275e-05 -1.166388e-05 -4.801025e-01 -9.251099e-01
4.398758e+09 4.866943e-01 -8.630371e-01 2.100505e-05 1.413003e-05 1.769233e-05 1.779851e-05 -4.785156e-01 -9.304199e-01
4.402508e+09 4.932251e-01 -8.720703e-01 -3.426336e-06 -1.755450e-05 6.280839e-06 -6.632134e-05 -4.760742e-01 -9.325562e-01
4.406258e+09 4.963989e-01 -8.778687e-01 -2.092682e-05 -1.406297e-05 1.433864e-05 -7.167459e-05 -4.736938e-01 -9.327393e-01
4.410008e+09 5.031738e-01 -8.880615e-01 -7.305294e-05 -2.641231e-05 4.311465e-05 -3.746338e-05 -4.686890e-01 -9.305420e-01
4.413758e+09 5.057373e-01 -8.991699e-01 8.036196e-05 -7.439405e-05 4.232861e-05 -3.409199e-05 -4.619751e-01 -9.297485e-01
4.417508e+09 5.086670e-01 -9.096069e-01 -6.645918e-06 -7.979572e-05 1.641549e-05 -1.091231e-05 -4.529419e-01 -9.259644e-01
4.421258e+09 5.054321e-01 -9.234619e-01 -2.416037e-05 -3.134273e-05 3.008358e-05 2.744049e-05 -4.432373e-01 -9.240112e-01
4.425008e+09 4.989014e-01 -9.374390e-01 1.756288e-05 -2.603605e-05 -1.352876e-04 3.355742e-05 -4.329224e-01 -9.238892e-01
4.428758e+09 4.915161e-01 -9.482422e-01 4.535168e-05 2.292544e-05 1.514610e-05 -4.127622e-06 -4.234619e-01 -9.207153e-01
4.432508e+09 4.794922e-01 -9.536133e-01 -3.140047e-05 -4.401058e-05 -2.000481e-06 -6.129220e-05 -4.111328e-01 -9.178467e-01
4.436258e+09 4.642944e-01 -9.598999e-01 1.420267e-05 -2.106093e-05 -7.453561e-05 -5.801767e-05 -3.988647e-01 -9.149780e-01
4.440008e+09 4.493408e-01 -9.583130e-01 3.876537e-05 1.078285e-05 2.479181e-05 1.933239e-05 -3.856201e-01 -9.102783e-01
4.443758e+09 4.350586e-01 -9.519043e-01 8.445233e-05 3.390759e-05 -7.634610e-05 -1.168624e-05 -3.693237e-01 -9.058228e-01
4.447508e+09 4.243164e-01 -9.417725e-01 1.081824e-05 -6.159768e-05 -5.417690e-05 5.693734e-05 -3.525391e-01 -9.032593e-01
4.451258e+09 4.194946e-01 -9.302368e-01 -3.160723e-05 1.635402e-06 6.977469e-05 6.876886e-06 -3.341064e-01 -8.996582e-01
4.455008e+09 4.193115e-01 -9.154663e-01 1.034886e-05 2.990104e-05 5.186722e-05 -1.095235e-05 -3.137207e-01 -9.022217e-01
4.458758e+09 4.216919e-01 -9.017944e-01 4.926696e-05 -5.071983e-05 -1.907349e-05 5.997345e-05 -2.962036e-01 -9.040527e-01
4.462508e+09 4.274292e-01 -8.939209e-01 -5.301088e-05 7.867068e-05 4.373863e-05 -5.505979e-06 -2.758179e-01 -9.080811e-01
4.466258e+09 4.341431e-01 -8.878784e-01 -1.385063e-05 -4.747882e-05 4.015863e-06 -9.195507e-05 -2.604370e-01 -9.127197e-01
4.470008e+09 4.426270e-01 -8.823242e-01 2.817810e-05 3.645197e-06 4.612282e-05 -1.587719e-05 -2.474365e-01 -9.187622e-01
4.473758e+09 4.477539e-01 -8.814087e-01 4.232302e-05 5.517155e-06 4.840083e-06 1.175329e-05 -2.357788e-01 -9.236450e-01
4.477508e+09 4.523926e-01 -8.810425e-01 -1.434982e-05 4.418939e-05 -3.127195e-05 -2.423488e-05 -2.266235e-01 -9.265137e-01
4.481258e+09 4.552612e-01 -8.811035e-01 -2.126396e-05 8.745119e-06 1.252722e-05 9.729527e-06 -2.153320e-01 -9.260864e-01
4.485008e+09 4.550781e-01 -8.781128e-01 -2.108142e-05 -3.721565e-05 9.386986e-05 -3.547966e-05 -2.070923e-01 -9.246216e-01
4.488758e+09 4.535522e-01 -8.741455e-01 -3.874861e-05 -1.081266e-05 5.689263e-05 -3.201887e-05 -1.923828e-01 -9.204712e-01
4.492508e+09 4.558716e-01 -8.699341e-01 -4.470348e-07 9.155273e-05 -5.966425e-05 9.808689e-06 -1.793823e-01 -9.160767e-01
4.496258e+09 4.560547e-01 -8.614502e-01 -3.853627e-05 -3.358349e-05 3.587455e-06 5.467236e-05 -1.619263e-01 -9.121094e-01
4.500008e+09 4.604492e-01 -8.547363e-01 1.752283e-05 1.942739e-05 -2.079271e-05 -4.121102e-06 -1.435547e-01 -9.089966e-01
4.503757e+09 4.646606e-01 -8.453979e-01 -7.374957e-05 -7.275119e-05 5.477667e-05 1.445413e-05 -1.248779e-01 -9.091797e-01
4.507507e+09 4.708862e-01 -8.374634e-01 3.866851e-05 8.010864e-05 3.201701e-05 2.081878e-05 -1.063843e-01 -9.122925e-01
4.511257e+09 4.773560e-01 -8.303833e-01 -3.885478e-06 5.187094e-05 -7.830560e-05 -4.461035e-05 -9.124756e-02 -9.165649e-01
4.515007e+09 4.849854e-01 -8.233032e-01 -6.616116e-06 -8.270890e-05 -1.608208e-05 4.418939e-05 -7.543945e-02 -9.182739e-01
4.518757e+09 4.911499e-01 -8.148193e-01 1.493841e-05 -6.850809e-05 -8.080900e-05 -7.097423e-05 -6.280518e-02 -9.224854e-01
4.522507e+09 4.964600e-01 -8.070679e-01 -2.200902e-05 3.246404e-05 -3.312342e-05 -1.757406e-05 -5.126953e-02 -9.279175e-01
4.526257e+09 5.062256e-01 -7.996826e-01 5.093217e-05 -2.855808e-05 3.031269e-05 -5.003065e-06 -3.912354e-02 -9.274902e-01
4.530007e+09 5.142822e-01 -7.885742e-01 1.789816e-05 2.008118e-05 -5.843118e-05 -6.407499e-07 -2.893066e-02 -9.299927e-01
4.533757e+09 5.238037e-01 -7.789307e-01 -1.075212e-05 -7.322058e-06 -9.149313e-06 -2.739578e-05 -1.788330e-02 -9.300537e-01
4.537507e+09 5.375977e-01 -7.705078e-01 -8.288026e-05 6.258488e-06 -6.181002e-05 -1.961738e-05 -6.408691e-03 -9.323120e-01
4.541257e+09 5.510254e-01 -7.614136e-01 6.787479e-06 3.602915e-05 5.261973e-05 2.865493e-05 3.784180e-03 -9.335938e-01
4.545007e+09 5.645752e-01 -7.566528e-01 -7.506460e-05 -2.779067e-05 -8.287281e-05 1.271814e-05 1.232910e-02 -9.332275e-01
4.548757e+09 5.762939e-01 -7.548828e-01 -8.459389e-05 -1.284927e-04 -1.278520e-05 -8.308887e-05 2.142334e-02 -9.334717e-01
4.552507e+09 5.894165e-01 -7.532349e-01 2.443790e-06 8.820742e-05 -2.050772e-05 -4.453957e-05 2.832031e-02 -9.345703e-01
4.556257e+09 5.970459e-01 -7.507935e-01 -7.753074e-05 1.358390e-04 2.847984e-06 2.263673e-05 3.552246e-02 -9.329224e-01
4.560007e+09 6.014404e-01 -7.499390e-01 2.565980e-05 -3.753975e-05 6.451830e-05 4.604831e-05 4.089355e-02 -9.291992e-01
4.563757e+09 6.079712e-01 -7.449341e-01 -1.003817e-04 -3.734231e-05 -2.127141e-06 4.746765e-05 4.870605e-02 -9.233398e-01
4.567507e+09 6.090698e-01 -7.365723e-01 -4.682690e-06 7.557869e-05 -3.954396e-05 5.079061e-05 5.804443e-02 -9.173584e-01
4.571257e+09 6.130981e-01 -7.254639e-01 -4.273653e-05 -2.939627e-05 5.277246e-05 -7.718801e-06 6.719971e-02 -9.100952e-01
4.575007e+09 6.192017e-01 -7.114868e-01 2.095476e-05 3.805384e-05 3.785454e-05 -6.992370e-06 8.325195e-02 -9.030151e-01
4.578757e+09 6.277466e-01 -6.956787e-01 4.640967e-05 2.413616e-05 -1.419038e-04 -9.018183e-05 9.881592e-02 -8.999634e-01
4.582507e+09 6.395874e-01 -6.817017e-01 -4.936010e-06 7.558614e-05 -1.415610e-06 -2.941117e-05 1.161499e-01 -8.967285e-01
4.586257e+09 6.537476e-01 -6.677856e-01 -8.637458e-05 -3.582984e-05 -4.496053e-05 -3.089383e-05 1.323242e-01 -8.986206e-01
4.590007e+09 6.696167e-01 -6.564941e-01 2.539158e-05 9.566545e-06 1.123548e-04 2.613664e-05 1.489258e-01 -9.047852e-01
4.593757e+09 6.865234e-01 -6.480103e-01 1.214817e-05 -6.414577e-05 1.634657e-05 2.916344e-05 1.616211e-01 -9.107666e-01
4.597507e+09 7.039795e-01 -6.414795e-01 -2.571940e-05 -9.737909e-06 -5.006418e-05 -4.736707e-05 1.713867e-01 -9.194336e-01
4.601257e+09 7.185059e-01 -6.386108e-01 -4.120171e-05 1.219288e-05 7.905066e-06 7.282570e-05 1.791992e-01 -9.295044e-01
4.605007e+09 7.319946e-01 -6.358643e-01 -6.183982e-06 1.268014e-04 8.176640e-05 8.030236e-05 1.793823e-01 -9.373169e-01
4.608757e+09 7.434692e-01 -6.339111e-01 5.950406e-05 8.776784e-06 -6.530061e-05 6.226078e-05 1.815186e-01 -9.417725e-01
4.612507e+09 7.534790e-01 -6.307373e-01 5.595386e-05 -1.003593e-05 -1.075119e-05 -9.628385e-05 1.801758e-01 -9.421997e-01
4.616257e+09 7.620239e-01 -6.270142e-01 -1.000986e-04 3.390014e-06 2.039224e-05 -1.010969e-04 1.823120e-01 -9.429932e-01
4.620007e+09 7.718506e-01 -6.246948e-01 -3.971532e-05 -3.586337e-05 4.180707e-05 -2.158433e-05 1.860962e-01 -9.382324e-01
4.623757e+09 7.795410e-01 -6.216431e-01 5.760044e-05 5.632266e-05 3.595836e-06 -1.800433e-05 1.895752e-01 -9.373779e-01
4.627507e+09 7.872314e-01 -6.184692e-01 -3.144145e-05 9.112060e-05 7.048622e-05 -1.583621e-05 1.958618e-01 -9.340820e-01
4.631257e+09 7.930298e-01 -6.156616e-01 6.744638e-05 -5.002320e-05 -5.173683e-05 -7.781014e-05 2.028198e-01 -9.345703e-01
4.635007e+09 7.998047e-01 -6.149902e-01 1.585484e-05 -4.575029e-05 -6.933138e-05 8.489937e-06 2.099609e-01 -9.316406e-01
4.638757e+09 8.019409e-01 -6.156616e-01 -5.411357e-05 -6.256998e-05 7.025898e-05 6.308779e-05 2.160034e-01 -9.338379e-01
4.642507e+09 8.015137e-01 -6.121216e-01 -4.076958e-05 -1.223013e-05 -1.809560e-05 -2.249144e-05 2.217407e-01 -9.381714e-01
4.646257e+09 7.988892e-01 -6.089478e-01 8.555502e-05 1.904368e-05 -1.309812e-05 2.754852e-05 2.278442e-01 -9.379272e-01
4.650007e+09 7.952271e-01 -6.016235e-01 -4.467368e-05 -6.772578e-06 -6.661192e-05 -5.863607e-06 2.315674e-01 -9.368896e-01
4.653757e+09 7.915039e-01 -5.903931e-01 -2.457574e-05 -5.862862e-05 2.375618e-05 3.105961e-05 2.374878e-01 -9.387207e-01
4.657507e+09 7.907715e-01 -5.775757e-01 -2.128258e-05 -3.971532e-05 2.087094e-05 -2.942607e-05 2.438354e-01 -9.382324e-01
4.661257e+09 7.913818e-01 -5.622559e-01 2.254173e-05 -8.678064e-06 -6.945431e-05 1.202524e-05 2.488403e-01 -9.395752e-01
4.665007e+09 7.955933e-01 -5.474854e-01 -5.193800e-05 4.131347e-06 -1.349673e-05 -4.358590e-05 2.579956e-01 -9.396973e-01
4.668757e+09 8.020020e-01 -5.336914e-01 1.347736e-04 -5.152822e-05 -1.852214e-05 -5.574524e-05 2.680054e-01 -9.444580e-01
4.672507e+09 8.123169e-01 -5.221558e-01 6.292760e-05 3.669411e-06 -5.092472e-05 3.070757e-05 2.741089e-01 -9.512329e-01
4.676257e+09 8.215332e-01 -5.140991e-01 6.965548e-05 -9.834021e-05 4.399568e-05 -6.967410e-05 2.786865e-01 -9.580078e-01
4.680007e+09 8.329468e-01 -5.097656e-01 2.579764e-05 1.007318e-05 3.604963e-05 4.494935e-05 2.820435e-01 -9.660645e-01
4.683757e+09 8.383179e-01 -5.100708e-01 7.288903e-05 6.007776e-05 -2.178364e-05 -4.381873e-06 2.794800e-01 -9.727783e-01
4.687507e+09 8.417358e-01 -5.101929e-01 -9.316951e-06 5.948171e-05 -4.599988e-05 4.005060e-05 2.778320e-01 -9.746704e-01
4.691257e+09 8.396606e-01 -5.090942e-01 3.361702e-05 -8.400530e-07 -3.277697e-05 1.231581e-05 2.742310e-01 -9.743042e-01
4.695007e+09 8.385010e-01 -5.053101e-01 4.447997e-05 6.988645e-06 -1.367554e-05 -4.436821e-05 2.730103e-01 -9.711304e-01
4.698757e+09 8.314209e-01 -4.975586e-01 -4.431233e-05 -6.988645e-06 1.233444e-05 -2.379343e-05 2.742310e-01 -9.635620e-01
4.702506e+09 8.280029e-01 -4.897461e-01 -3.079884e-06 -1.861807e-05 -4.240498e-05 -4.981831e-05 2.826538e-01 -9.570923e-01
4.706256e+09 8.259888e-01 -4.765625e-01 3.261119e-05 -9.153038e-05 -5.314872e-05 4.205853e-06 2.905884e-01 -9.511108e-01
4.710006e+09 8.269043e-01 -4.624634e-01 5.512312e-05 1.483783e-05 -5.462393e-05 1.129508e-05 3.057251e-01 -9.465942e-01
4.713756e+09 8.300781e-01 -4.495850e-01 2.493151e-05 3.448874e-05 -3.436580e-05 -5.203858e-05 3.217773e-01 -9.489136e-01
4.717506e+09 8.349609e-01 -4.384155e-01 -1.011789e-05 -3.233925e-05 -2.975576e-05 3.540702e-05 3.355103e-01 -9.520874e-01
4.721256e+09 8.436890e-01 -4.287720e-01 3.732741e-05 1.842529e-05 -7.820502e-05 4.855171e-05 3.478394e-01 -9.628906e-01
4.725006e+09 8.510742e-01 -4.216919e-01 -4.746765e-05 4.230812e-05 4.550070e-05 1.583248e-06 3.566284e-01 -9.735107e-01
4.728756e+09 8.589478e-01 -4.163208e-01 -9.052455e-06 3.624149e-05 -1.113303e-05 1.692399e-05 3.622437e-01 -9.851074e-01
4.732506e+09 8.664551e-01 -4.125366e-01 -1.851469e-06 5.008280e-05 -6.173179e-05 7.599220e-05 3.626099e-01 -9.953613e-01
4.736256e+09 8.724976e-01 -4.093018e-01 -1.043975e-04 -9.273738e-05 -8.137152e-05 -1.654029e-05 3.595581e-01 -1.004517e+00
4.740006e+09 8.795776e-01 -4.057007e-01 1.931284e-05 -3.093854e-06 5.120412e-06 1.258124e-05 3.551636e-01 -1.008484e+00
4.743756e+09 8.856812e-01 -4.033813e-01 -6.256253e-05 3.952906e-05 1.921132e-05 -1.905486e-05 3.492432e-01 -1.008667e+00
4.747506e+09 8.928833e-01 -4.014893e-01 -1.959503e-06 4.918128e-05 2.480671e-05 2.796575e-05 3.436890e-01 -1.006958e+00
4.751256e+09 8.998413e-01 -4.005127e-01 -3.787130e-05 9.837747e-05 2.078712e-06 2.701767e-05 3.400879e-01 -1.001648e+00
4.755006e+09 9.099731e-01 -4.030762e-01 1.986325e-05 -2.732128e-05 -3.785081e-05 -3.810599e-05 3.395386e-01 -9.935303e-01
4.758756e+09 9.169922e-01 -4.066772e-01 -2.777949e-05 3.821217e-05 3.136694e-06 -5.251914e-05 3.385010e-01 -9.859619e-01
4.762506e+09 9.238892e-01 -4.136963e-01 1.390092e-05 2.682395e-05 2.428517e-05 -4.441291e-05 3.411255e-01 -9.771118e-01
4.766256e+09 9.252319e-01 -4.220581e-01 1.094211e-05 7.985160e-06 -1.349300e-05 6.563589e-05 3.425903e-01 -9.680176e-01
4.770006e+09 9.274902e-01 -4.328003e-01 5.699322e-05 -8.929521e-06 -1.628511e-05 4.237704e-05 3.455811e-01 -9.569702e-01
4.773756e+09 9.227905e-01 -4.404907e-01 2.815016e-05 -3.844686e-05 -1.138821e-05 -5.561486e-05 3.494263e-01 -9.435425e-01
4.777506e+09 9.156494e-01 -4.450684e-01 -2.956018e-06 -1.905579e-05 -7.734075e-05 6.821007e-06 3.552856e-01 -9.305420e-01
4.781256e+09 9.066772e-01 -4.473877e-01 6.314367e-05 2.939254e-05 -5.386397e-05 4.101545e-06 3.633423e-01 -9.166870e-01
4.785006e+09 8.988037e-01 -4.447021e-01 9.617954e-05 5.345792e-05 6.490573e-05 -5.849451e-05 3.737793e-01 -9.004517e-01
4.788756e+09 8.935547e-01 -4.389648e-01 -3.118441e-05 1.945160e-05 -3.174320e-05 -2.912618e-05 3.867188e-01 -8.869019e-01
4.792506e+09 8.903198e-01 -4.317627e-01 -4.686415e-05 1.098290e-04 4.718453e-05 -9.167939e-06 4.030762e-01 -8.743286e-01
4.796256e+09 8.925171e-01 -4.251099e-01 1.808442e-05 2.178177e-05 -6.290153e-06 -4.297681e-05 4.172363e-01 -8.671875e-01
4.800006e+09 8.939819e-01 -4.193726e-01 -8.676946e-05 -2.128631e-05 -2.690777e-05 -1.689792e-05 4.345093e-01 -8.554077e-01
4.803756e+09 9.000854e-01 -4.163208e-01 3.336929e-05 2.460927e-05 -7.447600e-05 -8.413568e-05 4.487305e-01 -8.516235e-01
4.807506e+09 9.055786e-01 -4.155273e-01 -3.297254e-05 4.467741e-05 3.385171e-05 2.234988e-05 4.617310e-01 -8.486938e-01
4.811256e+09 9.103394e-01 -4.167480e-01 -6.423146e-05 -3.009662e-05 -3.933907e-05 3.462657e-06 4.698486e-01 -8.438110e-01
4.815006e+09 9.102173e-01 -4.200439e-01 6.132200e-05 1.072139e-05 -2.720207e-05 -5.587563e-05 4.785767e-01 -8.381348e-01
4.818756e+09 9.119263e-01 -4.234619e-01 -1.902878e-05 7.237494e-05 -4.614890e-05 -1.784414e-06 4.846191e-01 -8.297729e-01
4.822506e+09 9.074707e-01 -4.246826e-01 8.450449e-05 2.317131e-06 9.272248e-05 -2.160668e-07 4.891357e-01 -8.195801e-01
4.826256e+09 9.051514e-01 -4.241333e-01 -6.318092e-05 3.886968e-05 -6.679818e-05 2.469495e-05 4.954834e-01 -8.039551e-01
4.830006e+09 9.006958e-01 -4.250488e-01 -6.018579e-05 5.802512e-05 4.522502e-06 8.937716e-05 5.050659e-01 -7.900391e-01
4.833756e+09 8.959351e-01 -4.197388e-01 -3.964081e-05 3.034621e-05 -2.799556e-06 -2.356619e-05 5.155029e-01 -7.753296e-01
4.837506e+09 8.905640e-01 -4.149780e-01 2.821907e-06 1.916848e-05 5.513430e-05 -7.722527e-06 5.285034e-01 -7.588501e-01
4.841256e+09 8.884888e-01 -4.088745e-01 2.206117e-05 1.638755e-05 -3.105402e-05 3.946386e-05 5.421143e-01 -7.456665e-01
4.845006e+09 8.859863e-01 -4.021606e-01 -1.544356e-04 2.246350e-05 5.265325e-05 4.151091e-05 5.581665e-01 -7.333374e-01
4.848756e+09 8.828735e-01 -3.959351e-01 7.337704e-05 -5.748123e-06 1.735985e-05 -8.454174e-05 5.703735e-01 -7.219849e-01
4.852506e+09 8.806152e-01 -3.878174e-01 -8.612126e-05 2.238154e-05 -1.526698e-04 3.362447e-05 5.831604e-01 -7.122803e-01
4.856256e+09 8.773804e-01 -3.791504e-01 5.563721e-06 -3.065541e-05 6.600749e-06 5.200505e-06 5.951538e-01 -7.021484e-01
4.860006e+09 8.765869e-01 -3.672485e-01 -7.661432e-05 -1.392886e-05 -9.645708e-06 9.517185e-06 6.068420e-01 -6.893005e-01
4.863756e+09 8.753052e-01 -3.552246e-01 2.923049e-05 -3.899820e-05 3.281981e-06 5.817786e-05 6.164246e-01 -6.795044e-01
4.867506e+09 8.759766e-01 -3.395386e-01 -9.316206e-05 8.285046e-06 1.942739e-05 5.381554e-05 6.287842e-01 -6.658325e-01
4.871256e+09 8.800049e-01 -3.264771e-01 -3.193319e-05 -5.009770e-05 -2.358668e-05 2.792105e-06 6.421204e-01 -6.540833e-01
4.875006e+09 8.848877e-01 -3.116455e-01 -7.631630e-05 -8.361042e-05 -1.035780e-04 -5.622953e-05 6.542664e-01 -6.420288e-01
4.878756e+09 8.933105e-01 -3.012695e-01 4.466623e-05 -3.621355e-05 1.504272e-05 7.653981e-05 6.679382e-01 -6.325684e-01
4.882506e+09 9.032593e-01 -2.913208e-01 -1.367182e-05 -9.813905e-05 -2.050027e-05 -5.096570e-05 6.818237e-01 -6.238403e-01
4.886256e+09 9.107056e-01 -2.863159e-01 -7.020310e-05 -7.070601e-05 -1.018420e-04 3.749877e-05 6.941528e-01 -6.170044e-01
4.890006e+09 9.171753e-01 -2.823486e-01 4.263129e-06 -5.653128e-06 -7.081032e-05 3.645942e-05 7.037659e-01 -6.116638e-01
4.893756e+09 9.212036e-01 -2.806396e-01 1.991726e-05 -2.771616e-06 9.156018e-05 5.472451e-05 7.117004e-01 -6.056519e-01
4.897506e+09 9.189453e-01 -2.777100e-01 -2.849475e-05 1.407973e-05 8.055940e-06 3.734045e-05 7.162476e-01 -5.976562e-01
4.901255e+09 9.149170e-01 -2.726440e-01 1.959875e-05 6.825849e-05 -1.121499e-05 -2.209097e-05 7.197266e-01 -5.894775e-01
4.905005e+09 9.084473e-01 -2.648926e-01 -5.457550e-06 -3.962964e-05 2.178177e-05 8.479692e-06 7.225952e-01 -5.772095e-01
4.908755e+09 9.008789e-01 -2.522583e-01 -3.788248e-05 -1.990423e-05 -3.275275e-05 8.276105e-05 7.276001e-01 -5.628662e-01
4.912505e+09 8.928833e-01 -2.345581e-01 3.755093e-06 6.426498e-05 2.716109e-05 -5.608425e-05 7.330933e-01 -5.456543e-01
4.916255e+09 8.894043e-01 -2.152710e-01 -1.840293e-05 4.711002e-05 3.813766e-06 -1.835730e-05 7.417603e-01 -5.296631e-01
4.920005e+09 8.866577e-01 -1.918945e-01 -3.467314e-05 -2.160668e-07 -3.751554e-05 3.403425e-05 7.542725e-01 -5.143433e-01
4.923755e+09 8.900146e-01 -1.679077e-01 -3.986806e-05 -3.906339e-05 -2.078339e-05 -4.607812e-05 7.686157e-01 -5.001221e-01
4.927505e+09 8.973999e-01 -1.452637e-01 -2.360903e-05 8.137897e-06 -3.252551e-05 4.638731e-05 7.840576e-01 -4.894409e-01
4.931255e+09 9.047241e-01 -1.246948e-01 4.357845e-05 1.031905e-04 -3.032014e-05 3.555976e-05 8.015137e-01 -4.826050e-01
4.935005e+09 9.157104e-01 -1.071167e-01 -1.692772e-05 2.212822e-05 -3.776699e-05 3.414601e-05 8.173218e-01 -4.784546e-01
4.938755e+09 9.265137e-01 -9.295654e-02 -9.872019e-07 -4.472956e-05 3.522448e-05 1.500733e-05 8.297119e-01 -4.805298e-01
4.942505e+09 9.362183e-01 -8.007812e-02 -5.283579e-05 -2.286956e-05 -5.090237e-05 -8.748472e-05 8.393555e-01 -4.807739e-01
4.946255e+09 9.458008e-01 -6.872559e-02 -4.950911e-06 7.516891e-05 9.220093e-05 5.215406e-08 8.447876e-01 -4.813843e-01
4.950005e+09 9.520264e-01 -5.859375e-02 -6.682053e-05 3.546476e-06 9.714067e-05 5.468726e-06 8.494263e-01 -4.828491e-01
4.953755e+09 9.594727e-01 -4.797363e-02 6.058067e-05 1.362562e-04 -3.018416e-05 3.022701e-05 8.464966e-01 -4.805298e-01
4.957505e+09 9.616089e-01 -3.704834e-02 -6.131828e-05 -3.320351e-05 -2.018362e-05 -6.280467e-05 8.480835e-01 -4.758301e-01
4.961255e+09 9.672852e-01 -2.819824e-02 -5.400926e-05 9.845197e-05 6.951392e-05 -3.676489e-05 8.485107e-01 -4.685059e-01
4.965005e+09 9.703979e-01 -1.751709e-02 3.404915e-06 6.578118e-05 -7.422641e-06 8.489937e-06 8.510742e-01 -4.622803e-01
4.968755e+09 9.749146e-01 -7.873535e-03 2.954155e-06 -6.941706e-05 -9.080023e-05 -4.190207e-05 8.522949e-01 -4.567261e-01
4.972505e+09 9.778442e-01 5.493164e-04 6.692484e-05 1.309812e-05 1.926348e-05 -6.930530e-05 8.562622e-01 -4.526367e-01
4.976255e+09 9.791870e-01 5.859375e-03 8.095056e-05 2.234429e-05 -6.482005e-05 -1.155585e-05 8.590088e-01 -4.478149e-01
4.980005e+09 9.809570e-01 1.409912e-02 -1.442209e-04 4.731119e-05 9.948015e-05 4.934520e-05 8.618774e-01 -4.439087e-01
4.983755e+09 9.804688e-01 2.032471e-02 -1.947768e-05 1.101010e-05 -5.584583e-05 3.818423e-06 8.637695e-01 -4.411011e-01
4.987505e+09 9.780273e-01 2.856445e-02 -6.671250e-05 -1.337528e-04 -8.427352e-05 5.367026e-05 8.663330e-01 -4.377441e-01
4.991255e+09 9.746094e-01 3.656006e-02 3.408454e-05 1.500547e-05 6.150454e-05 -3.211945e-05 8.671265e-01 -4.336548e-01
4.995005e+09 9.732056e-01 4.748535e-02 1.457706e-05 2.593547e-05 -3.004260e-05 2.590008e-05 8.690796e-01 -4.299316e-01
4.998755e+09 9.709473e-01 5.780029e-02 7.265434e-05 -6.828457e-06 -2.337620e-05 5.587935e-06 8.709106e-01 -4.260254e-01
5.002505e+09 9.704590e-01 7.012939e-02 6.261840e-05 6.635115e-05 -5.612522e-05 -1.193583e-05 8.729248e-01 -4.206543e-01
5.006255e+09 9.735107e-01 8.160400e-02 -5.580485e-06 -1.152381e-04 -4.360080e-05 5.435199e-05 8.787231e-01 -4.183960e-01
5.010005e+09 9.764404e-01 9.118652e-02 -9.834766e-07 1.186654e-04 2.545863e-05 2.590939e-05 8.820801e-01 -4.166870e-01
5.013755e+09 9.812622e-01 9.667969e-02 -4.158914e-05 -4.413724e-05 -4.915893e-05 -2.424046e-05 8.865356e-01 -4.166870e-01
5.017505e+09 9.835815e-01 1.015625e-01 -2.509356e-05 1.655519e-04 5.990267e-06 -2.807193e-05 8.863525e-01 -4.169922e-01
5.021255e+09 9.862671e-01 1.016235e-01 2.070330e-05 2.201088e-05 -3.552437e-05 5.778670e-05 8.859253e-01 -4.176636e-01
5.025005e+09 9.848633e-01 1.016235e-01 6.277114e-05 8.242577e-05 -8.570030e-05 1.769513e-05 8.852539e-01 -4.181519e-01
5.028755e+09 9.805908e-01 1.000977e-01 5.814433e-05 -1.570955e-05 -5.517527e-05 -3.725290e-08 8.823853e-01 -4.163818e-01
5.032505e+09 9.757690e-01 9.985352e-02 -2.343208e-05 -8.706748e-05 4.368985e-10 -5.020411e-10 8.814087e-01 -4.113770e-01
5.036255e+09 9.646606e-01 1.012573e-01 -4.522875e-05 8.445233e-06 -4.247576e-05 -4.800409e-05 8.802490e-01 -4.042358e-01
5.040005e+09 9.538574e-01 1.054077e-01 7.798895e-06 2.895109e-05 6.204471e-05 -8.203089e-06 8.813477e-01 -3.990479e-01
5.043755e+09 9.450073e-01 1.122437e-01 4.457682e-05 1.251921e-04 3.085844e-05 -6.034970e-06 8.860474e-01 -3.914795e-01
5.047505e+09 9.367676e-01 1.195068e-01 -8.374453e-05 -1.205057e-04 7.094815e-05 6.824732e-06 8.920288e-01 -3.854370e-01
5.051255e+09 9.310303e-01 1.270752e-01 -7.128716e-05 2.276152e-05 2.267398e-05 -1.336820e-05 8.994751e-01 -3.818359e-01
5.055005e+09 9.231567e-01 1.339722e-01 -7.358193e-05 -1.784116e-04 -1.569558e-05 1.084991e-06 9.075928e-01 -3.806152e-01
5.058755e+09 9.180298e-01 1.408691e-01 1.266077e-04 -1.379326e-04 -6.521121e-06 2.023112e-05 9.146118e-01 -3.826294e-01
5.062505e+09 9.109497e-01 1.475830e-01 -3.894791e-05 2.150051e-05 -3.205054e-05 -5.723909e-06 9.193726e-01 -3.855591e-01
5.066255e+09 9.054565e-01 1.516113e-01 1.440942e-04 -4.574656e-05 6.215647e-06 -2.418831e-05 9.204102e-01 -3.912354e-01
5.070005e+09 8.975830e-01 1.585083e-01 -3.617257e-05 8.755922e-05 -4.985183e-05 -3.604591e-05 9.204102e-01 -3.953857e-01
5.073755e+09 8.906250e-01 1.658936e-01 -4.322082e-05 -9.395927e-05 5.614012e-05 1.573190e-05 9.178467e-01 -3.968506e-01
5.077505e+09 8.833008e-01 1.728516e-01 -6.287545e-05 6.813556e-05 -5.315989e-06 3.559329e-05 9.141235e-01 -3.976440e-01
5.081255e+09 8.779297e-01 1.825562e-01 5.682185e-05 -4.788488e-05 8.856878e-06 1.497939e-05 9.091797e-01 -3.937988e-01
5.085005e+09 8.739014e-01 1.926270e-01 -6.351620e-05 3.503263e-05 4.868954e-06 6.970763e-05 9.038086e-01 -3.906250e-01
5.088755e+09 8.705444e-01 2.026367e-01 9.953976e-05 6.096810e-05 -9.233505e-05 1.424551e-05 9.003296e-01 -3.848877e-01
5.092505e+09 8.698730e-01 2.111206e-01 1.146272e-05 -3.934652e-05 1.824647e-05 3.763475e-05 8.993530e-01 -3.777466e-01
5.096255e+09 8.698730e-01 2.185669e-01 1.790002e-05 -4.288182e-05 -3.118068e-06 6.658956e-05 8.984375e-01 -3.717041e-01
5.100004e+09 8.690186e-01 2.233276e-01 8.679926e-06 -1.206920e-04 -9.746850e-05 -5.175173e-05 8.969727e-01 -3.643188e-01
5.103754e+09 8.675537e-01 2.265625e-01 -3.127009e-05 3.373250e-05 -8.906238e-06 -1.502968e-05 8.935547e-01 -3.581543e-01
5.107504e+09 8.660278e-01 2.297974e-01 5.247071e-06 -3.601611e-05 -7.066131e-05 -2.913177e-06 8.916016e-01 -3.489990e-01
5.111254e+09 8.589478e-01 2.326050e-01 2.032146e-05 2.204627e-05 -2.275221e-05 9.378418e-06 8.892822e-01 -3.391113e-01
5.115004e+09 8.536377e-01 2.379150e-01 1.199543e-06 3.239140e-05 -7.835031e-05 -1.004338e-05 8.854370e-01 -3.288574e-01
5.118754e+09 8.462524e-01 2.445068e-01 8.127838e-05 -7.708371e-05 3.895164e-05 4.963949e-06 8.837280e-01 -3.134155e-01
5.122504e+09 8.378906e-01 2.548828e-01 8.503348e-05 3.577769e-05 -6.213784e-05 -1.103431e-05 8.854370e-01 -2.984619e-01
5.126254e+09 8.344116e-01 2.689209e-01 -7.424504e-06 -2.875552e-05 -4.466623e-05 1.839921e-05 8.896484e-01 -2.825317e-01
5.130004e+09 8.320923e-01 2.821045e-01 1.814216e-05 1.544133e-04 4.243478e-05 5.817413e-05 8.964233e-01 -2.684937e-01
5.133754e+09 8.336182e-01 2.974243e-01 -4.032254e-05 -4.409254e-05 3.948621e-05 1.639687e-05 9.046631e-01 -2.544556e-01
5.137504e+09 8.386841e-01 3.112793e-01 -5.285069e-05 -2.110004e-05 1.558196e-05 2.761371e-06 9.127808e-01 -2.459106e-01
5.141254e+09 8.499756e-01 3.223267e-01 1.236051e-04 1.669675e-04 2.676249e-05 4.858524e-05 9.225464e-01 -2.400513e-01
5.145004e+09 8.613281e-01 3.293457e-01 -3.557652e-05 -8.141249e-05 -3.807992e-05 1.442991e-05 9.265747e-01 -2.370605e-01
5.148754e+09 8.724976e-01 3.329468e-01 -5.570799e-05 -8.784235e-05 -8.184090e-05 6.475672e-05 9.293213e-01 -2.353516e-01
5.152504e+09 8.814697e-01 3.333130e-01 7.023104e-06 1.301523e-05 -1.001917e-05 -3.079511e-05 9.256592e-01 -2.319946e-01
5.156254e+09 8.898926e-01 3.289185e-01 -8.587539e-05 -4.023314e-06 8.073077e-05 2.584979e-05 9.196777e-01 -2.281494e-01
5.160004e+09 8.925171e-01 3.237915e-01 -5.903095e-05 -1.572073e-06 -6.447360e-05 -2.293661e-05 9.094238e-01 -2.207642e-01
5.163754e+09 8.933105e-01 3.170166e-01 -1.613796e-05 -1.068413e-04 -6.836653e-05 2.839789e-05 8.990479e-01 -2.081909e-01
5.167504e+09 8.900146e-01 3.142090e-01 -5.509704e-05 -1.178235e-04 -7.600337e-05 2.482533e-05 8.884888e-01 -1.919556e-01
5.171254e+09 8.834839e-01 3.125000e-01 5.275011e-05 5.296990e-05 3.935397e-05 -9.930134e-05 8.797607e-01 -1.720581e-01
5.175004e+09 8.768311e-01 3.118896e-01 3.864989e-05 1.167506e-05 -4.698336e-05 -1.201406e-05 8.745728e-01 -1.507568e-01
5.178754e+09 8.692017e-01 3.160400e-01 9.556115e-05 -2.637506e-06 -1.220033e-05 -6.420165e-05 8.713989e-01 -1.276245e-01
5.182504e+09 8.619995e-01 3.194580e-01 1.033470e-04 4.195422e-05 -1.166016e-05 5.047023e-05 8.724365e-01 -1.054688e-01
5.186254e+09 8.544922e-01 3.249512e-01 1.385063e-05 4.121661e-05 3.144518e-05 1.301430e-05 8.727417e-01 -8.282471e-02
5.190004e+09 8.475952e-01 3.322144e-01 -4.269183e-06 8.346140e-05 -2.216548e-05 -9.753555e-05 8.749390e-01 -6.268311e-02
5.193754e+09 8.405762e-01 3.382568e-01 1.022965e-05 1.572520e-04 9.337813e-05 -7.528812e-05 8.772583e-01 -4.217529e-02
5.197504e+09 8.336182e-01 3.484497e-01 3.644079e-05 -8.460879e-05 -4.990771e-05 4.538894e-05 8.796387e-01 -2.264404e-02
5.201254e+09 8.263550e-01 3.609009e-01 3.301166e-05 3.136508e-05 5.443580e-07 7.549301e-06 8.821411e-01 -3.784180e-03
5.205004e+09 8.206787e-01 3.722534e-01 5.323440e-05 6.962568e-05 -1.506973e-05 1.071952e-06 8.853149e-01 1.556396e-02
5.208754e+09 8.184814e-01 3.883057e-01 2.554804e-05 -1.353212e-05 9.070337e-05 -6.429851e-06 8.905029e-01 3.295898e-02
5.212504e+09 8.191528e-01 4.017944e-01 5.840510e-05 1.922250e-06 1.670793e-06 2.277084e-05 8.952026e-01 5.206299e-02
5.216254e+09 8.217773e-01 4.169312e-01 3.208406e-05 -1.696870e-05 -5.153939e-06 3.491156e-05 8.984375e-01 6.756592e-02
5.220004e+09 8.251343e-01 4.295044e-01 1.469254e-05 7.471070e-05 -1.096353e-05 -4.550442e-05 9.057617e-01 8.172607e-02
5.223754e+09 8.319092e-01 4.396973e-01 1.540780e-05 1.076981e-04 -1.672655e-06 -2.321415e-05 9.096680e-01 9.381104e-02
5.227504e+09 8.402710e-01 4.462891e-01 -3.384426e-05 -4.849955e-05 8.185208e-05 4.891679e-05 9.133301e-01 1.044312e-01
5.231254e+09 8.457031e-01 4.490967e-01 8.173287e-06 7.855520e-05 5.572289e-05 1.168251e-05 9.143066e-01 1.135864e-01
5.235004e+09 8.480225e-01 4.490356e-01 4.708022e-05 5.802512e-05 -1.421571e-05 2.059806e-05 9.133911e-01 1.221313e-01
5.238754e+09 8.466187e-01 4.461060e-01 1.351908e-05 2.581067e-05 -3.018230e-05 1.389906e-05 9.091187e-01 1.326294e-01
5.242504e+09 8.428955e-01 4.470215e-01 -1.240149e-04 -4.930794e-05 -1.572538e-05 -2.752058e-06 9.025879e-01 1.430664e-01
5.246254e+09 8.344116e-01 4.479370e-01 -3.637373e-05 1.166016e-04 8.732826e-05 3.600866e-05 8.959351e-01 1.578369e-01
5.250004e+09 8.243408e-01 4.511108e-01 1.935475e-05 6.021000e-06 1.409277e-05 -1.629815e-05 8.904419e-01 1.729736e-01
5.253754e+09 8.138428e-01 4.582520e-01 3.317744e-05 6.340444e-05 -3.860146e-05 -8.575618e-06 8.872070e-01 1.918945e-01
5.257504e+09 8.049927e-01 4.693604e-01 -3.692508e-05 8.394569e-05 1.749955e-05 3.282540e-05 8.856812e-01 2.120972e-01
5.261254e+09 7.975464e-01 4.791260e-01 -7.223338e-06 -4.485250e-05 -8.868426e-05 -7.297099e-05 8.869629e-01 2.296143e-01
5.265004e+09 7.914429e-01 4.926758e-01 3.689528e-05 -1.005009e-04 -9.681284e-05 2.601743e-05 8.890991e-01 2.471924e-01
5.268754e+09 7.879028e-01 5.048828e-01 6.399304e-05 -4.963577e-05 1.055934e-05 4.112907e-05 8.934937e-01 2.630615e-01
5.272504e+09 7.864380e-01 5.153809e-01 3.287382e-05 1.577474e-05 1.912937e-05 5.215779e-05 9.004517e-01 2.747803e-01
5.276254e+09 7.842407e-01 5.234375e-01 3.051013e-05 -1.476482e-04 -1.333468e-05 2.785400e-05 9.047241e-01 2.830811e-01
5.280004e+09 7.828369e-01 5.313110e-01 -3.810972e-05 8.568168e-05 -5.707145e-05 6.194413e-05 9.078979e-01 2.903442e-01
5.283754e+09 7.789917e-01 5.366211e-01 -1.238659e-04 3.125519e-05 -1.322478e-04 -1.718849e-05 9.100342e-01 2.958374e-01
5.287504e+09 7.751465e-01 5.423584e-01 -1.897290e-05 4.268065e-05 1.040474e-04 5.406886e-05 9.091797e-01 3.000488e-01
5.291254e+09 7.693481e-01 5.482788e-01 4.600734e-05 4.155189e-05 5.960464e-06 -2.351403e-05 9.056396e-01 3.058472e-01
5.295004e+09 7.648315e-01 5.546265e-01 -8.515269e-05 -8.611381e-05 -1.668558e-05 -1.798850e-05 9.025879e-01 3.126221e-01
5.298754e+09 7.609253e-01 5.613403e-01 -1.237541e-05 3.878213e-05 5.919859e-05 -3.127009e-05 8.993530e-01 3.204956e-01
5.302503e+09 7.540283e-01 5.682983e-01 -2.664328e-05 -8.321553e-05 6.502494e-06 -1.583528e-05 8.958130e-01 3.278809e-01
5.306253e+09 7.470093e-01 5.736694e-01 -4.954636e-06 1.153946e-04 2.201088e-05 -1.309440e-05 8.930664e-01 3.363037e-01
5.310003e+09 7.423096e-01 5.800781e-01 1.929980e-05 6.149523e-06 2.647191e-05 -5.555898e-05 8.919067e-01 3.434448e-01
5.313753e+09 7.346191e-01 5.854492e-01 6.565824e-06 1.276750e-05 -8.715317e-05 -4.311651e-05 8.916626e-01 3.518677e-01
5.317503e+09 7.282104e-01 5.906372e-01 1.092106e-04 8.516014e-06 -4.194677e-06 -5.675480e-05 8.901367e-01 3.578491e-01
5.321253e+09 7.185669e-01 5.982666e-01 8.866191e-07 8.016825e-05 9.458512e-06 2.584793e-05 8.884277e-01 3.629761e-01
5.325003e+09 7.104492e-01 6.046753e-01 -1.977757e-05 -5.437061e-05 3.031082e-05 1.486391e-06 8.865356e-01 3.694458e-01
5.328753e+09 7.012329e-01 6.121216e-01 -2.557598e-05 1.309067e-05 5.584210e-06 7.480010e-05 8.864746e-01 3.750000e-01
5.332503e+09 6.922607e-01 6.237793e-01 9.019673e-05 1.850724e-05 2.100784e-05 -2.034195e-05 8.854370e-01 3.818359e-01
5.336253e+09 6.856079e-01 6.359253e-01 5.180016e-05 2.207980e-05 -4.070066e-05 -4.203059e-05 8.862305e-01 3.866577e-01
5.340003e+09 6.836548e-01 6.496582e-01 6.324612e-06 -1.946371e-05 6.223843e-05 2.553314e-05 8.875732e-01 3.917236e-01
5.343753e+09 6.828003e-01 6.620483e-01 6.280839e-06 -3.581308e-05 -4.167110e-05 -4.998222e-05 8.905029e-01 3.947144e-01
5.347503e+09 6.864014e-01 6.724243e-01 1.251698e-05 -8.822978e-05 -7.627159e-05 1.817942e-06 8.927612e-01 3.953857e-01
5.351253e+09 6.908569e-01 6.788940e-01 5.298108e-05 8.823723e-05 -1.835451e-05 6.286800e-05 8.962402e-01 3.927612e-01
5.355003e+09 7.005005e-01 6.821899e-01 -5.265698e-05 -2.276525e-05 -5.178154e-06 -6.926805e-05 8.956909e-01 3.873901e-01
5.358753e+09 7.063599e-01 6.788940e-01 9.848177e-05 3.235787e-05 2.372824e-05 5.971640e-06 8.930664e-01 3.812866e-01
5.362503e+09 7.115479e-01 6.730957e-01 -7.815287e-05 2.320856e-05 3.027730e-05 -1.007318e-05 8.863525e-01 3.737793e-01
5.366253e+09 7.096558e-01 6.632080e-01 -6.798655e-08 -1.619756e-05 -2.416223e-05 -1.363829e-05 8.753662e-01 3.703613e-01
5.370003e+09 7.035522e-01 6.528320e-01 8.963048e-05 -4.536659e-05 -5.244464e-05 1.545995e-05 8.617554e-01 3.677979e-01
5.373753e+09 6.929321e-01 6.428223e-01 1.241267e-05 -7.003173e-05 2.375618e-05 1.336820e-05 8.469238e-01 3.695679e-01
5.377503e+09 6.791382e-01 6.389160e-01 -7.634237e-05 -7.252023e-05 -2.796948e-05 2.845004e-05 8.339844e-01 3.776855e-01
5.381253e+09 6.634521e-01 6.361084e-01 -6.336346e-05 -4.714727e-05 -7.705297e-06 -3.153458e-06 8.244019e-01 3.870239e-01
5.385003e+09 6.495361e-01 6.376343e-01 -5.073100e-05 -5.362928e-05 -3.842823e-05 -1.568720e-05 8.161621e-01 4.003296e-01
5.388753e+09 6.360168e-01 6.405640e-01 8.891523e-05 2.920628e-06 -3.982335e-06 -5.175173e-05 8.121948e-01 4.124146e-01
5.392503e+09 6.244507e-01 6.467896e-01 -1.023114e-04 -1.276284e-05 -2.826191e-05 2.080947e-05 8.116455e-01 4.263916e-01
5.396253e+09 6.132202e-01 6.508789e-01 5.141273e-05 -2.584234e-05 -5.371496e-05 -1.836196e-05 8.141479e-01 4.354858e-01
5.400003e+09 6.052856e-01 6.568604e-01 3.240071e-05 1.623668e-05 7.465482e-06 -5.750917e-07 8.170166e-01 4.445190e-01
5.403753e+09 5.970459e-01 6.634521e-01 9.767711e-05 1.464784e-04 -4.383922e-05 1.848117e-05 8.220215e-01 4.490356e-01
5.407503e+09 5.902100e-01 6.683350e-01 6.526709e-05 6.530061e-05 2.963841e-05 9.243935e-05 8.262939e-01 4.504395e-01
5.411253e+09 5.831299e-01 6.724854e-01 -1.976639e-05 5.875155e-05 3.476441e-05 5.800650e-05 8.293457e-01 4.530029e-01
5.415003e+09 5.767822e-01 6.766968e-01 4.570559e-05 -6.414950e-06 4.248135e-05 -4.125200e-05 8.307495e-01 4.520874e-01
5.418753e+09 5.734863e-01 6.818237e-01 1.037121e-04 6.197393e-05 -1.687743e-05 -2.156757e-05 8.289185e-01 4.498291e-01
5.422503e+09 5.656738e-01 6.848145e-01 -1.947954e-05 7.421896e-05 -9.015203e-06 -1.833308e-05 8.262939e-01 4.492188e-01
5.426253e+09 5.621338e-01 6.897583e-01 -5.134940e-05 -2.264231e-05 -6.998889e-06 8.164905e-06 8.215942e-01 4.497070e-01
5.430003e+09 5.568848e-01 6.927490e-01 -1.257285e-05 -7.375702e-05 -4.125759e-05 6.029755e-05 8.180542e-01 4.519043e-01
5.433753e+09 5.526123e-01 6.956177e-01 4.449114e-05 5.769730e-05 -3.207475e-06 5.742162e-05 8.125610e-01 4.544067e-01
5.437503e+09 5.463257e-01 6.965332e-01 5.765632e-05 -4.438683e-05 -6.528571e-05 -5.969778e-05 8.060303e-01 4.592896e-01
5.441253e+09 5.396729e-01 6.958618e-01 -1.909118e-05 -6.457791e-06 9.831041e-06 2.952665e-05 8.008423e-01 4.632568e-01
5.445003e+09 5.322876e-01 6.965332e-01 -3.147125e-05 -7.995218e-05 6.322749e-06 -1.556799e-05 7.948608e-01 4.700928e-01
5.448753e+09 5.211792e-01 6.976929e-01 5.102158e-05 6.683171e-06 2.061762e-05 -2.409890e-05 7.876587e-01 4.764404e-01
5.452503e+09 5.076294e-01 7.020874e-01 -1.881644e-05 -7.039681e-05 -8.986890e-05 -4.343688e-06 7.816772e-01 4.845581e-01
5.456253e+09 4.956055e-01 7.072754e-01 3.886223e-05 -8.314848e-05 -9.237230e-05 5.550683e-05 7.769165e-01 4.931641e-01
5.460003e+09 4.813232e-01 7.159424e-01 -5.779415e-05 -3.588572e-05 -4.299730e-05 -7.469580e-05 7.739258e-01 5.057983e-01
5.463753e+09 4.689331e-01 7.285156e-01 -2.628192e-05 4.523247e-05 -8.232519e-05 -4.798174e-06 7.731934e-01 5.175781e-01
5.467503e+09 4.603271e-01 7.445679e-01 -3.261119e-05 -1.665018e-05 5.678833e-05 -4.188344e-05 7.757568e-01 5.302734e-01
5.471253e+09 4.526978e-01 7.609863e-01 5.276501e-05 7.141382e-06 -3.064983e-05 -5.189329e-06 7.802124e-01 5.394897e-01
5.475003e+09 4.519653e-01 7.782593e-01 1.290068e-05 4.334748e-05 -8.141994e-05 -6.619841e-05 7.862549e-01 5.456543e-01
5.478753e+09 4.533081e-01 7.958374e-01 6.332994e-07 -6.682053e-05 3.720261e-05 -1.826324e-05 7.934570e-01 5.469971e-01
5.482503e+09 4.592896e-01 8.082275e-01 -7.614493e-06 1.033917e-04 -1.929328e-05 5.196407e-05 7.969971e-01 5.445557e-01
5.486253e+09 4.674072e-01 8.188477e-01 4.724413e-05 -5.609170e-05 7.252023e-05 2.947822e-05 7.990112e-01 5.401611e-01
5.490003e+09 4.751587e-01 8.233643e-01 7.245690e-05 1.391768e-05 -1.308508e-05 3.218837e-05 7.956543e-01 5.326538e-01
5.493753e+09 4.791260e-01 8.267212e-01 7.201359e-05 -3.494695e-05 5.460531e-05 1.042262e-04 7.849121e-01 5.245361e-01
5.497503e+09 4.816895e-01 8.263550e-01 1.795292e-04 2.434850e-05 -3.548339e-05 3.726035e-05 7.723999e-01 5.199585e-01
5.501252e+09 4.831543e-01 8.215942e-01 5.761161e-05 -5.951896e-05 -6.318837e-05 -3.290176e-05 7.557373e-01 5.172119e-01
5.505002e+09 4.775391e-01 8.212891e-01 1.062825e-04 1.066923e-05 1.428369e-05 -8.592382e-06 7.373657e-01 5.216064e-01
5.508752e+09 4.728394e-01 8.206177e-01 -3.146194e-05 3.072433e-05 4.085153e-05 4.850328e-05 7.202148e-01 5.292969e-01
5.512502e+09 4.648438e-01 8.236694e-01 -9.253621e-05 -3.202260e-05 3.843009e-05 2.259202e-05 7.022095e-01 5.393066e-01
5.516252e+09 4.552612e-01 8.266602e-01 1.915917e-05 -4.012138e-05 -5.602837e-05 -6.472319e-05 6.882935e-01 5.537720e-01
5.520002e+09 4.453125e-01 8.324585e-01 -6.142259e-05 -7.883459e-05 7.207971e-06 -5.713664e-07 6.755066e-01 5.669556e-01
5.523752e+09 4.392090e-01 8.410034e-01 -2.535060e-05 1.221709e-05 -2.889894e-05 2.326444e-06 6.636963e-01 5.821533e-01
5.527502e+09 4.312134e-01 8.494873e-01 -7.072836e-05 4.990399e-05 6.815791e-05 3.109500e-05 6.553955e-01 5.962830e-01
5.531252e+09 4.240723e-01 8.592529e-01 -9.455532e-05 -1.304224e-04 3.666431e-05 9.261072e-05 6.489258e-01 6.126099e-01
5.535002e+09 4.185791e-01 8.674316e-01 -7.822737e-05 5.222857e-06 4.379451e-05 -7.156283e-06 6.427307e-01 6.251221e-01
5.538752e+09 4.165649e-01 8.798828e-01 3.252178e-05 1.697242e-05 -7.522851e-05 -5.204231e-06 6.365356e-01 6.354675e-01
5.542502e+09 4.119873e-01 8.887329e-01 -5.480647e-05 1.080856e-04 1.893193e-05 -4.676729e-05 6.315918e-01 6.466980e-01
5.546252e+09 4.125366e-01 8.978271e-01 1.404062e-05 -3.956631e-05 -4.092604e-05 6.036460e-05 6.255188e-01 6.560364e-01
5.550002e+09 4.144897e-01 9.107056e-01 -1.012310e-04 6.474555e-05 2.022646e-05 -3.628246e-05 6.206665e-01 6.658630e-01
5.553752e+09 4.158325e-01 9.181519e-01 -5.871430e-05 -7.120520e-05 4.963204e-05 3.879517e-05 6.157532e-01 6.718140e-01
5.557502e+09 4.218140e-01 9.230957e-01 -4.678592e-05 5.729496e-06 5.402789e-05 -8.162111e-06 6.101074e-01 6.793213e-01
5.561252e+09 4.258423e-01 9.254761e-01 1.943111e-05 2.362579e-05 -5.477667e-05 4.023314e-07 6.023254e-01 6.829529e-01
5.565002e+09 4.302979e-01 9.232788e-01 5.871803e-05 3.760681e-05 -2.970174e-05 -7.962808e-05 5.956116e-01 6.874390e-01
5.568752e+09 4.328003e-01 9.168091e-01 -8.717179e-05 8.998811e-05 1.014397e-04 7.443130e-06 5.850525e-01 6.909180e-01
5.572502e+09 4.312744e-01 9.098511e-01 -1.935381e-05 -6.898306e-06 1.037866e-05 -6.228685e-05 5.724792e-01 6.937866e-01
5.576252e+09 4.265137e-01 9.011230e-01 -6.876141e-05 -9.471178e-05 9.357929e-06 2.197735e-05 5.581665e-01 6.976013e-01
5.580002e+09 4.163818e-01 8.963623e-01 2.478994e-05 3.571622e-05 2.765469e-05 -2.847798e-05 5.430908e-01 7.053223e-01
5.583752e+09 4.014282e-01 8.922119e-01 -6.318092e-05 -1.736358e-05 4.390255e-06 -3.742799e-05 5.263367e-01 7.144165e-01
5.587502e+09 3.890381e-01 8.909912e-01 -8.851290e-05 -2.110749e-05 6.572530e-05 -5.431473e-06 5.115356e-01 7.271729e-01
5.591252e+09 3.728638e-01 8.949585e-01 1.365319e-05 -3.788434e-05 -2.052635e-06 -2.552010e-05 4.979858e-01 7.407837e-01
5.595002e+09 3.617554e-01 8.993530e-01 1.333654e-05 -2.210774e-05 -9.071082e-05 -3.307313e-05 4.880981e-01 7.555542e-01
5.598752e+09 3.532715e-01 9.076538e-01 -5.177036e-05 8.400530e-06 3.023446e-05 8.597970e-06 4.809570e-01 7.691040e-01
5.602502e+09 3.476562e-01 9.144897e-01 4.367158e-05 7.595122e-05 5.591288e-05 4.758686e-05 4.763794e-01 7.831421e-01
5.606252e+09 3.452148e-01 9.222412e-01 -1.575798e-05 1.045391e-04 7.122383e-05 -4.709885e-05 4.744873e-01 7.929688e-01
5.610002e+09 3.457642e-01 9.246826e-01 -3.420562e-05 4.856661e-05 2.417713e-06 3.007986e-05 4.735107e-01 7.995605e-01
5.613752e+09 3.478394e-01 9.226685e-01 -6.628782e-05 1.476333e-05 -1.117736e-04 2.816319e-05 4.708862e-01 8.009644e-01
5.617502e+09 3.479614e-01 9.172974e-01 7.112511e-06 -1.953170e-05 3.376976e-05 -5.224720e-05 4.656372e-01 8.027954e-01
5.621252e+09 3.457031e-01 9.092407e-01 -4.583597e-05 5.304813e-06 4.585832e-06 5.658343e-05 4.589233e-01 8.006592e-01
5.625002e+09 3.393555e-01 9.000244e-01 -1.146134e-09 -4.195613e-10 5.840883e-05 6.700680e-05 4.450684e-01 7.980347e-01
5.628752e+09 3.304443e-01 8.872070e-01 -1.148731e-04 -9.596348e-06 6.483495e-05 -3.160164e-05 4.301147e-01 7.977905e-01
5.632502e+09 3.142090e-01 8.770752e-01 -6.120652e-05 -8.131564e-05 7.088762e-06 -4.290137e-06 4.137573e-01 8.029175e-01
5.636252e+09 2.991333e-01 8.695679e-01 7.017702e-05 -1.689792e-05 2.813898e-05 -1.708604e-05 3.960571e-01 8.098145e-01
5.640002e+09 2.827148e-01 8.649292e-01 -4.855543e-05 -7.097423e-05 5.640090e-06 6.947666e-05 3.807983e-01 8.190918e-01
5.643752e+09 2.625732e-01 8.649902e-01 3.764778e-05 1.387857e-05 5.596504e-05 5.437806e-05 3.649292e-01 8.312378e-01
5.647502e+09 2.476196e-01 8.637085e-01 3.889017e-05 -1.797453e-05 -3.534928e-05 -7.076934e-05 3.521729e-01 8.455811e-01
5.651252e+09 2.307739e-01 8.650513e-01 -6.031245e-05 7.526204e-05 5.298480e-05 -7.450581e-05 3.414917e-01 8.591919e-01
5.655002e+09 2.153320e-01 8.672485e-01 5.063042e-05 4.069507e-05 -1.039281e-04 -2.533197e-06 3.353271e-01 8.753662e-01
5.658752e+09 1.996460e-01 8.735962e-01 -7.675961e-06 3.575906e-05 -2.839603e-05 1.723878e-05 3.334351e-01 8.864136e-01
5.662502e+09 1.877441e-01 8.771973e-01 -3.352761e-05 1.538359e-05 5.853921e-05 -1.608953e-05 3.305664e-01 9.014893e-01
5.666252e+09 1.732178e-01 8.828125e-01 -6.174296e-05 6.107986e-05 4.982576e-05 -3.411621e-05 3.319702e-01 9.115601e-01
5.670002e+09 1.632690e-01 8.900146e-01 3.781170e-05 6.468967e-05 -2.374873e-05 -1.316145e-05 3.355103e-01 9.196167e-01
5.673752e+09 1.544189e-01 8.998413e-01 -4.019961e-05 1.881272e-06 -6.986409e-05 -1.704320e-05 3.375854e-01 9.254761e-01
5.677502e+09 1.473389e-01 9.096680e-01 4.883856e-05 -5.526096e-05 -4.531071e-05 7.573515e-06 3.444214e-01 9.304199e-01
5.681252e+09 1.453857e-01 9.183350e-01 1.179054e-06 -3.345497e-05 -1.339093e-04 5.728751e-05 3.488159e-01 9.318848e-01
5.685002e+09 1.462402e-01 9.289551e-01 1.421571e-05 -2.284534e-05 -7.495284e-06 -8.836389e-05 3.543091e-01 9.295044e-01
5.688752e+09 1.488037e-01 9.347534e-01 5.504116e-05 -5.760416e-05 -9.361655e-06 7.438287e-05 3.593750e-01 9.191895e-01
5.692502e+09 1.539917e-01 9.339600e-01 2.005324e-05 -9.128824e-06 2.904236e-05 -2.171658e-05 3.598022e-01 9.101562e-01
5.696252e+09 1.584473e-01 9.297485e-01 2.588890e-05 4.231930e-06 -1.266599e-05 -6.014109e-05 3.562622e-01 8.995361e-01
5.700002e+09 1.594238e-01 9.232788e-01 8.323044e-05 9.633601e-06 6.700680e-05 -1.315027e-05 3.480225e-01 8.853149e-01
5.703751e+09 1.587524e-01 9.129639e-01 -2.055988e-05 4.049391e-05 1.238137e-04 -3.656000e-05 3.353882e-01 8.712769e-01
5.707501e+09 1.519165e-01 9.019165e-01 1.863576e-05 7.004477e-06 6.383657e-05 -2.759695e-05 3.196411e-01 8.627319e-01
5.711251e+09 1.409912e-01 8.939209e-01 1.664460e-05 5.395710e-05 9.326264e-06 2.465583e-05 2.992554e-01 8.566284e-01
5.715001e+09 1.275024e-01 8.875732e-01 -1.213979e-05 -9.871088e-06 -4.705787e-05 3.998727e-05 2.786255e-01 8.554688e-01
5.718751e+09 1.126099e-01 8.824463e-01 1.253933e-04 5.044043e-06 2.942979e-05 -7.410347e-05 2.576904e-01 8.576660e-01
5.722501e+09 9.552002e-02 8.853760e-01 -8.459389e-05 5.349517e-05 -9.562820e-06 -2.790801e-05 2.368164e-01 8.649902e-01
5.726251e+09 7.928467e-02 8.903198e-01 -2.614036e-05 1.171045e-05 -2.018362e-05 1.028478e-04 2.205200e-01 8.750610e-01
5.730001e+09 6.384277e-02 8.989258e-01 1.001358e-05 -8.429587e-05 -6.917119e-05 -4.163012e-05 2.082520e-01 8.889771e-01
5.733751e+09 5.590820e-02 9.093018e-01 1.419894e-05 -2.251938e-05 -6.851181e-05 -2.377480e-05 1.986694e-01 9.014282e-01
5.737501e+09 4.730225e-02 9.224243e-01 -3.649294e-05 -8.185208e-05 -6.081164e-05 -9.890646e-06 1.912842e-01 9.121704e-01
5.741251e+09 4.351807e-02 9.327393e-01 7.279590e-05 3.352761e-05 4.171953e-05 -4.516542e-05 1.891479e-01 9.228516e-01
5.745001e+09 4.272461e-02 9.451294e-01 7.142127e-05 -8.154660e-05 -3.295019e-05 6.408617e-05 1.868286e-01 9.290161e-01
5.748751e+09 4.663086e-02 9.566650e-01 8.305162e-05 -3.691018e-05 5.068257e-06 -3.135018e-05 1.845093e-01 9.351196e-01
5.752501e+09 4.827881e-02 9.627075e-01 4.597753e-05 2.910197e-05 1.552328e-04 2.481043e-06 1.839600e-01 9.368286e-01
5.756251e+09 5.023193e-02 9.661255e-01 2.741255e-05 -1.213141e-05 -3.143027e-05 -5.111098e-06 1.786499e-01 9.375610e-01
5.760001e+09 5.358887e-02 9.703369e-01 -7.009879e-05 -6.657839e-05 -9.588897e-06 7.043034e-05 1.741943e-01 9.382935e-01
5.763751e+09 5.792236e-02 9.724121e-01 3.156811e-05 -1.107380e-04 -6.797910e-05 -7.514283e-05 1.669922e-01 9.378662e-01
5.767501e+09 6.005859e-02 9.733887e-01 6.181002e-05 -5.942211e-05 -9.357929e-05 7.309765e-05 1.599731e-01 9.378662e-01
5.771251e+09 6.060791e-02 9.710083e-01 5.694851e-05 3.867596e-05 -8.520484e-05 -1.068860e-04 1.513672e-01 9.417725e-01
5.775001e+09 6.286621e-02 9.688110e-01 -3.434718e-05 -9.620935e-05 1.819059e-05 3.627874e-05 1.397705e-01 9.453735e-01
5.778751e+09 6.176758e-02 9.635010e-01 3.989413e-05 -1.755357e-05 2.838671e-06 3.351271e-05 1.325073e-01 9.462891e-01
5.782501e+09 5.987549e-02 9.626465e-01 3.252923e-05 1.286864e-04 4.098564e-05 -4.462525e-05 1.242676e-01 9.502563e-01
5.786251e+09 5.371094e-02 9.572754e-01 1.753494e-05 4.008412e-05 1.365319e-05 7.312000e-05 1.157837e-01 9.540405e-01
5.790001e+09 4.736328e-02 9.552002e-01 7.049367e-05 3.309175e-05 1.890399e-05 -3.867969e-05 1.090088e-01 9.593506e-01
5.793751e+09 3.942871e-02 9.531860e-01 -3.360212e-06 -6.280839e-05 -3.354810e-05 3.998168e-05 9.942627e-02 9.651489e-01
5.797501e+09 2.917480e-02 9.541016e-01 -5.925074e-06 -1.357216e-05 -5.807728e-05 1.617149e-05 9.344482e-02 9.710693e-01
5.801251e+09 2.056885e-02 9.585571e-01 3.324449e-05 1.730397e-06 -2.194941e-05 5.623326e-06 8.752441e-02 9.763794e-01
5.805001e+09 1.300049e-02 9.630127e-01 -2.573617e-05 -2.150238e-05 -6.650761e-05 -7.336587e-05 8.398438e-02 9.861450e-01
5.808751e+09 5.737305e-03 9.691162e-01 -7.236004e-05 -3.422424e-05 4.521385e-05 -3.900379e-06 8.209229e-02 9.920654e-01
5.812501e+09 1.892090e-03 9.778442e-01 -1.242533e-04 -7.782131e-05 2.086535e-05 -2.473779e-05 8.166504e-02 9.962158e-01
5.816251e+09 6.103516e-04 9.820557e-01 1.708791e-05 5.835667e-05 2.258271e-05 -5.744398e-06 8.477783e-02 9.974365e-01
5.820001e+09 2.929688e-03 9.857178e-01 1.284666e-05 1.077075e-05 -9.012967e-05 2.694875e-05 8.551025e-02 9.945068e-01
5.823751e+09 4.272461e-03 9.849243e-01 -5.587935e-05 -7.296354e-05 1.325831e-05 6.412342e-05 8.642578e-02 9.880371e-01
5.827501e+09 3.845215e-03 9.807129e-01 -3.191642e-05 -1.824461e-05 -9.577721e-06 6.562099e-05 8.111572e-02 9.809570e-01
5.831251e+09 -4.882812e-04 9.738770e-01 -4.860014e-05 5.256385e-05 3.315508e-05 -5.186722e-05 7.513428e-02 9.727173e-01
5.835001e+09 -9.216309e-03 9.650879e-01 -3.527850e-06 6.417558e-05 -6.097928e-05 -1.711398e-05 6.658936e-02 9.625244e-01
5.838751e+09 -1.861572e-02 9.586182e-01 3.101304e-05 1.778640e-05 1.463741e-04 -9.179115e-06 5.175781e-02 9.588623e-01
5.842501e+09 -3.515625e-02 9.536133e-01 -1.400895e-05 2.156757e-05 1.032948e-04 9.661168e-05 3.741455e-02 9.541016e-01
5.846251e+09 -5.041504e-02 9.511108e-01 -6.616116e-06 -1.060590e-04 -9.118021e-05 3.703684e-05 2.020264e-02 9.541626e-01
5.850001e+09 -6.774902e-02 9.534912e-01 -1.411736e-04 -1.818687e-05 9.201467e-07 -7.279590e-05 6.103516e-03 9.583130e-01
5.853751e+09 -8.447266e-02 9.574585e-01 -9.114295e-05 -8.761883e-06 8.018687e-05 -3.423542e-06 -5.981445e-03 9.638062e-01
5.857501e+09 -9.973145e-02 9.649048e-01 -6.922334e-05 4.568696e-05 -3.064051e-05 -1.212023e-05 -1.293945e-02 9.725342e-01
5.861251e+09 -1.100464e-01 9.732056e-01 -1.871586e-05 -2.477504e-05 3.034994e-05 4.827976e-06 -1.922607e-02 9.791870e-01
5.865001e+09 -1.192017e-01 9.832153e-01 -2.277270e-05 -7.320940e-05 -2.429634e-05 7.033721e-05 -1.971436e-02 9.843140e-01
5.868751e+09 -1.235962e-01 9.927368e-01 -4.937872e-06 -3.136136e-05 -5.069748e-05 3.515929e-05 -1.855469e-02 9.859619e-01
5.872501e+09 -1.259766e-01 9.973755e-01 4.451349e-05 6.524846e-05 -3.332272e-06 -3.850088e-05 -1.446533e-02 9.854736e-01
5.876251e+09 -1.264648e-01 1.003052e+00 -1.314934e-05 -1.127087e-05 6.405637e-06 -1.617987e-05 -1.251221e-02 9.797974e-01
5.880001e+09 -1.283569e-01 1.002991e+00 -8.857995e-05 8.752942e-05 -3.750995e-05 1.893193e-05 -1.318359e-02 9.705811e-01
5.883751e+09 -1.262207e-01 1.003296e+00 -3.521703e-05 1.485460e-05 8.800998e-06 1.097750e-05 -1.452637e-02 9.588013e-01
5.887501e+09 -1.293335e-01 9.954224e-01 2.089515e-05 -8.763745e-06 9.407289e-06 1.865532e-05 -2.111816e-02 9.431763e-01
5.891251e+09 -1.311646e-01 9.896240e-01 7.946789e-05 1.530349e-05 2.534688e-05 -6.411597e-05 -2.844238e-02 9.335938e-01
5.895001e+09 -1.347656e-01 9.818115e-01 -4.012138e-05 -9.537488e-05 7.417798e-05 5.872548e-05 -3.686523e-02 9.191284e-01
5.898751e+09 -1.390381e-01 9.710083e-01 2.132170e-05 -2.483465e-05 2.587587e-05 3.565103e-05 -4.815674e-02 9.077759e-01
5.902500e+09 -1.470337e-01 9.584351e-01 2.145767e-06 -3.238954e-05 -1.900457e-05 3.910996e-05 -6.219482e-02 8.971558e-01
5.906250e+09 -1.585083e-01 9.482422e-01 -3.091991e-05 7.558614e-05 8.007139e-05 -1.451001e-05 -7.550049e-02 8.882446e-01
5.910000e+09 -1.713867e-01 9.351196e-01 5.980209e-05 6.851554e-05 -6.307662e-05 -5.289540e-05 -9.130859e-02 8.809814e-01
5.913750e+09 -1.851807e-01 9.261475e-01 5.640462e-05 -7.007271e-05 -1.183301e-04 5.424768e-05 -1.094971e-01 8.743286e-01
5.917500e+09 -2.043457e-01 9.151001e-01 7.518381e-05 -6.249920e-05 -1.636893e-05 5.897880e-05 -1.254272e-01 8.687744e-01
5.921250e+09 -2.258301e-01 9.097290e-01 7.106736e-05 1.735985e-06 -2.389960e-05 -2.661161e-05 -1.442261e-01 8.663330e-01
5.925000e+09 -2.467041e-01 9.058838e-01 1.387298e-05 -1.004040e-04 -1.460873e-05 -2.318062e-06 -1.624146e-01 8.679810e-01
5.928750e+09 -2.666016e-01 9.058838e-01 2.255663e-05 5.443767e-05 1.090169e-04 1.274049e-06 -1.766968e-01 8.688354e-01
5.932500e+09 -2.872314e-01 9.089355e-01 8.486956e-05 2.953410e-05 -4.119799e-05 3.298186e-05 -1.904297e-01 8.739624e-01
5.936250e+09 -3.022461e-01 9.168091e-01 8.844584e-05 -3.755093e-06 -9.044260e-05 -1.073629e-05 -1.987305e-01 8.805542e-01
5.940000e+09 -3.137817e-01 9.268799e-01 -1.610070e-05 -5.948544e-05 7.651746e-06 8.649006e-05 -2.095337e-01 8.842163e-01
5.943750e+09 -3.197021e-01 9.348755e-01 2.213567e-05 7.417798e-05 -2.098829e-05 -6.344169e-05 -2.109375e-01 8.890381e-01
5.947500e+09 -3.226929e-01 9.444580e-01 -1.299474e-05 -1.138542e-05 -1.407694e-05 1.679361e-05 -2.136841e-01 8.889160e-01
5.951250e+09 -3.222656e-01 9.470215e-01 4.921108e-05 7.963926e-05 6.387942e-06 -1.618080e-05 -2.143555e-01 8.853149e-01
5.955000e+09 -3.171997e-01 9.459839e-01 -7.088762e-06 2.886634e-06 -9.567291e-05 -2.277642e-05 -2.171631e-01 8.797607e-01
5.958750e+09 -3.147583e-01 9.411621e-01 -2.862141e-05 -7.019565e-05 -2.844632e-05 2.973154e-05 -2.207031e-01 8.710938e-01
5.962500e+09 -3.138428e-01 9.331055e-01 6.183237e-05 7.219985e-05 7.282570e-05 -4.889444e-05 -2.301636e-01 8.638306e-01
5.966250e+09 -3.152466e-01 9.246216e-01 -2.589077e-06 3.319606e-05 -5.386770e-06 -6.075203e-05 -2.431030e-01 8.549194e-01
5.970000e+09 -3.204956e-01 9.133301e-01 -6.733462e-05 1.132488e-05 5.948171e-05 -1.298264e-05 -2.565918e-01 8.493652e-01
5.973750e+09 -3.285522e-01 9.026489e-01 1.220629e-04 -3.346801e-05 -9.504147e-06 -2.173334e-05 -2.732544e-01 8.465576e-01
5.977500e+09 -3.388062e-01 8.930664e-01 8.250773e-05 -3.343076e-05 -2.380461e-05 -9.906292e-05 -2.901611e-01 8.481445e-01
5.981250e+09 -3.453369e-01 8.884277e-01 2.336130e-05 -4.165247e-05 -3.379211e-05 4.050322e-05 -3.051758e-01 8.519897e-01
5.985000e+09 -3.563232e-01 8.839111e-01 -2.950430e-05 -5.292892e-05 1.605600e-05 9.600073e-05 -3.203125e-01 8.580933e-01
5.988750e+09 -3.632812e-01 8.800659e-01 9.810552e-06 -3.674068e-05 -4.041567e-05 5.248189e-05 -3.311157e-01 8.687134e-01
5.992500e+09 -3.702393e-01 8.771973e-01 1.411140e-05 -8.819997e-05 -7.972121e-05 3.715977e-05 -3.400879e-01 8.760986e-01
5.996250e+09 -3.738403e-01 8.748779e-01 -4.867837e-05 2.902001e-06 -1.010448e-04 -1.121983e-04 -3.452759e-01 8.863525e-01
6.000000e+09 -3.796387e-01 8.765259e-01 5.766749e-06 -6.902963e-05 -4.165247e-05 4.569814e-05 -3.493042e-01 8.950195e-01
