# Hz S RI R 50
! RAW DATA - UNCALIBRATED
3.000000e+04 1.047607e+00 1.271362e-01 2.704561e-05 9.691715e-05 -2.699792e-04 -2.755970e-04 1.045227e+00 1.284790e-01
2.487312e+05 1.035645e+00 -1.858398e+00 -2.155080e-06 2.689660e-05 1.553632e-05 -8.524396e-06 9.791260e-01 2.685547e-03
4.674625e+05 9.752808e-01 -2.874756e-02 -2.268702e-06 8.489471e-06 -1.175795e-05 -1.639687e-05 9.832153e-01 2.490234e-02
6.861938e+05 9.788208e-01 -9.826660e-03 4.853588e-06 1.000566e-05 -2.012029e-05 6.485730e-06 1.000732e+00 3.741455e-02
9.049250e+05 9.795532e-01 -5.554199e-03 -6.980728e-06 4.740898e-06 4.542526e-06 -4.957896e-06 1.002808e+00 3.894043e-02
1.123656e+06 9.780273e-01 -1.434326e-02 4.791189e-06 -6.884336e-06 1.383945e-05 1.631025e-05 1.005554e+00 7.281494e-02
1.342388e+06 9.791260e-01 -1.892090e-02 -2.068467e-06 -1.623295e-05 -1.159683e-05 -7.804483e-06 1.017395e+00 8.233643e-02
1.561119e+06 9.771118e-01 -1.904297e-02 3.061723e-06 -7.776543e-07 1.213700e-05 -1.201686e-05 1.029541e+00 8.154297e-02
1.779850e+06 9.774170e-01 -1.837158e-02 7.196330e-06 -2.596527e-06 -1.373515e-05 4.572794e-07 1.039185e+00 7.623291e-02
1.998581e+06 9.768066e-01 -1.495361e-02 -3.155880e-05 1.806766e-06 5.292706e-06 -8.217990e-06 1.041443e+00 7.330322e-02
2.217312e+06 9.760742e-01 -1.153564e-02 1.366483e-06 -4.420290e-07 -1.546182e-05 -1.398847e-06 1.036133e+00 6.994629e-02
2.436044e+06 9.761963e-01 -8.056641e-03 6.472692e-06 -2.700835e-08 1.090579e-05 -2.270006e-05 1.027466e+00 7.122803e-02
2.654775e+06 9.769897e-01 -2.502441e-03 5.138107e-06 -1.787674e-05 1.088716e-06 -9.851530e-06 1.015930e+00 7.354736e-02
2.873506e+06 9.771729e-01 1.159668e-03 2.073124e-06 -1.032092e-05 -2.512708e-05 -3.343448e-06 1.003662e+00 8.123779e-02
3.092238e+06 9.777222e-01 5.737305e-03 -4.855450e-06 2.074055e-06 -6.135087e-06 -3.494788e-06 9.916992e-01 9.228516e-02
3.310969e+06 9.804077e-01 1.324463e-02 -3.991416e-06 -3.254972e-06 9.536743e-06 -2.775900e-05 9.789429e-01 1.057129e-01
3.529700e+06 9.798584e-01 1.373291e-02 -1.331791e-05 5.254522e-06 -7.823110e-07 -6.848481e-06 9.682617e-01 1.219482e-01
3.748431e+06 9.805908e-01 1.495361e-02 -1.899898e-06 9.003095e-06 -8.779578e-06 8.839183e-06 9.625244e-01 1.372070e-01
3.967162e+06 9.786987e-01 1.458740e-02 9.777956e-06 -1.132954e-05 -1.320615e-05 4.078262e-06 9.583130e-01 1.553345e-01
4.185894e+06 9.796753e-01 1.641846e-02 -1.079543e-05 -4.297122e-06 1.649186e-05 -1.449510e-05 9.566040e-01 1.714478e-01
4.404625e+06 9.791260e-01 1.696777e-02 -9.261072e-06 7.041264e-06 -7.217750e-06 -2.778322e-05 9.588013e-01 1.883545e-01
4.623356e+06 9.786987e-01 1.831055e-02 -5.587470e-06 -4.590955e-06 1.308694e-05 2.495013e-05 9.627686e-01 2.031860e-01
4.842088e+06 9.791260e-01 2.026367e-02 -4.966743e-06 1.765788e-05 -2.817623e-05 -2.200156e-05 9.682617e-01 2.161865e-01
5.060819e+06 9.780273e-01 2.130127e-02 -6.505754e-06 -2.039596e-07 1.016445e-05 1.972169e-05 9.743652e-01 2.259521e-01
5.279550e+06 9.788208e-01 2.307129e-02 -1.281872e-05 3.962778e-06 1.644343e-05 1.329649e-05 9.801636e-01 2.330933e-01
5.498281e+06 9.783325e-01 2.410889e-02 3.563240e-06 -1.110788e-05 -1.173932e-05 -7.838011e-06 9.848022e-01 2.385864e-01
5.717012e+06 9.786377e-01 2.563477e-02 -3.480120e-06 2.218410e-06 -1.125783e-05 6.000511e-06 9.879761e-01 2.432251e-01
5.935744e+06 9.794312e-01 2.746582e-02 1.053326e-06 1.488440e-05 1.376262e-06 -3.267545e-06 9.898071e-01 2.459717e-01
6.154475e+06 9.788818e-01 3.033447e-02 -1.541339e-06 2.888963e-06 1.461618e-05 9.536743e-07 9.876099e-01 2.478027e-01
6.373206e+06 9.798584e-01 3.125000e-02 2.925284e-06 -1.941808e-07 -7.699244e-06 2.032612e-06 9.832764e-01 2.514648e-01
6.591938e+06 9.808960e-01 3.234863e-02 -1.249090e-05 5.197711e-06 -1.527276e-05 9.194016e-06 9.774170e-01 2.562256e-01
6.810669e+06 9.812622e-01 3.466797e-02 -3.152527e-06 1.011044e-05 -2.141483e-05 -3.568828e-06 9.705811e-01 2.635498e-01
7.029400e+06 9.826660e-01 3.558350e-02 -3.827270e-06 -1.631677e-06 1.383480e-05 -5.073845e-06 9.634399e-01 2.739258e-01
7.248131e+06 9.832153e-01 3.741455e-02 -1.463573e-05 -8.967705e-06 1.334492e-05 -6.319955e-06 9.537354e-01 2.863159e-01
7.466862e+06 9.837646e-01 3.814697e-02 -2.107583e-06 4.877336e-06 1.005828e-05 8.136034e-06 9.493408e-01 3.001099e-01
7.685594e+06 9.853516e-01 3.924561e-02 -3.261492e-06 1.012813e-05 -8.005183e-06 -6.156042e-07 9.441528e-01 3.174438e-01
7.904325e+06 9.864502e-01 4.107666e-02 1.173001e-06 -5.185837e-06 -2.747774e-05 -5.958602e-06 9.431763e-01 3.348999e-01
8.123056e+06 9.884033e-01 4.211426e-02 8.617993e-06 3.587920e-06 8.012634e-06 -8.409843e-07 9.453125e-01 3.505859e-01
8.341788e+06 9.882812e-01 4.260254e-02 -2.162531e-06 -7.058494e-06 1.247041e-06 -1.011696e-05 9.485474e-01 3.671265e-01
8.560519e+06 9.901733e-01 4.382324e-02 -1.767417e-06 -2.790475e-06 -3.344752e-05 6.211922e-06 9.560547e-01 3.813477e-01
8.779250e+06 9.908447e-01 4.412842e-02 4.612142e-06 -2.669869e-06 -4.413538e-06 1.553912e-05 9.631958e-01 3.930664e-01
8.997981e+06 9.921875e-01 4.595947e-02 1.735054e-06 1.178868e-05 -8.841045e-06 1.144409e-05 9.730225e-01 4.001465e-01
9.216712e+06 9.927368e-01 4.553223e-02 -1.274515e-06 4.249392e-06 -7.868744e-06 1.217704e-05 9.816284e-01 4.036865e-01
9.435444e+06 9.941406e-01 4.644775e-02 -1.675449e-06 -6.404240e-06 -9.810086e-06 2.949964e-06 9.889526e-01 4.019775e-01
9.654175e+06 9.947510e-01 4.681396e-02 9.178650e-06 -1.832377e-06 -3.318302e-06 -1.468929e-06 9.949341e-01 3.990479e-01
9.872906e+06 9.968262e-01 4.803467e-02 1.189020e-05 -9.052455e-07 5.522907e-10 -2.657430e-10 9.945679e-01 3.927002e-01
1.009164e+07 9.971924e-01 4.779053e-02 1.191348e-05 2.596527e-06 -1.611840e-05 1.826230e-05 9.918213e-01 3.862915e-01
1.031037e+07 9.967041e-01 4.760742e-02 9.126030e-06 2.008397e-06 -3.571855e-06 -6.598420e-07 9.833984e-01 3.802490e-01
1.052910e+07 9.985352e-01 4.809570e-02 2.711313e-07 1.454842e-06 1.523551e-05 -5.679205e-06 9.728394e-01 3.781128e-01
1.074783e+07 9.989624e-01 4.882812e-02 1.159497e-05 9.165145e-06 8.108094e-06 -2.885796e-05 9.601440e-01 3.746338e-01
1.096656e+07 1.000183e+00 4.895020e-02 -2.295710e-06 2.375455e-06 -7.977709e-06 -1.417380e-05 9.445801e-01 3.782959e-01
1.118529e+07 9.994507e-01 4.919434e-02 5.129492e-06 4.177913e-06 -1.875684e-06 -1.443736e-05 9.304199e-01 3.828735e-01
1.140402e+07 1.000671e+00 4.895020e-02 8.015893e-06 2.344139e-06 2.654269e-06 -2.286211e-05 9.158936e-01 3.930664e-01
1.162276e+07 1.001282e+00 4.931641e-02 4.004687e-08 -5.330192e-06 8.359551e-06 -1.011137e-05 9.025879e-01 4.031982e-01
1.184149e+07 1.002502e+00 4.974365e-02 4.148344e-06 5.096663e-07 -7.520430e-07 8.109491e-06 8.912354e-01 4.156494e-01
1.206022e+07 1.002136e+00 4.980469e-02 -1.004606e-06 -1.081848e-06 -6.373972e-06 -1.311302e-05 8.828125e-01 4.292603e-01
1.227895e+07 1.002563e+00 4.895020e-02 1.155958e-05 -2.143066e-05 6.265007e-06 -3.731810e-06 8.755493e-01 4.434814e-01
1.249768e+07 1.002319e+00 5.084229e-02 5.711336e-07 4.138099e-06 -3.959984e-06 -2.415106e-05 8.703003e-01 4.571533e-01
1.271641e+07 1.002563e+00 5.041504e-02 -3.497116e-06 8.273404e-06 1.582596e-05 -4.014000e-06 8.678589e-01 4.691162e-01
1.293514e+07 1.003296e+00 5.053711e-02 -1.853053e-05 3.715977e-06 -1.305155e-05 -7.537194e-06 8.668213e-01 4.799194e-01
1.315388e+07 1.002441e+00 5.029297e-02 3.536232e-06 1.097377e-05 2.394244e-05 5.334616e-06 8.656006e-01 4.893799e-01
1.337261e+07 1.002747e+00 5.194092e-02 -4.503177e-06 4.831934e-06 -1.420826e-05 -5.046837e-06 8.641357e-01 4.944458e-01
1.359134e+07 1.003540e+00 5.249023e-02 -4.342990e-06 -8.535571e-07 -1.165178e-05 6.193295e-06 8.628540e-01 4.996338e-01
1.381007e+07 1.003479e+00 5.267334e-02 -8.524396e-06 -3.807247e-06 -2.311356e-05 -1.711771e-06 8.572998e-01 5.029297e-01
1.402880e+07 1.003052e+00 5.242920e-02 2.880581e-06 -8.885283e-06 1.615658e-05 -2.779067e-06 8.511963e-01 5.045776e-01
1.424753e+07 1.003357e+00 5.291748e-02 5.140901e-07 -8.971430e-06 -1.654029e-06 -3.020652e-05 8.427124e-01 5.068970e-01
1.446626e+07 1.002808e+00 5.407715e-02 4.968606e-06 1.921086e-06 1.307577e-06 -1.463015e-05 8.300171e-01 5.093994e-01
1.468499e+07 1.003540e+00 5.383301e-02 -1.025293e-05 -2.888963e-06 -7.341150e-06 1.168810e-07 8.169556e-01 5.156860e-01
1.490372e+07 1.002319e+00 5.493164e-02 4.163012e-06 -5.121110e-06 -2.678484e-06 -2.191588e-05 8.014526e-01 5.236206e-01
1.512246e+07 1.003296e+00 5.535889e-02 7.872935e-06 -1.184642e-06 -8.807052e-06 -5.532522e-06 7.870483e-01 5.325317e-01
1.534119e+07 1.002991e+00 5.615234e-02 6.513670e-06 -1.152977e-06 9.084120e-06 -1.877360e-05 7.733154e-01 5.447388e-01
1.555992e+07 1.003235e+00 5.755615e-02 -6.076880e-06 -6.464776e-06 -1.264736e-06 -1.982227e-05 7.583008e-01 5.592041e-01
1.577865e+07 1.003357e+00 5.877686e-02 1.092721e-05 5.454756e-06 2.424978e-05 1.096539e-05 7.474976e-01 5.751953e-01
1.599738e+07 1.003296e+00 5.877686e-02 -1.396984e-09 -1.067948e-05 1.841411e-05 -4.793704e-05 7.369385e-01 5.924072e-01
1.621611e+07 1.004089e+00 6.201172e-02 -8.568168e-08 -2.232939e-05 -4.448742e-05 -7.029623e-06 7.291870e-01 6.098022e-01
1.643484e+07 1.003723e+00 6.207275e-02 -2.558716e-05 -1.905859e-05 3.802031e-05 2.047978e-05 7.231445e-01 6.268921e-01
1.665358e+07 1.003540e+00 6.408691e-02 2.565980e-05 -5.116314e-05 4.034489e-05 2.890825e-06 7.208252e-01 6.449585e-01
1.687231e+07 1.004028e+00 6.353760e-02 3.078207e-05 3.763475e-05 -9.063631e-06 1.441035e-05 7.187500e-01 6.607666e-01
1.709104e+07 1.003418e+00 6.524658e-02 -2.951734e-05 1.727976e-05 -2.087653e-05 1.289509e-05 7.176514e-01 6.747437e-01
1.730977e+07 1.003479e+00 6.585693e-02 1.356006e-06 2.309307e-05 -2.199784e-05 -7.135049e-05 7.189331e-01 6.882324e-01
1.752850e+07 1.003662e+00 6.640625e-02 -3.446266e-05 5.665794e-05 -1.534820e-05 -1.161080e-05 7.210083e-01 6.990356e-01
1.774723e+07 1.003540e+00 6.719971e-02 5.150586e-05 1.906976e-05 -2.088398e-05 -4.363433e-05 7.225342e-01 7.058716e-01
1.796596e+07 1.004150e+00 6.781006e-02 -7.852912e-06 -2.956390e-05 -1.943111e-05 1.121312e-06 7.211914e-01 7.131958e-01
1.818469e+07 1.004150e+00 6.976318e-02 1.302175e-05 2.892502e-05 -2.174266e-05 1.892820e-05 7.191772e-01 7.185669e-01
1.840342e+07 1.004700e+00 6.976318e-02 2.963282e-05 -7.895753e-06 2.983399e-05 1.226738e-05 7.160645e-01 7.233276e-01
1.862216e+07 1.004761e+00 7.073975e-02 -4.516169e-05 6.660819e-06 3.795326e-05 4.355237e-05 7.107544e-01 7.265015e-01
1.884089e+07 1.005737e+00 7.177734e-02 -3.635883e-05 -2.762303e-05 -7.085502e-06 3.661960e-05 7.037354e-01 7.318115e-01
1.905962e+07 1.006104e+00 7.312012e-02 5.251728e-06 1.227204e-05 1.952797e-05 -5.811453e-05 6.968384e-01 7.380981e-01
1.927835e+07 1.006958e+00 7.427979e-02 -9.028707e-06 8.475967e-06 -1.600385e-05 1.131091e-05 6.875610e-01 7.467041e-01
1.949708e+07 1.006958e+00 7.501221e-02 -3.335252e-05 6.115064e-05 2.287142e-05 -8.016825e-06 6.800537e-01 7.553101e-01
1.971581e+07 1.007812e+00 7.574463e-02 -5.441159e-05 1.849979e-05 -1.905486e-05 3.525987e-05 6.723633e-01 7.670288e-01
1.993454e+07 1.008545e+00 7.708740e-02 2.723560e-05 -9.275973e-06 -1.783110e-05 6.248243e-06 6.673584e-01 7.787476e-01
2.015328e+07 1.008606e+00 7.696533e-02 -7.597730e-06 2.870895e-05 4.312024e-05 2.490729e-05 6.641235e-01 7.904053e-01
2.037201e+07 1.009155e+00 7.775879e-02 3.284961e-05 3.560074e-05 1.801178e-05 -4.649535e-05 6.624756e-01 8.015747e-01
2.059074e+07 1.010681e+00 7.757568e-02 5.477294e-05 -5.621463e-06 3.214180e-05 -2.284721e-05 6.644897e-01 8.128052e-01
2.080947e+07 1.011292e+00 7.910156e-02 -5.059689e-05 4.678220e-05 1.684111e-05 -1.744460e-05 6.674194e-01 8.215332e-01
2.102820e+07 1.011658e+00 7.946777e-02 -3.427081e-05 -3.637746e-05 -1.806300e-06 -5.119480e-06 6.713867e-01 8.272705e-01
2.124693e+07 1.012268e+00 7.965088e-02 1.341803e-06 3.917376e-06 4.116818e-05 4.304945e-05 6.757812e-01 8.293457e-01
2.146566e+07 1.013977e+00 7.983398e-02 -2.347305e-05 1.789629e-05 8.440576e-06 -8.765608e-06 6.781006e-01 8.289185e-01
2.168439e+07 1.014465e+00 8.123779e-02 2.376735e-05 1.819432e-05 2.449006e-05 2.022088e-05 6.796265e-01 8.257446e-01
2.190312e+07 1.014893e+00 8.239746e-02 -1.030974e-05 2.438948e-05 3.992021e-05 1.480430e-05 6.784668e-01 8.203735e-01
2.212186e+07 1.015930e+00 8.123779e-02 1.692213e-05 -2.118759e-05 -7.314608e-06 -2.057292e-05 6.734619e-01 8.133545e-01
2.234059e+07 1.017029e+00 8.129883e-02 2.972782e-06 3.749132e-05 1.772493e-05 -6.429851e-05 6.644897e-01 8.088379e-01
2.255932e+07 1.017883e+00 8.227539e-02 -1.169741e-05 1.726486e-05 -4.152581e-05 -4.329160e-05 6.557617e-01 8.044434e-01
2.277805e+07 1.018188e+00 8.197021e-02 -7.702038e-06 2.249889e-05 -5.505979e-06 -1.546927e-05 6.433105e-01 8.023071e-01
2.299678e+07 1.018982e+00 8.306885e-02 5.245954e-05 -4.014745e-05 -4.240498e-05 3.434718e-06 6.316528e-01 8.009644e-01
2.321551e+07 1.020386e+00 8.251953e-02 3.006309e-06 3.435649e-05 5.132705e-05 -3.575906e-05 6.180420e-01 8.023071e-01
2.343424e+07 1.020874e+00 8.294678e-02 2.259016e-05 7.705763e-06 -2.402812e-05 5.520135e-05 6.051025e-01 8.063354e-01
2.365298e+07 1.021912e+00 8.319092e-02 -4.742295e-06 5.042553e-05 -2.253056e-05 -7.953495e-05 5.933838e-01 8.102417e-01
2.387171e+07 1.023132e+00 8.312988e-02 -7.137656e-06 -4.637241e-05 3.370270e-05 2.887286e-05 5.820312e-01 8.157959e-01
2.409044e+07 1.022888e+00 8.300781e-02 -2.797693e-05 -6.977469e-06 2.592243e-05 3.165193e-05 5.739136e-01 8.209839e-01
2.430917e+07 1.024353e+00 8.300781e-02 -1.077261e-05 -1.183990e-05 -1.495704e-06 -2.874061e-05 5.667725e-01 8.265991e-01
2.452790e+07 1.025085e+00 8.306885e-02 2.275221e-05 1.104176e-05 3.194809e-05 2.375059e-05 5.596313e-01 8.313599e-01
2.474663e+07 1.025085e+00 8.337402e-02 3.826432e-05 -3.110431e-05 -4.752353e-05 2.288818e-05 5.534668e-01 8.353271e-01
2.496536e+07 1.026550e+00 8.294678e-02 -2.244860e-05 1.894496e-05 -9.700656e-06 -4.351139e-05 5.494385e-01 8.371582e-01
2.518409e+07 1.027100e+00 8.160400e-02 1.252629e-07 1.000566e-05 -3.530458e-05 2.447329e-05 5.419922e-01 8.372803e-01
2.540282e+07 1.028015e+00 8.251953e-02 7.934868e-06 -6.106216e-06 -2.687983e-05 -2.566539e-05 5.372314e-01 8.364258e-01
2.562156e+07 1.028015e+00 8.312988e-02 -1.202151e-05 8.223578e-07 5.297735e-05 1.628324e-05 5.299072e-01 8.330688e-01
2.584029e+07 1.029114e+00 8.233643e-02 2.086535e-05 -3.970787e-05 3.054738e-07 -2.369657e-05 5.201416e-01 8.294678e-01
2.605902e+07 1.029785e+00 8.233643e-02 1.586694e-05 -1.561828e-05 -1.076981e-05 2.747960e-05 5.076904e-01 8.256836e-01
2.627775e+07 1.031067e+00 8.172607e-02 -1.448393e-05 1.963135e-05 -2.616318e-06 9.441283e-07 4.926147e-01 8.226318e-01
2.649648e+07 1.030640e+00 8.142090e-02 -3.614835e-05 5.850568e-06 4.928559e-05 -3.552064e-05 4.756470e-01 8.209839e-01
2.671521e+07 1.032288e+00 8.154297e-02 3.082678e-06 2.815388e-05 -7.859897e-06 2.838206e-06 4.586792e-01 8.217773e-01
2.693394e+07 1.031982e+00 8.020020e-02 -2.301857e-05 -1.108088e-05 1.571793e-05 -5.697832e-06 4.406738e-01 8.245239e-01
2.715268e+07 1.032715e+00 8.142090e-02 2.387911e-06 -2.223998e-05 -1.005456e-05 2.142973e-05 4.216919e-01 8.300171e-01
2.737141e+07 1.033386e+00 8.087158e-02 -2.237037e-06 3.238767e-05 4.274909e-10 2.002878e-10 4.039917e-01 8.378906e-01
2.759014e+07 1.034546e+00 7.977295e-02 -1.721829e-05 2.184510e-05 2.793223e-05 1.962669e-05 3.865967e-01 8.472290e-01
2.780887e+07 1.034729e+00 7.989502e-02 6.398186e-06 -2.371334e-05 1.651607e-05 -1.193862e-05 3.715210e-01 8.580322e-01
2.802760e+07 1.034851e+00 7.940674e-02 1.362816e-06 6.540213e-07 7.178169e-06 3.350899e-06 3.585815e-01 8.710938e-01
2.824633e+07 1.035034e+00 7.916260e-02 1.630746e-05 4.483387e-06 -3.257208e-05 -2.397038e-05 3.480835e-01 8.850098e-01
2.846506e+07 1.036072e+00 7.885742e-02 2.015848e-05 -1.049321e-05 -1.175143e-05 -7.671304e-06 3.400879e-01 8.988647e-01
2.868379e+07 1.036072e+00 7.781982e-02 9.510200e-06 1.207925e-06 -5.047768e-06 -2.207421e-05 3.356323e-01 9.108887e-01
2.890252e+07 1.037048e+00 7.794189e-02 1.035817e-05 -2.865680e-05 1.435168e-06 -1.250207e-05 3.316650e-01 9.213867e-01
2.912126e+07 1.036560e+00 7.763672e-02 -3.300048e-05 -2.252869e-05 2.620742e-05 1.441129e-05 3.288574e-01 9.299316e-01
2.933999e+07 1.037903e+00 7.672119e-02 -4.700571e-05 3.477931e-05 1.616776e-05 3.608875e-05 3.279419e-01 9.360352e-01
2.955872e+07 1.037842e+00 7.562256e-02 6.074086e-06 -4.092418e-05 5.483627e-06 -2.602674e-05 3.259888e-01 9.392090e-01
2.977745e+07 1.039001e+00 7.562256e-02 6.283075e-05 -6.782636e-05 2.315827e-05 -2.460554e-06 3.223877e-01 9.418335e-01
2.999618e+07 1.038574e+00 7.598877e-02 -8.190982e-06 -5.355105e-07 4.781410e-06 -1.980364e-05 3.188477e-01 9.427490e-01
3.021491e+07 1.039307e+00 7.537842e-02 3.361329e-05 -2.791174e-05 3.368128e-06 -7.258262e-06 3.118896e-01 9.412842e-01
3.043364e+07 1.039490e+00 7.440186e-02 3.112108e-05 5.541369e-05 8.858740e-06 -3.340095e-05 3.041382e-01 9.425659e-01
3.065238e+07 1.039246e+00 7.385254e-02 2.294593e-05 -1.615472e-05 4.308298e-05 2.283603e-06 2.946167e-01 9.425049e-01
3.087111e+07 1.038574e+00 7.458496e-02 2.411008e-05 4.197285e-05 -1.613051e-06 3.679469e-05 2.831421e-01 9.432983e-01
3.108984e+07 1.039490e+00 7.427979e-02 -1.249555e-05 1.047831e-05 -2.787635e-05 1.860596e-05 2.716675e-01 9.464111e-01
3.130857e+07 1.040588e+00 7.342529e-02 3.141910e-05 2.385303e-05 -4.649907e-05 3.110617e-05 2.604370e-01 9.527588e-01
3.152730e+07 1.040222e+00 7.403564e-02 6.327406e-06 2.373476e-06 3.101490e-05 -2.408959e-05 2.478027e-01 9.569702e-01
3.174603e+07 1.039612e+00 7.385254e-02 -2.069492e-05 5.276874e-06 -4.502386e-05 -6.947666e-06 2.377319e-01 9.661255e-01
3.196476e+07 1.040405e+00 7.373047e-02 -2.855621e-05 2.967194e-06 4.040077e-05 -3.032014e-05 2.274170e-01 9.746094e-01
3.218349e+07 1.039795e+00 7.312012e-02 4.746020e-06 2.989359e-05 3.885292e-05 -1.245551e-05 2.212524e-01 9.856567e-01
3.240222e+07 1.040039e+00 7.348633e-02 -1.557078e-05 1.080893e-05 2.491288e-05 1.710653e-05 2.162476e-01 9.949951e-01
3.262096e+07 1.040771e+00 7.281494e-02 -1.956616e-05 2.116896e-06 -7.800758e-06 -1.167599e-05 2.147827e-01 1.004578e+00
3.283969e+07 1.040100e+00 7.318115e-02 -3.504008e-05 2.817996e-05 1.557358e-05 -1.714192e-05 2.152100e-01 1.010437e+00
3.305842e+07 1.040466e+00 7.312012e-02 -3.456138e-05 -2.368912e-05 -1.559500e-05 -3.123656e-06 2.166138e-01 1.014709e+00
3.327715e+07 1.040039e+00 7.232666e-02 2.099946e-05 -1.750886e-05 1.092814e-05 6.237067e-06 2.184448e-01 1.014526e+00
3.349588e+07 1.039978e+00 7.238770e-02 -5.571544e-05 2.128258e-05 -2.655759e-05 7.804483e-07 2.196045e-01 1.012451e+00
3.371461e+07 1.039917e+00 7.250977e-02 -2.738275e-05 1.517497e-05 4.998967e-05 -2.655014e-05 2.178345e-01 1.005859e+00
3.393334e+07 1.039612e+00 7.220459e-02 1.922064e-05 2.238341e-05 3.280677e-05 -3.204495e-05 2.140503e-01 9.989624e-01
3.415208e+07 1.039246e+00 7.226562e-02 3.349502e-06 2.696412e-06 -2.816692e-05 8.588657e-06 2.065430e-01 9.902344e-01
3.437081e+07 1.039917e+00 7.177734e-02 -4.752539e-06 1.274608e-05 -2.192892e-05 7.834285e-06 1.965942e-01 9.824219e-01
3.458954e+07 1.038757e+00 7.159424e-02 2.042018e-05 -2.363697e-05 2.974644e-05 2.427027e-05 1.823730e-01 9.755249e-01
3.480827e+07 1.039307e+00 7.116699e-02 6.514601e-07 6.058253e-06 1.880154e-05 -2.350658e-06 1.674194e-01 9.700317e-01
3.502700e+07 1.038452e+00 7.159424e-02 1.330394e-05 -4.495494e-06 -1.532957e-06 -3.292039e-05 1.509399e-01 9.671631e-01
3.524573e+07 1.039490e+00 7.116699e-02 1.212861e-05 -1.311302e-06 -2.668612e-05 -1.964532e-05 1.335449e-01 9.669189e-01
3.546446e+07 1.039062e+00 7.061768e-02 1.051929e-05 -1.649372e-05 1.728069e-05 5.503185e-06 1.162720e-01 9.673462e-01
3.568319e+07 1.038696e+00 7.073975e-02 -6.489456e-05 -6.065145e-05 1.886301e-05 -2.348796e-06 9.942627e-02 9.733276e-01
3.590192e+07 1.038086e+00 7.141113e-02 -3.909133e-05 2.263300e-05 1.579989e-06 -7.858034e-06 8.325195e-02 9.777832e-01
3.612066e+07 1.037598e+00 7.019043e-02 -2.662279e-05 -1.867674e-05 2.360344e-05 -3.615953e-05 7.171631e-02 9.849243e-01
3.633939e+07 1.037476e+00 7.055664e-02 1.739152e-05 4.291534e-06 4.701316e-06 1.731515e-05 5.914307e-02 9.909668e-01
3.655812e+07 1.038086e+00 7.110596e-02 1.425948e-05 -1.077075e-05 -1.573376e-05 -2.365187e-05 4.943848e-02 9.996948e-01
3.677685e+07 1.037048e+00 7.086182e-02 1.196843e-05 1.105294e-05 5.356595e-05 2.921745e-05 4.119873e-02 1.005066e+00
3.699558e+07 1.036072e+00 7.104492e-02 -2.033636e-05 -3.175810e-05 -1.103804e-05 3.923662e-06 3.601074e-02 1.010559e+00
3.721431e+07 1.035522e+00 7.135010e-02 -9.150244e-06 9.718351e-07 2.048910e-08 -1.024827e-05 3.112793e-02 1.015015e+00
3.743304e+07 1.036865e+00 7.019043e-02 -3.357045e-05 3.607944e-06 3.133900e-06 1.501758e-05 2.758789e-02 1.017639e+00
3.765178e+07 1.034912e+00 7.086182e-02 2.689660e-06 3.988110e-05 -3.155880e-05 -1.664273e-05 2.307129e-02 1.016235e+00
3.787051e+07 1.035461e+00 7.031250e-02 1.528417e-06 -1.625158e-07 1.575984e-05 3.403425e-05 1.873779e-02 1.015015e+00
3.808924e+07 1.034790e+00 7.025146e-02 -3.799796e-05 -8.324161e-06 -1.424458e-05 -8.214265e-07 1.159668e-02 1.009033e+00
3.830797e+07 1.034424e+00 7.000732e-02 -9.829178e-06 -5.153008e-06 -3.642589e-05 7.050112e-06 4.577637e-03 1.005981e+00
3.852670e+07 1.033203e+00 7.049561e-02 1.234096e-05 1.419056e-05 3.802963e-05 -1.495704e-05 -6.591797e-03 9.998169e-01
3.874543e+07 1.033203e+00 7.025146e-02 1.225062e-05 -1.301058e-06 3.168732e-05 6.400049e-06 -1.934814e-02 9.953003e-01
3.896416e+07 1.032837e+00 7.043457e-02 -2.373196e-05 -1.919828e-05 4.734378e-06 7.151160e-06 -3.411865e-02 9.913940e-01
3.918289e+07 1.032104e+00 6.958008e-02 -6.230548e-06 -1.485739e-05 2.707168e-05 -4.196540e-05 -4.864502e-02 9.902954e-01
3.940162e+07 1.031250e+00 7.025146e-02 2.600253e-06 2.453849e-05 4.437193e-05 2.550334e-05 -6.433105e-02 9.898682e-01
3.962036e+07 1.031067e+00 6.982422e-02 -1.316518e-05 7.593073e-06 -3.179535e-05 1.421198e-05 -7.995605e-02 9.925537e-01
3.983909e+07 1.031372e+00 7.000732e-02 6.865710e-06 2.101809e-05 4.699454e-06 2.783723e-05 -9.472656e-02 9.977417e-01
4.005782e+07 1.030334e+00 6.982422e-02 4.935777e-06 2.585584e-06 3.024004e-05 -6.273389e-06 -1.064453e-01 1.004639e+00
4.027655e+07 1.029053e+00 7.092285e-02 -2.620742e-05 4.632026e-05 4.461408e-05 -1.575053e-05 -1.163330e-01 1.010925e+00
4.049528e+07 1.029053e+00 7.012939e-02 2.083741e-05 3.517419e-05 2.706982e-05 -7.059425e-07 -1.227417e-01 1.018372e+00
4.071401e+07 1.028870e+00 6.939697e-02 -8.922536e-06 4.046597e-06 -1.005828e-07 4.142523e-05 -1.277466e-01 1.023621e+00
4.093274e+07 1.028259e+00 6.951904e-02 8.289702e-06 -1.021847e-05 1.893938e-05 5.984306e-05 -1.296387e-01 1.029663e+00
4.115148e+07 1.027405e+00 7.031250e-02 -3.326684e-06 1.283083e-05 7.973053e-06 1.623761e-06 -1.312866e-01 1.031189e+00
4.137021e+07 1.026611e+00 7.006836e-02 2.309121e-05 -1.802109e-05 2.078712e-05 -1.030788e-05 -1.304321e-01 1.031067e+00
4.158894e+07 1.025879e+00 7.012939e-02 4.130416e-05 -2.306700e-05 -3.108755e-06 -2.554990e-05 -1.312256e-01 1.026611e+00
4.180767e+07 1.024536e+00 7.012939e-02 -2.765795e-06 3.415626e-06 -4.002452e-05 3.338978e-05 -1.325684e-01 1.021301e+00
4.202640e+07 1.025391e+00 7.043457e-02 -8.326024e-07 2.198480e-05 1.443271e-05 -9.551644e-06 -1.359253e-01 1.013245e+00
4.224513e+07 1.025085e+00 7.012939e-02 3.720820e-05 1.174584e-05 -9.654090e-06 1.678336e-05 -1.411133e-01 1.005554e+00
4.246386e+07 1.024109e+00 7.116699e-02 8.003786e-06 -1.334958e-05 8.045230e-06 -8.780975e-06 -1.480713e-01 9.959717e-01
4.268259e+07 1.022949e+00 7.067871e-02 7.495284e-06 1.174025e-05 1.752377e-05 2.647936e-05 -1.566772e-01 9.879761e-01
4.290132e+07 1.022339e+00 7.147217e-02 -2.604909e-05 5.852431e-06 2.877600e-05 2.256036e-05 -1.683350e-01 9.801636e-01
4.312006e+07 1.021912e+00 7.153320e-02 3.680121e-06 -9.793323e-06 -1.129415e-05 1.439080e-05 -1.788940e-01 9.729004e-01
4.333879e+07 1.021606e+00 7.183838e-02 -2.581067e-05 -6.718561e-06 1.444668e-05 8.661300e-07 -1.911621e-01 9.685059e-01
4.355752e+07 1.020203e+00 7.147217e-02 -4.090928e-05 2.938323e-05 -1.788139e-07 4.175678e-05 -2.023926e-01 9.647217e-01
4.377625e+07 1.020020e+00 7.226562e-02 1.419894e-05 -2.977438e-05 -7.748604e-06 -6.433949e-05 -2.140503e-01 9.612427e-01
4.399498e+07 1.019226e+00 7.269287e-02 4.146993e-05 2.081878e-05 -1.441780e-05 -1.133513e-05 -2.246704e-01 9.599609e-01
4.421371e+07 1.018799e+00 7.275391e-02 -2.023578e-05 2.101064e-06 7.987954e-06 1.211651e-05 -2.340088e-01 9.583740e-01
4.443244e+07 1.017944e+00 7.275391e-02 3.800727e-05 2.365559e-06 -3.873929e-05 1.509488e-05 -2.406616e-01 9.578857e-01
4.465118e+07 1.017456e+00 7.342529e-02 -9.138137e-06 -2.740882e-05 6.400049e-06 9.709038e-06 -2.476807e-01 9.561768e-01
4.486991e+07 1.017090e+00 7.342529e-02 5.867332e-06 -1.951680e-05 1.137145e-05 -1.445785e-05 -2.526855e-01 9.542236e-01
4.508864e+07 1.016113e+00 7.354736e-02 6.540120e-05 3.745034e-05 3.721192e-05 -1.756474e-05 -2.571411e-01 9.487915e-01
4.530737e+07 1.015808e+00 7.312012e-02 -1.372863e-05 4.577450e-06 -2.586469e-05 3.108755e-06 -2.609253e-01 9.425659e-01
4.552610e+07 1.014648e+00 7.458496e-02 -6.418675e-06 4.489347e-05 -1.539476e-06 -1.294166e-05 -2.647705e-01 9.337769e-01
4.574483e+07 1.013184e+00 7.440186e-02 -2.627820e-05 5.887821e-06 2.760440e-05 -2.167188e-05 -2.705078e-01 9.250488e-01
4.596356e+07 1.013550e+00 7.452393e-02 -3.574602e-05 -8.974224e-06 8.508563e-06 -7.200614e-05 -2.784424e-01 9.128418e-01
4.618229e+07 1.013062e+00 7.489014e-02 3.035553e-05 -1.261942e-05 -2.118014e-05 2.093799e-05 -2.877808e-01 9.006958e-01
4.640102e+07 1.010986e+00 7.531738e-02 3.514253e-05 1.856685e-05 -1.546927e-06 -1.296680e-05 -2.984619e-01 8.895264e-01
4.661976e+07 1.011230e+00 7.543945e-02 -2.559274e-05 4.383549e-05 2.584793e-05 1.798756e-05 -3.121948e-01 8.786621e-01
4.683849e+07 1.010132e+00 7.647705e-02 1.035631e-06 -8.260459e-05 -4.889211e-06 3.212132e-06 -3.270264e-01 8.682861e-01
4.705722e+07 1.008972e+00 7.684326e-02 1.694076e-05 -4.921108e-06 -2.892688e-05 -4.401058e-05 -3.430176e-01 8.602905e-01
4.727595e+07 1.008362e+00 7.788086e-02 1.783110e-05 -2.725236e-05 -5.215779e-05 2.725422e-05 -3.598633e-01 8.536987e-01
4.749468e+07 1.007202e+00 7.757568e-02 -1.858734e-05 -1.080707e-05 -3.419444e-05 1.195446e-05 -3.763428e-01 8.496704e-01
4.771341e+07 1.007690e+00 7.873535e-02 6.329268e-06 1.524109e-05 -6.813556e-06 4.308298e-05 -3.927002e-01 8.445435e-01
4.793214e+07 1.006287e+00 7.891846e-02 -2.999231e-05 -2.875738e-05 5.060807e-06 -2.437644e-05 -4.071655e-01 8.447266e-01
4.815088e+07 1.005859e+00 7.940674e-02 -2.740324e-05 -3.578141e-06 -1.296215e-05 -9.058975e-06 -4.221191e-01 8.435669e-01
4.836961e+07 1.005554e+00 8.007812e-02 1.819804e-06 -2.885051e-05 3.299210e-06 -5.680602e-06 -4.336548e-01 8.433838e-01
4.858834e+07 1.004578e+00 8.020020e-02 1.617707e-06 1.576729e-05 -8.068979e-06 -1.228414e-05 -4.471436e-01 8.423462e-01
4.880707e+07 1.003357e+00 8.032227e-02 9.414740e-06 -1.689605e-05 -1.474656e-05 9.680167e-06 -4.564819e-01 8.432007e-01
4.902580e+07 1.002930e+00 8.178711e-02 -3.594905e-07 -1.910888e-05 4.768372e-05 -4.533306e-05 -4.663696e-01 8.413086e-01
4.924453e+07 1.001953e+00 8.197021e-02 2.656691e-05 1.005828e-05 3.107823e-05 -6.303191e-06 -4.762573e-01 8.389893e-01
4.946326e+07 1.001587e+00 8.306885e-02 -3.806315e-06 -5.999580e-06 -2.285838e-05 -2.630055e-06 -4.852295e-01 8.357544e-01
4.968199e+07 1.000610e+00 8.282471e-02 -5.031936e-06 1.329370e-05 3.749318e-05 1.416542e-05 -4.950562e-01 8.319092e-01
4.990072e+07 1.000183e+00 8.337402e-02 3.833883e-05 1.528859e-05 -4.690140e-06 -2.866983e-05 -5.062256e-01 8.267822e-01
5.011946e+07 9.989624e-01 8.392334e-02 2.597272e-05 3.749505e-06 -8.475035e-08 1.063570e-05 -5.167236e-01 8.225708e-01
5.033819e+07 9.988403e-01 8.508301e-02 1.679920e-05 7.910654e-06 4.923344e-05 -1.107529e-05 -5.288086e-01 8.169556e-01
5.055692e+07 9.976196e-01 8.514404e-02 -3.362074e-05 -1.581572e-05 -9.791926e-06 -4.173256e-06 -5.426025e-01 8.134766e-01
5.077565e+07 9.976196e-01 8.599854e-02 2.031866e-05 1.075398e-05 1.287647e-05 3.042817e-05 -5.576782e-01 8.092041e-01
5.099438e+07 9.963989e-01 8.697510e-02 1.934543e-05 -1.477636e-05 1.817383e-05 -1.542736e-05 -5.727539e-01 8.082886e-01
5.121311e+07 9.948730e-01 8.782959e-02 -1.777150e-05 -1.409091e-06 -3.464520e-05 2.264045e-05 -5.899658e-01 8.071289e-01
5.143184e+07 9.942627e-01 8.862305e-02 -2.130866e-05 -2.026930e-05 1.323875e-05 -1.218170e-05 -6.057739e-01 8.105469e-01
5.165058e+07 9.938354e-01 8.843994e-02 -2.092496e-05 3.099442e-05 -1.476239e-05 -9.452924e-07 -6.209717e-01 8.150635e-01
5.186931e+07 9.934082e-01 8.911133e-02 1.492538e-05 4.912727e-06 3.757142e-05 2.495758e-05 -6.339722e-01 8.238525e-01
5.208804e+07 9.927979e-01 8.984375e-02 -1.178216e-05 -2.129003e-05 2.299063e-05 2.669170e-06 -6.453857e-01 8.328857e-01
5.230677e+07 9.921265e-01 9.069824e-02 -2.291985e-05 1.194142e-05 8.303672e-06 -8.970965e-06 -6.524048e-01 8.425293e-01
5.252550e+07 9.915161e-01 9.106445e-02 2.193451e-05 -2.148934e-05 8.211471e-06 1.715031e-06 -6.521606e-01 8.544922e-01
5.274423e+07 9.898071e-01 9.149170e-02 -1.146272e-05 -2.063811e-06 -3.529713e-06 2.709590e-05 -6.525879e-01 8.637695e-01
5.296296e+07 9.893188e-01 9.332275e-02 1.593586e-05 1.447555e-05 3.435463e-05 2.008490e-05 -6.463623e-01 8.692017e-01
5.318169e+07 9.888306e-01 9.381104e-02 1.912750e-05 3.026612e-05 6.698072e-06 -1.146365e-05 -6.405029e-01 8.707886e-01
5.340042e+07 9.882202e-01 9.442139e-02 -2.454780e-05 -3.958121e-06 1.989864e-05 -1.298450e-05 -6.300659e-01 8.692017e-01
5.361916e+07 9.868774e-01 9.472656e-02 1.179986e-05 2.134684e-05 -1.029434e-10 4.912692e-10 -6.254883e-01 8.621826e-01
5.383789e+07 9.864502e-01 9.582520e-02 -1.436751e-05 -1.466274e-05 1.518987e-06 1.320429e-05 -6.196899e-01 8.522949e-01
5.405662e+07 9.854736e-01 9.747314e-02 4.146993e-05 1.197122e-05 2.628379e-05 7.702038e-06 -6.171875e-01 8.409424e-01
5.427535e+07 9.850464e-01 9.741211e-02 3.382564e-05 -1.974404e-07 3.788806e-05 3.688037e-06 -6.188965e-01 8.273315e-01
5.449408e+07 9.846191e-01 9.924316e-02 1.341291e-05 2.123788e-05 -2.194196e-06 5.114079e-05 -6.226196e-01 8.132324e-01
5.471281e+07 9.841309e-01 9.979248e-02 1.286156e-06 -1.947582e-05 -1.136214e-07 1.073256e-05 -6.284790e-01 8.012695e-01
5.493154e+07 9.827881e-01 1.002197e-01 -6.715767e-06 1.357216e-05 1.681969e-05 -2.870709e-05 -6.374512e-01 7.913208e-01
5.515028e+07 9.815063e-01 1.005859e-01 1.121312e-05 -3.341585e-05 1.461804e-05 2.242066e-05 -6.468506e-01 7.816772e-01
5.536901e+07 9.819336e-01 1.018066e-01 -8.977950e-06 2.350099e-05 -4.533678e-06 -3.971532e-05 -6.561279e-01 7.756958e-01
5.558774e+07 9.810791e-01 1.024780e-01 3.168825e-07 3.198395e-06 9.875745e-06 4.231930e-06 -6.660156e-01 7.696533e-01
5.580647e+07 9.803467e-01 1.031494e-01 3.557652e-06 -2.942979e-05 -1.498405e-05 9.759329e-06 -6.755981e-01 7.669067e-01
5.602520e+07 9.792480e-01 1.044312e-01 2.112333e-05 -1.501758e-05 1.201406e-07 -1.074467e-05 -6.820679e-01 7.659302e-01
5.624393e+07 9.786987e-01 1.044922e-01 2.052449e-05 -2.144556e-05 5.224720e-06 -2.474710e-05 -6.882324e-01 7.640381e-01
5.646266e+07 9.779053e-01 1.059570e-01 -9.289011e-06 -2.820976e-05 6.625429e-06 -7.520430e-07 -6.900024e-01 7.636719e-01
5.668139e+07 9.779053e-01 1.064453e-01 -2.605841e-06 2.289377e-05 -3.326684e-05 1.454912e-05 -6.907959e-01 7.631226e-01
5.690012e+07 9.772339e-01 1.081543e-01 9.600073e-06 1.523830e-05 3.115460e-05 2.603792e-05 -6.885376e-01 7.598877e-01
5.711886e+07 9.758911e-01 1.082764e-01 2.111307e-10 1.732872e-10 -1.338683e-05 1.227390e-05 -6.853638e-01 7.542725e-01
5.733759e+07 9.749756e-01 1.093750e-01 3.556162e-05 1.589954e-05 1.505017e-06 1.326296e-05 -6.810913e-01 7.455444e-01
5.755632e+07 9.747314e-01 1.099854e-01 -9.309035e-06 4.157890e-06 8.502975e-06 -1.978688e-05 -6.777344e-01 7.349854e-01
5.777505e+07 9.747925e-01 1.112671e-01 -2.119970e-05 1.505204e-05 2.819486e-05 -4.898757e-07 -6.739502e-01 7.216187e-01
5.799378e+07 9.738159e-01 1.125488e-01 -4.181638e-06 6.895512e-06 -7.886440e-06 -3.411435e-05 -6.733398e-01 7.053223e-01
5.821251e+07 9.730225e-01 1.128540e-01 -2.598204e-05 -1.689978e-05 2.520345e-05 -2.709217e-05 -6.745605e-01 6.882019e-01
5.843124e+07 9.727783e-01 1.130371e-01 -6.323680e-07 -6.426126e-06 -1.830980e-05 4.779547e-06 -6.780396e-01 6.706543e-01
5.864998e+07 9.724731e-01 1.155396e-01 4.404411e-05 -1.404062e-05 4.656985e-05 -5.230308e-06 -6.846924e-01 6.522217e-01
5.886871e+07 9.713135e-01 1.160889e-01 7.065479e-06 5.806331e-06 2.674945e-05 -1.379475e-05 -6.931763e-01 6.345520e-01
5.908744e+07 9.704590e-01 1.162109e-01 1.955777e-06 -1.319218e-05 6.027892e-05 -3.916025e-05 -7.036743e-01 6.184082e-01
5.930617e+07 9.704590e-01 1.177979e-01 -7.340685e-06 -4.155934e-05 -2.638996e-05 -1.861900e-05 -7.161255e-01 6.040039e-01
5.952490e+07 9.694214e-01 1.187744e-01 2.840906e-05 -2.553686e-05 -1.231208e-06 -3.492460e-05 -7.290649e-01 5.919800e-01
5.974363e+07 9.696655e-01 1.195679e-01 -1.639873e-05 -1.792330e-05 1.170672e-05 -4.014000e-06 -7.433472e-01 5.819702e-01
5.996236e+07 9.688721e-01 1.213379e-01 6.337650e-07 6.453600e-06 -1.171231e-05 4.004687e-06 -7.567749e-01 5.748291e-01
6.018109e+07 9.693604e-01 1.213379e-01 -1.100451e-05 2.063345e-05 3.406778e-06 -5.794689e-06 -7.677612e-01 5.681152e-01
6.039982e+07 9.678345e-01 1.226807e-01 -3.818423e-06 -2.243929e-05 2.507679e-05 -5.511567e-06 -7.782593e-01 5.643921e-01
6.061856e+07 9.673462e-01 1.239624e-01 2.132170e-05 1.179054e-06 5.450100e-06 -3.577396e-05 -7.885742e-01 5.606079e-01
6.083729e+07 9.674683e-01 1.246338e-01 -2.384558e-05 -2.705306e-05 -2.632476e-05 -2.954900e-05 -7.954712e-01 5.576172e-01
6.105602e+07 9.662476e-01 1.256104e-01 9.150244e-06 6.072689e-06 4.094467e-05 -5.958974e-05 -8.002930e-01 5.533447e-01
6.127475e+07 9.649658e-01 1.265869e-01 -3.348850e-05 6.141141e-06 8.333245e-11 -4.691287e-10 -8.055420e-01 5.492554e-01
6.149348e+07 9.647217e-01 1.279907e-01 -2.140831e-05 6.040558e-06 8.076429e-06 1.156516e-05 -8.084717e-01 5.427856e-01
6.171221e+07 9.638672e-01 1.290894e-01 2.130121e-05 -3.967248e-05 -4.434213e-05 -2.411380e-05 -8.108521e-01 5.375977e-01
6.193094e+07 9.633789e-01 1.300049e-01 -1.521409e-05 -1.226459e-05 -2.132729e-07 -1.017191e-05 -8.140259e-01 5.292358e-01
6.214968e+07 9.638062e-01 1.298828e-01 1.220498e-05 -1.831260e-05 2.611428e-05 4.725531e-05 -8.167725e-01 5.206909e-01
6.236841e+07 9.635010e-01 1.305542e-01 -3.509037e-05 -3.659166e-05 6.950274e-05 -4.861876e-05 -8.210449e-01 5.112915e-01
6.258714e+07 9.627075e-01 1.318359e-01 1.216680e-05 -4.886836e-05 -1.508556e-05 2.778322e-05 -8.256226e-01 5.020142e-01
6.280587e+07 9.628296e-01 1.334229e-01 1.069438e-05 3.047753e-06 3.013201e-05 1.347810e-05 -8.319702e-01 4.917603e-01
6.302460e+07 9.630127e-01 1.347656e-01 -1.683645e-05 -3.362261e-05 6.575137e-07 3.063306e-05 -8.367920e-01 4.815674e-01
6.324333e+07 9.625244e-01 1.356812e-01 -1.681224e-05 1.835823e-05 2.713688e-05 1.906604e-05 -8.435669e-01 4.729614e-01
6.346206e+07 9.625244e-01 1.360474e-01 -5.201623e-05 3.061071e-05 5.619600e-05 -1.852959e-05 -8.511353e-01 4.658813e-01
6.368079e+07 9.619751e-01 1.376953e-01 -1.530163e-06 2.142508e-05 -1.394469e-05 9.736978e-06 -8.597412e-01 4.592896e-01
6.389952e+07 9.614258e-01 1.383667e-01 2.752803e-05 -2.146140e-05 1.557171e-05 -7.416122e-06 -8.663940e-01 4.542847e-01
6.411826e+07 9.606323e-01 1.397095e-01 9.193085e-06 3.055204e-06 2.465211e-05 -2.412312e-05 -8.729858e-01 4.499512e-01
6.433699e+07 9.602661e-01 1.403809e-01 -1.379568e-05 -2.144091e-05 -1.114327e-05 -6.055459e-06 -8.782959e-01 4.474487e-01
6.455572e+07 9.602661e-01 1.412354e-01 -3.374368e-05 -2.145953e-05 1.204386e-05 4.697219e-05 -8.811035e-01 4.455566e-01
6.477445e+07 9.601440e-01 1.422119e-01 -4.626811e-06 -3.064796e-05 2.978183e-05 -6.955117e-06 -8.820801e-01 4.414062e-01
6.499318e+07 9.596558e-01 1.437378e-01 -2.760254e-05 9.236857e-06 1.137611e-05 1.630373e-05 -8.822021e-01 4.385376e-01
6.521191e+07 9.602661e-01 1.441650e-01 3.072433e-06 3.066845e-06 -2.167933e-05 1.861714e-05 -8.805542e-01 4.325562e-01
6.543064e+07 9.601440e-01 1.455078e-01 1.999922e-05 4.297867e-05 -2.169795e-05 1.861155e-05 -8.772583e-01 4.262695e-01
6.564938e+07 9.588013e-01 1.461182e-01 -1.688581e-05 1.230836e-05 5.839393e-06 -2.142042e-05 -8.752441e-01 4.171753e-01
6.586811e+07 9.588013e-01 1.468506e-01 -9.217765e-06 3.083143e-06 -3.258511e-05 -4.663691e-05 -8.732910e-01 4.060669e-01
6.608684e+07 9.590454e-01 1.475220e-01 4.458427e-05 -1.235679e-05 3.592297e-05 -1.817197e-05 -8.714600e-01 3.944702e-01
6.630557e+07 9.583130e-01 1.489258e-01 -2.616085e-05 1.490116e-08 3.266521e-05 -2.282113e-05 -8.709106e-01 3.809814e-01
6.652430e+07 9.591675e-01 1.502686e-01 -2.772920e-05 -2.458878e-05 -2.054870e-05 4.544854e-07 -8.731689e-01 3.673096e-01
6.674303e+07 9.580078e-01 1.513062e-01 -1.539197e-05 6.165355e-06 3.803521e-05 4.690140e-06 -8.765259e-01 3.548584e-01
6.696176e+07 9.573975e-01 1.522827e-01 3.095716e-06 1.231488e-05 -7.711351e-06 8.865725e-06 -8.807983e-01 3.413086e-01
6.718049e+07 9.582520e-01 1.530762e-01 4.155375e-05 -2.471544e-05 1.053140e-05 -2.477318e-05 -8.845215e-01 3.295288e-01
6.739922e+07 9.580078e-01 1.536865e-01 3.103167e-06 2.465211e-05 1.681224e-05 4.396215e-05 -8.906860e-01 3.188477e-01
6.761796e+07 9.580688e-01 1.548462e-01 1.230463e-05 -2.469122e-05 6.364286e-05 -5.842000e-05 -8.967285e-01 3.086548e-01
6.783669e+07 9.581909e-01 1.563110e-01 3.060326e-06 -3.084727e-05 7.273629e-06 -2.948008e-05 -9.010620e-01 3.003540e-01
6.805542e+07 9.581909e-01 1.572266e-01 5.248562e-05 6.105751e-06 4.262477e-05 -8.851290e-06 -9.049683e-01 2.913818e-01
6.827415e+07 9.572144e-01 1.584473e-01 -3.545359e-05 2.779625e-05 3.628060e-05 -7.912517e-06 -9.088745e-01 2.832642e-01
6.849288e+07 9.581909e-01 1.582642e-01 -6.141141e-06 2.471358e-05 -6.821752e-05 2.358109e-06 -9.107666e-01 2.746582e-01
6.871161e+07 9.575195e-01 1.602783e-01 -3.860891e-05 1.242012e-05 -6.023794e-05 3.695488e-06 -9.118042e-01 2.655640e-01
6.893034e+07 9.575195e-01 1.608887e-01 -1.385622e-05 3.400259e-05 4.691072e-06 -3.280118e-06 -9.129028e-01 2.559204e-01
6.914908e+07 9.577026e-01 1.621094e-01 5.102530e-05 6.102026e-06 2.088398e-05 9.862706e-06 -9.128418e-01 2.455444e-01
6.936781e+07 9.564819e-01 1.630249e-01 -9.341165e-06 -3.709458e-05 1.102127e-05 -4.212372e-06 -9.128418e-01 2.332764e-01
6.958654e+07 9.578247e-01 1.646729e-01 3.092736e-05 3.039837e-06 -7.984228e-06 -1.417939e-06 -9.133301e-01 2.195435e-01
6.980527e+07 9.577026e-01 1.644287e-01 -1.693517e-05 4.646927e-05 6.806105e-06 1.973286e-05 -9.147339e-01 2.050171e-01
7.002400e+07 9.573975e-01 1.661377e-01 4.613772e-06 -1.548696e-05 1.268834e-05 -1.868233e-06 -9.177246e-01 1.892090e-01
7.024273e+07 9.567261e-01 1.676636e-01 4.659407e-06 9.285286e-06 4.924368e-06 7.052906e-06 -9.211426e-01 1.730957e-01
7.046146e+07 9.572754e-01 1.684570e-01 -2.015289e-05 -9.263866e-06 2.779067e-05 -4.041195e-05 -9.267578e-01 1.560669e-01
7.068019e+07 9.567871e-01 1.691284e-01 3.873557e-05 -1.866929e-05 -1.836568e-05 3.383495e-05 -9.348755e-01 1.395264e-01
7.089892e+07 9.572144e-01 1.703491e-01 -2.327934e-05 -1.236424e-05 1.416542e-06 -7.999130e-06 -9.439087e-01 1.231079e-01
7.111766e+07 9.569702e-01 1.713257e-01 1.245737e-05 3.099442e-05 4.708534e-06 -3.290595e-06 -9.549561e-01 1.085815e-01
7.133639e+07 9.573364e-01 1.730957e-01 1.704786e-05 -1.244619e-05 -3.538281e-05 5.977973e-05 -9.687500e-01 9.558105e-02
7.155512e+07 9.584961e-01 1.729736e-01 -3.568456e-05 1.868233e-05 5.114451e-05 2.838671e-06 -9.828491e-01 8.477783e-02
7.177385e+07 9.577637e-01 1.744995e-01 6.161630e-06 -4.038401e-05 7.506460e-07 -3.912114e-05 -9.971924e-01 7.843018e-02
7.199258e+07 9.572754e-01 1.747437e-01 -1.577660e-06 -1.554191e-05 -4.476681e-05 -3.803521e-06 -1.011902e+00 7.214355e-02
7.221131e+07 9.571533e-01 1.760864e-01 -1.715124e-05 -3.725477e-05 3.302097e-05 -2.307072e-05 -1.023743e+00 7.061768e-02
7.243004e+07 9.577026e-01 1.766968e-01 1.077354e-05 -4.355609e-05 -1.884066e-06 -1.274142e-05 -1.035339e+00 7.135010e-02
7.264878e+07 9.572754e-01 1.779785e-01 9.385869e-06 2.796017e-05 -2.593175e-05 -1.701340e-05 -1.041077e+00 7.238770e-02
7.286751e+07 9.578247e-01 1.778564e-01 4.665460e-06 -6.752089e-09 2.808496e-05 -3.022328e-05 -1.045715e+00 7.379150e-02
7.308624e+07 9.578857e-01 1.799316e-01 1.242850e-05 -6.248243e-06 -3.637746e-05 1.839548e-05 -1.047791e+00 7.537842e-02
7.330497e+07 9.583740e-01 1.809082e-01 2.801046e-05 -4.284084e-08 1.065433e-05 -2.504513e-05 -1.047119e+00 7.415771e-02
7.352370e+07 9.581299e-01 1.810913e-01 -1.874007e-05 -3.419071e-05 2.346933e-07 -6.003678e-05 -1.044739e+00 7.159424e-02
7.374243e+07 9.575806e-01 1.823120e-01 -4.659407e-06 6.241258e-06 -1.841225e-05 -3.639795e-05 -1.042419e+00 6.738281e-02
7.396116e+07 9.581299e-01 1.834106e-01 -3.122725e-05 -2.487935e-05 -2.246350e-05 -1.903623e-06 -1.040222e+00 5.987549e-02
7.417989e+07 9.581909e-01 1.853027e-01 1.401640e-05 -9.384006e-06 2.764352e-05 1.943670e-05 -1.038452e+00 5.236816e-02
7.439862e+07 9.589233e-01 1.849976e-01 -1.560198e-06 2.328306e-09 2.675131e-05 -2.224743e-05 -1.039368e+00 4.302979e-02
7.461736e+07 9.585571e-01 1.865845e-01 6.204471e-06 -2.186559e-05 1.158472e-05 1.658592e-05 -1.040527e+00 3.442383e-02
7.483609e+07 9.588013e-01 1.874390e-01 -6.554648e-05 9.484589e-06 -1.444947e-05 -4.898757e-07 -1.042419e+00 2.441406e-02
7.505482e+07 9.583130e-01 1.879272e-01 -3.190711e-06 -4.058704e-05 1.987815e-05 -4.215911e-05 -1.047180e+00 1.715088e-02
7.527355e+07 9.581909e-01 1.897583e-01 -9.328127e-06 2.502464e-05 -5.714595e-06 3.220327e-05 -1.052368e+00 1.098633e-02
7.549228e+07 9.594116e-01 1.899414e-01 2.811104e-05 -1.258217e-05 -3.084540e-05 5.690381e-05 -1.057068e+00 7.934570e-03
7.571101e+07 9.600220e-01 1.907959e-01 1.106039e-05 5.309284e-05 -3.319699e-06 -4.745089e-06 -1.062134e+00 6.530762e-03
7.592974e+07 9.598999e-01 1.916504e-01 2.026185e-05 -2.506934e-05 -1.021847e-05 4.601851e-05 -1.065369e+00 6.713867e-03
7.614848e+07 9.601440e-01 1.929932e-01 1.410954e-05 9.353273e-06 -6.409362e-06 9.438954e-07 -1.065918e+00 9.155273e-03
7.636721e+07 9.600830e-01 1.943359e-01 -4.214793e-05 5.329773e-05 -2.850592e-05 1.991540e-05 -1.062927e+00 1.281738e-02
7.658594e+07 9.601440e-01 1.952515e-01 1.251325e-05 -3.168359e-06 -1.871958e-05 -4.703924e-05 -1.057007e+00 1.721191e-02
7.680467e+07 9.602051e-01 1.947021e-01 1.237541e-05 -6.265193e-05 2.375618e-05 -1.663156e-05 -1.047302e+00 1.818848e-02
7.702340e+07 9.608765e-01 1.958618e-01 -3.157184e-06 -9.389594e-06 -1.807883e-05 5.511940e-05 -1.035339e+00 1.873779e-02
7.724213e+07 9.607544e-01 1.965942e-01 1.579523e-05 5.637109e-05 4.280359e-06 -2.424978e-05 -1.020569e+00 1.617432e-02
7.746086e+07 9.606323e-01 1.967163e-01 3.926829e-05 3.122352e-05 3.042817e-05 -7.133931e-06 -1.006348e+00 9.277344e-03
7.767959e+07 9.611816e-01 1.984863e-01 -1.725648e-05 3.177673e-06 -4.592165e-05 3.568083e-05 -9.913940e-01 -1.220703e-04
7.789832e+07 9.613647e-01 1.995239e-01 -2.191775e-05 1.573935e-05 -4.328042e-05 -6.189197e-05 -9.769897e-01 -1.208496e-02
7.811706e+07 9.620972e-01 2.004395e-01 -7.816590e-06 1.884997e-05 -3.331108e-06 -4.765112e-06 -9.649658e-01 -2.777100e-02
7.833579e+07 9.622803e-01 2.008057e-01 -1.252443e-05 1.572538e-05 4.050881e-05 7.160008e-06 -9.550171e-01 -4.370117e-02
7.855452e+07 9.623413e-01 2.016602e-01 -9.463169e-06 -1.883972e-05 -6.686896e-06 6.148964e-05 -9.464722e-01 -6.060791e-02
7.877325e+07 9.626465e-01 2.028198e-01 -2.359040e-05 -6.221235e-06 1.478102e-05 1.097191e-05 -9.403687e-01 -7.849121e-02
7.899198e+07 9.627686e-01 2.031860e-01 -4.558265e-05 -1.247227e-05 2.742745e-05 -1.439825e-06 -9.381104e-01 -9.564209e-02
7.921071e+07 9.627686e-01 2.045288e-01 -6.354414e-06 -1.883227e-05 -2.719648e-05 1.191720e-05 -9.357910e-01 -1.126709e-01
7.942944e+07 9.630737e-01 2.053223e-01 1.727417e-05 -6.333925e-06 -6.444752e-06 9.541400e-07 -9.357300e-01 -1.274414e-01
7.964818e+07 9.638672e-01 2.052002e-01 -1.258031e-05 3.073364e-08 4.319102e-05 -1.960248e-05 -9.372559e-01 -1.408691e-01
7.986691e+07 9.639893e-01 2.060547e-01 -2.522953e-05 -2.509542e-05 3.077835e-05 -6.781891e-05 -9.374390e-01 -1.528931e-01
8.008564e+07 9.647217e-01 2.074585e-01 4.665926e-06 -1.889467e-05 -2.865680e-06 1.624785e-05 -9.398804e-01 -1.630859e-01
8.030437e+07 9.642944e-01 2.078247e-01 7.896684e-06 9.422190e-06 1.743343e-05 -1.576822e-05 -9.397583e-01 -1.718750e-01
8.052310e+07 9.645386e-01 2.089844e-01 -4.254095e-05 -3.024936e-06 1.457706e-05 4.777685e-07 -9.383545e-01 -1.792603e-01
8.074183e+07 9.655151e-01 2.098389e-01 6.774813e-05 -1.899898e-07 -1.914054e-05 1.340173e-05 -9.376831e-01 -1.858521e-01
8.096056e+07 9.649658e-01 2.106934e-01 -2.047140e-05 1.267996e-05 -1.171231e-05 -1.673680e-05 -9.342651e-01 -1.925659e-01
8.117929e+07 9.661255e-01 2.111206e-01 -1.576915e-05 -3.115274e-06 -1.676148e-06 -2.392917e-06 -9.294434e-01 -1.987915e-01
8.139802e+07 9.665527e-01 2.124634e-01 2.676062e-05 -1.901016e-05 2.323836e-05 2.298318e-05 -9.242554e-01 -2.062988e-01
8.161676e+07 9.669189e-01 2.125854e-01 -9.398907e-06 2.526864e-05 -1.533702e-05 3.929809e-05 -9.172974e-01 -2.140503e-01
8.183549e+07 9.656372e-01 2.129517e-01 2.525747e-05 3.091991e-06 3.112014e-06 -5.745795e-06 -9.104004e-01 -2.243652e-01
8.205422e+07 9.662476e-01 2.137451e-01 3.627874e-05 -2.225861e-05 4.095584e-05 -5.365536e-05 -9.042969e-01 -2.357178e-01
8.227295e+07 9.674683e-01 2.143555e-01 1.210719e-07 3.795512e-05 -3.502890e-05 -3.979728e-05 -8.981934e-01 -2.475586e-01
8.249168e+07 9.682617e-01 2.146606e-01 -7.992610e-06 -2.526306e-05 -1.534447e-05 3.936887e-05 -8.931274e-01 -2.601929e-01
8.271041e+07 9.680176e-01 2.160645e-01 2.208538e-05 -1.272559e-05 -3.593042e-06 -1.535751e-05 -8.889160e-01 -2.749023e-01
8.292914e+07 9.676514e-01 2.166138e-01 -1.262035e-05 9.546056e-06 2.279319e-05 1.916662e-06 -8.865967e-01 -2.871094e-01
8.314788e+07 9.684448e-01 2.168579e-01 1.271069e-05 1.577754e-05 1.369044e-05 2.976693e-05 -8.864746e-01 -3.008423e-01
8.336661e+07 9.689331e-01 2.177734e-01 6.383285e-06 1.581199e-05 5.046837e-06 7.204711e-06 -8.859253e-01 -3.133545e-01
8.358534e+07 9.700928e-01 2.182007e-01 -2.685189e-05 2.227165e-05 1.348834e-05 1.922529e-05 -8.876343e-01 -3.254395e-01
8.380407e+07 9.697876e-01 2.190552e-01 3.966130e-05 1.888536e-05 4.517287e-05 -1.733378e-05 -8.897095e-01 -3.360596e-01
8.402280e+07 9.703979e-01 2.196045e-01 -1.589302e-05 -1.262780e-05 -8.890405e-06 3.847852e-05 -8.917847e-01 -3.442383e-01
8.424153e+07 9.703979e-01 2.203369e-01 -1.900457e-05 6.398186e-06 8.177944e-06 1.439359e-06 -8.936157e-01 -3.519287e-01
8.446026e+07 9.711304e-01 2.210693e-01 1.277588e-05 2.533570e-05 1.930632e-06 1.299754e-05 -8.939209e-01 -3.572388e-01
8.467899e+07 9.712524e-01 2.214966e-01 -9.644777e-06 -4.121289e-05 1.949538e-05 -2.902932e-06 -8.942261e-01 -3.612671e-01
8.489772e+07 9.724731e-01 2.213745e-01 -9.526499e-06 2.561137e-08 -2.867542e-06 1.639314e-05 -8.917847e-01 -3.662720e-01
8.511646e+07 9.724731e-01 2.223511e-01 -6.256625e-06 2.225302e-05 1.031905e-05 -4.677102e-05 -8.884888e-01 -3.698730e-01
8.533519e+07 9.714355e-01 2.235107e-01 -1.738034e-05 3.182516e-05 4.842877e-07 2.119131e-05 -8.842163e-01 -3.756104e-01
8.555392e+07 9.735718e-01 2.232666e-01 -2.690405e-05 3.505684e-05 -1.877174e-05 3.477000e-05 -8.785400e-01 -3.814697e-01
8.577265e+07 9.725342e-01 2.239380e-01 6.442890e-06 2.222322e-05 -2.514571e-07 -1.060870e-05 -8.728027e-01 -3.886108e-01
8.599138e+07 9.733276e-01 2.249146e-01 2.400577e-05 4.444644e-05 -2.292730e-05 -1.912937e-06 -8.675537e-01 -3.969116e-01
8.621011e+07 9.739380e-01 2.255859e-01 1.128390e-05 4.769117e-05 -3.134366e-06 5.797483e-06 -8.617554e-01 -4.057007e-01
8.642884e+07 9.736938e-01 2.255249e-01 3.183447e-05 3.065914e-06 3.596395e-05 -4.656613e-08 -8.583984e-01 -4.156494e-01
8.664758e+07 9.743042e-01 2.261353e-01 1.435261e-05 6.315298e-06 -3.430434e-05 2.447516e-06 -8.557129e-01 -4.265747e-01
8.686631e+07 9.746704e-01 2.266235e-01 -6.498769e-06 -3.181770e-05 -1.110695e-05 1.499522e-05 -8.529663e-01 -4.353638e-01
8.708504e+07 9.748535e-01 2.272339e-01 2.228841e-05 -3.268942e-06 -3.408641e-05 1.308136e-05 -8.515625e-01 -4.452515e-01
8.730377e+07 9.753418e-01 2.280884e-01 3.154390e-06 -6.384216e-06 1.355819e-05 1.934450e-05 -8.513794e-01 -4.532471e-01
8.752250e+07 9.752808e-01 2.281494e-01 4.567206e-06 -5.739555e-05 2.851710e-05 -4.163012e-05 -8.507690e-01 -4.601440e-01
8.774123e+07 9.765015e-01 2.285767e-01 -1.589768e-05 1.281314e-05 2.469495e-05 4.326925e-06 -8.500366e-01 -4.663696e-01
8.795996e+07 9.774780e-01 2.296753e-01 -3.193691e-05 -6.252900e-06 1.673680e-05 1.356937e-05 -8.486938e-01 -4.703369e-01
8.817869e+07 9.772339e-01 2.297363e-01 -1.915358e-05 3.271736e-06 -1.623388e-05 7.770024e-06 -8.455811e-01 -4.739380e-01
8.839742e+07 9.768677e-01 2.306519e-01 6.504357e-06 3.192946e-05 1.188274e-05 1.696404e-05 -8.406982e-01 -4.769287e-01
8.861616e+07 9.777832e-01 2.305298e-01 -3.204122e-05 -2.542324e-05 4.822016e-05 -4.469603e-05 -8.355713e-01 -4.799805e-01
8.883489e+07 9.784546e-01 2.309570e-01 -3.354624e-05 3.306195e-06 -4.195794e-05 3.306195e-05 -8.274536e-01 -4.837646e-01
8.905362e+07 9.785156e-01 2.314453e-01 -5.433708e-05 3.404915e-06 -1.386739e-05 -3.009848e-05 -8.179932e-01 -4.880981e-01
8.927235e+07 9.793091e-01 2.318726e-01 2.555735e-05 -9.695068e-06 -5.112030e-06 -7.283408e-06 -8.071899e-01 -4.949951e-01
8.949108e+07 9.794312e-01 2.323608e-01 1.447834e-05 2.235547e-05 4.598871e-06 -1.410022e-05 -7.961426e-01 -5.030518e-01
8.970981e+07 9.794922e-01 2.329102e-01 3.364682e-05 1.267157e-05 -3.791973e-05 -2.397224e-06 -7.843628e-01 -5.137939e-01
8.992854e+07 9.789429e-01 2.338867e-01 1.446996e-05 1.594704e-05 -8.265022e-06 -1.454726e-06 -7.738037e-01 -5.250244e-01
9.014728e+07 9.808350e-01 2.333984e-01 -2.713501e-05 1.615286e-05 -1.050159e-05 -2.530031e-05 -7.630615e-01 -5.386963e-01
9.036601e+07 9.804688e-01 2.338257e-01 3.223307e-06 3.188848e-06 2.968684e-05 9.331852e-07 -7.553101e-01 -5.543823e-01
9.058474e+07 9.810791e-01 2.337036e-01 2.086535e-05 6.316230e-06 3.116019e-05 -7.355586e-06 -7.478638e-01 -5.714722e-01
9.080347e+07 9.807129e-01 2.353516e-01 -2.644956e-07 -5.457923e-05 4.918501e-05 -1.267716e-05 -7.431030e-01 -5.882568e-01
9.102220e+07 9.812012e-01 2.351074e-01 -9.550713e-06 1.929980e-05 3.414927e-06 4.870351e-06 -7.399902e-01 -6.047363e-01
9.124093e+07 9.814453e-01 2.352295e-01 1.763925e-06 3.851578e-05 1.973473e-05 -2.944842e-06 -7.401733e-01 -6.213379e-01
9.145966e+07 9.807739e-01 2.362671e-01 -1.761783e-05 9.706244e-06 1.217425e-05 -4.484504e-05 -7.410278e-01 -6.363525e-01
9.167839e+07 9.826050e-01 2.357178e-01 -1.654495e-06 -9.630341e-06 -2.199598e-05 -2.096593e-05 -7.440796e-01 -6.501465e-01
9.189712e+07 9.826050e-01 2.366333e-01 6.090850e-05 -2.600253e-05 1.242943e-05 -3.417768e-05 -7.472534e-01 -6.622314e-01
9.211586e+07 9.834595e-01 2.362671e-01 9.750947e-06 2.247468e-05 1.344457e-05 8.770265e-06 -7.506104e-01 -6.699219e-01
9.233459e+07 9.835205e-01 2.366333e-01 1.785532e-05 3.853068e-05 -3.759563e-05 1.911074e-05 -7.535400e-01 -6.775513e-01
9.255332e+07 9.835815e-01 2.367554e-01 6.387010e-06 -9.687152e-06 2.176501e-05 1.022406e-05 -7.556152e-01 -6.824951e-01
9.277205e+07 9.841919e-01 2.367554e-01 -1.293980e-05 -1.280755e-05 1.570582e-05 3.273599e-05 -7.553101e-01 -6.864014e-01
9.299078e+07 9.848633e-01 2.370605e-01 -2.726540e-05 2.910197e-05 -3.436115e-06 -4.886650e-06 -7.543335e-01 -6.898193e-01
9.320951e+07 9.840698e-01 2.383423e-01 -3.385358e-05 -6.277114e-06 4.331023e-05 9.730458e-06 -7.498779e-01 -6.931152e-01
9.342824e+07 9.843750e-01 2.377930e-01 -3.856979e-05 2.272986e-05 1.202524e-05 1.710281e-05 -7.451172e-01 -6.978149e-01
9.364698e+07 9.844971e-01 2.384033e-01 4.708767e-06 -2.903119e-05 6.081536e-06 -2.253242e-05 -7.385864e-01 -7.031250e-01
9.386571e+07 9.853516e-01 2.380981e-01 1.490116e-08 3.223075e-06 3.198162e-05 -4.809722e-05 -7.330933e-01 -7.106934e-01
9.408444e+07 9.852295e-01 2.392578e-01 8.064788e-06 -3.911555e-08 -1.468975e-05 1.030881e-05 -7.236328e-01 -7.153931e-01
9.430317e+07 9.859619e-01 2.393799e-01 -6.385148e-06 1.293980e-05 -2.528727e-05 -1.517311e-05 -7.208252e-01 -7.273560e-01
9.452190e+07 9.866333e-01 2.393188e-01 -3.869459e-05 6.681308e-06 -2.040714e-05 -1.861714e-05 -7.152710e-01 -7.381592e-01
9.474063e+07 9.859619e-01 2.396851e-01 -6.431714e-06 6.487127e-06 -2.477132e-05 6.422400e-06 -7.120972e-01 -7.482910e-01
9.495936e+07 9.862671e-01 2.401733e-01 3.062189e-05 -1.307763e-05 2.572685e-05 -3.636442e-05 -7.094116e-01 -7.586670e-01
9.517809e+07 9.868164e-01 2.395630e-01 6.567687e-06 2.259202e-05 -3.314950e-05 4.986301e-06 -7.105713e-01 -7.683716e-01
9.539682e+07 9.859619e-01 2.412109e-01 -1.639128e-07 -2.909824e-05 5.232915e-05 3.287941e-05 -7.130127e-01 -7.769165e-01
9.561556e+07 9.869385e-01 2.407837e-01 -1.125410e-05 1.299568e-05 7.832423e-06 -2.017058e-05 -7.161865e-01 -7.831421e-01
9.583429e+07 9.865723e-01 2.409058e-01 6.236136e-06 -4.530698e-05 4.402176e-05 3.138557e-05 -7.196045e-01 -7.874756e-01
9.605302e+07 9.876099e-01 2.413330e-01 1.446716e-05 -2.273731e-05 1.464039e-06 -8.364674e-06 -7.223511e-01 -7.872314e-01
9.627175e+07 9.867554e-01 2.404785e-01 -6.549992e-06 -1.616124e-05 -2.400950e-05 3.888831e-05 -7.243042e-01 -7.850952e-01
9.649048e+07 9.871826e-01 2.413940e-01 9.686220e-06 -6.524846e-06 2.248213e-06 2.410635e-05 -7.225952e-01 -7.796021e-01
9.670921e+07 9.876709e-01 2.415161e-01 3.185589e-06 -9.728596e-06 3.748387e-05 3.242865e-05 -7.181396e-01 -7.751465e-01
9.692794e+07 9.879761e-01 2.412109e-01 -3.588945e-05 -4.516542e-05 1.276098e-05 -2.367608e-05 -7.107544e-01 -7.694092e-01
9.714668e+07 9.880371e-01 2.421875e-01 -9.601936e-06 2.598017e-05 -1.702551e-05 -1.376960e-05 -7.007446e-01 -7.647095e-01
9.736541e+07 9.877930e-01 2.423096e-01 -1.790002e-05 -1.286808e-05 -2.088957e-05 3.305450e-05 -6.876221e-01 -7.615967e-01
9.758414e+07 9.882812e-01 2.427979e-01 -1.271069e-05 4.870817e-05 1.677498e-05 2.935529e-06 -6.753540e-01 -7.599487e-01
9.780287e+07 9.882202e-01 2.425537e-01 2.109446e-05 -1.108274e-07 1.824927e-05 -5.462207e-06 -6.597900e-01 -7.611084e-01
9.802160e+07 9.890137e-01 2.420044e-01 3.299676e-06 9.714160e-06 2.693757e-05 6.845221e-06 -6.469116e-01 -7.650146e-01
9.824033e+07 9.880981e-01 2.426147e-01 -1.131278e-05 9.793788e-06 -6.408617e-05 4.507229e-05 -6.323853e-01 -7.697144e-01
9.845906e+07 9.889526e-01 2.431641e-01 -1.793355e-05 -1.291372e-05 -4.405156e-06 2.521276e-05 -6.197510e-01 -7.768555e-01
9.867779e+07 9.880371e-01 2.434082e-01 -3.320165e-06 -1.298077e-05 -1.880433e-05 -1.626927e-05 -6.086426e-01 -7.829590e-01
9.889652e+07 9.887085e-01 2.438965e-01 1.472235e-05 1.615845e-05 -1.014397e-05 -3.943220e-06 -5.989990e-01 -7.908936e-01
9.911526e+07 9.887085e-01 2.440796e-01 -4.880596e-06 2.817251e-08 4.153326e-05 -1.440942e-05 -5.908813e-01 -7.997437e-01
9.933399e+07 9.890747e-01 2.432861e-01 -4.881294e-06 2.537854e-08 -1.738314e-06 -2.470333e-06 -5.838623e-01 -8.061523e-01
9.955272e+07 9.891968e-01 2.438354e-01 2.617016e-05 2.261996e-05 -1.765788e-05 -3.560819e-05 -5.791016e-01 -8.103638e-01
9.977145e+07 9.891968e-01 2.449341e-01 1.966022e-05 2.594851e-05 1.208857e-06 -1.932215e-05 -5.728760e-01 -8.140259e-01
9.999018e+07 9.899292e-01 2.440796e-01 -8.156989e-06 -3.211200e-06 -3.024004e-05 -9.257346e-07 -5.676270e-01 -8.167114e-01
1.002089e+08 9.897461e-01 2.443237e-01 1.750886e-07 2.603047e-05 -1.191068e-05 -6.421469e-06 -5.611572e-01 -8.168335e-01
1.004276e+08 9.884033e-01 2.449341e-01 3.359281e-06 1.626927e-05 8.420553e-06 1.473818e-06 -5.537720e-01 -8.159790e-01
1.006464e+08 9.891968e-01 2.446899e-01 -9.679236e-06 1.959968e-05 1.017191e-05 3.941357e-06 -5.458374e-01 -8.141479e-01
1.008651e+08 9.891968e-01 2.448120e-01 1.627300e-05 -3.350899e-06 -2.503023e-05 6.504357e-06 -5.357056e-01 -8.114624e-01
1.010838e+08 9.885864e-01 2.449341e-01 2.428144e-05 -2.946891e-05 1.164246e-05 -4.487112e-06 -5.228882e-01 -8.108521e-01
1.013026e+08 9.887695e-01 2.445679e-01 -3.424287e-05 1.993030e-07 6.896257e-05 3.300607e-06 -5.097656e-01 -8.095093e-01
1.015213e+08 9.888916e-01 2.445679e-01 -1.133513e-05 1.636893e-05 -1.716148e-05 -1.384690e-05 -4.931641e-01 -8.097534e-01
1.017400e+08 9.886475e-01 2.456055e-01 9.709038e-06 -1.637451e-05 9.246171e-06 3.423914e-05 -4.783936e-01 -8.116455e-01
1.019588e+08 9.889526e-01 2.453613e-01 1.519918e-06 -1.959223e-05 1.111440e-05 -2.635084e-05 -4.630127e-01 -8.156738e-01
1.021775e+08 9.883423e-01 2.459717e-01 -5.713105e-05 -2.980232e-06 -2.707727e-05 -6.912276e-06 -4.462280e-01 -8.213501e-01
1.023962e+08 9.884033e-01 2.461548e-01 -3.213994e-06 9.812415e-06 3.701821e-05 -7.823110e-08 -4.296875e-01 -8.281860e-01
1.026150e+08 9.895020e-01 2.455444e-01 1.136959e-05 -9.865500e-06 -7.615983e-05 -1.321360e-05 -4.161377e-01 -8.365479e-01
1.028337e+08 9.893188e-01 2.460938e-01 1.801550e-05 6.440096e-06 4.288554e-05 2.923608e-05 -4.044189e-01 -8.462524e-01
1.030524e+08 9.885864e-01 2.459106e-01 2.614222e-05 -3.417954e-06 -1.489837e-05 1.048762e-05 -3.934937e-01 -8.560791e-01
1.032712e+08 9.885864e-01 2.463379e-01 3.446639e-05 2.594106e-05 -9.940937e-06 6.990507e-06 -3.842163e-01 -8.666382e-01
1.034899e+08 9.880371e-01 2.464600e-01 -1.578126e-06 9.818003e-06 5.142763e-05 -3.247708e-05 -3.756104e-01 -8.758545e-01
1.037086e+08 9.874268e-01 2.465820e-01 5.855039e-05 -4.939362e-05 1.076795e-05 2.584793e-05 -3.696289e-01 -8.840942e-01
1.039273e+08 9.877930e-01 2.471924e-01 -9.676442e-06 2.296455e-05 4.036352e-06 2.687238e-05 -3.644409e-01 -8.909302e-01
1.041461e+08 9.880981e-01 2.471924e-01 -8.003786e-06 2.948754e-05 -8.177012e-07 -3.287755e-05 -3.598022e-01 -8.964233e-01
1.043648e+08 9.877319e-01 2.480469e-01 1.561828e-06 -1.310091e-05 9.000301e-06 2.340414e-05 -3.551025e-01 -9.013672e-01
1.045835e+08 9.879150e-01 2.471924e-01 -1.794565e-05 9.932555e-06 -1.548324e-05 -1.142640e-05 -3.487549e-01 -9.036255e-01
1.048023e+08 9.877319e-01 2.478027e-01 1.326576e-05 2.610311e-05 -1.934730e-05 3.595278e-05 -3.425903e-01 -9.047852e-01
1.050210e+08 9.878540e-01 2.482910e-01 -1.171045e-05 -3.923662e-05 2.397783e-05 1.290999e-05 -3.342285e-01 -9.049072e-01
1.052397e+08 9.865723e-01 2.477417e-01 9.220093e-08 1.638010e-05 -4.506484e-05 2.057105e-05 -3.256226e-01 -9.055786e-01
1.054585e+08 9.872437e-01 2.483521e-01 4.987232e-06 1.307670e-05 1.670327e-05 -8.029863e-06 -3.142700e-01 -9.077148e-01
1.056772e+08 9.877930e-01 2.485962e-01 1.622178e-05 -2.630614e-05 -3.926083e-05 -1.337938e-05 -3.028564e-01 -9.094238e-01
1.058959e+08 9.859619e-01 2.482910e-01 5.028211e-06 1.635309e-05 3.506429e-06 4.977919e-06 -2.906494e-01 -9.138794e-01
1.061147e+08 9.856567e-01 2.485962e-01 -1.002289e-05 -2.945215e-05 -8.490402e-06 -1.474284e-06 -2.790527e-01 -9.193115e-01
1.063334e+08 9.859619e-01 2.478027e-01 -6.165355e-06 6.563589e-05 -7.025898e-06 -9.965152e-06 -2.658081e-01 -9.252319e-01
1.065521e+08 9.859009e-01 2.480469e-01 2.134219e-05 3.149733e-06 -2.936460e-06 1.699477e-05 -2.554932e-01 -9.351196e-01
1.067708e+08 9.858398e-01 2.484741e-01 -3.444031e-06 -2.295896e-05 3.899634e-05 2.373010e-06 -2.465820e-01 -9.449463e-01
1.069896e+08 9.843750e-01 2.492065e-01 -6.570015e-06 4.144385e-08 7.940456e-06 -2.050214e-05 -2.390747e-01 -9.542236e-01
1.072083e+08 9.854126e-01 2.498779e-01 2.139062e-05 6.418675e-06 -1.174677e-05 4.535541e-06 -2.332764e-01 -9.642334e-01
1.074270e+08 9.846802e-01 2.498169e-01 2.621487e-05 -1.002848e-05 -2.089888e-05 4.458055e-05 -2.314453e-01 -9.718628e-01
1.076458e+08 9.845581e-01 2.496338e-01 -8.109957e-06 1.648534e-05 2.026372e-05 -3.062189e-06 -2.293701e-01 -9.786987e-01
1.078645e+08 9.841919e-01 2.495117e-01 -1.487322e-05 -1.305528e-05 1.056306e-05 1.497846e-05 -2.293701e-01 -9.826050e-01
1.080832e+08 9.847412e-01 2.500610e-01 -1.475215e-05 6.669201e-06 2.999045e-05 -2.113916e-05 -2.296143e-01 -9.846191e-01
1.083020e+08 9.844360e-01 2.506104e-01 7.985160e-06 -3.621913e-05 -4.436821e-06 2.557039e-05 -2.283325e-01 -9.825439e-01
1.085207e+08 9.834595e-01 2.510376e-01 5.075708e-05 -3.322959e-05 -3.314763e-05 -3.648922e-05 -2.255859e-01 -9.798584e-01
1.087394e+08 9.832764e-01 2.504272e-01 -2.788194e-05 1.332536e-05 5.897135e-06 -3.409572e-05 -2.197266e-01 -9.747314e-01
1.089582e+08 9.822998e-01 2.520142e-01 3.280863e-05 -6.804243e-06 -1.231302e-05 -1.750793e-05 -2.125244e-01 -9.694214e-01
1.091769e+08 9.827881e-01 2.514648e-01 -1.645531e-06 1.094304e-08 -4.030764e-05 1.718476e-05 -2.020264e-01 -9.645996e-01
1.093956e+08 9.819336e-01 2.519531e-01 9.939540e-06 9.810552e-06 -3.206730e-05 7.616356e-06 -1.907959e-01 -9.613037e-01
1.096144e+08 9.818726e-01 2.522583e-01 1.168437e-05 2.626330e-05 1.762994e-06 2.502697e-06 -1.752930e-01 -9.587402e-01
1.098331e+08 9.809570e-01 2.519531e-01 -1.453049e-05 4.290789e-05 2.969243e-05 3.148057e-05 -1.611328e-01 -9.588013e-01
1.100518e+08 9.807739e-01 2.526855e-01 -6.547198e-06 6.629620e-06 1.740083e-05 -4.972517e-05 -1.448364e-01 -9.613647e-01
1.102706e+08 9.807129e-01 2.532349e-01 -2.629869e-05 1.005642e-05 -1.588278e-05 -2.253428e-05 -1.317749e-01 -9.651489e-01
1.104893e+08 9.804688e-01 2.531738e-01 2.457388e-05 -1.992658e-05 -1.765555e-06 -2.504326e-06 -1.177979e-01 -9.689331e-01
1.107080e+08 9.802856e-01 2.532349e-01 1.641549e-05 -6.713904e-06 1.737941e-05 1.399312e-05 -1.063232e-01 -9.763184e-01
1.109267e+08 9.793091e-01 2.531128e-01 8.189119e-06 -6.642658e-06 -3.242400e-06 6.037299e-06 -9.375000e-02 -9.828491e-01
1.111455e+08 9.788208e-01 2.536011e-01 4.770234e-06 -2.310798e-05 -5.096570e-05 2.171844e-06 -8.459473e-02 -9.898682e-01
1.113642e+08 9.791260e-01 2.536011e-01 1.299381e-05 -2.318062e-05 -2.301112e-05 3.125519e-05 -7.611084e-02 -9.973145e-01
1.115829e+08 9.786377e-01 2.545166e-01 2.316758e-05 1.301803e-05 -3.745779e-05 1.210719e-07 -7.092285e-02 -1.004211e+00
1.118017e+08 9.779053e-01 2.544556e-01 4.135072e-07 5.937368e-05 1.060963e-05 1.503713e-05 -6.518555e-02 -1.009399e+00
1.120204e+08 9.778442e-01 2.545166e-01 8.011237e-06 -2.973713e-05 -3.981218e-05 -2.449751e-05 -6.127930e-02 -1.013000e+00
1.122391e+08 9.777832e-01 2.553101e-01 1.554377e-06 -1.321081e-05 -3.689341e-05 2.226420e-05 -5.853271e-02 -1.014160e+00
1.124579e+08 9.773560e-01 2.554321e-01 1.509674e-06 -1.980364e-05 4.427508e-05 -1.162291e-06 -5.407715e-02 -1.012939e+00
1.126766e+08 9.770508e-01 2.565308e-01 -1.150183e-05 6.683171e-06 3.539026e-06 5.022157e-06 -4.986572e-02 -1.012329e+00
1.128953e+08 9.761963e-01 2.572021e-01 3.460795e-06 2.637319e-05 -5.305745e-06 -7.533468e-06 -4.278564e-02 -1.008240e+00
1.131141e+08 9.758301e-01 2.568359e-01 -2.310798e-05 1.583248e-07 -2.423301e-05 5.092472e-05 -3.424072e-02 -1.003784e+00
1.133328e+08 9.757080e-01 2.568359e-01 -1.333002e-05 -1.642574e-05 2.745166e-05 -5.701184e-05 -2.380371e-02 -1.001465e+00
1.135515e+08 9.749756e-01 2.580566e-01 5.155802e-06 2.968870e-05 -9.149313e-06 -2.363510e-05 -1.159668e-02 -9.970703e-01
1.137702e+08 9.755249e-01 2.580566e-01 -2.618693e-05 3.322400e-05 5.323440e-06 7.538125e-06 1.647949e-03 -9.962158e-01
1.139890e+08 9.741211e-01 2.584839e-01 2.477877e-05 -1.769513e-07 -4.049018e-05 1.728535e-05 1.507568e-02 -9.960327e-01
1.142077e+08 9.746094e-01 2.597046e-01 1.801178e-05 -2.327375e-05 1.183804e-05 -4.577450e-06 2.984619e-02 -9.978638e-01
1.144264e+08 9.731445e-01 2.599487e-01 -1.147296e-05 1.330301e-05 -2.278388e-05 4.242361e-05 4.376221e-02 -1.002197e+00
1.146452e+08 9.724121e-01 2.604370e-01 -2.481788e-05 1.955777e-07 1.388974e-05 9.023584e-06 5.590820e-02 -1.005920e+00
1.148639e+08 9.731445e-01 2.599487e-01 1.667440e-05 1.641363e-05 -8.279458e-06 9.621959e-06 6.671143e-02 -1.011841e+00
1.150826e+08 9.720459e-01 2.611084e-01 3.225636e-06 -9.958167e-06 1.184084e-05 -4.580244e-06 7.666016e-02 -1.018921e+00
1.153014e+08 9.724731e-01 2.617188e-01 -8.327421e-06 -6.558839e-06 3.349036e-05 -9.152293e-05 8.398438e-02 -1.024109e+00
1.155201e+08 9.717407e-01 2.617188e-01 -1.824461e-05 -6.487593e-06 -1.835637e-05 1.673214e-05 8.947754e-02 -1.030884e+00
1.157388e+08 9.708862e-01 2.612915e-01 -2.468377e-05 2.005696e-05 1.066271e-05 1.509581e-05 9.332275e-02 -1.034668e+00
1.159576e+08 9.705200e-01 2.624512e-01 9.946059e-06 -7.404014e-08 9.774230e-06 -1.821946e-05 9.576416e-02 -1.038269e+00
1.161763e+08 9.707642e-01 2.633057e-01 -9.945594e-06 6.984919e-08 -6.522983e-06 1.215097e-05 9.759521e-02 -1.040283e+00
1.163950e+08 9.697876e-01 2.637329e-01 -3.239140e-06 9.968411e-06 1.599081e-05 2.268143e-05 1.014404e-01 -1.039307e+00
1.166138e+08 9.692383e-01 2.638550e-01 -1.992565e-05 -3.171153e-06 -8.003786e-06 2.074428e-05 1.031494e-01 -1.038940e+00
1.168325e+08 9.691162e-01 2.650146e-01 3.314205e-05 -3.585592e-06 -8.586794e-07 -3.336370e-05 1.060181e-01 -1.037537e+00
1.170512e+08 9.691772e-01 2.647095e-01 -1.975056e-05 2.006534e-05 3.830157e-05 2.210587e-05 1.083374e-01 -1.033081e+00
1.172700e+08 9.679565e-01 2.647705e-01 6.297603e-06 -4.318170e-05 9.199604e-06 2.373382e-05 1.132202e-01 -1.029297e+00
1.174887e+08 9.671631e-01 2.656250e-01 5.085021e-06 1.323503e-05 2.492778e-05 3.529899e-05 1.176147e-01 -1.022705e+00
1.177074e+08 9.676514e-01 2.662964e-01 1.608860e-06 -6.654300e-06 -1.126900e-05 2.689287e-05 1.226807e-01 -1.018005e+00
1.179261e+08 9.663696e-01 2.675171e-01 2.825446e-05 3.082678e-06 -1.098216e-05 3.800169e-05 1.290894e-01 -1.012085e+00
1.181449e+08 9.662476e-01 2.680054e-01 -2.314895e-05 1.345202e-05 -2.881885e-05 1.277775e-05 1.353760e-01 -1.008789e+00
1.183636e+08 9.655151e-01 2.683105e-01 3.262423e-06 -6.672926e-06 -2.614781e-05 -1.558289e-05 1.431274e-01 -1.003723e+00
1.185823e+08 9.656982e-01 2.684326e-01 2.337992e-05 1.641735e-05 9.544194e-06 3.491528e-05 1.518555e-01 -9.993286e-01
1.188011e+08 9.653320e-01 2.702637e-01 7.897615e-06 -5.325302e-05 -3.568828e-06 -5.058013e-06 1.594849e-01 -9.949341e-01
1.190198e+08 9.648438e-01 2.705078e-01 -4.644692e-05 1.034513e-05 -2.885237e-05 1.279823e-05 1.661377e-01 -9.924927e-01
1.192385e+08 9.649048e-01 2.709351e-01 1.839548e-05 1.314469e-05 -8.847678e-11 5.158540e-10 1.727905e-01 -9.891968e-01
1.194573e+08 9.635620e-01 2.725220e-01 -1.476519e-05 2.342090e-05 -4.763901e-05 1.841038e-05 1.776123e-01 -9.870605e-01
1.196760e+08 9.628906e-01 2.719727e-01 -1.824833e-05 6.798655e-06 5.177036e-05 8.884817e-06 1.821899e-01 -9.804077e-01
1.198947e+08 9.628906e-01 2.722168e-01 -5.005300e-05 -1.629442e-05 1.874659e-05 -5.681999e-06 1.865845e-01 -9.758911e-01
1.201135e+08 9.621582e-01 2.734985e-01 1.800805e-05 -3.677793e-05 -1.488253e-05 2.187863e-05 1.894531e-01 -9.682007e-01
1.203322e+08 9.630737e-01 2.741089e-01 -1.163501e-05 3.419816e-06 -1.759455e-05 -1.414586e-05 1.937256e-01 -9.586792e-01
1.205509e+08 9.624634e-01 2.744141e-01 -2.345070e-05 -1.648068e-05 -3.575906e-05 1.388229e-05 2.005615e-01 -9.490967e-01
1.207696e+08 9.621582e-01 2.751465e-01 8.003786e-06 -4.006177e-05 1.878850e-05 -5.671754e-06 2.079468e-01 -9.397583e-01
1.209884e+08 9.615479e-01 2.758179e-01 -2.191588e-05 -2.982095e-05 2.625026e-05 1.565740e-05 2.164917e-01 -9.288940e-01
1.212071e+08 9.594727e-01 2.768555e-01 -1.836382e-05 2.886914e-05 -3.344938e-05 -2.254918e-05 2.290039e-01 -9.195557e-01
1.214258e+08 9.589233e-01 2.769165e-01 1.287181e-05 1.396053e-05 3.093854e-05 1.729652e-05 2.427979e-01 -9.118042e-01
1.216446e+08 9.588623e-01 2.781372e-01 4.369393e-05 3.863499e-05 2.616085e-06 -1.263106e-06 2.548218e-01 -9.051514e-01
1.218633e+08 9.581299e-01 2.785034e-01 -1.584366e-05 2.712198e-05 3.137998e-05 -1.517311e-05 2.690430e-01 -8.997192e-01
1.220820e+08 9.567871e-01 2.806396e-01 3.083609e-05 -3.858283e-05 -2.297945e-05 -2.762675e-05 2.807007e-01 -8.970947e-01
1.223008e+08 9.573364e-01 2.791138e-01 2.598763e-05 -1.918525e-07 4.636718e-10 1.610942e-10 2.926025e-01 -8.948364e-01
1.225195e+08 9.567871e-01 2.805176e-01 3.062189e-05 -3.309548e-05 2.320111e-05 1.460873e-05 3.038330e-01 -8.937378e-01
1.227382e+08 9.556274e-01 2.814941e-01 1.278333e-05 2.526306e-05 -5.322509e-06 9.018462e-06 3.130493e-01 -8.927002e-01
1.229570e+08 9.557495e-01 2.823486e-01 7.277355e-06 -4.025549e-05 -8.208677e-06 2.978183e-05 3.209839e-01 -8.912354e-01
1.231757e+08 9.548950e-01 2.828369e-01 6.186776e-06 -1.338497e-05 4.709512e-05 -2.276152e-05 3.279419e-01 -8.885498e-01
1.233944e+08 9.552002e-01 2.835693e-01 2.515689e-05 -1.506880e-06 -1.695007e-07 1.300219e-05 3.328247e-01 -8.870850e-01
1.236132e+08 9.548340e-01 2.844849e-01 -9.563752e-06 2.515968e-06 4.641265e-10 1.616343e-10 3.383179e-01 -8.831787e-01
1.238319e+08 9.530640e-01 2.855225e-01 1.575518e-05 -1.590233e-05 7.480383e-06 2.221018e-05 3.440552e-01 -8.778076e-01
1.240506e+08 9.536133e-01 2.864380e-01 -4.014000e-06 -3.472157e-05 2.303161e-05 2.765656e-05 3.502197e-01 -8.717041e-01
1.242694e+08 9.533081e-01 2.876587e-01 -2.357364e-05 1.540780e-05 4.868954e-06 2.350472e-05 3.557739e-01 -8.638306e-01
1.244881e+08 9.530640e-01 2.875977e-01 -2.086628e-05 2.414919e-06 -8.707866e-08 6.509945e-06 3.612061e-01 -8.554077e-01
1.247068e+08 9.520874e-01 2.880249e-01 4.889816e-05 -2.818555e-05 -3.910437e-05 5.980954e-06 3.686523e-01 -8.461914e-01
1.249255e+08 9.526367e-01 2.903442e-01 -2.525188e-05 7.145107e-06 -3.607199e-05 -2.788752e-05 3.773193e-01 -8.363037e-01
1.251443e+08 9.519653e-01 2.903442e-01 -9.570736e-06 2.516434e-06 1.528859e-05 2.494454e-05 3.878784e-01 -8.245239e-01
1.253630e+08 9.512939e-01 2.919922e-01 9.234995e-06 3.134832e-05 1.845509e-05 -1.535844e-05 4.000244e-01 -8.146362e-01
1.255817e+08 9.503784e-01 2.932129e-01 8.560019e-07 1.311186e-06 -2.903864e-06 2.079643e-05 4.140625e-01 -8.051147e-01
1.258005e+08 9.500732e-01 2.932129e-01 -2.253801e-07 2.258271e-05 4.646097e-10 1.620322e-10 4.307251e-01 -7.957153e-01
1.260192e+08 9.497681e-01 2.942505e-01 -1.768582e-06 3.023306e-06 2.632849e-05 -1.915358e-05 4.479370e-01 -7.886353e-01
1.262379e+08 9.495239e-01 2.949219e-01 1.998339e-05 1.918525e-06 8.055009e-06 -1.682341e-05 4.664307e-01 -7.852783e-01
1.264567e+08 9.495239e-01 2.962646e-01 2.276897e-05 -1.675636e-05 -1.752377e-05 -4.981086e-05 4.846802e-01 -7.829590e-01
1.266754e+08 9.490356e-01 2.972412e-01 9.879470e-06 -3.077276e-05 2.440065e-05 -6.351992e-05 5.026855e-01 -7.835693e-01
1.268941e+08 9.494629e-01 2.980957e-01 -1.164898e-05 3.380887e-05 1.295097e-05 6.712973e-06 5.203857e-01 -7.860107e-01
1.271129e+08 9.492188e-01 2.988892e-01 -1.730211e-05 -9.317882e-06 3.190711e-05 -4.131719e-05 5.340576e-01 -7.910767e-01
1.273316e+08 9.484253e-01 2.998657e-01 3.576465e-05 -8.353963e-06 -2.335384e-05 -8.169562e-06 5.460205e-01 -7.974243e-01
1.275503e+08 9.482422e-01 3.008423e-01 5.193986e-06 2.228888e-06 -1.765415e-05 -4.332513e-05 5.537109e-01 -8.023682e-01
1.277690e+08 9.471436e-01 3.022461e-01 -4.222430e-05 3.875792e-05 6.258860e-05 2.242625e-06 5.587769e-01 -8.075562e-01
1.279878e+08 9.478149e-01 3.026733e-01 -7.092021e-06 1.211651e-05 -2.348423e-05 -1.648441e-06 5.626221e-01 -8.091431e-01
1.282065e+08 9.475708e-01 3.030396e-01 -1.577660e-05 1.028553e-05 4.405528e-05 2.412125e-05 5.651855e-01 -8.102417e-01
1.284252e+08 9.464111e-01 3.049316e-01 -4.008971e-05 1.769513e-06 -1.528487e-05 -2.503395e-05 5.682983e-01 -8.093262e-01
1.286440e+08 9.473877e-01 3.046875e-01 -1.837499e-06 8.692965e-06 -3.383122e-05 -9.646639e-06 5.703735e-01 -8.051147e-01
1.288627e+08 9.466553e-01 3.065186e-01 -2.266467e-05 -2.421439e-07 -4.863366e-06 -2.359413e-05 5.744019e-01 -8.009033e-01
1.290814e+08 9.467163e-01 3.064575e-01 3.054738e-07 5.228817e-05 2.077036e-05 9.445474e-06 5.798950e-01 -7.937622e-01
1.293002e+08 9.461060e-01 3.082886e-01 -3.826246e-05 -6.934628e-06 1.325924e-05 -1.287926e-05 5.869141e-01 -7.875366e-01
1.295189e+08 9.457397e-01 3.083496e-01 5.330890e-06 -9.095762e-06 1.080148e-05 -2.468750e-05 5.932007e-01 -7.820435e-01
1.297376e+08 9.452515e-01 3.095703e-01 2.304465e-05 -3.378093e-05 3.354810e-05 2.923422e-05 6.012573e-01 -7.755127e-01
1.299564e+08 9.459839e-01 3.109131e-01 -3.863312e-05 2.136081e-05 1.854170e-05 -1.541805e-05 6.093750e-01 -7.672119e-01
1.301751e+08 9.453125e-01 3.116455e-01 -1.258217e-05 3.258139e-05 2.691895e-05 -5.191565e-05 6.191406e-01 -7.600098e-01
1.303938e+08 9.451294e-01 3.126221e-01 2.685003e-05 1.819432e-05 -1.834892e-05 2.340414e-06 6.283569e-01 -7.540894e-01
1.306126e+08 9.448853e-01 3.141479e-01 -1.042616e-05 -4.476868e-06 -4.665926e-06 -3.670901e-05 6.394043e-01 -7.480469e-01
1.308313e+08 9.447021e-01 3.147583e-01 5.960464e-07 2.400018e-05 -2.040714e-05 -3.564171e-05 6.505127e-01 -7.434082e-01
1.310500e+08 9.443970e-01 3.153076e-01 -1.319777e-05 8.574687e-06 4.786998e-06 3.017485e-05 6.610718e-01 -7.405396e-01
1.312688e+08 9.444580e-01 3.164673e-01 1.405645e-05 -7.260591e-06 -3.115833e-05 -1.749769e-05 6.710205e-01 -7.374878e-01
1.314875e+08 9.440918e-01 3.181152e-01 -8.597970e-06 -1.320243e-05 -8.129515e-06 1.689699e-05 6.803589e-01 -7.373047e-01
1.317062e+08 9.443970e-01 3.182373e-01 -2.222136e-05 -4.568323e-05 7.223338e-06 4.203990e-05 6.880493e-01 -7.356567e-01
1.319249e+08 9.443970e-01 3.203735e-01 3.264472e-05 -3.068335e-05 3.456511e-05 -2.960116e-05 6.928101e-01 -7.345581e-01
1.321437e+08 9.443359e-01 3.211670e-01 -3.922731e-05 -8.286908e-06 4.974194e-06 1.712330e-05 6.977539e-01 -7.313232e-01
1.323624e+08 9.431152e-01 3.215942e-01 1.320057e-05 -8.592382e-06 3.389828e-05 9.691343e-06 7.003784e-01 -7.272949e-01
1.325811e+08 9.436646e-01 3.225098e-01 2.549775e-05 -1.281872e-05 7.619150e-06 1.584459e-05 7.028198e-01 -7.213135e-01
1.327999e+08 9.434814e-01 3.237915e-01 6.685033e-06 2.762489e-05 1.554098e-05 1.204107e-05 7.078247e-01 -7.132874e-01
1.330186e+08 9.429932e-01 3.252563e-01 5.090609e-05 -1.432747e-05 -4.969537e-06 -1.712143e-05 7.125854e-01 -7.050476e-01
1.332373e+08 9.432983e-01 3.264160e-01 -5.453825e-05 2.606586e-05 -3.607571e-05 -4.122034e-05 7.205811e-01 -6.946411e-01
1.334561e+08 9.427490e-01 3.270874e-01 -1.078472e-05 -5.133078e-05 5.805865e-06 -3.531016e-05 7.296143e-01 -6.857910e-01
1.336748e+08 9.428711e-01 3.280640e-01 -7.916242e-07 -7.010065e-06 -2.887100e-05 8.437783e-07 7.404175e-01 -6.776733e-01
1.338935e+08 9.429932e-01 3.281860e-01 -4.096515e-05 -1.664460e-05 -2.328679e-05 -2.134219e-05 7.508545e-01 -6.720581e-01
1.341123e+08 9.431152e-01 3.303833e-01 -4.423037e-05 -3.902242e-05 -1.004711e-05 -2.773292e-05 7.626343e-01 -6.680908e-01
1.343310e+08 9.434814e-01 3.310547e-01 1.747627e-05 3.700145e-06 3.196672e-05 -2.838857e-05 7.720947e-01 -6.667480e-01
1.345497e+08 9.431763e-01 3.320923e-01 -9.871088e-06 1.958851e-05 5.617738e-06 -2.223440e-05 7.808228e-01 -6.657715e-01
1.347684e+08 9.431763e-01 3.327637e-01 -3.574416e-06 6.088056e-06 4.245713e-05 -2.692640e-05 7.871704e-01 -6.666870e-01
1.349872e+08 9.421387e-01 3.339233e-01 2.377667e-05 -9.806827e-06 -1.565646e-05 -5.505048e-06 7.899780e-01 -6.669312e-01
1.352059e+08 9.425659e-01 3.353271e-01 2.305768e-05 -2.251938e-05 -1.004897e-05 -2.774782e-05 7.910156e-01 -6.656494e-01
1.354246e+08 9.425049e-01 3.355103e-01 5.451962e-05 -1.465902e-05 -2.178922e-05 4.955754e-05 7.901001e-01 -6.628418e-01
1.356434e+08 9.426880e-01 3.368530e-01 1.126993e-05 1.152698e-05 -9.849668e-06 -4.088134e-05 7.892456e-01 -6.596069e-01
1.358621e+08 9.429321e-01 3.382568e-01 1.491047e-05 -2.617016e-07 -1.346972e-05 1.949165e-05 7.874146e-01 -6.539307e-01
1.360808e+08 9.434204e-01 3.387451e-01 2.028886e-05 -9.394251e-06 -2.320856e-06 -1.844671e-05 7.864380e-01 -6.459961e-01
1.362996e+08 9.430542e-01 3.400879e-01 2.679974e-05 -4.005246e-05 1.015514e-05 2.120808e-05 7.871704e-01 -6.380615e-01
1.365183e+08 9.430542e-01 3.406982e-01 4.735216e-05 3.226101e-06 -6.444752e-07 3.943965e-05 7.855225e-01 -6.271362e-01
1.367370e+08 9.428711e-01 3.410034e-01 3.294088e-05 -3.645755e-05 2.218410e-06 2.501905e-05 7.862549e-01 -6.174927e-01
1.369558e+08 9.435425e-01 3.428955e-01 -9.246171e-06 -3.171340e-05 -1.836289e-05 -4.249625e-06 7.870483e-01 -6.060181e-01
1.371745e+08 9.426270e-01 3.433228e-01 -5.614012e-06 2.626702e-05 1.380220e-05 -3.923103e-05 7.895508e-01 -5.941772e-01
1.373932e+08 9.428101e-01 3.448486e-01 1.328904e-05 -8.619390e-06 -1.038332e-05 -8.067116e-06 7.915649e-01 -5.824585e-01
1.376120e+08 9.436035e-01 3.462524e-01 -5.524606e-06 2.058782e-05 -8.869916e-06 5.643815e-05 7.969360e-01 -5.701294e-01
1.378307e+08 9.431763e-01 3.471680e-01 1.559034e-05 1.819897e-05 -4.736707e-06 -3.034621e-05 8.023071e-01 -5.598145e-01
1.380494e+08 9.430542e-01 3.472900e-01 -7.249415e-06 1.792889e-05 -4.433095e-07 2.630055e-05 8.092041e-01 -5.485229e-01
1.382682e+08 9.434204e-01 3.480225e-01 -1.832657e-05 -1.078937e-05 2.397969e-05 -1.803041e-05 8.165283e-01 -5.397339e-01
1.384869e+08 9.433594e-01 3.500366e-01 -2.659392e-06 1.725042e-06 3.105588e-05 3.083795e-05 8.218994e-01 -5.331421e-01
1.387056e+08 9.440308e-01 3.506470e-01 2.292916e-05 -5.416572e-06 -4.483014e-05 1.847744e-06 8.284912e-01 -5.280762e-01
1.389243e+08 9.442139e-01 3.507080e-01 -2.301484e-05 1.111627e-05 -4.438311e-05 -2.445281e-05 8.334961e-01 -5.248413e-01
1.391431e+08 9.439697e-01 3.527222e-01 2.273172e-05 1.172163e-05 1.063012e-05 -5.081296e-06 8.359375e-01 -5.220337e-01
1.393618e+08 9.445801e-01 3.530273e-01 -1.136959e-05 -5.865470e-06 -2.104044e-05 -2.991408e-06 8.339233e-01 -5.194702e-01
1.395805e+08 9.451904e-01 3.549194e-01 4.284084e-07 -3.431737e-05 1.656264e-05 -4.059449e-05 8.318481e-01 -5.154419e-01
1.397993e+08 9.448242e-01 3.554688e-01 3.326125e-05 1.625530e-05 2.137944e-05 -1.676753e-05 8.267212e-01 -5.091553e-01
1.400180e+08 9.448242e-01 3.571167e-01 -2.225116e-05 1.818314e-05 1.269579e-05 2.658553e-05 8.200684e-01 -4.988403e-01
1.402367e+08 9.453125e-01 3.588257e-01 -4.971027e-05 3.418699e-05 -2.661906e-05 1.269951e-05 8.145752e-01 -4.868774e-01
1.404555e+08 9.456177e-01 3.591309e-01 4.915893e-05 1.166016e-05 5.311146e-05 -1.884997e-05 8.104248e-01 -4.724731e-01
1.406742e+08 9.462280e-01 3.593750e-01 1.238752e-05 -4.243106e-06 1.759455e-05 5.044788e-05 8.098145e-01 -4.558105e-01
1.408929e+08 9.460449e-01 3.607788e-01 3.279187e-05 -1.364574e-05 -4.966743e-06 -1.724344e-05 8.099365e-01 -4.384766e-01
1.411117e+08 9.461670e-01 3.615723e-01 9.366777e-07 -4.394213e-06 -1.258217e-05 -3.322400e-05 8.130493e-01 -4.209595e-01
1.413304e+08 9.462280e-01 3.619385e-01 1.649372e-06 8.389354e-06 -2.926961e-05 1.399033e-05 8.195801e-01 -4.053955e-01
1.415491e+08 9.468994e-01 3.628540e-01 -5.334616e-06 3.457768e-06 1.248345e-05 3.982708e-05 8.262939e-01 -3.905640e-01
1.417678e+08 9.472046e-01 3.638916e-01 -1.240429e-05 4.251488e-06 6.046146e-06 -4.214048e-05 8.350830e-01 -3.782959e-01
1.419866e+08 9.472046e-01 3.648682e-01 1.286529e-05 2.574176e-05 1.610536e-05 -1.423899e-05 8.432617e-01 -3.679810e-01
1.422053e+08 9.481201e-01 3.658447e-01 3.789552e-05 8.381903e-08 -5.854666e-05 2.140924e-05 8.518066e-01 -3.593750e-01
1.424240e+08 9.472656e-01 3.666992e-01 1.099519e-05 3.456883e-05 1.623109e-05 -2.083555e-05 8.596802e-01 -3.523560e-01
1.426428e+08 9.490356e-01 3.671265e-01 -1.123920e-05 4.705787e-05 -5.332287e-06 2.550427e-06 8.660278e-01 -3.467407e-01
1.428615e+08 9.489136e-01 3.679199e-01 3.605615e-06 -6.128568e-06 -1.575984e-05 -5.562790e-06 8.717041e-01 -3.425903e-01
1.430802e+08 9.494019e-01 3.688965e-01 1.971796e-05 -2.224371e-05 -2.572313e-05 -4.010648e-05 8.751831e-01 -3.393555e-01
1.432990e+08 9.493408e-01 3.703613e-01 -9.983778e-06 1.973845e-05 5.758181e-05 3.147498e-05 8.776245e-01 -3.342896e-01
1.435177e+08 9.502563e-01 3.706665e-01 8.961186e-06 -9.602401e-06 1.879688e-05 -1.552701e-05 8.774414e-01 -3.322144e-01
1.437364e+08 9.500732e-01 3.715820e-01 1.509022e-05 -5.985610e-06 -8.250587e-06 1.704413e-05 8.752441e-01 -3.280029e-01
1.439552e+08 9.505615e-01 3.728027e-01 6.526709e-06 -2.508797e-05 -5.954877e-06 3.561750e-05 8.723755e-01 -3.223877e-01
1.441739e+08 9.502563e-01 3.731689e-01 4.709512e-05 -2.101064e-05 1.334399e-05 -6.367452e-06 8.674316e-01 -3.139038e-01
1.443926e+08 9.517822e-01 3.746338e-01 -8.893199e-06 3.849622e-06 9.940937e-06 3.461912e-05 8.623047e-01 -3.051147e-01
1.446114e+08 9.512329e-01 3.751831e-01 -3.539724e-06 3.937166e-07 2.683327e-05 -1.934543e-05 8.573608e-01 -2.921143e-01
1.448301e+08 9.519043e-01 3.751831e-01 1.387857e-05 -4.317239e-05 -1.590047e-05 1.038425e-06 8.526611e-01 -2.767944e-01
1.450488e+08 9.525757e-01 3.761597e-01 -5.021319e-05 -1.311302e-05 2.421439e-07 -1.323130e-05 8.504639e-01 -2.598267e-01
1.452676e+08 9.533081e-01 3.775024e-01 -4.034489e-06 3.485754e-05 -1.760200e-05 -5.065650e-05 8.519287e-01 -2.400513e-01
1.454863e+08 9.540405e-01 3.773804e-01 2.046488e-05 -9.438954e-06 2.553221e-06 5.343463e-06 8.554688e-01 -2.202148e-01
1.457050e+08 9.531250e-01 3.786621e-01 -2.352148e-05 -2.467260e-05 -3.435835e-05 -3.295019e-06 8.621826e-01 -2.017822e-01
1.459237e+08 9.543457e-01 3.796997e-01 -2.481230e-05 2.734363e-06 3.184192e-05 -2.034009e-06 8.704834e-01 -1.847534e-01
1.461425e+08 9.548340e-01 3.804321e-01 7.512048e-06 -2.954900e-05 -2.394803e-05 4.842877e-06 8.817749e-01 -1.690063e-01
1.463612e+08 9.544678e-01 3.807373e-01 -1.198985e-05 -3.027357e-05 1.362246e-05 -1.960527e-05 8.949585e-01 -1.556396e-01
1.465799e+08 9.558105e-01 3.816528e-01 1.230836e-05 -5.742535e-05 -3.720820e-05 4.598871e-06 9.068604e-01 -1.462402e-01
1.467987e+08 9.569702e-01 3.825073e-01 -1.108833e-05 -2.894364e-05 1.544505e-05 2.548844e-05 9.193115e-01 -1.389160e-01
1.470174e+08 9.570312e-01 3.840332e-01 -1.714192e-05 -3.831275e-05 2.129562e-05 -3.561378e-06 9.296265e-01 -1.342163e-01
1.472361e+08 9.575195e-01 3.840332e-01 -4.826114e-05 3.119186e-05 -1.656264e-05 3.418140e-05 9.384155e-01 -1.304321e-01
1.474549e+08 9.578857e-01 3.843384e-01 1.741666e-05 2.107676e-05 -5.479436e-06 9.187497e-06 9.443970e-01 -1.273193e-01
1.476736e+08 9.573975e-01 3.858032e-01 -2.676249e-05 1.157261e-05 2.624840e-05 1.376867e-05 9.503174e-01 -1.243286e-01
1.478923e+08 9.586182e-01 3.859863e-01 -2.408400e-05 -4.908442e-05 3.736280e-05 -1.122430e-05 9.528198e-01 -1.206055e-01
1.481111e+08 9.590454e-01 3.870239e-01 -1.833588e-05 4.223175e-05 -1.594145e-05 1.016073e-06 9.562988e-01 -1.165771e-01
1.483298e+08 9.597168e-01 3.873901e-01 -1.143198e-05 -5.929731e-06 -4.981644e-06 -1.735147e-05 9.571533e-01 -1.108398e-01
1.485485e+08 9.595337e-01 3.878174e-01 -4.945323e-06 3.359653e-05 5.599484e-05 -1.349673e-05 9.586792e-01 -1.043701e-01
1.487672e+08 9.605713e-01 3.888550e-01 2.270378e-05 2.339669e-05 -5.882233e-06 2.908893e-05 9.586792e-01 -9.887695e-02
1.489860e+08 9.603271e-01 3.893433e-01 -1.309440e-05 -1.437403e-05 -2.813060e-06 7.904600e-06 9.578857e-01 -9.039307e-02
1.492047e+08 9.616699e-01 3.900757e-01 -1.733308e-06 -2.686051e-06 -3.931299e-05 -2.735667e-05 9.580688e-01 -8.209229e-02
1.494234e+08 9.617310e-01 3.897705e-01 3.094971e-05 6.681308e-06 1.084805e-05 -1.174305e-05 9.574585e-01 -7.214355e-02
1.496422e+08 9.620972e-01 3.910522e-01 -4.293583e-05 2.198480e-05 5.552173e-05 1.306087e-05 9.572144e-01 -6.005859e-02
1.498609e+08 9.633179e-01 3.912354e-01 -5.464070e-06 9.235460e-06 -2.133474e-05 3.565103e-06 9.577637e-01 -4.785156e-02
1.500796e+08 9.638062e-01 3.924561e-01 3.211200e-06 -3.634393e-05 4.842505e-05 -2.960861e-05 9.598999e-01 -3.295898e-02
1.502984e+08 9.639893e-01 3.914185e-01 2.046395e-05 -3.696419e-06 1.570117e-05 1.225434e-05 9.645996e-01 -1.904297e-02
1.505171e+08 9.652100e-01 3.926392e-01 1.302734e-05 2.016779e-05 2.618507e-05 2.045371e-05 9.688110e-01 -5.493164e-03
1.507358e+08 9.656372e-01 3.937378e-01 1.865160e-05 -6.128103e-07 -1.073815e-05 5.103648e-06 9.769897e-01 8.056641e-03
1.509546e+08 9.660645e-01 3.937988e-01 -1.117773e-05 -2.326444e-05 1.315679e-05 6.911345e-06 9.863892e-01 1.855469e-02
1.511733e+08 9.661255e-01 3.943481e-01 7.896684e-06 6.342772e-06 1.073908e-05 -5.103648e-06 9.954224e-01 2.752686e-02
1.513920e+08 9.668579e-01 3.944092e-01 1.824228e-06 -3.079185e-06 -4.732783e-10 -1.683418e-10 1.004211e+00 3.411865e-02
1.516108e+08 9.675293e-01 3.959961e-01 -1.250301e-05 4.257075e-06 4.928932e-05 6.222725e-05 1.010559e+00 3.826904e-02
1.518295e+08 9.679565e-01 3.954468e-01 1.094863e-05 -1.849793e-05 -6.354600e-05 -1.589209e-05 1.015137e+00 4.156494e-02
1.520482e+08 9.682617e-01 3.961792e-01 5.067512e-05 -5.737692e-05 7.241964e-06 3.607944e-05 1.016724e+00 4.473877e-02
1.522670e+08 9.689941e-01 3.966675e-01 2.579018e-05 -1.374632e-06 -5.779788e-06 2.250634e-05 1.017944e+00 4.992676e-02
1.524857e+08 9.696045e-01 3.963623e-01 1.963321e-05 -5.031005e-06 -1.277216e-05 -2.687238e-05 1.016174e+00 5.712891e-02
1.527044e+08 9.705200e-01 3.980103e-01 1.397263e-05 1.577288e-05 2.164394e-05 -1.686253e-05 1.016541e+00 6.567383e-02
1.529231e+08 9.708862e-01 3.978271e-01 3.536791e-05 1.339614e-05 -2.151355e-05 1.022406e-05 1.016846e+00 7.495117e-02
1.531419e+08 9.707642e-01 3.972168e-01 -2.727844e-05 -1.867302e-05 -1.035165e-05 -1.484249e-05 1.019897e+00 8.587646e-02
1.533606e+08 9.711914e-01 3.986206e-01 -2.459809e-05 -2.040155e-05 -5.639158e-06 1.586042e-05 1.024353e+00 9.613037e-02
1.535793e+08 9.717407e-01 4.002686e-01 -5.684793e-06 2.080388e-05 1.898129e-05 -1.556799e-05 1.029053e+00 1.050415e-01
1.537981e+08 9.729004e-01 3.989258e-01 1.590326e-05 6.929040e-06 -7.797033e-06 -9.482261e-06 1.034729e+00 1.129761e-01
1.540168e+08 9.736328e-01 3.999023e-01 1.289323e-05 -2.736226e-05 -1.911819e-05 2.224930e-05 1.039917e+00 1.177368e-01
1.542355e+08 9.747314e-01 4.007568e-01 7.132068e-06 -7.795170e-07 2.836809e-06 -7.940456e-06 1.044739e+00 1.212769e-01
1.544543e+08 9.749756e-01 4.003296e-01 3.375113e-06 1.118425e-05 1.035444e-05 1.487881e-05 1.047363e+00 1.238403e-01
1.546730e+08 9.752808e-01 4.015503e-01 3.373995e-05 4.997477e-06 2.623536e-05 2.056174e-05 1.048096e+00 1.249390e-01
1.548917e+08 9.760132e-01 4.008789e-01 -2.989545e-06 1.909211e-05 -3.030524e-05 4.740804e-05 1.047363e+00 1.263428e-01
1.551105e+08 9.765015e-01 4.010620e-01 -8.571893e-06 3.416464e-05 -1.147203e-05 3.845058e-05 1.046204e+00 1.293945e-01
1.553292e+08 9.767456e-01 4.010620e-01 2.844445e-05 2.684072e-06 -3.418326e-05 -2.337061e-05 1.044128e+00 1.321411e-01
1.555479e+08 9.768066e-01 4.018555e-01 1.147576e-05 5.965121e-06 -3.698654e-05 -1.547672e-05 1.039612e+00 1.353760e-01
1.557666e+08 9.772949e-01 4.008789e-01 1.746416e-05 -3.222376e-05 -5.245209e-06 -4.107598e-06 1.035522e+00 1.391602e-01
1.559854e+08 9.790039e-01 4.015503e-01 1.089368e-05 -1.272745e-05 2.881140e-05 2.595596e-05 1.031982e+00 1.433105e-01
1.562041e+08 9.795532e-01 4.013672e-01 -1.890957e-05 -4.127249e-05 -1.022778e-05 -2.156012e-05 1.026428e+00 1.472168e-01
1.564228e+08 9.793091e-01 4.015503e-01 2.191588e-05 -3.126636e-05 -1.672283e-05 3.432669e-05 1.020813e+00 1.514282e-01
1.566416e+08 9.794312e-01 4.019165e-01 1.716893e-05 -1.486298e-05 -3.116205e-06 2.128445e-05 1.014954e+00 1.567993e-01
1.568603e+08 9.810181e-01 4.020996e-01 -1.428835e-05 1.541339e-06 4.301593e-05 -1.380593e-05 1.006592e+00 1.643677e-01
1.570790e+08 9.813232e-01 4.022217e-01 -4.688278e-06 -3.704987e-05 -5.820766e-06 2.258085e-05 1.000305e+00 1.721191e-01
1.572978e+08 9.816895e-01 4.022217e-01 -3.840588e-05 5.573034e-06 -2.655759e-05 -7.230788e-06 9.932251e-01 1.810913e-01
1.575165e+08 9.821777e-01 4.026489e-01 3.593229e-05 3.803149e-05 -5.257782e-06 -4.118308e-06 9.891357e-01 1.925049e-01
1.577352e+08 9.827881e-01 4.024048e-01 9.167008e-06 -1.544505e-05 -5.699694e-07 2.669170e-05 9.862671e-01 2.032471e-01
1.579540e+08 9.835205e-01 4.018555e-01 -2.093986e-05 -2.666377e-05 -4.980713e-06 -1.746323e-05 9.856567e-01 2.128296e-01
1.581727e+08 9.841309e-01 4.024658e-01 4.734844e-06 -1.642853e-05 3.539026e-06 -4.134700e-05 9.862671e-01 2.206421e-01
1.583914e+08 9.840088e-01 4.025879e-01 -2.409332e-06 -1.564901e-05 1.404434e-06 5.882606e-05 9.876099e-01 2.247925e-01
1.586102e+08 9.845581e-01 4.031372e-01 -5.062297e-05 4.013255e-05 5.109236e-06 1.080520e-05 9.880371e-01 2.257080e-01
1.588289e+08 9.840088e-01 4.022217e-01 -1.178775e-05 1.139473e-05 1.557171e-06 5.212054e-05 9.868774e-01 2.244873e-01
1.590476e+08 9.850464e-01 4.025879e-01 -1.342781e-05 2.893619e-06 2.372079e-05 1.522154e-05 9.797363e-01 2.208252e-01
1.592664e+08 9.864502e-01 4.021606e-01 1.196004e-05 3.053620e-05 -2.090633e-05 -2.318248e-05 9.698486e-01 2.165527e-01
1.594851e+08 9.865723e-01 4.025879e-01 -3.209338e-06 3.073551e-05 -1.877919e-05 2.264977e-06 9.558105e-01 2.158203e-01
1.597038e+08 9.871826e-01 4.024048e-01 2.891757e-05 -2.048723e-05 1.052581e-05 8.257106e-06 9.400024e-01 2.174683e-01
1.599225e+08 9.877930e-01 4.017944e-01 -5.614012e-06 1.507252e-05 -2.917275e-05 -1.264922e-05 9.216309e-01 2.222900e-01
1.601413e+08 9.871216e-01 4.031372e-01 1.759827e-05 1.546741e-05 -1.863204e-05 -4.425645e-06 9.046631e-01 2.319336e-01
1.603600e+08 9.871826e-01 4.030151e-01 -4.442642e-06 -9.695068e-07 2.913736e-05 1.267903e-05 8.889160e-01 2.439575e-01
1.605787e+08 9.880981e-01 4.027710e-01 9.469688e-06 -3.285706e-05 -4.522130e-05 -1.169741e-05 8.739624e-01 2.584839e-01
1.607975e+08 9.888306e-01 4.016113e-01 -8.686446e-06 -1.354422e-05 1.649372e-05 -2.105720e-05 8.620605e-01 2.745361e-01
1.610162e+08 9.887085e-01 4.028931e-01 5.155802e-06 -3.966130e-05 5.304441e-05 2.128258e-05 8.531494e-01 2.900391e-01
1.612349e+08 9.898071e-01 4.019775e-01 -2.810266e-06 7.538125e-06 -3.188290e-05 -1.141056e-05 8.461304e-01 3.060913e-01
1.614537e+08 9.895020e-01 4.020386e-01 -4.383549e-05 3.278255e-06 -3.026798e-07 1.337565e-05 8.408203e-01 3.222046e-01
1.616724e+08 9.906006e-01 4.017944e-01 -4.553050e-05 5.438924e-07 6.005168e-06 -2.933480e-05 8.356323e-01 3.366699e-01
1.618911e+08 9.904175e-01 4.016113e-01 7.155351e-06 -7.646158e-07 2.854504e-06 -7.969327e-06 8.325806e-01 3.513794e-01
1.621099e+08 9.912720e-01 4.016724e-01 1.668558e-05 -3.363751e-05 1.807325e-05 3.122352e-05 8.302002e-01 3.643799e-01
1.623286e+08 9.912720e-01 4.016724e-01 -4.916266e-05 8.642673e-07 5.867332e-06 -2.265163e-05 8.277588e-01 3.766479e-01
1.625473e+08 9.915771e-01 4.013062e-01 9.255484e-06 3.232807e-05 1.295283e-05 2.038851e-05 8.278198e-01 3.880005e-01
1.627660e+08 9.913330e-01 4.007568e-01 -2.060924e-05 3.637746e-06 -2.738088e-05 2.618320e-05 8.280029e-01 3.988037e-01
1.629848e+08 9.922485e-01 4.012451e-01 -6.400514e-06 7.924624e-06 -1.654029e-06 -4.560873e-05 8.300781e-01 4.079590e-01
1.632035e+08 9.926147e-01 4.005127e-01 2.279878e-06 2.150144e-05 6.018206e-06 -2.935342e-05 8.315430e-01 4.146118e-01
1.634222e+08 9.926758e-01 4.001465e-01 5.096197e-06 1.394749e-05 7.599592e-07 -3.348663e-05 8.314209e-01 4.182129e-01
1.636410e+08 9.932251e-01 3.997192e-01 4.144385e-06 -2.940930e-05 2.859905e-05 3.952160e-05 8.293457e-01 4.185181e-01
1.638597e+08 9.935913e-01 3.989258e-01 1.160987e-05 2.095476e-07 1.370162e-05 -1.311302e-05 8.244629e-01 4.192505e-01
1.640784e+08 9.927368e-01 3.992310e-01 6.403774e-06 -7.925089e-06 -1.626369e-05 7.672235e-06 8.170776e-01 4.202271e-01
1.642972e+08 9.931030e-01 3.986816e-01 4.770234e-06 -1.646113e-05 -2.561137e-06 -5.419832e-06 8.049316e-01 4.224854e-01
1.645159e+08 9.941406e-01 3.992310e-01 -1.455192e-05 1.314934e-05 7.987954e-06 2.866611e-06 7.917480e-01 4.275513e-01
1.647346e+08 9.940186e-01 3.989258e-01 -1.216680e-05 -1.899060e-05 4.086271e-05 -2.591684e-05 7.778931e-01 4.363403e-01
1.649534e+08 9.941406e-01 3.986816e-01 -1.338497e-05 -5.076453e-05 3.497116e-05 -3.224239e-06 7.642822e-01 4.489136e-01
1.651721e+08 9.945679e-01 3.978882e-01 -2.921186e-05 -1.574494e-05 1.507625e-05 4.598498e-05 7.507935e-01 4.641724e-01
1.653908e+08 9.948120e-01 3.974609e-01 3.021210e-05 1.127459e-05 2.456643e-05 -1.824275e-05 7.410278e-01 4.818726e-01
1.656096e+08 9.943237e-01 3.970947e-01 3.388524e-05 5.105510e-06 -1.341570e-05 -3.036112e-07 7.352905e-01 5.003052e-01
1.658283e+08 9.945679e-01 3.960571e-01 -1.869164e-05 4.256703e-05 1.656450e-05 -2.111867e-05 7.315674e-01 5.187988e-01
1.660470e+08 9.942627e-01 3.966675e-01 -2.781115e-05 4.414469e-06 1.341663e-05 3.129244e-07 7.316895e-01 5.360718e-01
1.662658e+08 9.945679e-01 3.960571e-01 -8.152332e-06 5.211215e-06 -5.275477e-06 -4.149973e-06 7.335205e-01 5.515747e-01
1.664845e+08 9.948120e-01 3.955078e-01 4.769303e-06 -1.645926e-05 -1.131371e-05 2.525747e-05 7.367554e-01 5.654907e-01
1.667032e+08 9.951782e-01 3.958740e-01 1.685880e-05 8.360483e-06 4.619360e-05 -2.175197e-05 7.395020e-01 5.761108e-01
1.669219e+08 9.953613e-01 3.952637e-01 -1.837499e-05 2.514757e-05 2.671219e-05 7.320195e-06 7.429199e-01 5.850830e-01
1.671407e+08 9.955444e-01 3.960571e-01 4.143268e-05 -1.309067e-05 2.478994e-05 -2.496317e-05 7.427368e-01 5.908813e-01
1.673594e+08 9.951782e-01 3.949585e-01 4.638731e-05 -4.120171e-05 -3.328547e-06 2.815202e-05 7.434692e-01 5.983276e-01
1.675781e+08 9.956055e-01 3.940430e-01 -3.421865e-05 -3.554858e-05 -1.601409e-05 -5.737878e-06 7.418823e-01 6.036987e-01
1.677969e+08 9.953003e-01 3.941040e-01 -1.434796e-05 1.522712e-06 4.662201e-06 3.104098e-05 7.410278e-01 6.098022e-01
1.680156e+08 9.954834e-01 3.939819e-01 -1.066923e-05 4.321337e-05 -7.234514e-06 -3.647991e-05 7.391357e-01 6.161499e-01
1.682343e+08 9.945068e-01 3.933716e-01 1.836941e-05 2.273545e-05 -2.112240e-05 -1.661293e-05 7.363281e-01 6.215820e-01
1.684531e+08 9.951782e-01 3.924561e-01 -1.794007e-05 1.895241e-06 3.868341e-05 -4.483014e-05 7.312622e-01 6.272583e-01
1.686718e+08 9.954834e-01 3.929443e-01 3.491528e-05 6.314367e-07 -4.803762e-05 -1.728535e-05 7.260132e-01 6.326904e-01
1.688905e+08 9.945068e-01 3.917236e-01 6.851740e-06 1.669582e-05 3.744662e-05 8.933246e-06 7.196045e-01 6.390991e-01
1.691093e+08 9.942627e-01 3.917847e-01 -1.630280e-06 -8.534640e-06 2.143905e-05 3.196299e-06 7.105408e-01 6.465454e-01
1.693280e+08 9.942017e-01 3.906860e-01 3.012642e-05 1.716428e-05 -4.782237e-10 -1.718377e-10 7.019958e-01 6.561279e-01
1.695467e+08 9.940796e-01 3.903198e-01 2.930500e-05 -3.216229e-05 -4.276261e-05 -1.308322e-05 6.941223e-01 6.684265e-01
1.697654e+08 9.939575e-01 3.904419e-01 -8.495525e-06 2.268888e-05 3.129244e-07 -1.345202e-05 6.866760e-01 6.830750e-01
1.699842e+08 9.937744e-01 3.903809e-01 7.743016e-06 -2.988242e-05 2.178177e-05 -1.025945e-05 6.798096e-01 6.998291e-01
1.702029e+08 9.940186e-01 3.892212e-01 -1.720246e-05 9.079464e-06 -5.597249e-06 9.296928e-06 6.776123e-01 7.168579e-01
1.704216e+08 9.935303e-01 3.888550e-01 3.962219e-05 -9.974465e-06 -4.818663e-06 -2.433360e-05 6.781006e-01 7.349243e-01
1.706404e+08 9.933472e-01 3.883057e-01 1.002196e-05 -8.316245e-06 5.124137e-05 -4.202127e-06 6.828003e-01 7.495117e-01
1.708591e+08 9.932251e-01 3.881226e-01 -7.424504e-06 1.239032e-05 2.529100e-05 -4.517660e-05 6.900024e-01 7.616577e-01
1.710778e+08 9.930420e-01 3.876953e-01 8.158386e-07 -4.078634e-05 2.868846e-05 3.973022e-05 6.970825e-01 7.693481e-01
1.712966e+08 9.924316e-01 3.885498e-01 3.587455e-05 4.419684e-05 -2.899021e-05 -2.631173e-05 7.034912e-01 7.731934e-01
1.715153e+08 9.925537e-01 3.880615e-01 -5.679205e-06 1.512934e-05 -2.661534e-05 -1.412816e-05 7.072754e-01 7.723999e-01
1.717340e+08 9.920654e-01 3.873901e-01 -2.346933e-07 1.165830e-05 1.041498e-05 1.507532e-05 7.074585e-01 7.691650e-01
1.719528e+08 9.916992e-01 3.866577e-01 3.114343e-06 2.291426e-05 -2.408400e-06 -1.218542e-05 7.026978e-01 7.689819e-01
1.721715e+08 9.912720e-01 3.854980e-01 9.913463e-06 -2.496410e-06 2.405047e-05 8.644536e-06 6.964722e-01 7.677612e-01
1.723902e+08 9.915771e-01 3.853760e-01 -4.175119e-05 2.474338e-05 3.466196e-05 1.699664e-05 6.863403e-01 7.702637e-01
1.726090e+08 9.912720e-01 3.847046e-01 -5.264580e-05 3.172085e-05 9.182841e-06 6.898493e-05 6.752930e-01 7.761841e-01
1.728277e+08 9.899292e-01 3.850098e-01 1.096167e-06 -1.029996e-05 -1.925416e-05 1.571793e-05 6.658325e-01 7.830200e-01
1.730464e+08 9.904785e-01 3.842773e-01 -8.704374e-07 -1.363689e-06 2.728077e-06 -1.284992e-06 6.575317e-01 7.932129e-01
1.732652e+08 9.896851e-01 3.836670e-01 2.085045e-05 -9.444542e-06 2.806634e-05 -4.653260e-05 6.506348e-01 8.033447e-01
1.734839e+08 9.895630e-01 3.837280e-01 2.925843e-05 -2.631918e-05 -1.942553e-05 2.247654e-05 6.464844e-01 8.154907e-01
1.737026e+08 9.894409e-01 3.838501e-01 -1.501292e-05 3.064051e-05 2.359226e-05 2.891757e-05 6.440430e-01 8.235474e-01
1.739213e+08 9.887085e-01 3.834229e-01 1.172721e-05 -4.780293e-05 -6.593764e-07 2.697296e-05 6.415405e-01 8.310547e-01
1.741401e+08 9.885864e-01 3.836670e-01 2.022833e-06 3.327802e-05 1.398847e-05 -1.991540e-05 6.406860e-01 8.373413e-01
1.743588e+08 9.876709e-01 3.840942e-01 -2.274662e-05 -2.964027e-05 -5.636364e-06 9.309966e-06 6.369019e-01 8.450317e-01
1.745775e+08 9.879761e-01 3.826294e-01 -6.329268e-06 -4.011393e-05 4.242361e-05 3.344566e-05 6.343994e-01 8.475342e-01
1.747963e+08 9.862061e-01 3.817139e-01 -2.807379e-05 1.019426e-05 -5.380437e-05 -8.016825e-06 6.307983e-01 8.545532e-01
1.750150e+08 9.863281e-01 3.828125e-01 -1.739943e-06 -2.730871e-06 -2.565794e-06 -5.471520e-06 6.273193e-01 8.545532e-01
1.752337e+08 9.853516e-01 3.820190e-01 -1.689047e-05 -8.437783e-06 1.762807e-05 5.177036e-05 6.258545e-01 8.560181e-01
1.754525e+08 9.861450e-01 3.823853e-01 -2.557412e-05 2.014451e-05 1.966394e-05 -2.928078e-05 6.227417e-01 8.623657e-01
1.756712e+08 9.851074e-01 3.810425e-01 2.858788e-05 8.692965e-06 -2.246350e-06 -1.897477e-05 6.192627e-01 8.621826e-01
1.758899e+08 9.843140e-01 3.800659e-01 -1.988467e-05 4.983507e-06 -1.301244e-05 -2.058409e-05 6.163330e-01 8.654175e-01
1.761087e+08 9.841309e-01 3.800659e-01 6.249174e-07 1.305807e-05 1.110509e-05 -1.189858e-05 6.119385e-01 8.641968e-01
1.763274e+08 9.837036e-01 3.790894e-01 9.940472e-06 -2.488960e-06 -3.232807e-05 -4.833564e-06 6.067505e-01 8.645630e-01
1.765461e+08 9.827881e-01 3.786621e-01 -1.035072e-05 -2.225302e-05 3.780983e-05 2.253801e-06 5.992432e-01 8.621826e-01
1.767648e+08 9.826050e-01 3.793945e-01 -3.206730e-05 -1.415424e-05 -7.718801e-06 -1.642946e-05 5.894775e-01 8.626099e-01
1.769836e+08 9.816895e-01 3.789062e-01 2.313405e-05 1.218729e-05 2.414174e-05 8.704141e-06 5.800171e-01 8.640747e-01
1.772023e+08 9.811401e-01 3.787842e-01 2.511963e-05 3.229827e-06 3.641844e-05 -5.054101e-05 5.711060e-01 8.668213e-01
1.774210e+08 9.800415e-01 3.790283e-01 3.240071e-06 1.716241e-05 -2.465583e-05 1.155213e-05 5.643921e-01 8.721313e-01
1.776398e+08 9.797363e-01 3.782959e-01 2.925470e-05 2.175942e-05 -3.204122e-05 -1.839735e-05 5.584717e-01 8.769531e-01
1.778585e+08 9.794922e-01 3.781128e-01 -6.267801e-07 -1.306180e-05 3.512762e-05 3.563240e-06 5.550537e-01 8.808594e-01
1.780772e+08 9.786377e-01 3.778687e-01 -1.207925e-05 -3.129244e-07 3.331527e-05 -3.394671e-05 5.551147e-01 8.817139e-01
1.782960e+08 9.780273e-01 3.775635e-01 3.541820e-06 -1.336820e-05 1.809932e-05 -1.945905e-05 5.555420e-01 8.803101e-01
1.785147e+08 9.769897e-01 3.770142e-01 2.088305e-05 1.848396e-05 1.669675e-05 3.988668e-05 5.548096e-01 8.748779e-01
1.787334e+08 9.766846e-01 3.769531e-01 -2.402067e-05 -3.351830e-05 1.458684e-06 -2.488028e-06 5.502930e-01 8.665161e-01
1.789522e+08 9.758911e-01 3.769531e-01 4.369300e-06 -2.617016e-07 -1.227390e-05 9.517185e-06 5.439453e-01 8.551636e-01
1.791709e+08 9.752197e-01 3.772583e-01 -5.062670e-06 2.443418e-05 4.679710e-05 -2.270564e-05 5.316772e-01 8.429565e-01
1.793896e+08 9.745483e-01 3.765869e-01 -1.447927e-05 -2.103113e-05 -1.671538e-05 -3.992021e-05 5.167236e-01 8.325195e-01
1.796084e+08 9.748535e-01 3.759155e-01 2.518483e-05 -4.898757e-07 2.455711e-05 -1.907162e-05 4.980469e-01 8.258667e-01
1.798271e+08 9.734497e-01 3.763428e-01 8.214265e-07 1.309533e-05 3.453530e-05 -1.320615e-05 4.785156e-01 8.229980e-01
1.800458e+08 9.728394e-01 3.757935e-01 1.623482e-05 1.433585e-05 -2.224371e-05 3.691763e-06 4.576416e-01 8.216553e-01
1.802646e+08 9.725952e-01 3.762817e-01 1.268834e-05 2.770685e-05 1.351535e-05 6.825849e-05 4.403687e-01 8.247681e-01
1.804833e+08 9.703979e-01 3.752441e-01 1.226552e-06 -1.542363e-05 -4.662201e-06 3.074110e-05 4.234009e-01 8.308105e-01
1.807020e+08 9.699097e-01 3.754883e-01 5.669426e-06 2.935063e-06 2.333894e-06 -1.537334e-05 4.096680e-01 8.358765e-01
1.809207e+08 9.694214e-01 3.757324e-01 -1.692958e-05 9.829178e-06 9.372365e-06 -4.544389e-06 3.964844e-01 8.392334e-01
1.811395e+08 9.691772e-01 3.756104e-01 2.465211e-05 -9.225681e-06 2.872013e-05 -3.241003e-06 3.852539e-01 8.444824e-01
1.813582e+08 9.679565e-01 3.753052e-01 -1.776312e-05 -3.278255e-06 3.135949e-05 1.507066e-05 3.751831e-01 8.474121e-01
1.815769e+08 9.673462e-01 3.754883e-01 2.652779e-05 2.736226e-06 -4.130602e-05 3.607944e-05 3.634644e-01 8.494873e-01
1.817957e+08 9.669800e-01 3.759155e-01 4.683435e-05 -6.206334e-06 2.287701e-05 6.735325e-06 3.527832e-01 8.510742e-01
1.820144e+08 9.663696e-01 3.754272e-01 -1.771469e-05 1.537800e-05 2.061948e-06 7.918105e-06 3.419189e-01 8.538208e-01
1.822331e+08 9.643555e-01 3.752441e-01 3.862754e-05 3.080815e-06 -1.180917e-06 -2.080761e-05 3.305054e-01 8.562622e-01
1.824519e+08 9.640503e-01 3.755493e-01 -2.017245e-05 -2.402253e-05 -3.017485e-07 -3.371388e-05 3.200684e-01 8.593140e-01
1.826706e+08 9.636841e-01 3.754272e-01 1.476519e-05 2.544373e-05 1.876336e-05 -9.107403e-06 3.098755e-01 8.616333e-01
1.828893e+08 9.628906e-01 3.749390e-01 -3.036857e-05 6.295741e-06 4.929677e-05 1.887232e-05 3.020020e-01 8.649902e-01
1.831081e+08 9.621582e-01 3.749390e-01 -9.775162e-06 1.710840e-06 -2.375618e-05 6.180257e-06 2.936401e-01 8.645020e-01
1.833268e+08 9.605103e-01 3.751831e-01 -3.424659e-05 1.529604e-05 2.903864e-05 3.048591e-05 2.855225e-01 8.638306e-01
1.835455e+08 9.606323e-01 3.750610e-01 -1.184642e-06 3.414229e-05 4.487857e-05 -3.070757e-05 2.769775e-01 8.638306e-01
1.837642e+08 9.600220e-01 3.754883e-01 1.108646e-05 -6.882846e-05 -5.867332e-06 9.985641e-06 2.639160e-01 8.601074e-01
1.839830e+08 9.584961e-01 3.745117e-01 -2.088770e-05 1.927838e-07 -7.919502e-06 2.063811e-06 2.508545e-01 8.588867e-01
1.842017e+08 9.577026e-01 3.749390e-01 -1.156423e-05 8.419156e-06 8.800067e-06 -1.497101e-05 2.334595e-01 8.563843e-01
1.844204e+08 9.564819e-01 3.754883e-01 2.239831e-05 -1.128949e-05 -2.083741e-05 1.173466e-06 2.152710e-01 8.577881e-01
1.846392e+08 9.564209e-01 3.750610e-01 -1.396891e-05 -1.232512e-05 4.522875e-05 3.065914e-06 1.965332e-01 8.605957e-01
1.848579e+08 9.554443e-01 3.764038e-01 -2.039876e-05 -9.750947e-06 -3.610924e-05 -4.145131e-05 1.791382e-01 8.681641e-01
1.850766e+08 9.546509e-01 3.756714e-01 1.341663e-05 3.564171e-06 -2.144836e-05 -9.257346e-06 1.621704e-01 8.770142e-01
1.852954e+08 9.534302e-01 3.756104e-01 1.260638e-05 -9.575859e-06 -6.742775e-06 -3.421679e-05 1.470947e-01 8.900146e-01
1.855141e+08 9.531250e-01 3.753052e-01 -1.417659e-05 1.984648e-06 -1.880527e-05 9.112060e-06 1.380005e-01 9.016113e-01
1.857328e+08 9.514771e-01 3.763428e-01 -4.922505e-06 -8.495059e-06 4.412606e-06 -7.492024e-06 1.299438e-01 9.151611e-01
1.859516e+08 9.508667e-01 3.763428e-01 1.379102e-05 -4.378706e-05 2.880767e-05 -3.224239e-06 1.250000e-01 9.248657e-01
1.861703e+08 9.502563e-01 3.761597e-01 -7.424504e-06 2.246909e-05 2.961606e-07 3.381073e-05 1.212158e-01 9.321899e-01
1.863890e+08 9.491577e-01 3.758545e-01 -8.232892e-06 9.322539e-06 1.174212e-05 -1.999550e-05 1.191406e-01 9.387817e-01
1.866078e+08 9.481201e-01 3.765869e-01 -4.304759e-05 1.588464e-05 -1.851097e-05 4.291907e-05 1.140747e-01 9.400024e-01
1.868265e+08 9.476318e-01 3.773193e-01 -3.182516e-05 -1.564622e-05 -5.871058e-06 -4.721060e-05 1.094971e-01 9.416504e-01
1.870452e+08 9.466553e-01 3.771973e-01 -1.460314e-06 2.984330e-05 -8.828007e-06 1.499802e-05 1.022949e-01 9.417725e-01
1.872640e+08 9.454956e-01 3.772583e-01 -5.597249e-06 3.449246e-05 -1.911074e-05 -2.470613e-05 9.118652e-02 9.443970e-01
1.874827e+08 9.448853e-01 3.779907e-01 2.398156e-05 -2.240576e-05 -3.205612e-05 -2.560019e-05 8.062744e-02 9.461060e-01
1.877014e+08 9.440308e-01 3.779907e-01 -2.996251e-05 -3.660098e-06 8.806586e-06 4.221871e-05 7.128906e-02 9.481812e-01
1.879201e+08 9.436646e-01 3.782959e-01 3.454462e-05 -2.968684e-05 1.472607e-05 3.222190e-05 5.987549e-02 9.525146e-01
1.881389e+08 9.425659e-01 3.781738e-01 3.484078e-05 -2.532080e-05 -3.470108e-05 -4.401058e-05 4.901123e-02 9.563599e-01
1.883576e+08 9.419556e-01 3.792725e-01 -3.147870e-06 -1.523830e-05 4.423317e-06 -7.505529e-06 3.820801e-02 9.619751e-01
1.885763e+08 9.404907e-01 3.787842e-01 2.090633e-05 8.919835e-05 3.147870e-05 1.516752e-05 2.770996e-02 9.667358e-01
1.887951e+08 9.396973e-01 3.790894e-01 7.261522e-06 1.058402e-05 -4.419591e-06 7.501803e-06 1.489258e-02 9.718018e-01
1.890138e+08 9.393921e-01 3.793335e-01 1.324527e-05 1.794100e-05 2.031587e-05 -1.162477e-05 2.929688e-03 9.765015e-01
1.892325e+08 9.382935e-01 3.796387e-01 2.274103e-05 -6.914139e-06 -2.001226e-05 -1.179427e-05 -1.019287e-02 9.857178e-01
1.894513e+08 9.375000e-01 3.800049e-01 -6.410293e-06 2.136733e-05 -3.033131e-05 5.731359e-06 -2.154541e-02 9.965820e-01
1.896700e+08 9.363403e-01 3.800049e-01 7.224828e-05 2.638996e-05 -3.587827e-05 -6.493926e-05 -3.302002e-02 1.009827e+00
1.898887e+08 9.355469e-01 3.807983e-01 5.153939e-06 -5.833339e-06 2.266839e-05 3.020279e-05 -3.948975e-02 1.023987e+00
1.901075e+08 9.343872e-01 3.806763e-01 1.907349e-05 -3.094971e-05 -2.415664e-05 2.958626e-05 -4.345703e-02 1.038147e+00
1.903262e+08 9.342041e-01 3.806763e-01 1.399126e-05 1.238473e-05 -2.385862e-05 6.187707e-06 -4.296875e-02 1.053650e+00
1.905449e+08 9.332275e-01 3.815918e-01 -2.275780e-05 6.919727e-06 -2.681836e-05 1.118146e-05 -3.723145e-02 1.065430e+00
1.907636e+08 9.324951e-01 3.815308e-01 -2.312101e-05 -3.502518e-05 2.562627e-05 2.520159e-05 -3.015137e-02 1.070618e+00
1.909824e+08 9.309692e-01 3.824463e-01 3.574975e-05 6.644055e-06 8.850358e-06 -1.502316e-05 -2.209473e-02 1.074890e+00
1.912011e+08 9.299927e-01 3.828125e-01 -2.529472e-06 3.107637e-05 -1.237914e-05 9.573996e-06 -1.617432e-02 1.069641e+00
1.914198e+08 9.296265e-01 3.831177e-01 -1.369044e-05 1.077354e-05 3.478304e-05 -1.324713e-05 -1.184082e-02 1.060608e+00
1.916386e+08 9.293213e-01 3.831787e-01 5.745515e-05 -1.790747e-05 2.034567e-05 -1.165643e-05 -1.287842e-02 1.053467e+00
1.918573e+08 9.276733e-01 3.839722e-01 -4.356913e-05 -2.604537e-05 1.327135e-05 -2.254546e-05 -1.971436e-02 1.041687e+00
1.920760e+08 9.264526e-01 3.847046e-01 1.529232e-06 -1.114141e-05 1.560058e-05 1.932587e-05 -2.935791e-02 1.032593e+00
1.922948e+08 9.265747e-01 3.848267e-01 1.320429e-05 -8.102506e-07 7.380731e-06 -1.253188e-05 -4.205322e-02 1.026001e+00
1.925135e+08 9.248657e-01 3.859253e-01 -1.245085e-05 -4.766509e-06 4.300848e-05 1.864135e-05 -5.596924e-02 1.022644e+00
1.927322e+08 9.241943e-01 3.859253e-01 -2.270937e-05 4.449487e-05 -6.236136e-06 3.345497e-05 -6.884766e-02 1.023132e+00
1.929510e+08 9.236450e-01 3.860474e-01 2.250820e-05 -1.132302e-05 -5.012378e-05 -2.953038e-05 -8.148193e-02 1.025269e+00
1.931697e+08 9.221191e-01 3.864136e-01 -3.270805e-05 -1.016259e-05 -4.769862e-05 -4.499778e-05 -9.216309e-02 1.023132e+00
1.933884e+08 9.220581e-01 3.883667e-01 -3.186800e-05 2.182648e-05 1.814216e-06 -2.596341e-05 -1.032104e-01 1.027893e+00
1.936072e+08 9.207764e-01 3.880615e-01 -3.034435e-05 -8.117408e-06 3.981218e-05 -1.029298e-05 -1.091919e-01 1.027405e+00
1.938259e+08 9.201050e-01 3.887939e-01 -8.134171e-06 -4.266389e-05 -4.960224e-05 3.829598e-05 -1.181030e-01 1.026245e+00
1.940446e+08 9.193726e-01 3.888550e-01 2.227537e-05 -1.574866e-05 2.479739e-05 -1.915917e-05 -1.287842e-01 1.026550e+00
1.942634e+08 9.182739e-01 3.900146e-01 -2.360530e-05 1.250766e-05 1.946837e-05 1.355074e-06 -1.358032e-01 1.024658e+00
1.944821e+08 9.178467e-01 3.905029e-01 3.294833e-05 -4.217029e-06 -2.744794e-05 7.040799e-07 -1.461792e-01 1.023499e+00
1.947008e+08 9.171143e-01 3.906250e-01 1.376774e-05 8.005649e-06 1.473352e-05 3.232621e-05 -1.535645e-01 1.024780e+00
1.949195e+08 9.165649e-01 3.917236e-01 3.866106e-05 -1.227483e-06 1.980551e-05 -2.212450e-05 -1.626587e-01 1.025085e+00
1.951383e+08 9.154053e-01 3.922119e-01 -1.792237e-05 -3.339723e-06 4.076958e-05 -2.326444e-05 -1.691895e-01 1.025269e+00
1.953570e+08 9.144897e-01 3.923950e-01 -4.435889e-06 -1.855567e-05 1.035072e-05 -1.754891e-05 -1.738281e-01 1.024475e+00
1.955757e+08 9.133911e-01 3.927002e-01 -5.005673e-05 1.410022e-05 -2.390705e-05 6.167218e-06 -1.795044e-01 1.023560e+00
1.957945e+08 9.130249e-01 3.942261e-01 1.452491e-05 2.442859e-06 1.084059e-05 5.035847e-05 -1.844482e-01 1.018372e+00
1.960132e+08 9.121094e-01 3.938599e-01 2.337387e-06 2.074172e-06 1.677871e-05 4.030392e-05 -1.902466e-01 1.012939e+00
1.962319e+08 9.111328e-01 3.943481e-01 6.482471e-06 -2.603978e-06 3.009290e-05 1.775846e-05 -1.974487e-01 1.005920e+00
1.964507e+08 9.097900e-01 3.946533e-01 -1.353398e-05 -2.242997e-05 -6.230548e-06 3.348663e-05 -2.061157e-01 9.983521e-01
1.966694e+08 9.097900e-01 3.966675e-01 1.905113e-05 5.858764e-05 -2.303347e-05 -6.839633e-06 -2.159424e-01 9.908447e-01
1.968881e+08 9.083862e-01 3.964233e-01 6.390736e-05 1.272932e-05 8.206815e-06 3.189780e-05 -2.301636e-01 9.877319e-01
1.971069e+08 9.075928e-01 3.967896e-01 1.585111e-05 5.676411e-06 -9.043142e-07 1.298543e-05 -2.443848e-01 9.849854e-01
1.973256e+08 9.072266e-01 3.977051e-01 1.570210e-05 -5.079061e-05 -1.537986e-05 1.459755e-05 -2.566528e-01 9.847412e-01
1.975443e+08 9.062500e-01 3.980103e-01 4.650094e-06 -1.468975e-05 -2.598576e-05 -1.806766e-06 -2.633057e-01 9.866333e-01
1.977630e+08 9.058228e-01 3.995972e-01 1.943856e-05 -2.669729e-05 2.565607e-05 2.530962e-05 -2.723389e-01 9.880371e-01
1.979818e+08 9.048462e-01 3.998413e-01 -2.877787e-06 -1.090858e-05 -4.138425e-05 1.277775e-05 -2.755127e-01 9.880981e-01
1.982005e+08 9.048462e-01 4.004517e-01 -2.682209e-07 -4.417961e-06 -7.743016e-06 3.605336e-05 -2.753906e-01 9.871216e-01
1.984192e+08 9.039307e-01 4.014282e-01 2.340996e-06 2.074521e-06 1.186505e-05 -2.008118e-05 -2.762451e-01 9.814453e-01
1.986380e+08 9.030151e-01 4.022827e-01 -5.746260e-06 -2.183765e-05 -1.632608e-05 2.759509e-05 -2.773438e-01 9.732056e-01
1.988567e+08 9.031982e-01 4.027710e-01 -1.794565e-05 -3.350899e-06 -2.899580e-05 3.186986e-06 -2.803345e-01 9.607544e-01
1.990754e+08 9.018555e-01 4.033203e-01 8.310657e-06 -9.371433e-06 -4.682690e-06 -2.644397e-05 -2.845459e-01 9.487305e-01
1.992942e+08 9.010010e-01 4.036255e-01 -6.743707e-06 1.705065e-05 8.884817e-06 -1.505110e-05 -2.935791e-01 9.354248e-01
1.995129e+08 9.000854e-01 4.047241e-01 -1.087785e-06 -3.655814e-05 1.014397e-05 -5.153194e-05 -3.039551e-01 9.224854e-01
1.997316e+08 8.988647e-01 4.057007e-01 1.198240e-05 3.366359e-05 -9.112991e-06 -1.892075e-05 -3.168335e-01 9.136963e-01
1.999504e+08 8.982544e-01 4.065552e-01 -4.824251e-07 2.889708e-05 -7.060356e-06 -1.094863e-05 -3.270264e-01 9.060669e-01
2.001691e+08 8.982544e-01 4.069214e-01 -1.794007e-05 1.549441e-05 -5.725026e-05 -4.062057e-05 -3.400269e-01 8.976440e-01
2.003878e+08 8.973999e-01 4.078979e-01 2.607238e-06 6.509479e-06 -2.487935e-05 1.914799e-05 -3.513184e-01 8.912354e-01
2.006066e+08 8.970337e-01 4.088745e-01 -3.110617e-06 2.238713e-05 -1.116470e-05 -2.693757e-05 -3.632812e-01 8.843994e-01
2.008253e+08 8.964844e-01 4.089355e-01 2.133194e-05 -1.459476e-05 1.152139e-05 3.421679e-06 -3.709717e-01 8.787842e-01
2.010440e+08 8.954468e-01 4.094238e-01 -4.135258e-05 1.357310e-05 -9.683892e-06 -2.942793e-05 -3.803711e-01 8.731079e-01
2.012628e+08 8.942871e-01 4.104004e-01 3.802963e-05 2.327561e-05 -2.210401e-05 -1.985952e-05 -3.901978e-01 8.641357e-01
2.014815e+08 8.947754e-01 4.111328e-01 -3.259070e-05 -4.358217e-05 -1.061149e-05 -1.643226e-05 -3.992310e-01 8.574219e-01
2.017002e+08 8.935547e-01 4.123535e-01 -8.585397e-06 4.953239e-06 1.224130e-05 -4.359335e-05 -4.093628e-01 8.526611e-01
2.019189e+08 8.929443e-01 4.125977e-01 -6.237999e-06 2.590753e-05 -1.038611e-05 1.756940e-05 -4.194946e-01 8.482056e-01
2.021377e+08 8.921509e-01 4.139404e-01 -5.992129e-06 -2.629682e-05 -1.851469e-06 2.602488e-05 -4.281616e-01 8.434448e-01
2.023564e+08 8.925781e-01 4.143677e-01 -7.530674e-06 2.266653e-05 -3.531016e-05 3.677234e-05 -4.353638e-01 8.401489e-01
2.025751e+08 8.909912e-01 4.149780e-01 -3.280677e-05 8.635223e-06 1.393259e-05 -1.209229e-05 -4.408569e-01 8.344727e-01
2.027939e+08 8.908081e-01 4.157715e-01 1.509394e-05 -7.561408e-06 1.655426e-05 6.393529e-06 -4.451294e-01 8.307495e-01
2.030126e+08 8.903198e-01 4.166260e-01 -1.646578e-05 -3.347732e-05 -5.300716e-05 9.339303e-06 -4.484863e-01 8.223267e-01
2.032313e+08 8.900757e-01 4.176636e-01 -2.740137e-05 -3.059953e-05 5.060807e-05 6.195158e-06 -4.531250e-01 8.132324e-01
2.034501e+08 8.890381e-01 4.187622e-01 2.918951e-05 4.921108e-06 -5.226582e-06 -3.701635e-05 -4.577026e-01 8.018799e-01
2.036688e+08 8.884277e-01 4.195557e-01 -4.013255e-05 1.686998e-05 -7.162616e-05 -5.081296e-06 -4.635010e-01 7.886353e-01
2.038875e+08 8.882446e-01 4.204712e-01 1.667812e-05 -1.877826e-05 -6.514601e-06 -4.656613e-07 -4.728394e-01 7.758179e-01
2.041063e+08 8.878784e-01 4.212646e-01 2.296083e-05 1.197495e-05 -6.516464e-06 -4.679896e-07 -4.852295e-01 7.631836e-01
2.043250e+08 8.872070e-01 4.210815e-01 -2.920814e-05 1.397170e-05 -2.049841e-06 -8.000992e-06 -4.990845e-01 7.531738e-01
2.045437e+08 8.862305e-01 4.223022e-01 1.461245e-05 2.459623e-06 5.954877e-06 -1.004804e-05 -5.129395e-01 7.456665e-01
2.047624e+08 8.866577e-01 4.227295e-01 -3.445148e-05 -3.691576e-05 -3.108941e-05 -4.809350e-06 -5.255127e-01 7.404785e-01
2.049812e+08 8.866577e-01 4.240112e-01 4.443340e-06 1.864973e-05 -3.177673e-06 -2.906285e-05 -5.379028e-01 7.359619e-01
2.051999e+08 8.856201e-01 4.258423e-01 3.001653e-05 -6.780028e-07 -1.304131e-05 -9.350479e-07 -5.489502e-01 7.338257e-01
2.054186e+08 8.845215e-01 4.259033e-01 -1.122244e-05 1.736451e-05 -4.654750e-06 -2.652779e-05 -5.552368e-01 7.313843e-01
2.056374e+08 8.842163e-01 4.269409e-01 1.333840e-05 3.705546e-05 -1.730770e-05 -5.102158e-05 -5.623169e-01 7.271118e-01
2.058561e+08 8.836060e-01 4.273682e-01 1.408160e-05 -2.533384e-05 1.898687e-05 -9.127893e-06 -5.661011e-01 7.200928e-01
2.060748e+08 8.826904e-01 4.280396e-01 7.817522e-06 -1.826882e-05 -2.847239e-05 1.368113e-05 -5.703735e-01 7.128296e-01
2.062936e+08 8.821411e-01 4.298096e-01 -2.767146e-05 2.736226e-06 -4.783658e-10 1.219291e-10 -5.774536e-01 7.027588e-01
2.065123e+08 8.823853e-01 4.297485e-01 -8.351635e-06 -9.529758e-06 5.457550e-05 -1.182035e-05 -5.857544e-01 6.931763e-01
2.067310e+08 8.817749e-01 4.300537e-01 3.444776e-05 -9.126961e-07 5.953014e-06 -1.005735e-05 -5.950317e-01 6.820068e-01
2.069498e+08 8.803101e-01 4.315796e-01 -6.795395e-06 -1.828652e-06 2.364255e-05 1.741201e-05 -6.064453e-01 6.724548e-01
2.071685e+08 8.801270e-01 4.318848e-01 -3.709085e-05 -5.617738e-06 1.340546e-05 -2.262928e-05 -6.195984e-01 6.632080e-01
2.073872e+08 8.804321e-01 4.329834e-01 2.978183e-05 -5.114824e-06 1.751911e-05 -6.615184e-06 -6.325378e-01 6.566467e-01
2.076060e+08 8.796997e-01 4.344482e-01 -1.568347e-05 1.763552e-05 5.973503e-06 -1.006015e-05 -6.466980e-01 6.504211e-01
2.078247e+08 8.796997e-01 4.344482e-01 1.045130e-05 -3.070757e-05 1.061801e-05 1.649372e-05 -6.594238e-01 6.466370e-01
2.080434e+08 8.788452e-01 4.350586e-01 -1.201499e-05 4.046597e-06 8.758157e-06 4.257262e-05 -6.720276e-01 6.416931e-01
2.082622e+08 8.783569e-01 4.362183e-01 -5.170703e-05 -8.087605e-06 -2.012029e-05 -1.193397e-05 -6.842651e-01 6.372986e-01
2.084809e+08 8.776245e-01 4.378052e-01 -6.193295e-05 2.706796e-05 -4.499033e-05 4.130229e-05 -6.957092e-01 6.328735e-01
2.086996e+08 8.767700e-01 4.374390e-01 1.910515e-05 4.011579e-05 1.154281e-05 3.453344e-06 -7.091980e-01 6.307373e-01
2.089183e+08 8.768921e-01 4.383545e-01 -6.014947e-06 -7.448718e-06 5.967915e-06 -1.005735e-05 -7.219849e-01 6.273193e-01
2.091371e+08 8.770142e-01 4.397583e-01 -1.727790e-05 2.887845e-05 4.528463e-05 2.688915e-05 -7.360840e-01 6.271362e-01
2.093558e+08 8.765869e-01 4.398804e-01 2.142787e-05 4.316680e-06 -5.578622e-07 -1.053233e-05 -7.476807e-01 6.287842e-01
2.095745e+08 8.765869e-01 4.418335e-01 1.647882e-05 1.464505e-05 -5.727261e-05 -6.794930e-06 -7.606812e-01 6.322632e-01
2.097933e+08 8.759766e-01 4.415283e-01 5.489215e-06 1.752842e-05 1.376867e-05 4.559010e-05 -7.670898e-01 6.366577e-01
2.100120e+08 8.754272e-01 4.428101e-01 3.583170e-05 -1.661107e-05 -2.869219e-05 -2.044439e-05 -7.727051e-01 6.411743e-01
2.102307e+08 8.751831e-01 4.430542e-01 6.336719e-05 -4.865229e-06 4.097819e-06 1.603644e-05 -7.754517e-01 6.445312e-01
2.104495e+08 8.748779e-01 4.443359e-01 -5.074590e-05 -9.335577e-06 -1.454912e-05 1.573004e-06 -7.748413e-01 6.459961e-01
2.106682e+08 8.748779e-01 4.454956e-01 7.301569e-06 2.970546e-05 5.494803e-07 1.054164e-05 -7.727661e-01 6.435547e-01
2.108869e+08 8.744507e-01 4.468384e-01 -2.984889e-05 2.406538e-05 -4.488043e-06 7.550232e-06 -7.706299e-01 6.367188e-01
2.111057e+08 8.746948e-01 4.472046e-01 1.022406e-05 -3.520213e-05 5.746260e-05 4.091486e-05 -7.717896e-01 6.271362e-01
2.113244e+08 8.735352e-01 4.481812e-01 2.147909e-05 4.328787e-06 -1.415424e-05 -2.203695e-05 -7.774048e-01 6.168213e-01
2.115431e+08 8.740234e-01 4.496460e-01 7.851981e-06 6.579794e-07 2.996996e-06 -5.037058e-06 -7.858276e-01 6.052246e-01
2.117618e+08 8.732300e-01 4.492188e-01 -1.177285e-05 -1.048297e-05 -3.335997e-05 -4.706159e-05 -7.956543e-01 5.958862e-01
2.119806e+08 8.732300e-01 4.501953e-01 2.067257e-05 9.954907e-06 9.665266e-06 2.960302e-05 -8.086548e-01 5.885010e-01
2.121993e+08 8.718262e-01 4.514771e-01 -1.231115e-05 -4.041940e-07 -4.164875e-05 1.269951e-05 -8.204346e-01 5.842285e-01
2.124180e+08 8.726196e-01 4.515991e-01 -4.453585e-06 2.603047e-07 4.645437e-06 2.661534e-05 -8.351440e-01 5.819702e-01
2.126368e+08 8.710938e-01 4.518433e-01 2.487563e-05 2.423860e-05 -1.452863e-07 -3.413670e-05 -8.459473e-01 5.833740e-01
2.128555e+08 8.722534e-01 4.531860e-01 7.324386e-06 1.074141e-05 -1.662597e-05 -6.454065e-06 -8.558350e-01 5.836792e-01
2.130742e+08 8.715210e-01 4.544067e-01 -1.624227e-05 8.763745e-06 -4.331768e-05 -1.894310e-05 -8.627930e-01 5.860596e-01
2.132930e+08 8.717041e-01 4.555054e-01 7.874332e-06 -1.832843e-05 1.825392e-05 3.816746e-05 -8.690796e-01 5.878906e-01
2.135117e+08 8.708496e-01 4.553223e-01 -1.154374e-05 1.296867e-05 -9.462237e-07 1.307391e-05 -8.726196e-01 5.902100e-01
2.137304e+08 8.706055e-01 4.563599e-01 1.911260e-05 2.124719e-05 8.576084e-06 8.512288e-06 -8.770142e-01 5.918579e-01
2.139492e+08 8.706055e-01 4.571533e-01 3.013574e-05 1.838617e-05 -1.457799e-05 1.567416e-06 -8.792725e-01 5.931396e-01
2.141679e+08 8.701782e-01 4.573364e-01 3.775954e-05 1.458824e-05 1.402106e-05 -1.212209e-05 -8.795166e-01 5.946655e-01
2.143866e+08 8.707886e-01 4.588013e-01 -1.206808e-05 2.307817e-05 -5.995855e-06 1.009181e-05 -8.814087e-01 5.967407e-01
2.146054e+08 8.704224e-01 4.597168e-01 9.185635e-06 3.939494e-06 1.159217e-05 3.475696e-06 -8.773804e-01 5.979004e-01
2.148241e+08 8.702393e-01 4.595947e-01 2.255104e-05 2.216361e-05 3.910437e-05 -3.136881e-05 -8.732910e-01 5.977173e-01
2.150428e+08 8.698730e-01 4.609375e-01 3.683381e-06 -1.363270e-05 1.049042e-05 -1.766253e-05 -8.665161e-01 5.938721e-01
2.152616e+08 8.695679e-01 4.605103e-01 -1.388416e-05 -2.717786e-05 3.176928e-05 1.543202e-05 -8.581543e-01 5.885010e-01
2.154803e+08 8.693848e-01 4.620361e-01 2.100505e-05 -4.596077e-06 2.222136e-05 2.004579e-05 -8.494873e-01 5.781860e-01
2.156990e+08 8.695679e-01 4.635620e-01 -1.601037e-05 1.323689e-05 1.771376e-05 2.763979e-05 -8.436279e-01 5.637817e-01
2.159177e+08 8.696289e-01 4.632568e-01 1.887046e-05 3.583916e-05 5.451962e-06 -2.067722e-05 -8.405151e-01 5.472412e-01
2.161365e+08 8.696289e-01 4.644165e-01 -8.383300e-06 -9.579118e-06 -1.310278e-05 -9.564683e-07 -8.407593e-01 5.294800e-01
2.163552e+08 8.686523e-01 4.659424e-01 -3.410736e-06 -9.227078e-07 5.373731e-07 1.057331e-05 -8.459473e-01 5.105591e-01
2.165739e+08 8.688354e-01 4.664917e-01 -1.967698e-05 -1.118984e-05 -5.420297e-07 -1.057982e-05 -8.542480e-01 4.954834e-01
2.167927e+08 8.688354e-01 4.674072e-01 -2.940185e-05 -5.031005e-06 -2.212636e-05 1.418404e-05 -8.651123e-01 4.822998e-01
2.170114e+08 8.684082e-01 4.677734e-01 -3.802963e-05 -3.815815e-05 -3.434718e-06 2.873130e-05 -8.772583e-01 4.745483e-01
2.172301e+08 8.689575e-01 4.680176e-01 2.311356e-05 -6.930903e-06 -2.513267e-05 1.925230e-05 -8.873291e-01 4.680786e-01
2.174489e+08 8.677368e-01 4.684448e-01 1.633167e-05 -2.783537e-05 4.503410e-06 -7.575378e-06 -8.957520e-01 4.666138e-01
2.176676e+08 8.683472e-01 4.696655e-01 -1.733098e-05 -9.085052e-06 -5.429611e-07 -1.059007e-05 -9.016113e-01 4.665527e-01
2.178863e+08 8.677368e-01 4.702759e-01 2.651475e-06 -1.248904e-05 2.309307e-05 -2.731197e-05 -9.047241e-01 4.649048e-01
2.181051e+08 8.673096e-01 4.714966e-01 -2.618413e-06 -6.576069e-06 -9.695068e-07 1.311395e-05 -9.017334e-01 4.620361e-01
2.183238e+08 8.675537e-01 4.716797e-01 -8.256361e-05 -1.204014e-05 1.407787e-05 -1.215003e-05 -9.002686e-01 4.591675e-01
2.185425e+08 8.673096e-01 4.718018e-01 -3.024191e-05 6.183982e-07 6.139278e-06 2.417900e-05 -8.956909e-01 4.523926e-01
2.187612e+08 8.676147e-01 4.729614e-01 -1.628418e-05 -1.028925e-05 1.408532e-05 -1.216773e-05 -8.940430e-01 4.412231e-01
2.189800e+08 8.675537e-01 4.739380e-01 1.626462e-05 2.936833e-05 1.505483e-06 -2.529472e-06 -8.919067e-01 4.342651e-01
2.191987e+08 8.669434e-01 4.736328e-01 -9.240583e-06 1.511630e-05 9.150244e-06 1.913216e-05 -8.919678e-01 4.241333e-01
2.194174e+08 8.677368e-01 4.751587e-01 6.561168e-06 1.644902e-05 -4.038215e-05 1.022592e-05 -8.914185e-01 4.146729e-01
2.196362e+08 8.678589e-01 4.748535e-01 -1.028180e-06 -1.789629e-05 -2.639927e-05 -3.626011e-05 -8.909912e-01 4.040527e-01
2.198549e+08 8.677368e-01 4.760742e-01 -8.433592e-06 9.463169e-06 -2.981536e-05 -7.480383e-06 -8.905640e-01 3.941040e-01
2.200736e+08 8.674927e-01 4.766846e-01 1.213513e-05 -2.314337e-05 -4.952773e-06 3.132597e-05 -8.900146e-01 3.835449e-01
2.202924e+08 8.670654e-01 4.771729e-01 1.132116e-05 1.597218e-06 -3.013294e-06 5.059410e-06 -8.881836e-01 3.734131e-01
2.205111e+08 8.668213e-01 4.776001e-01 3.764406e-05 -8.895993e-06 1.614355e-05 -4.089437e-06 -8.875732e-01 3.604736e-01
2.207298e+08 8.671265e-01 4.782715e-01 4.692003e-06 2.329610e-05 1.301989e-05 -3.338419e-05 -8.867188e-01 3.471069e-01
2.209486e+08 8.665771e-01 4.785767e-01 1.364388e-05 2.280064e-05 -1.657754e-05 2.781861e-05 -8.882446e-01 3.309326e-01
2.211673e+08 8.669434e-01 4.794312e-01 -1.289230e-05 -9.374693e-06 -3.392622e-05 -2.363883e-05 -8.910522e-01 3.179932e-01
2.213860e+08 8.663940e-01 4.796143e-01 3.212318e-05 -7.439405e-06 -3.639422e-05 -7.964671e-06 -8.969727e-01 3.052368e-01
2.216048e+08 8.668823e-01 4.803467e-01 2.542511e-07 4.479429e-06 1.410581e-05 -1.217797e-05 -9.022827e-01 2.933350e-01
2.218235e+08 8.673706e-01 4.810791e-01 3.997236e-06 -2.830289e-05 -8.743256e-06 -4.296377e-05 -9.092407e-01 2.852783e-01
2.220422e+08 8.664551e-01 4.821777e-01 -9.667128e-06 -3.200024e-05 2.059340e-05 -4.607439e-05 -9.172363e-01 2.781982e-01
2.222610e+08 8.670044e-01 4.824829e-01 7.646158e-07 1.344271e-05 -6.932393e-05 -1.038238e-05 -9.182129e-01 2.744141e-01
2.224797e+08 8.670654e-01 4.832153e-01 -5.934760e-05 4.492700e-06 1.768954e-05 -6.631017e-06 -9.210815e-01 2.711182e-01
2.226984e+08 8.665161e-01 4.838257e-01 -2.212264e-05 -1.335517e-05 -2.524815e-05 1.931190e-05 -9.205933e-01 2.661743e-01
2.229171e+08 8.663330e-01 4.837646e-01 3.849715e-05 4.587695e-06 2.933480e-05 -3.140420e-06 -9.166260e-01 2.606812e-01
2.231359e+08 8.660889e-01 4.850464e-01 3.378838e-05 -3.789365e-05 1.716428e-05 -1.725927e-05 -9.130859e-01 2.531128e-01
2.233546e+08 8.661499e-01 4.846802e-01 3.030337e-05 1.853518e-05 5.114451e-05 6.437302e-06 -9.097900e-01 2.440186e-01
2.235733e+08 8.660278e-01 4.866333e-01 2.845190e-05 2.538040e-05 4.306808e-05 8.538365e-06 -9.072876e-01 2.315674e-01
2.237921e+08 8.660889e-01 4.855957e-01 -8.326024e-06 -4.791096e-05 4.652515e-05 -2.038479e-05 -9.075317e-01 2.198486e-01
2.240108e+08 8.653564e-01 4.855957e-01 1.160242e-05 6.096438e-06 -5.067326e-06 -3.023073e-06 -9.079590e-01 2.086182e-01
2.242295e+08 8.664551e-01 4.872437e-01 -1.024455e-07 3.825687e-05 4.011206e-06 -1.825672e-05 -9.097900e-01 1.978149e-01
2.244483e+08 8.661499e-01 4.871216e-01 1.511723e-05 -3.122911e-05 4.148483e-05 -2.342090e-05 -9.113159e-01 1.882935e-01
2.246670e+08 8.657837e-01 4.874878e-01 2.222508e-05 -2.489239e-05 -1.177192e-05 -3.796071e-05 -9.125366e-01 1.817017e-01
2.248857e+08 8.662109e-01 4.878540e-01 -9.776559e-06 6.178394e-06 -9.713694e-07 1.318380e-05 -9.107056e-01 1.740112e-01
2.251045e+08 8.659668e-01 4.881592e-01 -4.729629e-05 1.957640e-05 -3.955141e-05 -2.920628e-06 -9.075928e-01 1.668091e-01
2.253232e+08 8.656006e-01 4.895630e-01 -1.583621e-05 -1.343898e-06 -1.914799e-06 6.085262e-05 -9.041748e-01 1.572266e-01
2.255419e+08 8.654175e-01 4.887085e-01 -1.580082e-05 -2.049282e-05 2.482906e-06 -1.572073e-05 -8.986206e-01 1.465454e-01
2.257606e+08 8.659058e-01 4.893799e-01 1.610629e-05 5.844049e-06 -3.569294e-06 -5.568843e-06 -8.953857e-01 1.339722e-01
2.259794e+08 8.653564e-01 4.907837e-01 -9.739771e-06 -1.297332e-05 -1.319684e-05 -9.872019e-07 -8.916016e-01 1.197510e-01
2.261981e+08 8.664551e-01 4.911499e-01 1.571607e-06 7.799827e-06 -1.374539e-05 -1.164712e-05 -8.910522e-01 1.051025e-01
2.264168e+08 8.654785e-01 4.908447e-01 6.613322e-06 -2.626795e-06 -2.345815e-05 -4.155189e-05 -8.912964e-01 9.027100e-02
2.266356e+08 8.649902e-01 4.912109e-01 2.395734e-05 2.565049e-05 2.085976e-05 2.278946e-05 -8.928833e-01 7.629395e-02
2.268543e+08 8.659058e-01 4.912109e-01 1.691282e-06 -4.965439e-05 2.132542e-05 -1.080334e-06 -8.946533e-01 6.390381e-02
2.270730e+08 8.656006e-01 4.917603e-01 1.467019e-05 4.089437e-05 -1.078472e-06 -2.132729e-05 -8.966675e-01 5.279541e-02
2.272918e+08 8.651123e-01 4.920654e-01 -1.186412e-05 -1.059007e-05 -1.882017e-05 -1.468416e-05 -8.966064e-01 4.058838e-02
2.275105e+08 8.657227e-01 4.926758e-01 3.437046e-06 9.341165e-07 -1.367368e-05 2.290495e-05 -8.974609e-01 2.941895e-02
2.277292e+08 8.651733e-01 4.932861e-01 -3.511831e-05 -2.280250e-05 3.660843e-05 8.057803e-06 -8.947754e-01 1.721191e-02
2.279480e+08 8.648071e-01 4.938354e-01 -1.872890e-06 6.874092e-06 9.121373e-06 -1.526810e-05 -8.951416e-01 3.479004e-03
2.281667e+08 8.646851e-01 4.937744e-01 -2.022833e-06 -3.599562e-05 1.313165e-05 -3.358722e-05 -8.946533e-01 -1.202393e-02
2.283854e+08 8.645020e-01 4.937134e-01 -1.399871e-05 -8.249655e-06 -3.769435e-05 -2.937764e-05 -8.959961e-01 -2.874756e-02
2.286042e+08 8.641357e-01 4.946289e-01 -1.021847e-05 -4.118122e-05 -3.258511e-05 -2.638623e-05 -9.001465e-01 -4.479980e-02
2.288229e+08 8.646851e-01 4.956055e-01 -1.674704e-05 2.352893e-05 -5.261973e-07 -1.068600e-05 -9.064941e-01 -6.115723e-02
2.290416e+08 8.649292e-01 4.947510e-01 4.420429e-05 3.196299e-06 -1.279451e-05 -2.490357e-05 -9.157104e-01 -7.543945e-02
2.292604e+08 8.635864e-01 4.951172e-01 2.358481e-05 -2.454966e-06 7.601455e-06 -1.273118e-05 -9.235840e-01 -8.557129e-02
2.294791e+08 8.641968e-01 4.957886e-01 1.944415e-05 -3.609061e-05 1.970679e-06 -2.647005e-05 -9.315186e-01 -9.448242e-02
2.296978e+08 8.640137e-01 4.965820e-01 -2.436340e-06 1.707580e-05 1.052395e-06 2.138689e-05 -9.380493e-01 -9.906006e-02
2.299165e+08 8.642578e-01 4.965210e-01 -2.938788e-06 8.076895e-06 -1.983717e-06 2.649054e-05 -9.411011e-01 -1.031494e-01
2.301353e+08 8.637085e-01 4.959717e-01 -5.517155e-06 -1.777150e-05 4.470348e-07 -2.393313e-05 -9.409790e-01 -1.078491e-01
2.303540e+08 8.637695e-01 4.969482e-01 -1.351442e-05 7.580966e-07 2.054498e-06 8.146279e-06 -9.389648e-01 -1.155396e-01
2.305727e+08 8.635864e-01 4.976196e-01 -1.939014e-06 2.611056e-05 -1.530349e-05 -9.146519e-06 -9.353638e-01 -1.242676e-01
2.307915e+08 8.631592e-01 4.962769e-01 -1.001637e-05 -1.751538e-05 -9.499490e-08 -3.463030e-05 -9.323730e-01 -1.369629e-01
2.310102e+08 8.637695e-01 4.976196e-01 3.159977e-05 -2.097152e-05 -5.105510e-06 -3.048684e-06 -9.307861e-01 -1.520386e-01
2.312289e+08 8.632812e-01 4.981689e-01 -2.529845e-05 -4.830956e-05 2.399273e-05 1.781434e-05 -9.313965e-01 -1.687012e-01
2.314477e+08 8.631592e-01 4.982300e-01 -1.375563e-06 1.592189e-05 -1.578778e-05 1.481362e-05 -9.359131e-01 -1.855469e-01
2.316664e+08 8.634033e-01 4.984741e-01 1.039729e-05 -1.639966e-05 -2.053101e-06 -8.162111e-06 -9.421387e-01 -2.009277e-01
2.318851e+08 8.626709e-01 4.978638e-01 -2.434663e-05 -1.107156e-05 9.927899e-07 -1.326203e-05 -9.502563e-01 -2.160034e-01
2.321039e+08 8.631592e-01 4.990234e-01 1.539942e-05 -7.638708e-06 -3.577583e-05 -2.139807e-05 -9.573975e-01 -2.276611e-01
2.323226e+08 8.626709e-01 4.985352e-01 2.717040e-05 4.149228e-05 -4.141405e-05 -3.514066e-05 -9.674072e-01 -2.395630e-01
2.325413e+08 8.623657e-01 4.987183e-01 -4.433095e-07 -2.827123e-05 6.635673e-06 4.982576e-07 -9.761353e-01 -2.480469e-01
2.327600e+08 8.620605e-01 4.988403e-01 2.975576e-05 -1.409464e-05 -1.061708e-06 -2.144463e-05 -9.857788e-01 -2.545776e-01
2.329788e+08 8.619385e-01 4.991455e-01 -1.566950e-06 -7.830560e-06 3.565103e-05 -4.805997e-05 -9.952393e-01 -2.611694e-01
2.331975e+08 8.619385e-01 4.984741e-01 4.018098e-05 -3.055297e-05 -1.544878e-05 -4.387647e-05 -1.002869e+00 -2.664795e-01
2.334162e+08 8.617554e-01 4.994507e-01 2.657808e-05 -1.051836e-05 -2.666377e-05 -3.674813e-05 -1.011597e+00 -2.711182e-01
2.336350e+08 8.612061e-01 4.998169e-01 -2.232380e-05 5.751848e-06 -5.317852e-07 -1.072884e-05 -1.020691e+00 -2.714233e-01
2.338537e+08 8.613892e-01 5.000610e-01 -4.984066e-05 -2.102181e-05 -1.475774e-05 3.632717e-05 -1.028564e+00 -2.717285e-01
2.340724e+08 8.607178e-01 5.004272e-01 3.193505e-05 -1.648255e-05 -2.583489e-06 -1.891423e-05 -1.035889e+00 -2.672729e-01
2.342912e+08 8.604126e-01 5.002441e-01 8.947216e-06 1.875870e-05 -2.591871e-06 -1.891237e-05 -1.038574e+00 -2.625732e-01
2.345099e+08 8.601074e-01 5.006714e-01 1.563691e-05 1.614355e-05 9.644777e-06 -3.939867e-05 -1.037903e+00 -2.541504e-01
2.347286e+08 8.601685e-01 5.008545e-01 -1.340918e-05 -3.779307e-05 5.015358e-05 9.108335e-06 -1.032043e+00 -2.468262e-01
2.349474e+08 8.594971e-01 5.000610e-01 -4.379824e-05 -1.344085e-05 -1.383480e-05 -1.172442e-05 -1.020142e+00 -2.424316e-01
2.351661e+08 8.596191e-01 5.012817e-01 2.692267e-05 -2.526864e-05 -4.070811e-06 1.843274e-05 -1.006775e+00 -2.414551e-01
2.353848e+08 8.594971e-01 5.008545e-01 1.066644e-05 -1.192559e-05 3.166497e-05 -2.975576e-05 -9.924316e-01 -2.443848e-01
2.356036e+08 8.588867e-01 5.012207e-01 -4.096143e-05 -2.274290e-06 7.184222e-06 1.124851e-05 -9.780273e-01 -2.528076e-01
2.358223e+08 8.583984e-01 5.009766e-01 -2.580695e-05 4.831702e-06 5.835295e-05 7.044524e-06 -9.661865e-01 -2.634888e-01
2.360410e+08 8.587646e-01 5.020142e-01 7.478520e-07 1.356471e-05 -5.126931e-06 -3.068242e-06 -9.568481e-01 -2.766724e-01
2.362598e+08 8.580933e-01 5.017090e-01 -5.654618e-05 -3.769621e-05 2.875552e-05 4.501641e-05 -9.512939e-01 -2.911377e-01
2.364785e+08 8.576050e-01 5.021973e-01 3.897399e-05 2.846122e-05 -3.039837e-06 3.996864e-05 -9.462891e-01 -3.046875e-01
2.366972e+08 8.571777e-01 5.018921e-01 -2.917275e-05 4.701316e-05 2.711639e-05 -2.206303e-05 -9.461060e-01 -3.154907e-01
2.369159e+08 8.572388e-01 5.020752e-01 1.027063e-05 -4.024431e-05 -3.658235e-06 -4.048273e-05 -9.445190e-01 -3.237915e-01
2.371347e+08 8.573608e-01 5.021973e-01 2.057292e-06 1.689699e-05 1.533888e-06 -2.566958e-06 -9.435425e-01 -3.312378e-01
2.373534e+08 8.563232e-01 5.017090e-01 3.123283e-05 -3.005192e-05 1.945719e-05 -9.262003e-06 -9.404907e-01 -3.356934e-01
2.375721e+08 8.560791e-01 5.014648e-01 1.351349e-05 1.854263e-05 -2.693385e-06 -5.380809e-05 -9.366455e-01 -3.413696e-01
2.377909e+08 8.555298e-01 5.020752e-01 -1.784321e-05 5.513430e-06 3.184751e-05 3.992766e-05 -9.301147e-01 -3.463135e-01
2.380096e+08 8.547974e-01 5.018311e-01 2.557039e-05 -9.344891e-06 7.661991e-06 -1.283083e-05 -9.244995e-01 -3.521729e-01
2.382283e+08 8.552246e-01 5.023804e-01 -1.372024e-05 3.935024e-05 3.588758e-05 -1.341663e-05 -9.186401e-01 -3.588257e-01
2.384471e+08 8.536377e-01 5.026855e-01 3.250502e-05 -7.452443e-06 2.513826e-05 4.567206e-06 -9.120483e-01 -3.665771e-01
2.386658e+08 8.536377e-01 5.023804e-01 1.283828e-05 -1.433771e-05 8.134171e-06 -3.695488e-05 -9.089355e-01 -3.732910e-01
2.388845e+08 8.535767e-01 5.029297e-01 -8.137897e-06 -2.452917e-05 9.210780e-06 -1.541805e-05 -9.053955e-01 -3.795776e-01
2.391033e+08 8.533325e-01 5.021973e-01 1.283549e-05 -1.433212e-05 2.309307e-05 -3.639609e-06 -9.002075e-01 -3.842163e-01
2.393220e+08 8.521118e-01 5.034790e-01 1.729559e-05 4.725531e-06 2.510473e-05 -3.030710e-05 -8.956299e-01 -3.880005e-01
2.395407e+08 8.529663e-01 5.036011e-01 -1.689605e-05 2.365559e-05 -3.080070e-05 1.649745e-05 -8.865356e-01 -3.886108e-01
2.397594e+08 8.518066e-01 5.037842e-01 -1.401640e-06 1.597963e-05 3.604684e-06 5.645677e-06 -8.769531e-01 -3.916626e-01
2.399782e+08 8.510742e-01 5.036011e-01 1.243036e-05 1.977943e-05 1.748838e-05 1.743343e-05 -8.648071e-01 -3.952026e-01
2.401969e+08 8.507690e-01 5.036011e-01 1.121685e-05 -6.537884e-05 1.844950e-05 -3.085099e-05 -8.520508e-01 -3.995361e-01
2.404156e+08 8.505249e-01 5.047607e-01 -8.822419e-06 5.026348e-06 -2.826750e-05 5.383044e-07 -8.372803e-01 -4.080811e-01
2.406344e+08 8.495483e-01 5.043335e-01 -3.305264e-05 -1.596287e-06 1.027994e-05 6.149523e-06 -8.254395e-01 -4.188232e-01
2.408531e+08 8.489990e-01 5.042114e-01 -2.972782e-06 8.120667e-06 -4.315004e-05 2.097338e-06 -8.127441e-01 -4.306641e-01
2.410718e+08 8.484497e-01 5.038452e-01 -1.500640e-05 1.674239e-05 -4.728138e-05 -1.429021e-05 -8.037109e-01 -4.434204e-01
2.412906e+08 8.481445e-01 5.042114e-01 -1.393352e-05 1.554936e-05 6.112456e-05 -8.828938e-06 -7.968750e-01 -4.553223e-01
2.415093e+08 8.472290e-01 5.038452e-01 -1.749396e-05 -2.861395e-05 7.244945e-05 1.886860e-05 -7.922363e-01 -4.688110e-01
2.417280e+08 8.474121e-01 5.048218e-01 -1.567323e-05 -1.620967e-05 -2.886355e-05 -4.521757e-05 -7.869873e-01 -4.784546e-01
2.419468e+08 8.464966e-01 5.049438e-01 -1.535006e-05 -3.103353e-05 2.264418e-05 2.053194e-05 -7.824707e-01 -4.869995e-01
2.421655e+08 8.459473e-01 5.058594e-01 -1.683179e-05 4.324131e-06 -5.667098e-06 -1.388509e-05 -7.771606e-01 -4.926758e-01
2.423842e+08 8.457642e-01 5.051270e-01 -8.426607e-06 3.343821e-05 5.143136e-05 -4.205853e-06 -7.695312e-01 -5.009155e-01
2.426030e+08 8.449707e-01 5.059814e-01 -3.594346e-05 -1.283735e-05 4.641712e-06 2.726540e-05 -7.620850e-01 -5.074463e-01
2.428217e+08 8.448486e-01 5.049438e-01 2.043322e-05 2.048258e-05 1.284666e-05 -9.794720e-06 -7.539673e-01 -5.178833e-01
2.430404e+08 8.437500e-01 5.046997e-01 2.136827e-05 -4.574656e-06 1.432374e-05 -4.733726e-05 -7.459106e-01 -5.289307e-01
2.432592e+08 8.431396e-01 5.049438e-01 1.658686e-06 -1.146644e-05 -6.688293e-06 -5.047768e-07 -7.396240e-01 -5.418701e-01
2.434779e+08 8.427124e-01 5.060425e-01 -1.947582e-05 -2.359971e-06 -1.542736e-06 2.574408e-06 -7.360229e-01 -5.544434e-01
2.436966e+08 8.424072e-01 5.055542e-01 5.213916e-05 -2.447888e-05 -2.885424e-05 -1.025572e-05 -7.362061e-01 -5.675049e-01
2.439153e+08 8.413696e-01 5.063477e-01 -1.897942e-05 6.713904e-06 2.980232e-08 3.501587e-05 -7.366943e-01 -5.765381e-01
2.441341e+08 8.408813e-01 5.051270e-01 -5.532987e-06 -1.791399e-05 3.245473e-05 1.588278e-05 -7.386475e-01 -5.853882e-01
2.443528e+08 8.406982e-01 5.052490e-01 2.877787e-05 6.899983e-05 3.248267e-05 1.590140e-05 -7.410889e-01 -5.894775e-01
2.445715e+08 8.395386e-01 5.063477e-01 2.939440e-05 -3.861263e-06 -1.180358e-05 3.143214e-05 -7.429199e-01 -5.891113e-01
2.447903e+08 8.389282e-01 5.065308e-01 -1.072127e-06 1.196051e-06 -1.494028e-05 1.566485e-06 -7.416992e-01 -5.902100e-01
2.450090e+08 8.383789e-01 5.070190e-01 1.380220e-05 -3.945269e-05 -4.143454e-06 -1.648162e-05 -7.379761e-01 -5.899658e-01
2.452277e+08 8.372803e-01 5.080566e-01 8.848496e-06 -5.028211e-06 2.423301e-05 1.802109e-05 -7.334595e-01 -5.890503e-01
2.454465e+08 8.372192e-01 5.070190e-01 -9.680633e-06 1.077261e-05 -1.950935e-05 4.434586e-05 -7.235107e-01 -5.894165e-01
2.456652e+08 8.362427e-01 5.074463e-01 5.624723e-06 -1.444481e-06 1.749862e-05 -1.754798e-05 -7.156372e-01 -5.916748e-01
2.458839e+08 8.350830e-01 5.085449e-01 1.353398e-05 1.864694e-05 4.018843e-05 -3.197789e-05 -7.066040e-01 -5.957642e-01
2.461027e+08 8.351440e-01 5.089111e-01 8.750707e-06 1.435168e-05 6.200746e-06 2.475642e-05 -6.981506e-01 -5.984497e-01
2.463214e+08 8.334961e-01 5.089722e-01 -5.378388e-06 5.991198e-06 2.579764e-06 1.906883e-05 -6.901550e-01 -6.032410e-01
2.465401e+08 8.333130e-01 5.087280e-01 4.073046e-05 3.658421e-05 1.754425e-05 1.752190e-05 -6.822205e-01 -6.067200e-01
2.467588e+08 8.326416e-01 5.080566e-01 1.627393e-05 5.963258e-06 1.084339e-05 1.699757e-05 -6.735535e-01 -6.116638e-01
2.469776e+08 8.318481e-01 5.081787e-01 -1.208577e-05 8.626841e-06 -5.158596e-06 -3.087334e-06 -6.638794e-01 -6.161194e-01
2.471963e+08 8.314819e-01 5.093384e-01 3.699213e-05 -1.224875e-05 -2.940372e-05 1.393631e-05 -6.532593e-01 -6.207886e-01
2.474150e+08 8.309326e-01 5.092773e-01 1.640432e-05 2.991967e-05 2.887659e-05 -2.479181e-05 -6.414185e-01 -6.284790e-01
2.476338e+08 8.294678e-01 5.104980e-01 -5.717389e-06 2.081878e-05 1.702644e-05 6.707385e-06 -6.301575e-01 -6.376648e-01
2.478525e+08 8.289185e-01 5.098877e-01 -1.041545e-05 -2.862886e-06 -1.134817e-05 7.226132e-06 -6.187744e-01 -6.503601e-01
2.480712e+08 8.281250e-01 5.093384e-01 4.423782e-06 -2.418831e-05 -1.084153e-05 -1.701061e-05 -6.091614e-01 -6.633911e-01
2.482900e+08 8.283081e-01 5.103760e-01 2.238899e-06 -2.178736e-05 -6.039068e-05 3.050640e-05 -6.033936e-01 -6.786194e-01
2.485087e+08 8.268433e-01 5.104980e-01 1.446810e-05 -6.482005e-06 -1.498684e-05 -3.353134e-05 -6.011963e-01 -6.951904e-01
2.487274e+08 8.264160e-01 5.116577e-01 -3.427267e-05 -4.378706e-05 -5.112961e-07 -1.084618e-05 -6.014404e-01 -7.090454e-01
2.489462e+08 8.246460e-01 5.115967e-01 -3.544055e-05 2.013892e-05 -7.746741e-06 1.290441e-05 -6.035156e-01 -7.197266e-01
2.491649e+08 8.245850e-01 5.118408e-01 -1.871213e-05 -5.147979e-05 1.445878e-05 -1.240242e-05 -6.073608e-01 -7.283936e-01
2.493836e+08 8.235474e-01 5.114746e-01 -1.349114e-05 2.466328e-05 4.594028e-05 -1.811236e-05 -6.098633e-01 -7.332764e-01
2.496024e+08 8.225098e-01 5.120239e-01 1.284108e-05 4.836544e-05 2.220646e-05 9.804964e-06 -6.107788e-01 -7.355957e-01
2.498211e+08 8.211670e-01 5.120239e-01 2.083648e-05 5.724840e-06 -4.231557e-05 -1.135096e-05 -6.098633e-01 -7.361450e-01
2.500398e+08 8.206177e-01 5.127563e-01 3.136136e-05 -1.082011e-05 -1.290999e-05 -2.530031e-05 -6.042480e-01 -7.388306e-01
2.502586e+08 8.203735e-01 5.130615e-01 -7.409602e-06 3.234111e-05 -4.645903e-06 7.751863e-06 -5.973511e-01 -7.406616e-01
2.504773e+08 8.197632e-01 5.131836e-01 1.426134e-05 -1.104455e-05 2.324581e-05 -3.630295e-06 -5.877075e-01 -7.440186e-01
2.506960e+08 8.187256e-01 5.135498e-01 -1.018541e-05 1.684763e-06 -1.446437e-05 1.239683e-05 -5.784912e-01 -7.514038e-01
2.509147e+08 8.186035e-01 5.145264e-01 -8.990988e-06 -1.892075e-05 7.234514e-06 1.137331e-05 -5.679321e-01 -7.607422e-01
2.511335e+08 8.173218e-01 5.149536e-01 2.457201e-05 -3.214367e-05 -3.617723e-06 -5.686656e-06 -5.605469e-01 -7.716675e-01
2.513522e+08 8.162231e-01 5.148926e-01 -4.149415e-05 -6.938353e-06 -8.793548e-06 2.634712e-05 -5.529175e-01 -7.838745e-01
2.515709e+08 8.151245e-01 5.150146e-01 2.682209e-05 -1.056306e-05 -2.014451e-05 -1.547858e-06 -5.466309e-01 -7.965088e-01
2.517897e+08 8.150024e-01 5.157471e-01 -9.113457e-06 4.870817e-07 1.809373e-05 -6.726943e-06 -5.422974e-01 -8.088379e-01
2.520084e+08 8.132935e-01 5.161133e-01 4.016608e-05 3.594905e-06 5.373359e-05 4.146248e-06 -5.390015e-01 -8.217773e-01
2.522271e+08 8.134766e-01 5.168457e-01 -1.666415e-05 8.878298e-06 -2.741069e-05 2.223253e-05 -5.372925e-01 -8.347168e-01
2.524459e+08 8.126221e-01 5.175171e-01 -2.817623e-05 7.197261e-06 9.838492e-06 -3.983825e-05 -5.355835e-01 -8.475952e-01
2.526646e+08 8.120728e-01 5.167236e-01 -6.835908e-06 2.205931e-05 1.087040e-05 1.705717e-05 -5.361938e-01 -8.613892e-01
2.528833e+08 8.104248e-01 5.178223e-01 -1.098961e-07 1.942366e-05 1.292489e-05 2.533011e-05 -5.383301e-01 -8.737183e-01
2.531021e+08 8.091431e-01 5.178223e-01 -1.798384e-06 -1.247972e-05 -2.634525e-05 -2.636202e-05 -5.422363e-01 -8.839722e-01
2.533208e+08 8.090210e-01 5.190430e-01 -3.083982e-05 4.693866e-07 2.328306e-05 -3.878959e-05 -5.480347e-01 -8.927002e-01
2.535395e+08 8.078003e-01 5.183105e-01 -8.758157e-06 -1.439545e-05 1.602620e-05 5.529448e-05 -5.543823e-01 -8.970947e-01
2.537582e+08 8.073120e-01 5.194702e-01 1.750607e-05 -1.462549e-05 6.206334e-06 -1.034047e-05 -5.591431e-01 -8.986816e-01
2.539770e+08 8.068848e-01 5.197754e-01 -2.530776e-05 -2.495758e-05 -1.862738e-05 -4.133210e-06 -5.634155e-01 -8.955688e-01
2.541957e+08 8.052979e-01 5.198975e-01 1.044152e-05 2.874527e-06 -9.299256e-06 1.551770e-05 -5.640869e-01 -8.931274e-01
2.544144e+08 8.046875e-01 5.203857e-01 -3.873743e-05 2.375059e-05 -4.944241e-10 1.238902e-10 -5.588379e-01 -8.878174e-01
2.546332e+08 8.037109e-01 5.210571e-01 -3.257766e-06 -3.982894e-05 -2.689473e-05 -2.074987e-06 -5.492554e-01 -8.816528e-01
2.548519e+08 8.027344e-01 5.220947e-01 -1.175422e-05 -6.249174e-06 1.034606e-05 6.217510e-06 -5.385132e-01 -8.783569e-01
2.550706e+08 8.023682e-01 5.221558e-01 -1.297239e-05 1.440383e-05 -3.626570e-06 2.950057e-05 -5.247192e-01 -8.808594e-01
2.552894e+08 8.007812e-01 5.230713e-01 3.390014e-07 2.856553e-05 1.240149e-05 1.450162e-05 -5.101318e-01 -8.859863e-01
2.555081e+08 7.999268e-01 5.234375e-01 -2.341904e-05 1.153536e-05 7.553399e-05 3.155321e-06 -4.973755e-01 -8.932495e-01
2.557268e+08 7.993774e-01 5.241699e-01 1.404714e-05 -1.562759e-05 1.551956e-05 9.326264e-06 -4.859619e-01 -9.030762e-01
2.559456e+08 7.990723e-01 5.242920e-01 -3.015436e-05 1.417473e-05 -1.759734e-05 -1.760758e-05 -4.798584e-01 -9.144287e-01
2.561643e+08 7.978516e-01 5.249023e-01 1.309160e-05 9.593554e-06 -6.753951e-06 3.467128e-05 -4.729004e-01 -9.243164e-01
2.563830e+08 7.964478e-01 5.254517e-01 2.738088e-05 -1.437962e-06 -4.634261e-06 -2.743304e-05 -4.705811e-01 -9.320068e-01
2.566018e+08 7.957153e-01 5.263672e-01 -7.323921e-06 5.643070e-05 6.726943e-06 5.224720e-07 -4.696045e-01 -9.360962e-01
2.568205e+08 7.945557e-01 5.264893e-01 -3.539026e-07 -2.861768e-05 3.778189e-05 -1.601875e-05 -4.683838e-01 -9.388428e-01
2.570392e+08 7.946777e-01 5.279541e-01 -2.106093e-05 1.370162e-05 -1.245365e-05 2.070516e-05 -4.643555e-01 -9.388428e-01
2.572580e+08 7.930298e-01 5.280151e-01 1.105759e-05 -7.446855e-06 -9.294599e-06 -1.967512e-05 -4.605713e-01 -9.373779e-01
2.574767e+08 7.916260e-01 5.283203e-01 6.010756e-06 -1.634937e-05 5.710870e-06 -2.120249e-05 -4.537354e-01 -9.359131e-01
2.576954e+08 7.925415e-01 5.300293e-01 -9.739306e-06 1.080753e-05 3.937259e-05 1.662225e-05 -4.463501e-01 -9.325562e-01
2.579141e+08 7.910156e-01 5.297852e-01 -3.691018e-05 -2.669729e-05 1.032278e-05 4.142523e-05 -4.357910e-01 -9.296875e-01
2.581329e+08 7.899170e-01 5.298462e-01 -1.718383e-05 -2.412125e-07 -5.175360e-06 -3.107823e-06 -4.268188e-01 -9.284058e-01
2.583516e+08 7.891846e-01 5.306396e-01 1.718570e-05 2.561137e-07 3.598630e-06 4.090369e-05 -4.151611e-01 -9.265137e-01
2.585703e+08 7.883911e-01 5.315552e-01 2.717972e-05 -6.008893e-06 -1.245551e-05 2.069958e-05 -4.045410e-01 -9.236450e-01
2.587891e+08 7.872925e-01 5.315552e-01 2.663583e-07 -3.894232e-05 -1.241080e-05 -1.449976e-05 -3.914795e-01 -9.196777e-01
2.590078e+08 7.868652e-01 5.330200e-01 3.522448e-05 3.825501e-05 2.900138e-05 1.039356e-05 -3.774414e-01 -9.145508e-01
2.592265e+08 7.857666e-01 5.339355e-01 6.247312e-06 -1.177751e-05 1.085084e-05 1.711398e-05 -3.633423e-01 -9.104004e-01
2.594453e+08 7.841797e-01 5.342407e-01 -3.005844e-06 8.178409e-06 8.793082e-06 8.814968e-06 -3.455200e-01 -9.075317e-01
2.596640e+08 7.825928e-01 5.347290e-01 -1.818314e-05 2.499297e-05 -1.295377e-05 9.810552e-06 -3.272095e-01 -9.049072e-01
2.598827e+08 7.832031e-01 5.352173e-01 -1.632795e-05 -4.956871e-05 -5.542114e-05 -3.683195e-05 -3.082886e-01 -9.059448e-01
2.601015e+08 7.819214e-01 5.366821e-01 -9.271316e-06 1.997314e-05 -5.232170e-06 3.211200e-05 -2.893066e-01 -9.067993e-01
2.603202e+08 7.807617e-01 5.369873e-01 2.167188e-06 -2.406770e-06 5.024299e-05 -1.475215e-06 -2.704468e-01 -9.111938e-01
2.605389e+08 7.802734e-01 5.375366e-01 -1.082837e-06 1.201464e-06 4.284084e-08 -3.522821e-05 -2.538452e-01 -9.171753e-01
2.607576e+08 7.796021e-01 5.380249e-01 1.192186e-05 -1.323596e-05 -2.606772e-06 1.605880e-05 -2.418213e-01 -9.235229e-01
2.609764e+08 7.787476e-01 5.394897e-01 -7.466413e-06 -1.108088e-05 7.238239e-06 1.141429e-05 -2.298584e-01 -9.279785e-01
2.611951e+08 7.777710e-01 5.393066e-01 1.659058e-05 1.059752e-05 -5.723909e-06 2.122112e-05 -2.185669e-01 -9.285278e-01
2.614138e+08 7.770996e-01 5.404663e-01 4.449114e-05 1.831725e-05 -2.226233e-05 -9.868294e-06 -2.092285e-01 -9.281006e-01
2.616326e+08 7.760620e-01 5.415039e-01 2.972595e-05 -2.333708e-05 -2.432242e-05 -1.817197e-05 -1.998901e-01 -9.272461e-01
2.618513e+08 7.756348e-01 5.420532e-01 -2.599321e-05 -1.471117e-05 -2.060551e-06 -8.295290e-06 -1.865845e-01 -9.227905e-01
2.620700e+08 7.741089e-01 5.427246e-01 -5.795620e-06 2.093706e-05 -5.678274e-06 -1.399219e-05 -1.718750e-01 -9.166870e-01
2.622888e+08 7.739258e-01 5.436401e-01 -2.643559e-06 -6.748363e-06 -2.900325e-05 -1.038983e-05 -1.563110e-01 -9.146729e-01
2.625075e+08 7.733765e-01 5.445557e-01 -5.277619e-05 4.321337e-07 1.347344e-05 1.052395e-06 -1.383667e-01 -9.121094e-01
2.627262e+08 7.725220e-01 5.460815e-01 -3.530085e-05 5.295500e-06 1.503993e-05 -1.520850e-06 -1.196899e-01 -9.127197e-01
2.629450e+08 7.709351e-01 5.462036e-01 -8.544885e-06 -9.884592e-06 4.023314e-06 5.180761e-05 -1.018066e-01 -9.133911e-01
2.631637e+08 7.711182e-01 5.469971e-01 1.003966e-06 -2.530590e-05 3.525056e-05 5.215406e-08 -8.544922e-02 -9.186401e-01
2.633824e+08 7.697754e-01 5.478516e-01 2.554618e-06 -1.735147e-05 5.225465e-05 4.207715e-05 -6.945801e-02 -9.216919e-01
2.636012e+08 7.686768e-01 5.482788e-01 -4.198030e-05 -3.571808e-05 5.681068e-07 -2.434663e-05 -5.718994e-02 -9.240112e-01
2.638199e+08 7.676392e-01 5.490112e-01 -4.097261e-05 6.681308e-06 2.437830e-05 -1.704507e-05 -4.541016e-02 -9.287720e-01
2.640386e+08 7.673950e-01 5.501099e-01 -2.373941e-05 6.945804e-06 1.248717e-05 -2.070330e-05 -3.302002e-02 -9.307861e-01
2.642574e+08 7.666016e-01 5.509033e-01 2.344698e-05 3.207661e-05 2.117828e-06 -2.694130e-05 -2.276611e-02 -9.313354e-01
2.644761e+08 7.661133e-01 5.513916e-01 -2.253614e-05 -1.377426e-05 1.396984e-05 1.195259e-05 -1.257324e-02 -9.313354e-01
2.646948e+08 7.645874e-01 5.523682e-01 -1.038332e-05 2.118666e-05 2.849102e-05 -4.563481e-07 -2.929688e-03 -9.323730e-01
2.649135e+08 7.642822e-01 5.527954e-01 2.588890e-05 3.426149e-05 1.558103e-06 -2.589775e-06 8.056641e-03 -9.318848e-01
2.651323e+08 7.630005e-01 5.544434e-01 -6.513670e-06 -3.640354e-05 -6.244518e-06 1.035072e-05 1.745605e-02 -9.328613e-01
2.653510e+08 7.621460e-01 5.555420e-01 2.469495e-05 1.136772e-05 -3.096461e-05 -5.400181e-05 2.685547e-02 -9.344482e-01
2.655697e+08 7.622070e-01 5.556030e-01 -2.641231e-06 -6.754883e-06 2.851896e-05 -4.731119e-07 3.356934e-02 -9.359741e-01
2.657885e+08 7.613525e-01 5.573120e-01 1.514144e-05 2.679415e-05 -1.496263e-05 -3.375858e-05 4.272461e-02 -9.332275e-01
2.660072e+08 7.601929e-01 5.579224e-01 2.439134e-05 -1.733005e-05 6.165355e-06 2.490170e-05 4.870605e-02 -9.310303e-01
2.662259e+08 7.593994e-01 5.589600e-01 1.879875e-05 8.225441e-06 2.384000e-05 7.325783e-06 5.322266e-02 -9.243774e-01
2.664447e+08 7.586060e-01 5.597534e-01 2.337433e-05 7.987022e-06 -1.612213e-05 1.499057e-05 6.341553e-02 -9.174194e-01
2.666634e+08 7.583618e-01 5.595703e-01 4.290603e-05 2.998300e-05 4.248694e-05 1.149997e-05 7.452393e-02 -9.107056e-01
2.668821e+08 7.572632e-01 5.610352e-01 -1.228228e-05 5.233660e-05 2.695434e-05 2.136454e-06 8.764648e-02 -9.028320e-01
2.671009e+08 7.567139e-01 5.624390e-01 -1.398474e-05 -3.887340e-06 -2.756342e-05 2.222694e-05 1.044922e-01 -9.000244e-01
2.673196e+08 7.561035e-01 5.632324e-01 1.111068e-05 -7.472932e-06 1.866557e-05 4.203059e-06 1.210938e-01 -8.973999e-01
2.675383e+08 7.552490e-01 5.646973e-01 1.173653e-05 -1.784973e-05 3.611669e-06 5.721115e-06 1.390381e-01 -8.973999e-01
2.677570e+08 7.549438e-01 5.645752e-01 2.066977e-05 -2.289750e-05 2.466142e-06 5.448237e-05 1.559448e-01 -9.034424e-01
2.679758e+08 7.540283e-01 5.656128e-01 -1.240522e-06 2.077315e-05 4.685018e-06 -7.769093e-06 1.696777e-01 -9.114990e-01
2.681945e+08 7.529297e-01 5.667114e-01 -2.377853e-05 6.953254e-06 3.036112e-06 3.008544e-05 1.790771e-01 -9.216309e-01
2.684132e+08 7.523804e-01 5.684204e-01 -2.481602e-05 -3.553741e-05 3.527664e-05 1.210719e-07 1.836548e-01 -9.291382e-01
2.686320e+08 7.515259e-01 5.681763e-01 -1.010578e-05 -1.789071e-05 7.101148e-05 1.107156e-05 1.865845e-01 -9.369507e-01
2.688507e+08 7.515869e-01 5.698242e-01 -4.823785e-06 -4.356727e-06 1.817849e-05 -6.702729e-06 1.884766e-01 -9.410400e-01
2.690694e+08 7.505493e-01 5.703735e-01 -3.103167e-06 -1.594424e-05 1.925416e-05 -2.018362e-05 1.882324e-01 -9.419556e-01
2.692882e+08 7.497559e-01 5.709839e-01 -4.128739e-05 2.088025e-06 -6.741844e-06 -5.345792e-07 1.886597e-01 -9.409790e-01
2.695069e+08 7.492676e-01 5.726318e-01 3.672019e-05 -1.879409e-06 -1.720898e-05 2.849102e-05 1.916504e-01 -9.383545e-01
2.697256e+08 7.487183e-01 5.736694e-01 1.795683e-05 1.404528e-05 2.600439e-05 -1.964718e-05 1.964722e-01 -9.354858e-01
2.699444e+08 7.478027e-01 5.742188e-01 -3.144331e-05 1.538731e-05 -3.058463e-05 -7.875264e-06 2.022095e-01 -9.333496e-01
2.701631e+08 7.467041e-01 5.755615e-01 3.580004e-06 -4.276261e-05 9.758398e-06 3.065541e-05 2.099609e-01 -9.309692e-01
2.703818e+08 7.462158e-01 5.755615e-01 1.408905e-05 2.805144e-05 1.553260e-05 9.384938e-06 2.156372e-01 -9.320679e-01
2.706006e+08 7.459717e-01 5.769653e-01 3.260747e-05 7.543713e-06 -9.767711e-06 -3.065355e-05 2.238159e-01 -9.343872e-01
2.708193e+08 7.446899e-01 5.780640e-01 2.874620e-05 2.157874e-05 3.106147e-05 1.878478e-05 2.292480e-01 -9.346924e-01
2.710380e+08 7.448120e-01 5.783081e-01 -6.607734e-06 -1.693889e-05 -3.372319e-05 -2.695248e-06 2.343140e-01 -9.371338e-01
2.712568e+08 7.437744e-01 5.801392e-01 2.102740e-05 5.842187e-06 2.336502e-05 -3.550202e-06 2.396240e-01 -9.379272e-01
2.714755e+08 7.435303e-01 5.812378e-01 4.204921e-06 1.475494e-05 -7.349998e-06 2.385490e-05 2.431030e-01 -9.375610e-01
2.716942e+08 7.424316e-01 5.816650e-01 1.676381e-07 -1.957547e-05 -1.348555e-05 -1.084991e-06 2.491455e-01 -9.370117e-01
2.719129e+08 7.425537e-01 5.834961e-01 -8.033589e-06 2.343021e-05 -1.820456e-05 6.682239e-06 2.579956e-01 -9.377441e-01
2.721317e+08 7.413940e-01 5.836182e-01 2.964213e-05 3.995746e-05 2.384372e-05 7.349998e-06 2.677002e-01 -9.385376e-01
2.723504e+08 7.410889e-01 5.851440e-01 6.249174e-07 -1.040054e-05 6.090850e-07 -2.440438e-05 2.751465e-01 -9.436035e-01
2.725691e+08 7.409668e-01 5.861206e-01 2.728775e-06 3.095903e-05 -3.267266e-05 -1.621805e-05 2.826538e-01 -9.490356e-01
2.727879e+08 7.398071e-01 5.874023e-01 2.552941e-05 -1.855195e-05 4.313886e-05 -1.282617e-05 2.877808e-01 -9.580688e-01
2.730066e+08 7.396240e-01 5.880737e-01 4.617125e-05 2.253801e-06 4.520267e-05 -4.533678e-06 2.882690e-01 -9.644775e-01
2.732253e+08 7.396851e-01 5.889282e-01 -1.441874e-05 1.110416e-05 1.458544e-05 -1.242384e-05 2.893677e-01 -9.718628e-01
2.734441e+08 7.385864e-01 5.897827e-01 -1.091231e-05 1.206808e-05 -1.494400e-05 -3.380515e-05 2.869873e-01 -9.757080e-01
2.736628e+08 7.379761e-01 5.905151e-01 1.166575e-05 2.590753e-05 -1.807883e-05 -2.861582e-05 2.817993e-01 -9.739380e-01
2.738815e+08 7.377319e-01 5.924072e-01 -7.703900e-06 -1.574494e-05 -3.484450e-05 1.079403e-05 2.823486e-01 -9.708252e-01
2.741003e+08 7.371216e-01 5.927734e-01 4.925951e-05 -5.926937e-06 9.397976e-06 -1.554750e-05 2.839966e-01 -9.626465e-01
2.743190e+08 7.365723e-01 5.943604e-01 -1.092209e-06 1.207227e-06 -1.506694e-05 1.500361e-06 2.898560e-01 -9.565430e-01
2.745377e+08 7.362061e-01 5.954590e-01 -4.226528e-05 7.865950e-06 3.218837e-05 5.317852e-06 2.997437e-01 -9.495850e-01
2.747564e+08 7.360229e-01 5.961304e-01 -2.236106e-05 -9.255484e-06 5.461276e-05 -2.008677e-05 3.140259e-01 -9.471436e-01
2.749752e+08 7.350464e-01 5.970459e-01 -4.893169e-06 -2.858043e-05 9.884126e-06 -4.635192e-06 3.302002e-01 -9.478149e-01
2.751939e+08 7.346191e-01 5.983276e-01 -1.426134e-05 -8.502975e-06 1.240801e-05 1.459382e-05 3.431396e-01 -9.505005e-01
2.754126e+08 7.338867e-01 5.988159e-01 2.609380e-05 1.483411e-05 5.182344e-06 3.133900e-06 3.586426e-01 -9.605103e-01
2.756314e+08 7.329712e-01 5.999756e-01 -2.190843e-05 -6.146729e-08 -3.612600e-06 -5.724840e-06 3.652954e-01 -9.714355e-01
2.758501e+08 7.331543e-01 6.014404e-01 -1.800153e-05 -1.409464e-05 2.967380e-05 -1.391955e-05 3.715210e-01 -9.834595e-01
2.760688e+08 7.322388e-01 6.018677e-01 -5.465467e-06 6.041024e-06 4.224479e-06 -1.868140e-05 3.729248e-01 -9.958496e-01
2.762876e+08 7.316284e-01 6.040039e-01 2.376735e-06 -2.204441e-05 5.402416e-05 4.399568e-06 3.693237e-01 -1.001404e+00
2.765063e+08 7.315674e-01 6.044312e-01 -5.092472e-06 5.907938e-05 5.461276e-06 -6.753206e-05 3.627319e-01 -1.007019e+00
2.767250e+08 7.309570e-01 6.052246e-01 6.555114e-06 -7.245690e-06 2.147257e-05 -4.720315e-05 3.584595e-01 -1.008850e+00
2.769438e+08 7.306519e-01 6.066284e-01 -5.180016e-06 3.485568e-05 9.134412e-06 5.511567e-05 3.537598e-01 -1.004211e+00
2.771625e+08 7.301636e-01 6.079102e-01 -7.376075e-07 -3.803894e-05 1.931563e-05 -2.018735e-05 3.513184e-01 -1.000610e+00
2.773812e+08 7.299194e-01 6.083374e-01 -2.525561e-05 -2.065673e-05 -2.655201e-06 1.609698e-05 3.495483e-01 -9.920044e-01
2.776000e+08 7.297363e-01 6.094971e-01 -1.425855e-05 -8.513220e-06 -4.053116e-05 -3.267080e-06 3.492432e-01 -9.843750e-01
2.778187e+08 7.288208e-01 6.098022e-01 1.685228e-05 -8.934177e-06 4.363060e-05 -1.911074e-06 3.509521e-01 -9.764404e-01
2.780374e+08 7.285767e-01 6.120605e-01 -5.137175e-06 -3.321655e-05 -1.350977e-05 -1.109205e-06 3.512573e-01 -9.686279e-01
2.782562e+08 7.286987e-01 6.130371e-01 3.830343e-05 -4.228763e-05 -7.692724e-06 -2.240017e-05 3.562622e-01 -9.554443e-01
2.784749e+08 7.283936e-01 6.127319e-01 2.318434e-05 -2.076663e-05 -1.821481e-05 6.688759e-06 3.594971e-01 -9.414673e-01
2.786936e+08 7.277222e-01 6.141357e-01 2.107210e-05 5.878508e-06 2.653338e-05 -8.728355e-06 3.657837e-01 -9.285889e-01
2.789123e+08 7.279663e-01 6.153564e-01 2.979860e-05 -3.788620e-06 -1.398753e-05 -1.201592e-05 3.728027e-01 -9.147339e-01
2.791311e+08 7.263794e-01 6.156616e-01 4.410744e-06 1.940038e-05 -9.884126e-06 4.630536e-06 3.831787e-01 -8.993530e-01
2.793498e+08 7.266846e-01 6.176147e-01 2.873316e-05 2.164580e-05 3.141817e-06 -5.183741e-06 3.963013e-01 -8.856812e-01
2.795685e+08 7.265625e-01 6.189575e-01 3.556907e-05 1.902506e-05 3.001839e-05 3.237091e-05 4.099731e-01 -8.715210e-01
2.797873e+08 7.260742e-01 6.204834e-01 -1.801737e-05 -1.412258e-05 -1.572445e-05 2.592988e-05 4.265747e-01 -8.626099e-01
2.800060e+08 7.259521e-01 6.212769e-01 2.153590e-05 1.508370e-05 -2.812967e-05 1.130626e-05 4.432983e-01 -8.547974e-01
2.802247e+08 7.259521e-01 6.223145e-01 2.540834e-05 -2.319925e-05 -5.927682e-05 -7.558614e-06 4.566650e-01 -8.492432e-01
2.804435e+08 7.248535e-01 6.230469e-01 -1.777615e-05 -9.522773e-06 1.933239e-05 -2.018549e-05 4.701538e-01 -8.455811e-01
2.806622e+08 7.247314e-01 6.250610e-01 -1.460314e-06 4.051253e-05 -1.667626e-05 4.078262e-06 4.792480e-01 -8.398438e-01
2.808809e+08 7.248535e-01 6.249390e-01 -9.215437e-06 4.544854e-07 -4.685670e-05 7.089227e-06 4.862671e-01 -8.347168e-01
2.810997e+08 7.238159e-01 6.257324e-01 -8.679926e-07 5.817972e-06 -1.098029e-06 1.351628e-05 4.919434e-01 -8.274536e-01
2.813184e+08 7.234497e-01 6.268921e-01 1.273397e-05 5.317852e-07 -2.388842e-05 -7.387251e-06 4.981689e-01 -8.162231e-01
2.815371e+08 7.234497e-01 6.278687e-01 2.594106e-05 3.453530e-05 1.210906e-05 -3.166869e-05 5.059204e-01 -8.010864e-01
2.817558e+08 7.230835e-01 6.290283e-01 1.071207e-05 -4.098006e-05 -1.336262e-05 -3.647245e-05 5.121460e-01 -7.866211e-01
2.819746e+08 7.231445e-01 6.299438e-01 -2.612546e-05 9.387732e-06 3.943965e-05 1.682341e-05 5.232544e-01 -7.722778e-01
2.821933e+08 7.230225e-01 6.311035e-01 -1.406111e-05 -3.933907e-06 -1.555588e-05 -9.438954e-06 5.355225e-01 -7.554932e-01
2.824120e+08 7.224731e-01 6.319580e-01 2.040062e-05 -7.931143e-06 3.331527e-05 -8.154660e-06 5.491943e-01 -7.421875e-01
2.826308e+08 7.221680e-01 6.325684e-01 -1.035072e-05 -2.261437e-05 -5.830452e-05 1.426786e-05 5.646973e-01 -7.293091e-01
2.828495e+08 7.225342e-01 6.348267e-01 -3.768131e-06 -2.987869e-05 -3.604405e-05 2.427772e-05 5.779419e-01 -7.174072e-01
2.830682e+08 7.219238e-01 6.349487e-01 5.711336e-06 -1.434702e-06 -3.143679e-06 5.185604e-06 5.901794e-01 -7.074890e-01
2.832870e+08 7.219238e-01 6.354370e-01 3.317930e-05 -7.392839e-06 -4.525483e-05 4.485250e-06 6.019897e-01 -6.969299e-01
2.835057e+08 7.214355e-01 6.369629e-01 2.003834e-05 3.138185e-05 -3.018789e-05 2.963468e-06 6.135864e-01 -6.848755e-01
2.837244e+08 7.214355e-01 6.377563e-01 3.980473e-06 3.447756e-05 4.246831e-06 -1.870655e-05 6.242371e-01 -6.724854e-01
2.839432e+08 7.207031e-01 6.379395e-01 1.756568e-05 4.921108e-06 -2.497248e-05 6.116927e-06 6.368408e-01 -6.605530e-01
2.841619e+08 7.214966e-01 6.394043e-01 -8.765608e-06 9.673648e-06 5.298108e-05 1.791865e-05 6.479187e-01 -6.479187e-01
2.843806e+08 7.213745e-01 6.408081e-01 1.962762e-06 -7.029623e-06 1.619942e-05 -1.501944e-05 6.612549e-01 -6.374207e-01
2.845994e+08 7.207031e-01 6.414185e-01 9.874348e-06 -1.089415e-05 -9.905547e-06 4.634261e-06 6.755676e-01 -6.257629e-01
2.848181e+08 7.210083e-01 6.429443e-01 -1.995824e-06 -1.725554e-05 8.156523e-06 3.335439e-05 6.885681e-01 -6.185303e-01
2.850368e+08 7.203369e-01 6.439209e-01 1.515169e-05 -2.155360e-05 -2.483465e-05 -2.926961e-05 6.999207e-01 -6.102295e-01
2.852556e+08 7.209473e-01 6.445923e-01 -5.035661e-06 1.526438e-05 -2.281927e-05 -2.091378e-05 7.108154e-01 -6.047974e-01
2.854743e+08 7.202759e-01 6.460571e-01 9.877607e-06 -1.089647e-05 -9.272248e-06 -1.982972e-05 7.176514e-01 -5.983276e-01
2.856930e+08 7.202759e-01 6.468506e-01 -5.511567e-06 -1.824182e-05 5.598366e-05 4.814938e-05 7.227783e-01 -5.901489e-01
2.859117e+08 7.197266e-01 6.477051e-01 1.533888e-06 -1.626741e-05 -3.021583e-05 2.967194e-06 7.259521e-01 -5.809937e-01
2.861305e+08 7.191772e-01 6.486816e-01 2.352893e-05 8.113682e-06 1.769513e-06 -3.797933e-05 7.300415e-01 -5.688477e-01
2.863492e+08 7.191162e-01 6.499634e-01 -1.364667e-05 -1.901109e-05 -1.353212e-05 -1.120381e-06 7.330933e-01 -5.555420e-01
2.865679e+08 7.194214e-01 6.508179e-01 -2.594851e-05 1.400150e-05 -9.275973e-06 -1.984090e-05 7.399902e-01 -5.392456e-01
2.867867e+08 7.188721e-01 6.516724e-01 -3.672764e-05 -1.790747e-05 -4.984315e-10 1.215597e-10 7.481079e-01 -5.217896e-01
2.870054e+08 7.190552e-01 6.522827e-01 5.291775e-06 1.362432e-05 -2.345257e-05 3.509223e-06 7.597656e-01 -5.056763e-01
2.872241e+08 7.188721e-01 6.535034e-01 1.211651e-05 1.097377e-05 -1.418777e-05 2.335757e-05 7.744751e-01 -4.903564e-01
2.874429e+08 7.190552e-01 6.547241e-01 -1.429766e-05 -8.568168e-06 -4.600734e-07 -1.094583e-05 7.910156e-01 -4.797363e-01
2.876616e+08 7.188721e-01 6.553955e-01 -1.991168e-06 -1.726579e-05 1.623109e-05 -1.501851e-05 8.076782e-01 -4.744263e-01
2.878803e+08 7.191772e-01 6.560669e-01 -2.397597e-05 6.958842e-06 -1.780502e-05 1.762528e-05 8.226318e-01 -4.683838e-01
2.880991e+08 7.191162e-01 6.572266e-01 -2.443232e-05 -2.658926e-05 3.153924e-06 -5.193986e-06 8.358765e-01 -4.691162e-01
2.883178e+08 7.185059e-01 6.577148e-01 5.962327e-06 2.748892e-05 -7.413328e-06 2.392195e-05 8.447876e-01 -4.706421e-01
2.885365e+08 7.187500e-01 6.593018e-01 2.639741e-05 -4.751608e-06 -1.874473e-05 -4.278496e-06 8.507690e-01 -4.713745e-01
2.887552e+08 7.182007e-01 6.593018e-01 -1.099485e-06 1.210545e-06 -1.893006e-05 3.114156e-05 8.542480e-01 -4.708862e-01
2.889740e+08 7.182617e-01 6.610107e-01 2.289750e-05 1.855753e-05 1.603365e-05 2.043322e-05 8.548584e-01 -4.680786e-01
2.891927e+08 7.188110e-01 6.617432e-01 2.090633e-05 1.307577e-06 2.598763e-05 1.578219e-05 8.550415e-01 -4.653320e-01
2.894114e+08 7.191772e-01 6.623535e-01 -4.394213e-06 4.840316e-06 -4.082918e-06 -1.671351e-05 8.563232e-01 -4.580078e-01
2.896302e+08 7.191772e-01 6.631470e-01 8.578878e-06 1.000427e-05 2.285279e-05 2.097338e-05 8.568726e-01 -4.523315e-01
2.898489e+08 7.184448e-01 6.635742e-01 5.944166e-06 3.183261e-06 2.210401e-05 -3.636442e-05 8.598022e-01 -4.451294e-01
2.900676e+08 7.186890e-01 6.647339e-01 2.706982e-05 -1.521967e-05 3.592484e-05 1.115166e-05 8.637695e-01 -4.405518e-01
2.902864e+08 7.187500e-01 6.660156e-01 -1.474470e-05 6.502494e-06 -3.843009e-05 -3.049150e-05 8.670044e-01 -4.355469e-01
2.905051e+08 7.186279e-01 6.671753e-01 7.483177e-06 -1.309160e-05 -1.377985e-05 3.436022e-05 8.698730e-01 -4.333496e-01
2.907238e+08 7.191162e-01 6.676025e-01 2.201088e-05 2.440624e-05 2.779439e-05 -2.228469e-05 8.716431e-01 -4.289551e-01
2.909426e+08 7.179565e-01 6.678467e-01 -2.076849e-07 1.971237e-05 2.755225e-05 1.320057e-05 8.738403e-01 -4.265137e-01
2.911613e+08 7.179565e-01 6.694946e-01 -4.367903e-06 2.915785e-05 -1.814216e-06 -4.385039e-05 8.736572e-01 -4.206543e-01
2.913800e+08 7.181396e-01 6.703491e-01 -8.144416e-06 -7.604249e-07 -1.402106e-05 -1.208950e-05 8.756714e-01 -4.169922e-01
2.915988e+08 7.184448e-01 6.716309e-01 1.804344e-05 -1.013838e-05 1.765136e-05 1.787022e-05 8.778687e-01 -4.124146e-01
2.918175e+08 7.185669e-01 6.716309e-01 2.641976e-05 -4.744157e-06 1.764763e-05 1.785625e-05 8.817139e-01 -4.093628e-01
2.920362e+08 7.187500e-01 6.721191e-01 -1.763925e-05 4.372373e-05 -1.022592e-05 -4.182756e-05 8.851318e-01 -4.060059e-01
2.922550e+08 7.185059e-01 6.733398e-01 -3.984012e-05 1.464039e-05 -7.194653e-05 -2.236664e-05 8.888550e-01 -4.047852e-01
2.924737e+08 7.186279e-01 6.738281e-01 2.647284e-06 6.826129e-06 2.714619e-05 2.235174e-06 8.939819e-01 -4.041748e-01
2.926924e+08 7.188721e-01 6.745605e-01 -6.830785e-06 2.640765e-06 3.485940e-05 2.474897e-05 8.941650e-01 -4.049683e-01
2.929111e+08 7.181396e-01 6.752319e-01 5.314127e-06 -3.503077e-05 -3.754906e-05 -8.570030e-06 8.937988e-01 -4.056396e-01
2.931299e+08 7.182007e-01 6.765747e-01 -1.718476e-05 4.300848e-06 3.394112e-05 2.833083e-06 8.939209e-01 -4.052124e-01
2.933486e+08 7.184448e-01 6.778564e-01 1.078472e-05 3.190711e-05 1.878943e-05 4.298985e-06 8.905029e-01 -4.031982e-01
2.935673e+08 7.188721e-01 6.784058e-01 -6.628223e-06 -1.708139e-05 -4.030019e-05 7.595867e-06 8.886108e-01 -3.997192e-01
2.937861e+08 7.191772e-01 6.784058e-01 -1.342408e-05 9.909272e-06 -3.079325e-05 -8.031726e-06 8.875732e-01 -3.926392e-01
2.940048e+08 7.192993e-01 6.791382e-01 1.630187e-05 1.541339e-06 3.646500e-05 2.217107e-05 8.887939e-01 -3.865356e-01
2.942235e+08 7.192383e-01 6.799316e-01 1.585949e-05 -7.715076e-06 -3.350712e-05 8.165836e-06 8.925781e-01 -3.802490e-01
2.944423e+08 7.188110e-01 6.802979e-01 1.523644e-06 3.239885e-05 -3.390014e-06 4.075095e-05 8.992310e-01 -3.732910e-01
2.946610e+08 7.192383e-01 6.823730e-01 1.233257e-05 -3.305636e-05 4.918128e-05 1.370907e-06 9.066162e-01 -3.704834e-01
2.948797e+08 7.197876e-01 6.817017e-01 -3.590807e-05 5.494803e-07 2.197921e-05 -9.182841e-07 9.141846e-01 -3.681641e-01
2.950985e+08 7.193604e-01 6.826782e-01 -6.602146e-06 -1.709163e-05 -2.718531e-05 -2.263114e-06 9.218140e-01 -3.711548e-01
2.953172e+08 7.194824e-01 6.838379e-01 9.916723e-06 -1.090020e-05 1.201406e-05 3.738329e-06 9.247437e-01 -3.745728e-01
2.955359e+08 7.196655e-01 6.846924e-01 2.025627e-05 -1.256354e-05 -1.927838e-05 -1.530256e-05 9.283447e-01 -3.785400e-01
2.957546e+08 7.196045e-01 6.853027e-01 -2.996065e-05 3.729016e-06 2.676249e-05 -8.730218e-06 9.284058e-01 -3.839111e-01
2.959734e+08 7.196045e-01 6.850586e-01 2.775238e-10 -1.305978e-11 -2.561882e-05 -4.857779e-06 9.254761e-01 -3.856201e-01
2.961921e+08 7.205811e-01 6.879272e-01 1.794472e-05 -2.233684e-05 1.806300e-05 -1.041405e-05 9.205933e-01 -3.861694e-01
2.964108e+08 7.207031e-01 6.876831e-01 -5.833805e-06 1.261290e-05 3.535300e-06 3.497675e-05 9.166260e-01 -3.833618e-01
2.966296e+08 7.203979e-01 6.890259e-01 3.754534e-05 -2.769008e-05 -5.392358e-06 -6.146263e-06 9.114380e-01 -3.789062e-01
2.968483e+08 7.201538e-01 6.893921e-01 1.505855e-05 -1.598988e-05 -2.884492e-05 -1.875684e-06 9.096680e-01 -3.729858e-01
2.970670e+08 7.203979e-01 6.904907e-01 1.406670e-05 2.736226e-06 4.379451e-05 -4.931167e-05 9.075928e-01 -3.675537e-01
2.972858e+08 7.204590e-01 6.911621e-01 2.287887e-05 -2.617389e-05 3.708340e-05 -3.525987e-05 9.057617e-01 -3.618774e-01
2.975045e+08 7.205811e-01 6.917725e-01 5.317852e-06 1.166109e-05 3.300607e-06 3.790855e-05 9.042358e-01 -3.547974e-01
2.977232e+08 7.207031e-01 6.918945e-01 2.475455e-05 -1.379289e-05 -3.202632e-05 -4.268810e-05 9.016113e-01 -3.472900e-01
2.979420e+08 7.206421e-01 6.921387e-01 1.696963e-05 6.342307e-06 1.285691e-05 -1.946185e-05 8.975220e-01 -3.388672e-01
2.981607e+08 7.201538e-01 6.929321e-01 -1.647510e-05 -1.071487e-05 4.153699e-05 -1.467392e-05 8.932495e-01 -3.296509e-01
2.983794e+08 7.210083e-01 6.947632e-01 -1.650956e-05 -7.469207e-07 1.510605e-06 -2.312101e-05 8.918457e-01 -3.189697e-01
2.985982e+08 7.208862e-01 6.932983e-01 2.451241e-06 -2.183951e-05 4.748255e-05 -1.722574e-05 8.899536e-01 -3.030396e-01
2.988169e+08 7.211914e-01 6.948853e-01 1.507532e-05 -1.599267e-05 1.696125e-05 6.898306e-06 8.897095e-01 -2.866821e-01
2.990356e+08 7.199707e-01 6.953735e-01 5.480647e-05 2.389774e-05 -2.016127e-05 4.216656e-05 8.940430e-01 -2.719727e-01
2.992544e+08 7.214355e-01 6.959229e-01 3.400259e-05 -7.195398e-06 -2.442487e-05 1.874194e-05 9.015503e-01 -2.571411e-01
2.994731e+08 7.209473e-01 6.963501e-01 -1.163874e-05 -4.640780e-06 -4.585832e-05 -8.780509e-06 9.091187e-01 -2.449951e-01
2.996918e+08 7.208252e-01 6.970215e-01 -3.059022e-05 -3.464520e-06 1.118239e-05 6.528571e-06 9.176636e-01 -2.346191e-01
2.999105e+08 7.208862e-01 6.981201e-01 1.071766e-05 -1.648907e-05 -3.989786e-05 -1.134351e-05 9.254761e-01 -2.287598e-01
3.001293e+08 7.209473e-01 6.972656e-01 -1.531094e-06 3.300048e-05 -3.485195e-05 6.332994e-07 9.320068e-01 -2.274170e-01
3.003480e+08 7.210693e-01 6.988525e-01 -3.818423e-08 1.991726e-05 -1.118425e-05 -6.534159e-06 9.334717e-01 -2.244263e-01
3.005667e+08 7.221069e-01 6.993408e-01 -8.221716e-06 -1.530256e-05 -9.523705e-06 -3.256276e-05 9.308472e-01 -2.230835e-01
3.007855e+08 7.211914e-01 7.003174e-01 4.613400e-05 -6.936491e-06 1.514331e-06 -2.313405e-05 9.239502e-01 -2.192383e-01
3.010042e+08 7.221069e-01 6.996460e-01 9.709038e-06 2.203044e-06 2.687052e-05 3.366917e-05 9.147949e-01 -2.111816e-01
3.012229e+08 7.214966e-01 7.019043e-01 2.475828e-05 6.131828e-06 9.661540e-06 2.970174e-05 9.030151e-01 -1.992798e-01
3.014417e+08 7.217407e-01 7.008057e-01 -1.255423e-05 -5.565211e-05 -3.471226e-05 -2.253801e-06 8.919067e-01 -1.823120e-01
3.016604e+08 7.221069e-01 7.017822e-01 1.505483e-05 3.918074e-06 1.127832e-06 -1.736451e-05 8.846436e-01 -1.624756e-01
3.018791e+08 7.221069e-01 7.015991e-01 3.933161e-05 4.455447e-06 4.536286e-05 1.743808e-05 8.784180e-01 -1.412354e-01
3.020979e+08 7.219238e-01 7.033691e-01 -4.975591e-07 4.369533e-06 -2.971105e-05 9.685755e-06 8.756714e-01 -1.186523e-01
3.023166e+08 7.227173e-01 7.036133e-01 1.020590e-05 -2.155546e-06 -2.411939e-05 1.297705e-05 8.740845e-01 -9.613037e-02
3.025353e+08 7.222900e-01 7.038574e-01 1.317076e-05 -1.842808e-05 6.543472e-06 -1.120660e-05 8.757324e-01 -7.342529e-02
3.027540e+08 7.219238e-01 7.036743e-01 2.634525e-05 -4.680827e-05 -6.164424e-06 5.412847e-06 8.767090e-01 -5.456543e-02
3.029728e+08 7.219238e-01 7.047119e-01 1.558103e-05 -1.041591e-05 -3.569014e-05 1.221709e-05 8.785400e-01 -3.308105e-02
3.031915e+08 7.219238e-01 7.047119e-01 1.258403e-05 2.578832e-05 5.809590e-05 8.791685e-07 8.800659e-01 -1.336670e-02
3.034102e+08 7.223511e-01 7.050781e-01 1.264550e-05 -4.095025e-06 1.878943e-07 -2.895948e-06 8.834839e-01 4.516602e-03
3.036290e+08 7.210693e-01 7.053833e-01 -4.041009e-05 3.419816e-05 1.927279e-05 -2.780370e-05 8.875732e-01 2.404785e-02
3.038477e+08 7.221680e-01 7.061157e-01 -1.306646e-05 -2.142228e-05 -3.030524e-05 1.839176e-05 8.900146e-01 4.241943e-02
3.040664e+08 7.219238e-01 7.062378e-01 4.861504e-05 1.108646e-05 2.317503e-05 1.512468e-06 8.956909e-01 6.030273e-02
3.042852e+08 7.219849e-01 7.068481e-01 -3.853068e-05 4.656240e-05 -3.715605e-05 -5.482137e-05 8.992920e-01 7.727051e-02
3.045039e+08 7.224121e-01 7.074585e-01 -1.359824e-05 -7.086433e-06 2.748147e-05 2.510101e-05 9.065552e-01 9.136963e-02
3.047226e+08 7.218018e-01 7.070312e-01 -3.495812e-05 -2.394058e-05 2.506748e-05 -2.746098e-05 9.107056e-01 1.024170e-01
3.049414e+08 7.213135e-01 7.075806e-01 1.940411e-06 2.437504e-06 -1.006573e-05 -2.394058e-05 9.135132e-01 1.137695e-01
3.051601e+08 7.219238e-01 7.089844e-01 -3.018044e-05 1.205690e-05 1.312979e-05 -2.243742e-05 9.150391e-01 1.218872e-01
3.053788e+08 7.220459e-01 7.094116e-01 3.696419e-05 -3.581867e-06 4.060194e-05 2.648681e-06 9.140015e-01 1.317749e-01
3.055976e+08 7.216797e-01 7.095947e-01 2.536736e-05 -2.811663e-05 2.805516e-05 1.639500e-05 9.094238e-01 1.412964e-01
3.058163e+08 7.218018e-01 7.095337e-01 3.449246e-05 8.374453e-06 4.116073e-05 -6.057322e-06 9.031982e-01 1.522217e-01
3.060350e+08 7.222900e-01 7.103882e-01 -7.317401e-06 5.815644e-06 7.116050e-05 -1.867115e-05 8.967285e-01 1.672363e-01
3.062538e+08 7.225342e-01 7.102051e-01 -1.811609e-05 4.224852e-05 -3.821775e-05 4.997849e-05 8.900146e-01 1.835327e-01
3.064725e+08 7.222900e-01 7.100830e-01 -4.183315e-05 7.390976e-06 2.320856e-05 1.501292e-06 8.853149e-01 2.009277e-01
3.066912e+08 7.225342e-01 7.116089e-01 -3.546290e-05 -1.953542e-05 -2.399459e-05 1.009554e-05 8.842773e-01 2.208252e-01
3.069099e+08 7.225342e-01 7.116089e-01 -2.728961e-05 1.572445e-05 -3.542751e-06 -3.523007e-05 8.851318e-01 2.402344e-01
3.071287e+08 7.222900e-01 7.123413e-01 1.310278e-05 1.146831e-05 4.418567e-05 3.791228e-05 8.883667e-01 2.571411e-01
3.073474e+08 7.219238e-01 7.121582e-01 -2.290308e-05 6.260350e-06 -2.654269e-05 -3.965944e-05 8.928833e-01 2.725830e-01
3.075661e+08 7.222900e-01 7.131348e-01 1.506694e-05 3.932044e-06 -7.692724e-07 1.162197e-05 8.976440e-01 2.842407e-01
3.077849e+08 7.221069e-01 7.121582e-01 1.708418e-05 -2.356432e-05 -3.917143e-06 -2.941489e-05 9.031982e-01 2.930298e-01
3.080036e+08 7.221680e-01 7.128906e-01 3.742427e-05 2.200902e-05 -1.743250e-05 -1.134351e-06 9.065552e-01 3.005371e-01
3.082223e+08 7.214966e-01 7.133789e-01 3.609620e-05 -2.469681e-05 -5.808193e-06 -3.818423e-07 9.065552e-01 3.048706e-01
3.084411e+08 7.213745e-01 7.138672e-01 5.821697e-06 7.316470e-06 -3.581867e-05 1.222081e-05 9.060669e-01 3.099365e-01
3.086598e+08 7.211914e-01 7.136230e-01 1.504645e-05 1.392514e-05 5.616993e-05 3.286824e-05 9.037476e-01 3.161621e-01
3.088785e+08 7.213745e-01 7.144775e-01 4.922599e-05 -2.317503e-05 9.894371e-06 2.691709e-05 8.990479e-01 3.231201e-01
3.090973e+08 7.214355e-01 7.144165e-01 1.702737e-05 6.387010e-06 -1.724437e-05 -4.049391e-06 8.964233e-01 3.308105e-01
3.093160e+08 7.216187e-01 7.148438e-01 1.352280e-06 2.678856e-05 1.124945e-05 6.574206e-06 8.941650e-01 3.379517e-01
3.095347e+08 7.203369e-01 7.144775e-01 1.854263e-05 -6.744638e-06 1.704507e-05 6.960705e-06 8.913574e-01 3.475952e-01
3.097534e+08 7.200317e-01 7.145386e-01 2.522022e-06 -2.190471e-05 -1.145527e-06 1.742970e-05 8.900146e-01 3.540649e-01
3.099722e+08 7.208252e-01 7.159424e-01 4.924089e-05 -1.326576e-05 4.537776e-05 2.051145e-05 8.884888e-01 3.616943e-01
3.101909e+08 7.210083e-01 7.166138e-01 3.162026e-05 1.469441e-05 -6.579794e-06 1.125969e-05 8.864746e-01 3.679199e-01
3.104096e+08 7.202148e-01 7.163696e-01 1.361873e-05 7.116236e-06 5.815178e-06 3.804453e-07 8.851318e-01 3.746948e-01
3.106284e+08 7.203979e-01 7.171021e-01 2.422929e-05 -1.049340e-04 2.498925e-05 -2.466887e-05 8.836060e-01 3.800049e-01
3.108471e+08 7.196045e-01 7.168579e-01 1.857616e-05 -1.675915e-05 -5.681813e-05 -2.420694e-05 8.816528e-01 3.853760e-01
3.110658e+08 7.200317e-01 7.174683e-01 1.177751e-05 -2.529658e-05 9.492040e-06 -5.491823e-05 8.824463e-01 3.923950e-01
3.112846e+08 7.200928e-01 7.171631e-01 1.187623e-05 -4.524738e-05 -1.478568e-05 -4.188716e-05 8.823242e-01 3.975220e-01
3.115033e+08 7.203979e-01 7.184448e-01 -2.672896e-05 -1.860037e-05 -1.554936e-05 -3.028475e-05 8.830566e-01 4.030762e-01
3.117220e+08 7.189331e-01 7.176514e-01 -1.506880e-05 -1.394562e-05 4.051998e-05 5.602837e-06 8.874512e-01 4.068604e-01
3.119408e+08 7.199707e-01 7.185669e-01 1.368299e-05 -1.285784e-05 -3.494695e-05 -2.309680e-06 8.898315e-01 4.069824e-01
3.121595e+08 7.194824e-01 7.190552e-01 3.165193e-05 4.725531e-06 1.398101e-05 -3.417768e-05 8.930664e-01 4.044800e-01
3.123782e+08 7.188721e-01 7.181396e-01 3.116205e-05 9.128824e-06 3.177859e-05 -3.882311e-05 8.929443e-01 3.986206e-01
3.125970e+08 7.186890e-01 7.183228e-01 2.383254e-06 1.804065e-05 5.258247e-05 5.401671e-07 8.896484e-01 3.923340e-01
3.128157e+08 7.191162e-01 7.192993e-01 1.840480e-05 4.320778e-05 -1.930166e-07 2.912944e-06 8.826904e-01 3.862915e-01
3.130344e+08 7.192993e-01 7.197876e-01 1.124386e-05 -1.092628e-05 1.223572e-05 -7.973053e-06 8.718262e-01 3.804932e-01
3.132532e+08 7.188721e-01 7.204590e-01 1.566485e-05 -2.043135e-05 -2.313405e-05 -4.468486e-06 8.587036e-01 3.798828e-01
3.134719e+08 7.184448e-01 7.203979e-01 -5.272217e-06 -2.172403e-05 6.604008e-06 -1.127087e-05 8.447266e-01 3.818970e-01
3.136906e+08 7.185669e-01 7.202148e-01 -2.871267e-06 -1.366716e-05 2.972037e-05 -6.821007e-06 8.311768e-01 3.893433e-01
3.139093e+08 7.174683e-01 7.206421e-01 7.225201e-06 2.416596e-05 2.194941e-05 2.194755e-05 8.199463e-01 3.988037e-01
3.141281e+08 7.183838e-01 7.213135e-01 -4.347414e-06 -1.050811e-05 -1.941808e-07 2.915971e-06 8.126221e-01 4.118652e-01
3.143468e+08 7.176514e-01 7.207031e-01 1.913588e-05 -2.114754e-05 4.138052e-05 -6.046146e-06 8.067627e-01 4.246216e-01
3.145655e+08 7.172241e-01 7.216187e-01 3.478862e-05 -3.156438e-05 3.322959e-06 -4.955754e-05 8.069458e-01 4.367676e-01
3.147843e+08 7.172241e-01 7.218018e-01 -3.399700e-05 -4.284270e-05 -4.121289e-05 3.091991e-06 8.093262e-01 4.467773e-01
3.150030e+08 7.174072e-01 7.216187e-01 -1.979526e-06 7.551629e-06 -1.205411e-05 5.061738e-06 8.134766e-01 4.557495e-01
3.152217e+08 7.169800e-01 7.219849e-01 2.869405e-06 1.366995e-05 2.255104e-05 1.321360e-05 8.176880e-01 4.606934e-01
3.154405e+08 7.162476e-01 7.227783e-01 1.186132e-05 -3.532693e-05 1.939479e-07 -2.916437e-06 8.217163e-01 4.631958e-01
3.156592e+08 7.155762e-01 7.234497e-01 1.899805e-05 8.860603e-06 2.353452e-05 -1.352280e-06 8.250122e-01 4.638672e-01
3.158779e+08 7.154541e-01 7.225342e-01 1.751631e-05 1.205597e-05 3.538281e-05 -3.501773e-06 8.241577e-01 4.631958e-01
3.160967e+08 7.150879e-01 7.233887e-01 -4.502945e-06 1.949165e-05 -7.199124e-06 2.002530e-05 8.250732e-01 4.613647e-01
3.163154e+08 7.147827e-01 7.237549e-01 3.119744e-05 9.153038e-06 -2.549961e-05 3.051944e-05 8.217163e-01 4.621582e-01
3.165341e+08 7.144775e-01 7.233276e-01 -2.229027e-05 -3.817305e-05 2.294220e-05 7.377937e-06 8.171387e-01 4.625244e-01
3.167528e+08 7.141724e-01 7.240601e-01 2.422743e-05 4.066527e-05 2.392195e-05 -7.199124e-06 8.124390e-01 4.632568e-01
3.169716e+08 7.139893e-01 7.243652e-01 5.481765e-06 -2.832152e-05 1.711957e-05 7.006340e-06 8.073120e-01 4.670410e-01
3.171903e+08 7.135620e-01 7.246704e-01 4.879385e-05 1.119450e-05 -7.595867e-06 2.587400e-05 8.029175e-01 4.705811e-01
3.174090e+08 7.125854e-01 7.242432e-01 3.217161e-05 1.036189e-05 2.508610e-05 -2.467819e-05 7.957764e-01 4.745483e-01
3.176278e+08 7.138672e-01 7.249756e-01 2.867356e-05 3.112108e-05 2.570823e-05 5.450100e-05 7.903442e-01 4.800415e-01
3.178465e+08 7.130737e-01 7.248535e-01 1.220405e-05 2.989545e-07 2.782233e-05 2.237037e-05 7.844238e-01 4.865112e-01
3.180652e+08 7.125244e-01 7.258911e-01 -3.851578e-05 -1.336075e-05 2.493709e-05 -2.177991e-05 7.771606e-01 4.960938e-01
3.182840e+08 7.123413e-01 7.258301e-01 6.847549e-06 -1.429580e-06 2.880394e-05 7.802621e-06 7.727051e-01 5.040283e-01
3.185027e+08 7.112427e-01 7.249756e-01 -1.812354e-05 1.238007e-05 -1.475215e-05 -4.200265e-05 7.684937e-01 5.157471e-01
3.187214e+08 7.108765e-01 7.261353e-01 2.099294e-05 1.323409e-06 4.827231e-05 -2.018362e-05 7.681885e-01 5.287476e-01
3.189402e+08 7.104492e-01 7.272339e-01 -4.984066e-05 -2.425164e-06 -4.167482e-05 8.888543e-06 7.706909e-01 5.399780e-01
3.191589e+08 7.109985e-01 7.260742e-01 -2.850778e-05 3.452785e-05 1.595914e-05 2.452172e-05 7.745972e-01 5.507202e-01
3.193776e+08 7.102051e-01 7.268066e-01 2.758577e-06 3.373809e-05 -2.085045e-05 4.844740e-05 7.806396e-01 5.560303e-01
3.195964e+08 7.095947e-01 7.276001e-01 -1.064688e-05 -2.351217e-05 -5.243346e-06 -9.153038e-06 7.874756e-01 5.588989e-01
3.198151e+08 7.100220e-01 7.265625e-01 8.324627e-06 -4.601665e-06 -1.374632e-06 -6.751716e-05 7.914429e-01 5.543213e-01
3.200338e+08 7.091675e-01 7.276611e-01 3.044493e-05 -3.209151e-05 -1.187716e-05 2.130866e-06 7.923584e-01 5.505981e-01
3.202526e+08 7.086792e-01 7.285156e-01 -2.590939e-06 3.199838e-05 -3.909878e-05 -2.904795e-05 7.880249e-01 5.421143e-01
3.204713e+08 7.084961e-01 7.291260e-01 1.027482e-05 -2.152286e-06 -1.811516e-05 7.577240e-06 7.791138e-01 5.371094e-01
3.206900e+08 7.080688e-01 7.299194e-01 -1.309253e-05 -2.157129e-05 9.488314e-06 3.294088e-05 7.673340e-01 5.309448e-01
3.209087e+08 7.078247e-01 7.291260e-01 8.145347e-06 3.547780e-05 -2.394989e-05 7.186085e-06 7.511597e-01 5.293579e-01
3.211275e+08 7.074585e-01 7.297363e-01 1.974404e-07 -4.009157e-05 -1.049694e-05 -1.831446e-05 7.318115e-01 5.323486e-01
3.213462e+08 7.071533e-01 7.302246e-01 1.818500e-05 -2.239272e-05 1.769513e-06 -2.629496e-05 7.145996e-01 5.384521e-01
3.215649e+08 7.062378e-01 7.309570e-01 1.810212e-05 -2.364628e-06 -1.129508e-05 -6.633811e-06 6.967773e-01 5.500793e-01
3.217837e+08 7.053223e-01 7.309570e-01 5.001202e-06 -2.392195e-05 -2.051890e-05 4.260615e-05 6.813965e-01 5.627747e-01
3.220024e+08 7.048340e-01 7.309570e-01 3.836304e-05 5.348772e-05 -1.188274e-05 2.120622e-06 6.694946e-01 5.779724e-01
3.222211e+08 7.045288e-01 7.312622e-01 -1.314562e-05 -1.155678e-05 2.000015e-07 -2.920860e-06 6.562500e-01 5.919189e-01
3.224399e+08 7.039795e-01 7.315674e-01 -2.954714e-05 4.338473e-05 -2.456829e-05 1.592003e-05 6.492615e-01 6.073608e-01
3.226586e+08 7.039795e-01 7.312622e-01 2.343953e-05 9.395182e-06 2.960116e-05 -3.859401e-06 6.419983e-01 6.213379e-01
3.228773e+08 7.034302e-01 7.321777e-01 3.722869e-05 -1.351908e-05 1.308136e-05 -1.965277e-05 6.364441e-01 6.333313e-01
3.230961e+08 7.032471e-01 7.325439e-01 -4.227087e-05 3.748573e-05 1.573376e-05 2.749078e-05 6.301880e-01 6.455688e-01
3.233148e+08 7.030640e-01 7.332764e-01 -4.080869e-05 3.429130e-05 -4.796311e-05 1.434982e-05 6.251831e-01 6.546936e-01
3.235335e+08 7.025146e-01 7.330933e-01 8.688308e-06 2.108142e-05 -1.653656e-05 -1.580548e-05 6.201782e-01 6.650391e-01
3.237522e+08 7.020264e-01 7.329102e-01 -2.302788e-05 6.224960e-06 2.999976e-05 -9.700656e-06 6.130981e-01 6.726990e-01
3.239710e+08 7.015991e-01 7.338867e-01 1.616869e-05 -4.815869e-06 3.466755e-05 8.225441e-06 6.080322e-01 6.821594e-01
3.241897e+08 7.009277e-01 7.337646e-01 6.182119e-06 3.307685e-05 -1.514703e-05 -3.623962e-05 6.018677e-01 6.869507e-01
3.244084e+08 7.006226e-01 7.346191e-01 -1.593307e-05 5.055964e-05 -1.733191e-05 -4.125759e-06 5.947876e-01 6.918335e-01
3.246272e+08 6.996460e-01 7.351685e-01 -6.974116e-05 4.317984e-05 3.465451e-05 8.247793e-06 5.869141e-01 6.950684e-01
3.248459e+08 6.990356e-01 7.352295e-01 1.636706e-05 -3.488921e-05 -4.838221e-06 -1.500454e-05 5.759277e-01 6.986694e-01
3.250646e+08 6.993408e-01 7.354126e-01 1.028460e-05 -2.143905e-06 -2.356619e-05 1.333654e-06 5.645752e-01 7.022400e-01
3.252834e+08 6.986694e-01 7.366333e-01 -2.188608e-06 3.767200e-05 4.835427e-05 -2.017617e-05 5.504150e-01 7.065430e-01
3.255021e+08 6.987305e-01 7.371216e-01 -3.584661e-05 2.036244e-05 -3.710389e-05 2.681278e-05 5.332642e-01 7.116394e-01
3.257208e+08 6.976929e-01 7.370605e-01 -4.980713e-06 1.392607e-05 4.433095e-06 2.085045e-05 5.188599e-01 7.233887e-01
3.259396e+08 6.979370e-01 7.370605e-01 1.715310e-05 -3.581867e-06 2.577156e-05 -3.346987e-05 5.028076e-01 7.337646e-01
3.261583e+08 6.966553e-01 7.372437e-01 -1.475867e-05 1.166482e-05 2.919510e-05 1.998618e-06 4.894409e-01 7.478027e-01
3.263770e+08 6.971436e-01 7.377319e-01 -1.423899e-05 7.259659e-06 2.178550e-05 2.495758e-05 4.788208e-01 7.622681e-01
3.265958e+08 6.954956e-01 7.385864e-01 2.005138e-06 -7.577706e-06 -6.546080e-05 1.310930e-05 4.719849e-01 7.766724e-01
3.268145e+08 6.955566e-01 7.388306e-01 2.870522e-05 4.129484e-05 1.268834e-05 -1.380499e-05 4.657593e-01 7.885742e-01
3.270332e+08 6.951294e-01 7.395020e-01 -4.861504e-06 -6.151386e-06 -1.047831e-05 -1.833402e-05 4.646606e-01 8.004761e-01
3.272520e+08 6.945801e-01 7.401733e-01 -2.504699e-05 1.383014e-05 -1.773518e-05 1.711771e-06 4.611206e-01 8.068237e-01
3.274707e+08 6.940308e-01 7.399292e-01 2.923422e-05 2.683513e-05 3.729781e-10 -3.251159e-10 4.633179e-01 8.082886e-01
3.276894e+08 6.936035e-01 7.402954e-01 1.419801e-05 2.779067e-06 -4.734471e-05 5.561858e-06 4.562988e-01 8.095093e-01
3.279081e+08 6.927490e-01 7.407227e-01 -2.534315e-05 -2.193451e-05 1.168158e-05 8.037314e-07 4.468994e-01 8.061523e-01
3.281269e+08 6.920166e-01 7.416382e-01 1.522526e-05 -6.027520e-06 2.276339e-05 1.037866e-05 4.353027e-01 8.058472e-01
3.283456e+08 6.918335e-01 7.424927e-01 -2.008863e-06 7.578172e-06 1.209136e-05 -5.038455e-06 4.187012e-01 8.049927e-01
3.285643e+08 6.906128e-01 7.421875e-01 9.729411e-07 1.230976e-06 -2.717040e-05 -3.122166e-05 4.029541e-01 8.073730e-01
3.287831e+08 6.902466e-01 7.422485e-01 3.814697e-05 1.786090e-05 7.051975e-06 -1.710840e-05 3.861694e-01 8.153687e-01
3.290018e+08 6.910400e-01 7.434692e-01 -2.415664e-05 2.509542e-05 -8.877367e-06 4.343688e-05 3.691406e-01 8.242188e-01
3.292205e+08 6.901855e-01 7.437744e-01 -2.128817e-05 3.885664e-05 5.482510e-05 -2.849475e-05 3.536377e-01 8.366089e-01
3.294393e+08 6.897583e-01 7.440796e-01 2.152938e-05 6.993301e-06 1.692120e-05 9.975396e-06 3.418579e-01 8.499146e-01
3.296580e+08 6.896362e-01 7.448730e-01 7.381663e-06 -5.837996e-06 3.608689e-05 -1.218356e-05 3.299561e-01 8.652954e-01
3.298767e+08 6.884155e-01 7.455444e-01 -3.431458e-06 7.138588e-07 1.107529e-05 9.582378e-06 3.248901e-01 8.800659e-01
3.300955e+08 6.885986e-01 7.456055e-01 -2.145395e-05 -1.703948e-05 5.843118e-06 4.000030e-07 3.226318e-01 8.924561e-01
3.303142e+08 6.878052e-01 7.467651e-01 -3.429316e-05 -2.896413e-06 5.503371e-05 -3.140420e-05 3.190918e-01 9.060669e-01
3.305329e+08 6.863403e-01 7.468262e-01 5.200505e-06 3.187545e-05 -7.459894e-06 2.294220e-05 3.181152e-01 9.164429e-01
3.307516e+08 6.866455e-01 7.478027e-01 -1.449697e-05 -2.850220e-05 -4.000962e-06 -2.669916e-05 3.205566e-01 9.268799e-01
3.309704e+08 6.852417e-01 7.479248e-01 3.079139e-05 1.365133e-05 3.384426e-06 3.543310e-05 3.248901e-01 9.318237e-01
3.311891e+08 6.862793e-01 7.492065e-01 -3.488734e-06 1.075678e-05 4.071370e-05 5.770475e-06 3.299561e-01 9.364624e-01
3.314078e+08 6.859131e-01 7.493286e-01 -2.982095e-06 6.353483e-06 -2.236664e-05 -1.623295e-05 3.366699e-01 9.381104e-01
3.316266e+08 6.850586e-01 7.500610e-01 6.683171e-06 -5.731732e-05 -3.003515e-05 9.646639e-06 3.414307e-01 9.343872e-01
3.318453e+08 6.845703e-01 7.504272e-01 1.860783e-05 3.294088e-06 -9.238720e-06 -3.586896e-05 3.445435e-01 9.277954e-01
3.320640e+08 6.843262e-01 7.511597e-01 -1.826882e-05 2.243370e-05 -6.455928e-06 8.358154e-06 3.465576e-01 9.172363e-01
3.322828e+08 6.835327e-01 7.515259e-01 2.007466e-06 -7.587485e-06 2.377667e-05 -4.209578e-06 3.415527e-01 9.045410e-01
3.325015e+08 6.831665e-01 7.514648e-01 1.492724e-05 4.422292e-05 2.878904e-05 7.869676e-06 3.353882e-01 8.919067e-01
3.327202e+08 6.826782e-01 7.526855e-01 -2.527609e-06 1.200102e-05 -6.151386e-07 8.760951e-06 3.236084e-01 8.796997e-01
3.329390e+08 6.823120e-01 7.532959e-01 -2.720021e-05 3.145263e-05 -3.465451e-05 -8.305535e-06 3.078613e-01 8.685913e-01
3.331577e+08 6.818237e-01 7.541504e-01 4.802831e-06 1.621339e-05 -1.086481e-05 -1.251232e-05 2.877197e-01 8.625488e-01
3.333764e+08 6.810913e-01 7.536621e-01 -1.868606e-05 6.743707e-06 -1.086015e-05 -1.249742e-05 2.661743e-01 8.610229e-01
3.335952e+08 6.803589e-01 7.540894e-01 -1.926161e-05 2.120528e-05 -2.233870e-05 -1.622923e-05 2.452393e-01 8.630981e-01
3.338139e+08 6.795044e-01 7.546997e-01 -5.502254e-06 1.836196e-05 3.082864e-05 -2.129935e-05 2.246704e-01 8.697510e-01
3.340326e+08 6.799316e-01 7.560425e-01 3.638491e-05 -1.475401e-05 6.047077e-06 -2.511777e-06 2.085571e-01 8.807373e-01
3.342514e+08 6.790161e-01 7.556763e-01 -3.375113e-06 -9.351876e-06 1.935102e-05 -2.504326e-05 1.926270e-01 8.927612e-01
3.344701e+08 6.784668e-01 7.568970e-01 5.459879e-06 -8.303672e-06 1.895428e-05 -1.920480e-05 1.835327e-01 9.050293e-01
3.346888e+08 6.787109e-01 7.576904e-01 2.857111e-05 -1.454167e-05 8.214265e-07 -1.168530e-05 1.772461e-01 9.149170e-01
3.349075e+08 6.776733e-01 7.588501e-01 -3.502704e-06 1.077633e-05 1.168065e-05 8.242205e-07 1.734009e-01 9.261475e-01
3.351263e+08 6.771851e-01 7.586670e-01 3.044121e-05 -2.011657e-06 2.437271e-05 -1.295656e-05 1.719971e-01 9.327393e-01
3.353450e+08 6.765747e-01 7.598267e-01 -2.155080e-05 -7.012859e-06 1.978129e-05 -3.086776e-05 1.704712e-01 9.382935e-01
3.355637e+08 6.770020e-01 7.601318e-01 -1.480617e-05 1.165736e-05 3.321096e-05 2.872944e-05 1.668701e-01 9.404297e-01
3.357825e+08 6.758423e-01 7.606201e-01 -5.077571e-06 2.400391e-05 -7.068738e-06 1.709536e-05 1.636963e-01 9.420166e-01
3.360012e+08 6.758423e-01 7.622681e-01 5.578622e-06 -2.841838e-05 2.067536e-07 -2.921093e-06 1.560059e-01 9.406128e-01
3.362199e+08 6.754761e-01 7.623901e-01 2.094824e-05 2.150796e-05 -4.066899e-05 -5.796552e-06 1.511230e-01 9.415283e-01
3.364387e+08 6.745605e-01 7.622681e-01 -2.499484e-05 -6.305054e-06 -2.272055e-05 -1.041405e-05 1.427612e-01 9.423218e-01
3.366574e+08 6.749268e-01 7.633667e-01 -2.104789e-07 3.018416e-05 2.520718e-05 -2.463162e-05 1.313477e-01 9.445801e-01
3.368761e+08 6.744385e-01 7.639160e-01 8.771196e-06 1.109671e-05 2.417900e-05 -1.003407e-05 1.247559e-01 9.502563e-01
3.370949e+08 6.735840e-01 7.653198e-01 1.831539e-05 -2.245605e-05 -4.066154e-05 -5.841255e-06 1.168823e-01 9.509888e-01
3.373136e+08 6.737671e-01 7.662354e-01 -1.063757e-05 -2.364442e-05 -1.480058e-05 4.298612e-05 1.082153e-01 9.542236e-01
3.375323e+08 6.724243e-01 7.659302e-01 -3.870577e-05 -1.350977e-05 -8.761883e-06 -4.168227e-05 9.924316e-02 9.586182e-01
3.377510e+08 6.730957e-01 7.665405e-01 5.632639e-06 3.762543e-05 1.043733e-05 1.834426e-05 8.953857e-02 9.628906e-01
3.379698e+08 6.726074e-01 7.672729e-01 1.045410e-06 -8.839183e-06 4.085898e-05 2.905726e-06 8.245850e-02 9.672852e-01
3.381885e+08 6.723022e-01 7.684937e-01 1.579802e-05 -1.044944e-05 1.648720e-05 1.584180e-05 7.507324e-02 9.742432e-01
3.384072e+08 6.721802e-01 7.684937e-01 3.894791e-06 4.940666e-06 -2.960861e-05 3.762543e-06 6.951904e-02 9.819946e-01
3.386260e+08 6.719360e-01 7.697144e-01 3.390945e-05 -2.687797e-06 2.377480e-05 -4.183501e-06 6.390381e-02 9.883423e-01
3.388447e+08 6.715088e-01 7.698364e-01 -1.888350e-05 2.690032e-05 1.337379e-05 5.963072e-05 6.079102e-02 9.946289e-01
3.390634e+08 6.706543e-01 7.701416e-01 6.816816e-06 8.650590e-06 -3.712624e-05 -5.541742e-05 6.353760e-02 1.000977e+00
3.392822e+08 6.696777e-01 7.703857e-01 7.272698e-06 1.431722e-05 1.667440e-05 1.290068e-05 6.390381e-02 1.002197e+00
3.395009e+08 6.701050e-01 7.712402e-01 9.818934e-06 2.275221e-06 6.861985e-06 -1.418125e-05 6.665039e-02 9.989624e-01
3.397196e+08 6.695557e-01 7.732544e-01 -2.074149e-05 1.435820e-05 -2.253242e-05 -1.334213e-05 6.616211e-02 9.940186e-01
3.399384e+08 6.689453e-01 7.729492e-01 -1.325365e-05 -1.570210e-06 4.021823e-05 1.164153e-05 6.250000e-02 9.843140e-01
3.401571e+08 6.687012e-01 7.745361e-01 2.058968e-05 -6.028637e-05 4.086271e-05 2.909452e-06 5.816650e-02 9.761963e-01
3.403758e+08 6.688232e-01 7.746582e-01 1.498498e-05 -3.184564e-05 -2.939440e-05 8.437783e-07 4.602051e-02 9.678345e-01
3.405946e+08 6.685791e-01 7.760010e-01 -5.019829e-06 1.397077e-05 -2.856925e-05 -1.084246e-05 3.570557e-02 9.612427e-01
3.408133e+08 6.689453e-01 7.767944e-01 5.961955e-05 -2.095848e-05 -4.598871e-06 -1.793634e-05 1.708984e-02 9.573975e-01
3.410320e+08 6.681519e-01 7.770996e-01 -1.302920e-05 -3.181584e-05 -1.146737e-05 -3.752299e-06 2.746582e-03 9.575806e-01
3.412508e+08 6.675415e-01 7.778931e-01 -2.503954e-05 -6.323680e-06 -6.420910e-05 -4.585832e-06 -1.263428e-02 9.609375e-01
3.414695e+08 6.674194e-01 7.785034e-01 -3.781170e-07 -1.573749e-05 -1.042429e-05 -1.834612e-05 -2.636719e-02 9.667358e-01
3.416882e+08 6.668701e-01 7.797852e-01 -4.346948e-06 -1.061335e-05 2.793223e-05 1.961552e-05 -3.308105e-02 9.739990e-01
3.419069e+08 6.674194e-01 7.807007e-01 -1.573656e-05 3.762543e-07 1.794286e-05 -4.593283e-06 -3.656006e-02 9.815063e-01
3.421257e+08 6.674194e-01 7.814331e-01 3.191456e-05 4.908070e-06 -1.482852e-05 -3.923103e-05 -4.095459e-02 9.874268e-01
3.423444e+08 6.660767e-01 7.824707e-01 1.801178e-06 2.262369e-05 -1.962669e-05 2.794527e-05 -3.845215e-02 9.888306e-01
3.425631e+08 6.658325e-01 7.819824e-01 1.079310e-05 3.530178e-06 9.799376e-06 2.709962e-05 -3.424072e-02 9.870605e-01
3.427819e+08 6.669312e-01 7.832642e-01 1.582131e-05 -1.044851e-05 2.462044e-05 -1.587346e-05 -3.210449e-02 9.802246e-01
3.430006e+08 6.655884e-01 7.836304e-01 9.493902e-06 4.262477e-05 -9.153038e-06 -3.587268e-05 -3.149414e-02 9.694214e-01
3.432193e+08 6.651001e-01 7.841187e-01 -3.683567e-05 -1.110323e-05 -3.940612e-05 -2.335012e-05 -3.472900e-02 9.589844e-01
3.434381e+08 6.654663e-01 7.844849e-01 1.006015e-05 -2.797879e-05 1.730304e-05 4.165806e-06 -3.790283e-02 9.462280e-01
3.436568e+08 6.652222e-01 7.858276e-01 1.875218e-05 -6.741844e-06 -2.356619e-05 1.233071e-06 -4.705811e-02 9.315186e-01
3.438755e+08 6.652222e-01 7.865601e-01 2.167281e-05 -3.023073e-06 6.470364e-06 -8.339994e-06 -5.657959e-02 9.205933e-01
3.440943e+08 6.648560e-01 7.871094e-01 3.367849e-05 3.767200e-05 -6.260350e-06 5.416106e-06 -6.805420e-02 9.085083e-01
3.443130e+08 6.649170e-01 7.873535e-01 1.965277e-05 4.587695e-06 -1.313537e-05 1.959503e-05 -7.977295e-02 8.973999e-01
3.445317e+08 6.647339e-01 7.885742e-01 -2.905726e-07 -2.586097e-05 -1.147296e-05 -3.756955e-06 -9.558105e-02 8.884888e-01
3.447504e+08 6.638794e-01 7.886963e-01 1.948210e-06 2.476503e-06 1.254492e-06 -1.750235e-05 -1.094360e-01 8.786621e-01
3.449692e+08 6.646729e-01 7.896118e-01 7.880386e-06 -1.825392e-07 -1.751818e-05 -1.247041e-06 -1.265869e-01 8.721313e-01
3.451879e+08 6.636353e-01 7.901001e-01 -9.614974e-06 3.366545e-05 -4.190952e-07 5.838927e-06 -1.450195e-01 8.679810e-01
3.454066e+08 6.641846e-01 7.916260e-01 2.018176e-05 1.601875e-07 1.794938e-05 -4.591420e-06 -1.631470e-01 8.653564e-01
3.456254e+08 6.639404e-01 7.918091e-01 -3.077090e-06 -4.974753e-05 1.480803e-05 3.921613e-05 -1.802979e-01 8.646240e-01
3.458441e+08 6.635742e-01 7.930298e-01 -4.488975e-07 -5.671754e-06 -1.543202e-05 -3.046729e-05 -1.964111e-01 8.667603e-01
3.460628e+08 6.638794e-01 7.940063e-01 -1.322385e-05 -1.168624e-05 -1.732633e-05 -4.183501e-06 -2.102661e-01 8.698120e-01
3.462816e+08 6.636353e-01 7.946777e-01 8.038245e-06 -2.039410e-05 -1.295190e-05 1.669489e-05 -2.197876e-01 8.753662e-01
3.465003e+08 6.634521e-01 7.953491e-01 -2.341159e-05 -2.974272e-05 -9.179115e-06 -3.591180e-05 -2.272949e-01 8.814087e-01
3.467190e+08 6.633301e-01 7.958984e-01 -4.515797e-05 3.956631e-05 2.484955e-05 -1.876801e-05 -2.317505e-01 8.837280e-01
3.469378e+08 6.638794e-01 7.955322e-01 -4.545227e-05 1.371279e-05 5.527958e-05 -3.423542e-05 -2.315063e-01 8.843994e-01
3.471565e+08 6.635132e-01 7.964478e-01 -1.656264e-05 3.510155e-05 1.502037e-05 3.630668e-05 -2.327881e-01 8.839722e-01
3.473752e+08 6.629639e-01 7.971802e-01 4.795380e-06 1.630560e-05 -5.005300e-05 -3.884360e-05 -2.373047e-01 8.760986e-01
3.475940e+08 6.631470e-01 7.980957e-01 7.916242e-08 -1.011277e-05 1.400709e-05 -3.129616e-05 -2.426758e-01 8.669434e-01
3.478127e+08 6.627197e-01 7.988281e-01 1.736917e-05 -1.366995e-05 -1.689419e-06 2.337247e-05 -2.507935e-01 8.574829e-01
3.480314e+08 6.635742e-01 7.994385e-01 -2.464093e-05 -7.059425e-07 2.964959e-05 -3.743917e-06 -2.623291e-01 8.492432e-01
3.482502e+08 6.633911e-01 7.999268e-01 -6.833579e-06 -8.693431e-06 -2.296269e-05 -7.521361e-06 -2.772217e-01 8.426514e-01
3.484689e+08 6.632690e-01 8.009033e-01 2.464838e-05 6.984919e-07 9.579584e-06 3.007799e-05 -2.939453e-01 8.389893e-01
3.486876e+08 6.635132e-01 8.015137e-01 1.597498e-05 -2.056826e-05 1.732819e-05 4.186295e-06 -3.100586e-01 8.405762e-01
3.489063e+08 6.638794e-01 8.027954e-01 -8.340925e-06 -5.508307e-06 -3.342144e-05 -2.594478e-05 -3.261108e-01 8.440552e-01
3.491251e+08 6.633301e-01 8.031006e-01 7.889699e-06 -1.764856e-07 1.127552e-05 6.699003e-06 -3.406372e-01 8.487549e-01
3.493438e+08 6.636353e-01 8.028564e-01 -8.060597e-06 2.042297e-05 3.717095e-05 -2.673082e-05 -3.524170e-01 8.577881e-01
3.495625e+08 6.637573e-01 8.041382e-01 1.801364e-05 -2.819858e-05 -6.902032e-06 1.420360e-05 -3.604736e-01 8.659058e-01
3.497813e+08 6.634521e-01 8.056641e-01 3.735535e-05 1.683831e-05 7.325783e-06 -2.006069e-05 -3.688965e-01 8.757935e-01
3.500000e+08 6.638184e-01 8.060303e-01 1.055375e-05 3.391318e-05 -1.149531e-05 -3.770925e-06 -3.729248e-01 8.839722e-01
