# Hz S RI R 50
! RAW DATA - UNCALIBRATED
3.000000e+04 1.047485e+00 1.260986e-01 2.888031e-06 -1.027575e-05 3.063679e-05 3.384650e-04 1.045227e+00 1.284790e-01
2.487312e+05 1.036499e+00 -1.858765e+00 -2.903491e-05 4.895031e-06 -9.249561e-10 -9.686687e-10 9.791260e-01 2.685547e-03
4.674625e+05 9.749756e-01 -2.899170e-02 1.066038e-05 6.783754e-06 -1.872517e-05 -1.068227e-06 9.832153e-01 2.490234e-02
6.861938e+05 9.791260e-01 -8.483887e-03 1.978409e-05 -1.066551e-05 4.960224e-06 2.079271e-05 1.000732e+00 3.741455e-02
9.049250e+05 9.800415e-01 -5.126953e-03 5.979091e-07 -2.236478e-05 1.058169e-05 -5.913898e-06 1.002808e+00 3.894043e-02
1.123656e+06 9.800415e-01 -1.513672e-02 2.535526e-06 -5.694106e-06 1.845416e-06 -6.503891e-06 1.005554e+00 7.281494e-02
1.342388e+06 9.788208e-01 -1.910400e-02 8.361880e-06 -5.894806e-06 -1.976080e-05 -8.355826e-06 1.017395e+00 8.233643e-02
1.561119e+06 9.772949e-01 -1.928711e-02 7.567927e-06 7.655472e-07 -1.271069e-05 8.450821e-06 1.029541e+00 8.154297e-02
1.779850e+06 9.771118e-01 -1.849365e-02 1.523364e-05 -1.282431e-06 9.948388e-06 -1.397543e-05 1.039185e+00 7.623291e-02
1.998581e+06 9.765015e-01 -1.489258e-02 -4.967442e-06 5.130423e-06 -1.864135e-05 -5.805865e-06 1.041443e+00 7.330322e-02
2.217312e+06 9.749146e-01 -1.202393e-02 -1.441874e-05 -8.000061e-07 3.459398e-06 -6.933697e-06 1.036133e+00 6.994629e-02
2.436044e+06 9.769897e-01 -8.117676e-03 -2.920628e-06 -1.415517e-05 -1.174398e-05 3.229640e-05 1.027466e+00 7.122803e-02
2.654775e+06 9.771729e-01 -3.173828e-03 -9.830110e-07 -2.736459e-06 1.011975e-05 1.590047e-05 1.015930e+00 7.354736e-02
2.873506e+06 9.770508e-01 1.037598e-03 -1.160987e-05 -2.024043e-05 1.936371e-10 5.611582e-10 1.003662e+00 8.123779e-02
3.092238e+06 9.779053e-01 6.713867e-03 4.132045e-06 2.526212e-07 -1.878664e-05 -1.200102e-05 9.916992e-01 9.228516e-02
3.310969e+06 9.806519e-01 1.312256e-02 -1.074979e-05 -7.594004e-06 6.526709e-06 1.052488e-05 9.789429e-01 1.057129e-01
3.529700e+06 9.799805e-01 1.397705e-02 -7.855240e-06 8.322764e-06 5.894341e-06 -1.758430e-05 9.682617e-01 1.219482e-01
3.748431e+06 9.796143e-01 1.446533e-02 -1.082895e-05 -4.768372e-06 2.636947e-05 -1.077354e-05 9.625244e-01 1.372070e-01
3.967162e+06 9.792480e-01 1.446533e-02 -6.082002e-06 -3.798865e-06 1.755264e-05 1.347065e-05 9.583130e-01 1.553345e-01
4.185894e+06 9.796753e-01 1.660156e-02 2.574874e-06 1.274399e-06 8.883420e-06 4.161615e-06 9.566040e-01 1.714478e-01
4.404625e+06 9.793701e-01 1.733398e-02 -8.796342e-06 -9.417068e-06 -1.705531e-05 -3.361143e-06 9.588013e-01 1.883545e-01
4.623356e+06 9.795532e-01 1.800537e-02 -5.594455e-06 -1.449138e-06 -1.146458e-05 -5.212612e-06 9.627686e-01 2.031860e-01
4.842088e+06 9.785156e-01 1.983643e-02 -2.745539e-06 8.366536e-06 -5.570706e-06 4.238915e-06 9.682617e-01 2.161865e-01
5.060819e+06 9.782104e-01 2.154541e-02 -1.143850e-05 -3.552064e-06 2.378365e-06 2.582557e-06 9.743652e-01 2.259521e-01
5.279550e+06 9.780273e-01 2.288818e-02 2.190471e-06 2.028141e-05 1.678336e-05 -1.330301e-05 9.801636e-01 2.330933e-01
5.498281e+06 9.783936e-01 2.484131e-02 -9.023119e-06 9.934884e-06 -7.011928e-06 -1.412164e-05 9.848022e-01 2.385864e-01
5.717012e+06 9.785156e-01 2.612305e-02 1.124945e-05 3.442168e-06 -1.945999e-05 4.656613e-06 9.879761e-01 2.432251e-01
5.935744e+06 9.791260e-01 2.868652e-02 -2.775807e-06 9.119976e-07 -9.476673e-06 3.255438e-06 9.898071e-01 2.459717e-01
6.154475e+06 9.795532e-01 2.935791e-02 1.506647e-06 -3.852881e-06 -2.505258e-06 6.641727e-06 9.876099e-01 2.478027e-01
6.373206e+06 9.805298e-01 2.984619e-02 -1.427718e-06 -2.560206e-06 3.435416e-06 9.280629e-07 9.832764e-01 2.514648e-01
6.591938e+06 9.805298e-01 3.234863e-02 5.062670e-06 7.191207e-06 5.880371e-06 8.177944e-06 9.774170e-01 2.562256e-01
6.810669e+06 9.814453e-01 3.460693e-02 1.948210e-06 2.193847e-06 -3.564637e-06 -1.813751e-07 9.705811e-01 2.635498e-01
7.029400e+06 9.826660e-01 3.631592e-02 2.148096e-06 2.005487e-06 6.463379e-06 -1.463294e-05 9.634399e-01 2.739258e-01
7.248131e+06 9.840698e-01 3.759766e-02 -2.342509e-06 -1.777662e-06 2.023391e-05 -1.021475e-05 9.537354e-01 2.863159e-01
7.466862e+06 9.838867e-01 3.881836e-02 -3.476627e-06 -5.588401e-06 -3.578141e-06 1.563877e-05 9.493408e-01 3.001099e-01
7.685594e+06 9.855347e-01 3.918457e-02 3.274996e-06 -6.595161e-06 2.164952e-05 7.711351e-06 9.441528e-01 3.174438e-01
7.904325e+06 9.861450e-01 4.144287e-02 3.740657e-06 -9.619165e-06 -3.924593e-06 1.755822e-05 9.431763e-01 3.348999e-01
8.123056e+06 9.879761e-01 4.241943e-02 -1.255143e-05 -9.738840e-06 9.006821e-06 -1.332164e-05 9.453125e-01 3.505859e-01
8.341788e+06 9.888306e-01 4.260254e-02 -2.897112e-06 -5.585607e-07 -2.221204e-05 -1.972914e-05 9.485474e-01 3.671265e-01
8.560519e+06 9.906006e-01 4.351807e-02 1.278613e-05 -9.072945e-06 -2.588890e-05 2.602115e-06 9.560547e-01 3.813477e-01
8.779250e+06 9.906616e-01 4.486084e-02 -8.941628e-06 4.280824e-06 2.300739e-05 -2.276152e-06 9.631958e-01 3.930664e-01
8.997981e+06 9.918213e-01 4.589844e-02 4.869886e-06 -1.514237e-05 -1.492444e-05 6.191432e-06 9.730225e-01 4.001465e-01
9.216712e+06 9.932861e-01 4.565430e-02 2.264977e-06 -4.816568e-06 -1.969561e-05 -9.868294e-06 9.816284e-01 4.036865e-01
9.435444e+06 9.942627e-01 4.620361e-02 4.380476e-06 -7.123221e-06 -2.428889e-06 -9.949319e-06 9.889526e-01 4.019775e-01
9.654175e+06 9.954224e-01 4.656982e-02 1.351908e-05 3.402121e-06 -8.111820e-06 -4.703179e-08 9.949341e-01 3.990479e-01
9.872906e+06 9.967651e-01 4.718018e-02 8.190516e-06 -3.394671e-06 5.572103e-06 -1.338683e-05 9.945679e-01 3.927002e-01
1.009164e+07 9.970093e-01 4.724121e-02 7.770024e-06 -1.724064e-05 1.315027e-06 1.949444e-05 9.918213e-01 3.862915e-01
1.031037e+07 9.967651e-01 4.809570e-02 -1.184642e-05 8.926727e-06 3.204264e-10 5.227605e-10 9.833984e-01 3.802490e-01
1.052910e+07 9.976807e-01 4.833984e-02 -4.314817e-06 -5.993526e-06 5.993992e-06 8.349307e-06 9.728394e-01 3.781128e-01
1.074783e+07 9.991455e-01 4.888916e-02 -2.855668e-06 -3.391178e-06 -6.281771e-07 7.234979e-06 9.601440e-01 3.746338e-01
1.096656e+07 1.000183e+00 4.992676e-02 -4.159985e-06 -4.189787e-06 -1.451001e-05 -3.753230e-06 9.445801e-01 3.782959e-01
1.118529e+07 9.998779e-01 4.858398e-02 6.872229e-06 -5.777460e-06 -6.996095e-06 4.151370e-06 9.304199e-01 3.828735e-01
1.140402e+07 1.000305e+00 4.980469e-02 -2.601184e-06 -1.649000e-05 -1.275446e-05 1.293980e-05 9.158936e-01 3.930664e-01
1.162276e+07 1.001465e+00 4.931641e-02 -1.595356e-05 6.984919e-07 1.416728e-05 -3.387220e-06 9.025879e-01 4.031982e-01
1.184149e+07 1.002197e+00 4.992676e-02 2.652057e-06 -1.958571e-06 4.627742e-06 -9.197276e-06 8.912354e-01 4.156494e-01
1.206022e+07 1.002869e+00 4.925537e-02 -4.949979e-06 4.360685e-06 -2.553314e-05 1.453422e-05 8.828125e-01 4.292603e-01
1.227895e+07 1.003113e+00 5.047607e-02 -9.333249e-06 2.002344e-07 -6.779097e-06 -1.291465e-05 8.755493e-01 4.434814e-01
1.249768e+07 1.003296e+00 5.035400e-02 -4.943926e-06 1.957174e-06 6.141607e-06 -3.920402e-06 8.703003e-01 4.571533e-01
1.271641e+07 1.002319e+00 5.072021e-02 -1.574773e-05 -4.831702e-06 4.434958e-06 5.792361e-06 8.678589e-01 4.691162e-01
1.293514e+07 1.002502e+00 5.133057e-02 1.307297e-05 6.391667e-06 -1.816265e-05 1.860783e-06 8.668213e-01 4.799194e-01
1.315388e+07 1.003723e+00 5.096436e-02 -1.811888e-06 -5.807728e-06 1.302175e-05 1.945533e-06 8.656006e-01 4.893799e-01
1.337261e+07 1.003540e+00 5.194092e-02 -1.539569e-05 -1.254398e-05 -1.757219e-05 -1.313072e-05 8.641357e-01 4.944458e-01
1.359134e+07 1.003723e+00 5.096436e-02 -1.073675e-05 -3.329478e-07 8.277595e-06 -2.068281e-05 8.628540e-01 4.996338e-01
1.381007e+07 1.002869e+00 5.175781e-02 4.554400e-06 -4.772097e-06 6.477349e-06 -5.003065e-06 8.572998e-01 5.029297e-01
1.402880e+07 1.002808e+00 5.236816e-02 -9.257812e-06 1.129229e-06 -1.282617e-05 3.136694e-06 8.511963e-01 5.045776e-01
1.424753e+07 1.003845e+00 5.346680e-02 7.040799e-07 -7.348601e-06 1.782551e-05 -1.060497e-05 8.427124e-01 5.068970e-01
1.446626e+07 1.002747e+00 5.377197e-02 -7.231720e-07 -1.062313e-05 -5.180016e-06 -1.556613e-05 8.300171e-01 5.093994e-01
1.468499e+07 1.003784e+00 5.541992e-02 -2.814271e-05 -1.819804e-06 9.872019e-06 2.976879e-05 8.169556e-01 5.156860e-01
1.490372e+07 1.002380e+00 5.694580e-02 -8.040573e-06 -8.779578e-06 3.665686e-06 -2.400484e-07 8.014526e-01 5.236206e-01
1.512246e+07 1.003479e+00 5.651855e-02 -8.349889e-07 1.217064e-06 -9.724870e-06 -1.327693e-05 7.870483e-01 5.325317e-01
1.534119e+07 1.003052e+00 5.651855e-02 -2.416782e-06 -7.999130e-06 7.599592e-06 1.313444e-05 7.733154e-01 5.447388e-01
1.555992e+07 1.004089e+00 5.822754e-02 -4.941830e-06 -3.557419e-06 8.396804e-06 2.044067e-05 7.583008e-01 5.592041e-01
1.577865e+07 1.004333e+00 5.816650e-02 -7.804483e-07 2.856366e-06 2.650917e-05 2.294779e-06 7.474976e-01 5.751953e-01
1.599738e+07 1.004150e+00 5.938721e-02 -6.292481e-06 2.047513e-06 4.284084e-06 6.015878e-06 7.369385e-01 5.924072e-01
1.621611e+07 1.003601e+00 6.188965e-02 -1.516286e-05 -1.329649e-05 5.011633e-05 -1.702458e-05 7.291870e-01 6.098022e-01
1.643484e+07 1.003723e+00 6.262207e-02 5.587004e-06 7.076189e-06 -3.654882e-05 5.722046e-05 7.231445e-01 6.268921e-01
1.665358e+07 1.002869e+00 6.353760e-02 -8.510426e-06 3.375858e-05 1.977867e-10 -4.020535e-10 7.208252e-01 6.449585e-01
1.687231e+07 1.003845e+00 6.427002e-02 4.908442e-05 -7.156283e-06 2.012216e-05 -6.843358e-06 7.187500e-01 6.607666e-01
1.709104e+07 1.004150e+00 6.475830e-02 -2.473965e-05 -2.493896e-05 4.287437e-05 -6.195158e-06 7.176514e-01 6.747437e-01
1.730977e+07 1.002930e+00 6.573486e-02 4.937872e-05 8.374453e-06 6.830320e-05 1.886860e-05 7.189331e-01 6.882324e-01
1.752850e+07 1.003418e+00 6.701660e-02 2.538785e-06 1.710374e-05 6.213784e-05 -3.249198e-05 7.210083e-01 6.990356e-01
1.774723e+07 1.003418e+00 6.805420e-02 -3.887713e-05 2.263673e-05 -1.736358e-05 -6.739423e-05 7.225342e-01 7.058716e-01
1.796596e+07 1.004700e+00 6.909180e-02 -3.574975e-05 1.789071e-05 -1.517683e-05 5.188398e-06 7.211914e-01 7.131958e-01
1.818469e+07 1.004150e+00 6.890869e-02 3.860891e-05 -5.907565e-05 -1.677312e-05 1.705345e-05 7.191772e-01 7.185669e-01
1.840342e+07 1.005981e+00 7.067871e-02 4.173256e-05 1.521409e-05 1.942553e-05 -9.480864e-06 7.160645e-01 7.233276e-01
1.862216e+07 1.005676e+00 7.128906e-02 1.887232e-05 5.025417e-05 -5.811453e-07 3.138930e-05 7.107544e-01 7.265015e-01
1.884089e+07 1.005859e+00 7.226562e-02 1.590699e-05 -1.377612e-05 1.929328e-05 -2.647564e-05 7.037354e-01 7.318115e-01
1.905962e+07 1.005920e+00 7.299805e-02 1.369696e-05 5.483627e-06 -3.487803e-06 -1.016352e-05 6.968384e-01 7.380981e-01
1.927835e+07 1.007080e+00 7.458496e-02 4.183501e-05 4.811212e-06 -5.961861e-06 -7.962808e-07 6.875610e-01 7.467041e-01
1.949708e+07 1.006897e+00 7.550049e-02 8.950010e-07 9.239651e-06 -3.229268e-05 5.401671e-06 6.800537e-01 7.553101e-01
1.971581e+07 1.007690e+00 7.592773e-02 -4.806090e-06 2.064742e-06 -4.529953e-05 -1.575425e-05 6.723633e-01 7.670288e-01
1.993454e+07 1.009033e+00 7.708740e-02 -3.053434e-05 9.596348e-06 -3.078021e-05 -6.536022e-06 6.673584e-01 7.787476e-01
2.015328e+07 1.009338e+00 7.836914e-02 -2.717227e-05 2.048351e-05 -7.020310e-06 -2.043694e-05 6.641235e-01 7.904053e-01
2.037201e+07 1.009277e+00 7.867432e-02 -4.577637e-05 2.233312e-05 2.290681e-05 -1.647323e-05 6.624756e-01 8.015747e-01
2.059074e+07 1.011230e+00 7.897949e-02 1.894496e-05 -3.984198e-05 2.047978e-05 -7.059425e-06 6.644897e-01 8.128052e-01
2.080947e+07 1.011963e+00 7.940674e-02 -4.540384e-05 -5.155802e-06 -2.029724e-05 2.422743e-05 6.674194e-01 8.215332e-01
2.102820e+07 1.011536e+00 7.971191e-02 -7.959083e-06 1.225807e-05 -1.076609e-06 -1.971237e-05 6.713867e-01 8.272705e-01
2.124693e+07 1.013062e+00 8.044434e-02 2.734736e-05 -2.064928e-05 -2.854504e-05 -1.597963e-05 6.757812e-01 8.293457e-01
2.146566e+07 1.013672e+00 8.056641e-02 7.558614e-06 -4.401430e-05 2.390333e-05 -1.404434e-05 6.781006e-01 8.289185e-01
2.168439e+07 1.015198e+00 8.123779e-02 1.529325e-05 -1.281034e-05 -3.147870e-06 2.415292e-05 6.796265e-01 8.257446e-01
2.190312e+07 1.015015e+00 8.135986e-02 -1.553260e-05 -3.060326e-06 8.502509e-06 -8.724630e-06 6.784668e-01 8.203735e-01
2.212186e+07 1.016296e+00 8.197021e-02 3.551878e-05 -2.779439e-05 -7.161871e-06 -2.061762e-05 6.734619e-01 8.133545e-01
2.234059e+07 1.017395e+00 8.233643e-02 1.605041e-05 4.022382e-05 2.557039e-05 -2.625585e-05 6.644897e-01 8.088379e-01
2.255932e+07 1.017700e+00 8.319092e-02 -1.469348e-05 1.019798e-06 1.615845e-05 -2.009235e-05 6.557617e-01 8.044434e-01
2.277805e+07 1.018799e+00 8.312988e-02 -4.334748e-05 1.840293e-06 4.068017e-05 3.278255e-07 6.433105e-01 8.023071e-01
2.299678e+07 1.019897e+00 8.367920e-02 1.691282e-05 3.906526e-05 2.521090e-05 5.716458e-06 6.316528e-01 8.009644e-01
2.321551e+07 1.020569e+00 8.337402e-02 -2.115499e-05 1.096260e-05 -2.228469e-05 1.937710e-05 6.180420e-01 8.023071e-01
2.343424e+07 1.021729e+00 8.319092e-02 -4.091533e-06 8.845236e-07 -3.120303e-05 -5.597621e-05 6.051025e-01 8.063354e-01
2.365298e+07 1.021545e+00 8.386230e-02 -3.897585e-05 -2.687797e-05 6.496906e-06 -3.135763e-05 5.933838e-01 8.102417e-01
2.387171e+07 1.022949e+00 8.386230e-02 -1.527835e-06 7.835682e-06 -1.271814e-05 -3.633834e-05 5.820312e-01 8.157959e-01
2.409044e+07 1.024475e+00 8.325195e-02 5.446747e-05 -4.076213e-05 1.403689e-05 6.750226e-06 5.739136e-01 8.209839e-01
2.430917e+07 1.024658e+00 8.349609e-02 2.946518e-05 -1.281872e-05 -2.299994e-05 3.433600e-05 5.667725e-01 8.265991e-01
2.452790e+07 1.025146e+00 8.337402e-02 -5.517527e-05 3.375113e-06 -2.757460e-05 2.138130e-05 5.596313e-01 8.313599e-01
2.474663e+07 1.026550e+00 8.367920e-02 4.561618e-06 -2.359971e-05 6.470829e-06 -3.156811e-05 5.534668e-01 8.353271e-01
2.496536e+07 1.026917e+00 8.331299e-02 -6.182119e-06 -2.346002e-05 3.621727e-05 -3.030337e-05 5.494385e-01 8.371582e-01
2.518409e+07 1.027710e+00 8.398438e-02 5.919486e-06 5.697832e-05 1.657382e-05 -2.894551e-06 5.419922e-01 8.372803e-01
2.540282e+07 1.027527e+00 8.319092e-02 -1.031160e-05 -2.256595e-05 1.135934e-05 -1.058914e-06 5.372314e-01 8.364258e-01
2.562156e+07 1.028442e+00 8.325195e-02 -1.144782e-05 -3.749877e-05 -2.027862e-05 -7.547438e-06 5.299072e-01 8.330688e-01
2.584029e+07 1.029053e+00 8.349609e-02 -2.301857e-05 -3.608875e-05 5.528331e-06 1.568254e-05 5.201416e-01 8.294678e-01
2.605902e+07 1.030579e+00 8.282471e-02 -1.644809e-05 9.015203e-06 -1.232140e-05 -1.541339e-06 5.076904e-01 8.256836e-01
2.627775e+07 1.030579e+00 8.276367e-02 -2.543442e-05 -2.695806e-05 4.653260e-05 -1.702458e-06 4.926147e-01 8.226318e-01
2.649648e+07 1.030579e+00 8.203125e-02 -1.515448e-05 3.480352e-05 1.910795e-05 -1.265574e-05 4.756470e-01 8.209839e-01
2.671521e+07 1.032288e+00 8.233643e-02 -1.586042e-05 4.153140e-05 -1.453236e-05 -2.438575e-05 4.586792e-01 8.217773e-01
2.693394e+07 1.032654e+00 8.148193e-02 1.357030e-05 1.223572e-05 1.525506e-06 -1.236890e-05 4.406738e-01 8.245239e-01
2.715268e+07 1.033691e+00 8.135986e-02 9.726733e-06 2.942048e-05 2.510473e-05 2.070330e-05 4.216919e-01 8.300171e-01
2.737141e+07 1.033630e+00 8.123779e-02 2.132915e-05 2.254918e-05 6.790273e-06 -1.425762e-05 4.039917e-01 8.378906e-01
2.759014e+07 1.034302e+00 8.135986e-02 3.086403e-05 -3.533438e-06 9.322539e-07 2.633780e-06 3.865967e-01 8.472290e-01
2.780887e+07 1.034912e+00 7.971191e-02 2.162531e-06 2.465211e-05 -1.581479e-05 5.624257e-06 3.715210e-01 8.580322e-01
2.802760e+07 1.035461e+00 7.983398e-02 2.916902e-06 -2.142135e-05 -1.922157e-05 1.278985e-05 3.585815e-01 8.710938e-01
2.824633e+07 1.035339e+00 7.965088e-02 9.916723e-06 3.501400e-05 1.431536e-05 6.803311e-06 3.480835e-01 8.850098e-01
2.846506e+07 1.036133e+00 7.965088e-02 -1.357216e-05 -6.855465e-06 1.150928e-05 -1.117587e-06 3.400879e-01 8.988647e-01
2.868379e+07 1.036743e+00 7.824707e-02 1.488719e-05 -1.209881e-05 7.752329e-06 -1.171045e-05 3.356323e-01 9.108887e-01
2.890252e+07 1.036682e+00 7.934570e-02 -1.291744e-05 2.590753e-05 -1.849234e-05 -3.517047e-05 3.316650e-01 9.213867e-01
2.912126e+07 1.037292e+00 7.818604e-02 1.512934e-06 -8.033589e-06 6.437302e-06 -3.217161e-05 3.288574e-01 9.299316e-01
2.933999e+07 1.037720e+00 7.794189e-02 1.886673e-05 -2.400950e-05 3.209338e-06 2.576225e-05 3.279419e-01 9.360352e-01
2.955872e+07 1.037781e+00 7.635498e-02 -1.690071e-05 -1.737848e-06 3.563426e-05 -8.102506e-07 3.259888e-01 9.392090e-01
2.977745e+07 1.038208e+00 7.623291e-02 3.334135e-07 -2.322905e-05 -2.854038e-06 -7.965602e-06 3.223877e-01 9.418335e-01
2.999618e+07 1.038147e+00 7.696533e-02 -5.923212e-05 -3.322959e-06 -1.040101e-05 5.467609e-05 3.188477e-01 9.427490e-01
3.021491e+07 1.039429e+00 7.604980e-02 2.317876e-05 1.469627e-05 1.827907e-05 1.746602e-05 3.118896e-01 9.412842e-01
3.043364e+07 1.039062e+00 7.501221e-02 -2.601743e-05 -2.736412e-05 -2.182648e-05 2.286024e-05 3.041382e-01 9.425659e-01
3.065238e+07 1.039856e+00 7.537842e-02 5.334616e-06 -2.557412e-05 3.922731e-05 -8.067116e-06 2.946167e-01 9.425049e-01
3.087111e+07 1.039307e+00 7.513428e-02 1.072511e-05 2.308935e-05 3.034808e-05 3.425218e-05 2.831421e-01 9.432983e-01
3.108984e+07 1.040833e+00 7.531738e-02 1.325924e-05 -2.390705e-06 3.137253e-05 3.293715e-05 2.716675e-01 9.464111e-01
3.130857e+07 1.039795e+00 7.366943e-02 4.067551e-06 7.489696e-06 -2.160668e-07 2.013706e-05 2.604370e-01 9.527588e-01
3.152730e+07 1.040833e+00 7.458496e-02 -2.583489e-06 8.672476e-06 -2.328306e-07 2.017245e-05 2.478027e-01 9.569702e-01
3.174603e+07 1.040405e+00 7.409668e-02 2.003461e-05 -1.450721e-05 -3.331155e-05 -5.036592e-06 2.377319e-01 9.661255e-01
3.196476e+07 1.040955e+00 7.360840e-02 -1.750700e-05 -2.577156e-05 -7.305294e-05 -6.611273e-05 2.274170e-01 9.746094e-01
3.218349e+07 1.040466e+00 7.379150e-02 -3.213063e-06 -1.041079e-05 1.387298e-05 -5.578622e-05 2.212524e-01 9.856567e-01
3.240222e+07 1.040466e+00 7.391357e-02 -5.457550e-07 1.246762e-05 1.458079e-05 1.728907e-05 2.162476e-01 9.949951e-01
3.262096e+07 1.041016e+00 7.360840e-02 1.405366e-06 -1.536496e-05 1.999363e-05 2.048165e-05 2.147827e-01 1.004578e+00
3.283969e+07 1.040527e+00 7.318115e-02 -2.688728e-05 2.680160e-05 -1.646206e-05 -5.626306e-05 2.152100e-01 1.010437e+00
3.305842e+07 1.041138e+00 7.312012e-02 -9.145122e-06 -1.132954e-06 7.072464e-06 -4.592352e-06 2.166138e-01 1.014709e+00
3.327715e+07 1.040222e+00 7.324219e-02 -5.126745e-05 2.216548e-06 2.237782e-05 1.899898e-05 2.184448e-01 1.014526e+00
3.349588e+07 1.039917e+00 7.336426e-02 2.962723e-05 -3.838912e-06 -3.891811e-05 -8.299947e-06 2.196045e-01 1.012451e+00
3.371461e+07 1.040100e+00 7.275391e-02 1.348555e-05 -1.342595e-05 -7.083174e-06 4.593283e-06 2.178345e-01 1.005859e+00
3.393334e+07 1.040344e+00 7.220459e-02 -8.922070e-06 -2.325140e-05 -6.837770e-06 -1.571234e-05 2.140503e-01 9.989624e-01
3.415208e+07 1.039856e+00 7.318115e-02 1.816079e-06 2.592057e-05 4.038587e-05 2.086535e-05 2.065430e-01 9.902344e-01
3.437081e+07 1.038940e+00 7.312012e-02 -4.472211e-05 1.005828e-06 -1.865812e-05 -8.073635e-06 1.965942e-01 9.824219e-01
3.458954e+07 1.039307e+00 7.165527e-02 -8.773059e-07 -3.993884e-05 -6.142538e-06 -9.471085e-06 1.823730e-01 9.755249e-01
3.480827e+07 1.039246e+00 7.244873e-02 1.361966e-05 1.834333e-05 1.121312e-06 3.289990e-05 1.674194e-01 9.700317e-01
3.502700e+07 1.039612e+00 7.238770e-02 -1.671910e-05 -3.998168e-05 -3.071036e-06 -4.747417e-06 1.509399e-01 9.671631e-01
3.524573e+07 1.039307e+00 7.269287e-02 4.263408e-05 6.325543e-06 -1.355633e-05 1.549628e-05 1.335449e-01 9.669189e-01
3.546446e+07 1.039368e+00 7.196045e-02 7.702038e-06 -1.522154e-05 -1.663994e-05 1.077168e-05 1.162720e-01 9.673462e-01
3.568319e+07 1.038086e+00 7.214355e-02 -1.239870e-05 2.022274e-05 -5.451497e-06 -3.215857e-06 9.942627e-02 9.733276e-01
3.590192e+07 1.037720e+00 7.110596e-02 -8.731149e-07 2.928311e-06 8.355826e-06 -3.915839e-05 8.325195e-02 9.777832e-01
3.612066e+07 1.038269e+00 7.177734e-02 -1.553074e-05 -1.439825e-06 4.663318e-05 -1.662597e-05 7.171631e-02 9.849243e-01
3.633939e+07 1.037659e+00 7.208252e-02 7.488299e-06 7.022172e-06 -1.795590e-06 -3.935024e-05 5.914307e-02 9.909668e-01
3.655812e+07 1.038391e+00 7.196045e-02 -5.254894e-05 -3.800169e-05 2.116896e-05 6.603077e-06 4.943848e-02 9.996948e-01
3.677685e+07 1.037048e+00 7.110596e-02 1.507998e-05 -2.907962e-05 1.219101e-05 -2.819486e-05 4.119873e-02 1.005066e+00
3.699558e+07 1.036926e+00 7.147217e-02 8.270144e-07 -3.496185e-05 3.114343e-05 2.723373e-05 3.601074e-02 1.010559e+00
3.721431e+07 1.036682e+00 7.116699e-02 1.206528e-05 1.320988e-05 -2.008677e-05 2.652965e-05 3.112793e-02 1.015015e+00
3.743304e+07 1.036011e+00 7.141113e-02 1.885928e-06 -1.705159e-05 4.846975e-05 -2.457201e-05 2.758789e-02 1.017639e+00
3.765178e+07 1.036072e+00 7.116699e-02 1.812354e-06 2.619065e-05 -2.970174e-05 3.275461e-05 2.307129e-02 1.016235e+00
3.787051e+07 1.036133e+00 7.104492e-02 -1.511909e-05 2.913550e-05 9.682029e-06 4.126132e-05 1.873779e-02 1.015015e+00
3.808924e+07 1.035034e+00 7.110596e-02 1.635589e-05 9.693205e-06 4.490465e-05 1.174957e-05 1.159668e-02 1.009033e+00
3.830797e+07 1.035217e+00 7.135010e-02 2.961420e-05 -2.397224e-06 2.015382e-06 -2.846494e-05 4.577637e-03 1.005981e+00
3.852670e+07 1.033691e+00 6.994629e-02 4.368275e-05 2.590567e-05 -3.383495e-06 1.577847e-05 -6.591797e-03 9.998169e-01
3.874543e+07 1.033569e+00 7.086182e-02 1.501292e-06 1.651980e-05 -4.157797e-05 -2.754852e-05 -1.934814e-02 9.953003e-01
3.896416e+07 1.033386e+00 7.141113e-02 -1.397170e-05 3.602542e-05 -3.632158e-07 -2.696738e-05 -3.411865e-02 9.913940e-01
3.918289e+07 1.032898e+00 6.994629e-02 -6.046146e-06 9.456649e-06 -1.611747e-05 1.721084e-05 -4.864502e-02 9.902954e-01
3.940162e+07 1.031982e+00 7.104492e-02 8.875504e-06 2.646353e-06 1.132768e-05 -1.410767e-05 -6.433105e-02 9.898682e-01
3.962036e+07 1.031982e+00 7.116699e-02 -4.419312e-05 7.711351e-06 4.888326e-05 2.300739e-05 -7.995605e-02 9.925537e-01
3.983909e+07 1.031494e+00 7.043457e-02 2.842210e-05 2.060086e-06 4.348904e-05 6.741285e-05 -9.472656e-02 9.977417e-01
4.005782e+07 1.030457e+00 7.110596e-02 -1.821015e-05 -3.832392e-06 -1.825206e-05 -1.883134e-06 -1.064453e-01 1.004639e+00
4.027655e+07 1.029968e+00 7.110596e-02 2.119690e-06 3.613718e-05 -4.586577e-05 -1.824275e-05 -1.163330e-01 1.010925e+00
4.049528e+07 1.029297e+00 7.000732e-02 -7.297844e-06 -2.965890e-05 1.384504e-05 3.203005e-05 -1.227417e-01 1.018372e+00
4.071401e+07 1.029053e+00 7.086182e-02 3.248639e-05 -1.127273e-05 3.475696e-06 3.190897e-05 -1.277466e-01 1.023621e+00
4.093274e+07 1.029053e+00 7.128906e-02 5.356595e-05 -2.759323e-05 -4.492700e-06 -1.761597e-05 -1.296387e-01 1.029663e+00
4.115148e+07 1.027405e+00 7.104492e-02 -1.232978e-05 -2.082437e-06 -1.243316e-05 2.849661e-05 -1.312866e-01 1.031189e+00
4.137021e+07 1.026794e+00 7.086182e-02 -6.524473e-05 1.490116e-06 7.253140e-06 -4.670583e-06 -1.304321e-01 1.031067e+00
4.158894e+07 1.026062e+00 7.073975e-02 3.163889e-05 5.652755e-05 -5.116686e-05 -4.231185e-05 -1.312256e-01 1.026611e+00
4.180767e+07 1.025330e+00 7.110596e-02 -2.483651e-05 7.143244e-06 2.904981e-05 2.921186e-05 -1.325684e-01 1.021301e+00
4.202640e+07 1.025635e+00 7.287598e-02 -7.896684e-06 1.549255e-05 -1.213793e-05 7.781200e-06 -1.359253e-01 1.013245e+00
4.224513e+07 1.025391e+00 7.141113e-02 1.995638e-05 9.238720e-06 -1.594983e-05 -3.464520e-06 -1.411133e-01 1.005554e+00
4.246386e+07 1.024292e+00 7.220459e-02 1.430046e-05 1.728535e-05 -3.812835e-06 -1.126993e-05 -1.480713e-01 9.959717e-01
4.268259e+07 1.023865e+00 7.269287e-02 -1.491606e-05 -4.485250e-06 1.319125e-05 -2.220087e-05 -1.566772e-01 9.879761e-01
4.290132e+07 1.023254e+00 7.312012e-02 2.273545e-05 -3.222935e-05 2.782047e-05 -3.157184e-05 -1.683350e-01 9.801636e-01
4.312006e+07 1.022827e+00 7.238770e-02 -3.872439e-06 -3.046729e-05 -7.662922e-06 2.554059e-05 -1.788940e-01 9.729004e-01
4.333879e+07 1.021851e+00 7.250977e-02 1.850538e-05 2.511963e-05 1.043826e-05 -4.797801e-05 -1.911621e-01 9.685059e-01
4.355752e+07 1.021912e+00 7.305908e-02 -2.288818e-05 1.103990e-05 4.283339e-05 -1.372024e-05 -2.023926e-01 9.647217e-01
4.377625e+07 1.020081e+00 7.269287e-02 -5.120412e-05 7.424504e-06 -3.967807e-05 1.860783e-05 -2.140503e-01 9.612427e-01
4.399498e+07 1.020081e+00 7.324219e-02 2.887100e-07 9.881798e-06 1.883786e-05 -1.896545e-05 -2.246704e-01 9.599609e-01
4.421371e+07 1.019653e+00 7.379150e-02 -1.379196e-05 2.386980e-06 2.793968e-05 -3.170222e-05 -2.340088e-01 9.583740e-01
4.443244e+07 1.018616e+00 7.287598e-02 -7.543713e-06 4.678592e-05 2.928078e-05 2.949685e-05 -2.406616e-01 9.578857e-01
4.465118e+07 1.016968e+00 7.366943e-02 2.282672e-05 -3.240071e-05 2.129562e-05 -2.057105e-05 -2.476807e-01 9.561768e-01
4.486991e+07 1.016846e+00 7.409668e-02 -1.211651e-05 -2.493896e-05 5.895272e-06 3.073551e-05 -2.526855e-01 9.542236e-01
4.508864e+07 1.016357e+00 7.421875e-02 -3.232434e-05 -1.568347e-06 -2.165511e-05 -6.854534e-06 -2.571411e-01 9.487915e-01
4.530737e+07 1.015930e+00 7.501221e-02 -4.500151e-05 7.767230e-06 4.373491e-05 -7.253140e-06 -2.609253e-01 9.425659e-01
4.552610e+07 1.014709e+00 7.470703e-02 6.637536e-06 -1.111720e-05 1.891982e-05 -1.905020e-05 -2.647705e-01 9.337769e-01
4.574483e+07 1.013977e+00 7.543945e-02 3.120117e-05 -5.379319e-06 1.825206e-05 -2.553500e-05 -2.705078e-01 9.250488e-01
4.596356e+07 1.014099e+00 7.556152e-02 -1.040101e-05 1.790468e-06 -3.224798e-05 -7.076189e-06 -2.784424e-01 9.128418e-01
4.618229e+07 1.012939e+00 7.604980e-02 2.160855e-05 -2.799369e-05 2.457760e-06 -1.573237e-06 -2.877808e-01 9.006958e-01
4.640102e+07 1.011963e+00 7.690430e-02 -2.594665e-05 -1.262873e-06 -3.226846e-05 -7.089227e-06 -2.984619e-01 8.895264e-01
4.661976e+07 1.011536e+00 7.666016e-02 1.433119e-05 -5.827099e-05 3.841706e-06 1.141801e-05 -3.121948e-01 8.786621e-01
4.683849e+07 1.010742e+00 7.684326e-02 6.610528e-06 2.176128e-05 -3.970787e-05 -2.376735e-06 -3.270264e-01 8.682861e-01
4.705722e+07 1.010254e+00 7.702637e-02 -1.312234e-05 -2.208911e-05 -3.580377e-05 -3.963336e-05 -3.430176e-01 8.602905e-01
4.727595e+07 1.009033e+00 7.843018e-02 -1.325831e-05 4.382059e-05 -1.837127e-05 2.562255e-05 -3.598633e-01 8.536987e-01
4.749468e+07 1.007996e+00 7.891846e-02 -2.160296e-05 4.959479e-05 -9.871088e-06 6.306916e-06 -3.763428e-01 8.496704e-01
4.771341e+07 1.007690e+00 7.836914e-02 -6.995723e-05 1.944602e-06 -1.521409e-05 3.061257e-05 -3.927002e-01 8.445435e-01
4.793214e+07 1.007385e+00 7.867432e-02 -1.616403e-05 -2.305768e-05 5.915761e-06 3.103912e-05 -4.071655e-01 8.447266e-01
4.815088e+07 1.006165e+00 7.897949e-02 -1.000892e-05 2.789311e-07 -5.353242e-06 2.431497e-05 -4.221191e-01 8.435669e-01
4.836961e+07 1.005127e+00 8.074951e-02 -2.343580e-05 -3.191084e-05 2.694502e-05 -4.506111e-05 -4.336548e-01 8.433838e-01
4.858834e+07 1.004333e+00 8.123779e-02 -5.606096e-06 -3.351830e-06 -9.899028e-06 6.322749e-06 -4.471436e-01 8.423462e-01
4.880707e+07 1.004272e+00 8.123779e-02 5.972572e-06 -1.972727e-05 -8.542091e-06 1.940597e-05 -4.564819e-01 8.432007e-01
4.902580e+07 1.003235e+00 8.148193e-02 1.187716e-05 -6.355345e-06 1.761690e-05 1.666229e-05 -4.663696e-01 8.413086e-01
4.924453e+07 1.002502e+00 8.319092e-02 3.011338e-05 -8.195639e-07 -8.813106e-06 -8.345582e-06 -4.762573e-01 8.389893e-01
4.946326e+07 1.001343e+00 8.306885e-02 -2.645329e-05 -1.131743e-05 6.483868e-06 -3.904849e-05 -4.852295e-01 8.357544e-01
4.968199e+07 1.001099e+00 8.337402e-02 -1.631025e-05 1.000147e-05 1.875311e-05 2.009794e-06 -4.950562e-01 8.319092e-01
4.990072e+07 1.000427e+00 8.435059e-02 4.582480e-05 -1.937523e-05 -3.143214e-05 -2.191216e-05 -5.062256e-01 8.267822e-01
5.011946e+07 9.996338e-01 8.508301e-02 -2.612919e-05 2.033077e-05 -6.835908e-07 -6.560702e-06 -5.167236e-01 8.225708e-01
5.033819e+07 9.982300e-01 8.544922e-02 -3.149733e-05 2.702139e-05 1.560710e-05 -2.951361e-06 -5.288086e-01 8.169556e-01
5.055692e+07 9.984741e-01 8.624268e-02 -2.586283e-06 -2.448098e-06 2.035685e-05 -3.397837e-05 -5.426025e-01 8.134766e-01
5.077565e+07 9.974365e-01 8.691406e-02 -2.382876e-10 1.273293e-10 -6.113201e-06 -5.910546e-05 -5.576782e-01 8.092041e-01
5.099438e+07 9.956055e-01 8.715820e-02 2.043135e-05 9.564683e-06 4.369020e-05 -1.382828e-05 -5.727539e-01 8.082886e-01
5.121311e+07 9.957886e-01 8.831787e-02 2.008677e-05 -2.222508e-05 -3.354251e-05 -4.173070e-05 -5.899658e-01 8.071289e-01
5.143184e+07 9.948730e-01 8.843994e-02 2.055056e-05 -2.377108e-05 3.356859e-05 4.171953e-05 -6.057739e-01 8.105469e-01
5.165058e+07 9.943848e-01 8.984375e-02 -2.305582e-05 -1.199543e-05 -6.810762e-06 1.133885e-05 -6.209717e-01 8.150635e-01
5.186931e+07 9.931641e-01 9.082031e-02 -5.175825e-06 -4.918315e-06 -2.998300e-05 1.902692e-05 -6.339722e-01 8.238525e-01
5.208804e+07 9.921875e-01 9.063721e-02 2.826750e-05 1.695007e-05 1.634005e-05 3.639609e-06 -6.453857e-01 8.328857e-01
5.230677e+07 9.921265e-01 9.124756e-02 -2.399087e-06 -1.409370e-05 2.261251e-06 4.771352e-05 -6.524048e-01 8.425293e-01
5.252550e+07 9.906006e-01 9.210205e-02 -5.385838e-06 6.715301e-06 -3.645197e-06 1.635030e-05 -6.521606e-01 8.544922e-01
5.274423e+07 9.898071e-01 9.289551e-02 -7.894635e-05 1.772866e-05 1.114234e-05 -2.112240e-05 -6.525879e-01 8.637695e-01
5.296296e+07 9.895020e-01 9.356689e-02 -3.788434e-05 3.544614e-06 1.231022e-05 -3.591180e-05 -6.463623e-01 8.692017e-01
5.318169e+07 9.887695e-01 9.399414e-02 -1.831353e-05 1.617335e-05 -4.786998e-07 2.137758e-05 -6.405029e-01 8.707886e-01
5.340042e+07 9.884033e-01 9.594727e-02 2.812967e-05 2.867728e-05 4.230067e-05 2.237037e-05 -6.300659e-01 8.692017e-01
5.361916e+07 9.868774e-01 9.637451e-02 -4.495308e-05 4.693866e-06 -2.476200e-05 -3.349967e-05 -6.254883e-01 8.621826e-01
5.383789e+07 9.864502e-01 9.625244e-02 -1.033675e-05 1.192372e-05 2.030283e-06 1.981482e-05 -6.196899e-01 8.522949e-01
5.405662e+07 9.860840e-01 9.771729e-02 2.067536e-07 -1.165364e-05 1.657754e-06 -3.621727e-05 -6.171875e-01 8.409424e-01
5.427535e+07 9.855347e-01 9.808350e-02 6.393529e-06 1.200195e-05 -9.797513e-07 4.284084e-05 -6.188965e-01 8.273315e-01
5.449408e+07 9.841309e-01 9.960938e-02 2.927333e-05 1.399405e-05 6.696209e-07 6.609131e-06 -6.226196e-01 8.132324e-01
5.471281e+07 9.839478e-01 9.973145e-02 8.013565e-06 -4.264992e-06 1.830980e-06 -8.207746e-06 -6.284790e-01 8.012695e-01
5.493154e+07 9.837036e-01 1.007080e-01 3.803521e-06 3.135204e-05 -3.384240e-05 3.555417e-05 -6.374512e-01 7.913208e-01
5.515028e+07 9.824829e-01 1.010132e-01 8.219853e-06 -1.596659e-05 1.623295e-05 -2.438016e-05 -6.468506e-01 7.816772e-01
5.536901e+07 9.814453e-01 1.020508e-01 -6.655231e-06 -2.217665e-05 3.100745e-05 1.555495e-05 -6.561279e-01 7.756958e-01
5.558774e+07 9.809570e-01 1.027832e-01 3.167242e-05 6.332994e-06 1.857430e-05 -5.408376e-05 -6.660156e-01 7.696533e-01
5.580647e+07 9.801025e-01 1.040039e-01 -3.029592e-06 2.092123e-05 -6.694347e-06 -6.623194e-05 -6.755981e-01 7.669067e-01
5.602520e+07 9.798584e-01 1.052246e-01 -1.511909e-05 5.453825e-06 -1.274236e-05 -2.014637e-05 -6.820679e-01 7.659302e-01
5.624393e+07 9.794312e-01 1.053467e-01 1.584180e-05 3.163703e-06 4.498661e-05 2.088770e-05 -6.882324e-01 7.640381e-01
5.646266e+07 9.780273e-01 1.062622e-01 -1.231208e-05 -3.767200e-06 1.577195e-05 -2.941117e-06 -6.900024e-01 7.636719e-01
5.668139e+07 9.775391e-01 1.077271e-01 1.009181e-05 -4.402548e-05 -1.059659e-05 2.786331e-05 -6.907959e-01 7.631226e-01
5.690012e+07 9.774170e-01 1.076660e-01 1.257658e-05 1.395680e-05 8.743256e-06 -1.966022e-05 -6.885376e-01 7.598877e-01
5.711886e+07 9.764404e-01 1.098022e-01 3.742054e-05 9.762123e-06 -4.384667e-06 9.830110e-06 -6.853638e-01 7.542725e-01
5.733759e+07 9.753418e-01 1.102905e-01 -4.548207e-05 -5.487353e-06 4.883856e-06 -3.133342e-05 -6.810913e-01 7.455444e-01
5.755632e+07 9.757690e-01 1.108398e-01 7.213093e-07 8.645002e-06 2.846122e-06 5.476549e-05 -6.777344e-01 7.349854e-01
5.777505e+07 9.746704e-01 1.120605e-01 -1.589395e-05 -3.184192e-06 9.298325e-06 -4.119799e-05 -6.739502e-01 7.216187e-01
5.799378e+07 9.733276e-01 1.123657e-01 1.496077e-05 6.263144e-06 1.186505e-06 -1.489092e-05 -6.733398e-01 7.053223e-01
5.821251e+07 9.724731e-01 1.136475e-01 3.275834e-05 3.281981e-06 3.443658e-05 4.890934e-05 -6.745605e-01 6.882019e-01
5.843124e+07 9.727173e-01 1.146851e-01 6.658956e-06 2.228841e-05 -3.418885e-05 7.448718e-06 -6.780396e-01 6.706543e-01
5.864998e+07 9.721680e-01 1.149902e-01 4.283618e-06 8.068047e-06 1.650583e-05 3.714114e-06 -6.846924e-01 6.522217e-01
5.886871e+07 9.716187e-01 1.173096e-01 8.551404e-06 1.614448e-05 -2.962351e-05 5.406514e-05 -6.931763e-01 6.345520e-01
5.908744e+07 9.709473e-01 1.179199e-01 -2.210401e-05 -5.086884e-06 -1.012906e-05 6.389804e-06 -7.036743e-01 6.184082e-01
5.930617e+07 9.703369e-01 1.185303e-01 4.488975e-07 -2.355501e-05 1.959782e-05 -1.945719e-05 -7.161255e-01 6.040039e-01
5.952490e+07 9.700928e-01 1.187134e-01 7.078052e-07 -3.532320e-05 -2.145767e-05 2.773292e-05 -7.290649e-01 5.919800e-01
5.974363e+07 9.697876e-01 1.204834e-01 -2.158806e-06 -2.604164e-05 6.540120e-05 -1.998618e-05 -7.433472e-01 5.819702e-01
5.996236e+07 9.684448e-01 1.212769e-01 -3.808178e-06 -9.636395e-06 -3.199093e-06 -5.072914e-06 -7.567749e-01 5.748291e-01
6.018109e+07 9.687500e-01 1.221313e-01 -1.453981e-05 -7.868744e-06 1.602434e-05 2.538599e-05 -7.677612e-01 5.681152e-01
6.039982e+07 9.679565e-01 1.237183e-01 -2.908148e-05 2.836622e-05 -5.017594e-05 3.869832e-05 -7.782593e-01 5.643921e-01
6.061856e+07 9.674683e-01 1.250000e-01 -2.219900e-05 -2.719089e-05 2.872385e-05 1.739338e-05 -7.885742e-01 5.606079e-01
6.083729e+07 9.670410e-01 1.255493e-01 -8.348376e-06 -2.804957e-05 1.449138e-05 -4.465505e-05 -7.954712e-01 5.576172e-01
6.105602e+07 9.664307e-01 1.262817e-01 -1.585856e-05 1.013558e-05 -3.953651e-05 3.043562e-05 -8.002930e-01 5.533447e-01
6.127475e+07 9.653931e-01 1.273804e-01 2.780929e-06 2.362765e-05 3.747642e-05 1.499243e-05 -8.055420e-01 5.492554e-01
6.149348e+07 9.649048e-01 1.281128e-01 8.346513e-06 -1.311302e-05 1.016818e-05 7.459894e-06 -8.084717e-01 5.427856e-01
6.171221e+07 9.649658e-01 1.296997e-01 -1.203921e-05 -7.237308e-06 1.399033e-05 -1.477823e-05 -8.108521e-01 5.375977e-01
6.193094e+07 9.644165e-01 1.310425e-01 -1.082569e-05 -1.923647e-06 3.243424e-05 1.130626e-05 -8.140259e-01 5.292358e-01
6.214968e+07 9.636841e-01 1.310425e-01 -2.057385e-05 -2.720393e-06 7.316470e-06 2.417155e-05 -8.167725e-01 5.206909e-01
6.236841e+07 9.631958e-01 1.317749e-01 -1.437217e-05 2.843328e-05 3.164634e-05 -1.751073e-05 -8.210449e-01 5.112915e-01
6.258714e+07 9.624634e-01 1.326904e-01 -2.733245e-05 -1.334399e-05 -2.689287e-05 -1.032092e-05 -8.256226e-01 5.020142e-01
6.280587e+07 9.627686e-01 1.334229e-01 3.980473e-06 -1.306366e-05 8.426607e-06 -1.577381e-05 -8.319702e-01 4.917603e-01
6.302460e+07 9.625854e-01 1.350098e-01 -2.444535e-05 5.683675e-05 2.183020e-05 6.603077e-06 -8.367920e-01 4.815674e-01
6.324333e+07 9.621582e-01 1.367188e-01 5.558133e-05 -2.302974e-05 5.690753e-05 -3.043935e-05 -8.435669e-01 4.729614e-01
6.346206e+07 9.622192e-01 1.368408e-01 2.605654e-05 3.652647e-06 -1.164060e-05 8.791685e-07 -8.511353e-01 4.658813e-01
6.368079e+07 9.619751e-01 1.375122e-01 -2.252311e-05 -3.403053e-05 -5.109236e-06 -3.745779e-06 -8.597412e-01 4.592896e-01
6.389952e+07 9.611206e-01 1.388550e-01 2.218969e-05 2.106093e-05 -8.598715e-05 -3.482401e-05 -8.663940e-01 4.542847e-01
6.411826e+07 9.613037e-01 1.400757e-01 -3.441703e-06 -7.485505e-06 -6.068032e-06 1.837034e-06 -8.729858e-01 4.499512e-01
6.433699e+07 9.610596e-01 1.408081e-01 -1.133513e-05 -1.920387e-05 1.070183e-05 4.707836e-06 -8.782959e-01 4.474487e-01
6.455572e+07 9.610596e-01 1.422729e-01 -2.442393e-06 -1.077447e-05 5.130470e-05 3.032386e-06 -8.811035e-01 4.455566e-01
6.477445e+07 9.606934e-01 1.427612e-01 2.265722e-05 -3.848225e-06 -3.821962e-05 -1.229346e-05 -8.820801e-01 4.414062e-01
6.499318e+07 9.600220e-01 1.436157e-01 -9.986106e-07 3.279652e-06 -2.047420e-05 -1.501851e-05 -8.822021e-01 4.385376e-01
6.521191e+07 9.597778e-01 1.455078e-01 -3.612973e-05 -1.317076e-05 -4.798640e-07 2.798624e-06 -8.805542e-01 4.325562e-01
6.543064e+07 9.597168e-01 1.453247e-01 -4.115514e-06 8.789822e-06 3.820285e-06 -2.240390e-05 -8.772583e-01 4.262695e-01
6.564938e+07 9.601440e-01 1.472168e-01 1.724623e-05 -4.798174e-06 -1.106784e-05 -3.652088e-05 -8.752441e-01 4.171753e-01
6.586811e+07 9.589233e-01 1.482544e-01 -1.883972e-05 -1.359545e-05 1.438893e-06 -8.407515e-06 -8.732910e-01 4.060669e-01
6.608684e+07 9.588013e-01 1.495361e-01 5.876645e-06 -2.406724e-05 -5.510822e-05 -1.522526e-05 -8.714600e-01 3.944702e-01
6.630557e+07 9.588013e-01 1.498413e-01 1.749303e-05 3.900379e-06 4.070997e-05 -1.709908e-06 -8.709106e-01 3.809814e-01
6.652430e+07 9.584961e-01 1.513062e-01 -4.706904e-05 -1.072139e-05 -1.102686e-06 4.023686e-05 -8.731689e-01 3.673096e-01
6.674303e+07 9.581909e-01 1.520996e-01 -2.145022e-05 -2.880953e-05 4.347414e-05 1.607463e-05 -8.765259e-01 3.548584e-01
6.696176e+07 9.577026e-01 1.535034e-01 7.629395e-06 4.118495e-05 2.197921e-05 6.655231e-06 -8.807983e-01 3.413086e-01
6.718049e+07 9.581909e-01 1.541748e-01 1.751911e-05 3.896654e-06 -3.217719e-06 -1.501199e-05 -8.845215e-01 3.295288e-01
6.739922e+07 9.577026e-01 1.546021e-01 6.213784e-06 6.957725e-05 -1.301989e-06 -2.625398e-05 -8.906860e-01 3.188477e-01
6.761796e+07 9.586182e-01 1.553955e-01 -3.965944e-05 -1.639500e-05 -5.878136e-05 3.920123e-05 -8.967285e-01 3.086548e-01
6.783669e+07 9.580078e-01 1.567383e-01 3.893115e-05 2.841093e-05 -5.496666e-05 1.665205e-05 -9.010620e-01 3.003540e-01
6.805542e+07 9.580078e-01 1.580200e-01 -3.917143e-06 -2.497993e-05 1.543947e-05 1.132861e-05 -9.049683e-01 2.913818e-01
6.827415e+07 9.583130e-01 1.587524e-01 3.196858e-05 1.333095e-05 3.008917e-05 -6.444752e-06 -9.088745e-01 2.832642e-01
6.849288e+07 9.584961e-01 1.602783e-01 6.372109e-06 -6.718561e-06 1.643505e-05 5.715527e-06 -9.107666e-01 2.746582e-01
6.871161e+07 9.574585e-01 1.611938e-01 -3.165938e-05 -2.626330e-07 -1.964718e-05 -2.077408e-05 -9.118042e-01 2.655640e-01
6.893034e+07 9.584351e-01 1.627197e-01 1.509860e-05 -6.955117e-06 -1.287088e-06 -2.637319e-05 -9.129028e-01 2.559204e-01
6.914908e+07 9.575806e-01 1.627808e-01 2.624281e-05 4.190207e-05 1.932960e-05 -1.121033e-05 -9.128418e-01 2.455444e-01
6.936781e+07 9.572754e-01 1.637573e-01 -5.410984e-06 -3.919937e-05 1.128297e-05 1.928769e-06 -9.128418e-01 2.332764e-01
6.958654e+07 9.577026e-01 1.645508e-01 -1.958758e-05 4.531443e-05 -3.303401e-05 2.342649e-05 -9.133301e-01 2.195435e-01
6.980527e+07 9.570923e-01 1.652832e-01 -1.806114e-05 -2.138969e-05 1.597404e-05 8.530915e-06 -9.147339e-01 2.050171e-01
7.002400e+07 9.564209e-01 1.667480e-01 -7.385388e-06 1.004292e-05 2.142042e-05 -5.733967e-05 -9.177246e-01 1.892090e-01
7.024273e+07 9.572754e-01 1.680298e-01 -9.169802e-06 2.540275e-05 -3.729947e-05 1.398288e-05 -9.211426e-01 1.730957e-01
7.046146e+07 9.569092e-01 1.685791e-01 -1.266971e-05 1.784973e-05 -6.480142e-06 -3.018603e-05 -9.267578e-01 1.560669e-01
7.068019e+07 9.573975e-01 1.704712e-01 -2.011843e-05 -1.479499e-05 4.847534e-07 -2.828427e-06 -9.348755e-01 1.395264e-01
7.089892e+07 9.575195e-01 1.705322e-01 4.522130e-05 1.304224e-05 -2.110377e-05 -4.725531e-05 -9.439087e-01 1.231079e-01
7.111766e+07 9.575195e-01 1.726074e-01 3.328547e-06 -3.956258e-05 -5.095825e-05 -8.709729e-06 -9.549561e-01 1.085815e-01
7.133639e+07 9.569092e-01 1.724854e-01 1.673028e-05 -3.116019e-05 -4.202500e-05 7.398427e-06 -9.687500e-01 9.558105e-02
7.155512e+07 9.580078e-01 1.737061e-01 -3.844500e-06 -2.073497e-05 1.926906e-06 -1.133233e-05 -9.828491e-01 8.477783e-02
7.177385e+07 9.580078e-01 1.747437e-01 6.226823e-06 2.726354e-05 -1.098029e-05 3.020838e-05 -9.971924e-01 7.843018e-02
7.199258e+07 9.572144e-01 1.756592e-01 3.540888e-05 -3.058091e-05 -1.167879e-05 -3.406592e-05 -1.011902e+00 7.214355e-02
7.221131e+07 9.576416e-01 1.764526e-01 2.023205e-05 -2.359785e-05 4.840549e-07 -2.835877e-06 -1.023743e+00 7.061768e-02
7.243004e+07 9.572754e-01 1.771851e-01 2.094172e-05 2.727844e-06 5.719438e-05 6.824732e-06 -1.035339e+00 7.135010e-02
7.264878e+07 9.575806e-01 1.785889e-01 1.888350e-05 4.784390e-05 -3.738329e-06 -1.231674e-05 -1.041077e+00 7.238770e-02
7.286751e+07 9.573975e-01 1.793213e-01 1.151301e-05 1.946744e-05 -4.840549e-07 2.837274e-06 -1.045715e+00 7.379150e-02
7.308624e+07 9.578247e-01 1.802979e-01 -1.317821e-05 3.511086e-07 2.658740e-05 -1.884624e-05 -1.047791e+00 7.537842e-02
7.330497e+07 9.588013e-01 1.812134e-01 1.193583e-05 -5.817972e-06 1.806766e-06 2.371147e-05 -1.047119e+00 7.415771e-02
7.352370e+07 9.586182e-01 1.818237e-01 -1.152512e-05 -1.949631e-05 -2.854876e-05 3.024936e-05 -1.044739e+00 7.159424e-02
7.374243e+07 9.576416e-01 1.833496e-01 -4.516914e-05 3.868714e-05 -1.753680e-05 -7.171184e-08 -1.042419e+00 6.738281e-02
7.396116e+07 9.589233e-01 1.843872e-01 2.720021e-05 -1.285039e-05 3.427267e-07 3.227219e-05 -1.040222e+00 5.987549e-02
7.417989e+07 9.579468e-01 1.857910e-01 5.230308e-06 3.070571e-05 4.142895e-05 -3.680959e-05 -1.038452e+00 5.236816e-02
7.439862e+07 9.583130e-01 1.862183e-01 -3.477372e-05 1.853891e-05 2.553314e-05 2.193637e-05 -1.039368e+00 4.302979e-02
7.461736e+07 9.581909e-01 1.871948e-01 7.757917e-07 -1.215003e-05 -5.789846e-05 -4.027039e-06 -1.040527e+00 3.442383e-02
7.483609e+07 9.589233e-01 1.877441e-01 -8.391216e-06 -2.514943e-05 -1.757499e-05 -6.239861e-08 -1.042419e+00 2.441406e-02
7.505482e+07 9.589233e-01 1.889038e-01 -2.459623e-05 2.827495e-05 8.611009e-06 -1.612678e-05 -1.047180e+00 1.715088e-02
7.527355e+07 9.586182e-01 1.897583e-01 1.663901e-05 2.860092e-06 3.504194e-05 3.528781e-05 -1.052368e+00 1.098633e-02
7.549228e+07 9.588623e-01 1.906738e-01 1.574401e-05 1.061708e-05 -2.300367e-06 -2.092496e-05 -1.057068e+00 7.934570e-03
7.571101e+07 9.598389e-01 1.914062e-01 2.433173e-05 1.529232e-06 1.953915e-05 -1.134817e-05 -1.062134e+00 6.530762e-03
7.592974e+07 9.600220e-01 1.926270e-01 -6.861985e-06 3.223121e-05 -8.978881e-06 -1.621433e-05 -1.065369e+00 6.713867e-03
7.614848e+07 9.601440e-01 1.936646e-01 -1.276098e-05 1.802575e-05 -3.576279e-07 -3.236160e-05 -1.065918e+00 9.155273e-03
7.636721e+07 9.600830e-01 1.940308e-01 6.448105e-05 1.370907e-05 -2.903491e-05 -1.994893e-06 -1.062927e+00 1.281738e-02
7.658594e+07 9.606323e-01 1.950073e-01 -4.264712e-05 -2.317876e-05 -2.139434e-05 -1.246482e-05 -1.057007e+00 1.721191e-02
7.680467e+07 9.604492e-01 1.955566e-01 -5.489215e-06 4.218332e-05 3.002584e-05 -3.699213e-06 -1.047302e+00 1.818848e-02
7.702340e+07 9.604492e-01 1.965942e-01 -2.755038e-05 4.075468e-06 1.240335e-05 -3.765337e-06 -1.035339e+00 1.873779e-02
7.724213e+07 9.607544e-01 1.975708e-01 3.197230e-05 -4.179776e-06 5.717389e-06 9.746291e-07 -1.020569e+00 1.617432e-02
7.746086e+07 9.609985e-01 1.975708e-01 2.343021e-05 -3.387406e-05 1.240894e-05 -3.781170e-06 -1.006348e+00 9.277344e-03
7.767959e+07 9.610596e-01 1.994019e-01 2.860092e-05 -7.424504e-06 8.160248e-06 -1.332629e-05 -9.913940e-01 -1.220703e-04
7.789832e+07 9.606323e-01 1.995239e-01 -4.246831e-07 2.549775e-05 -2.713129e-05 -1.344644e-05 -9.769897e-01 -1.208496e-02
7.811706e+07 9.619751e-01 2.006836e-01 1.752004e-05 -4.813448e-05 2.095848e-05 1.534820e-05 -9.649658e-01 -2.777100e-02
7.833579e+07 9.617310e-01 2.021484e-01 3.279373e-05 2.236851e-05 -1.536682e-05 2.095848e-05 -9.550171e-01 -4.370117e-02
7.855452e+07 9.624634e-01 2.024536e-01 1.520477e-05 -1.151953e-05 -4.268251e-06 -9.577721e-06 -9.464722e-01 -6.060791e-02
7.877325e+07 9.625854e-01 2.034912e-01 -3.868155e-05 6.597489e-06 1.952797e-05 2.397411e-05 -9.403687e-01 -7.849121e-02
7.899198e+07 9.631958e-01 2.042236e-01 2.098083e-05 -4.499033e-05 4.881993e-06 -2.869405e-05 -9.381104e-01 -9.564209e-02
7.921071e+07 9.626465e-01 2.059326e-01 -1.103524e-05 2.522022e-06 1.604483e-05 -5.925447e-05 -9.357910e-01 -1.126709e-01
7.942944e+07 9.624634e-01 2.058716e-01 7.738359e-06 -1.326669e-06 -9.783544e-07 5.734619e-06 -9.357300e-01 -1.274414e-01
7.964818e+07 9.644165e-01 2.070923e-01 -4.810281e-06 -1.319218e-05 4.828349e-05 2.891943e-05 -9.372559e-01 -1.408691e-01
7.986691e+07 9.651489e-01 2.069092e-01 -2.690032e-05 -8.137897e-06 -4.082918e-05 3.151968e-05 -9.374390e-01 -1.528931e-01
8.008564e+07 9.647827e-01 2.079468e-01 -3.660098e-07 -1.333188e-05 8.087605e-06 2.206117e-05 -9.398804e-01 -1.630859e-01
8.030437e+07 9.648438e-01 2.085571e-01 -3.869459e-05 -3.228337e-05 -1.052767e-05 -7.693656e-06 -9.397583e-01 -1.718750e-01
8.052310e+07 9.641724e-01 2.097778e-01 2.755411e-05 3.039464e-05 1.834705e-06 2.395548e-05 -9.383545e-01 -1.792603e-01
8.074183e+07 9.652710e-01 2.105103e-01 -2.571009e-05 3.631599e-05 -4.063174e-05 -3.945082e-05 -9.376831e-01 -1.858521e-01
8.096056e+07 9.653320e-01 2.114868e-01 1.407228e-05 2.632663e-05 -2.326444e-06 -2.111495e-05 -9.342651e-01 -1.925659e-01
8.117929e+07 9.659424e-01 2.122803e-01 2.099387e-05 -6.156042e-06 2.167374e-05 -2.296641e-05 -9.294434e-01 -1.987915e-01
8.139802e+07 9.661255e-01 2.125244e-01 -3.577955e-05 -3.470108e-06 1.385622e-05 2.308376e-05 -9.242554e-01 -2.062988e-01
8.161676e+07 9.666748e-01 2.131348e-01 3.008544e-05 -4.095770e-05 -2.828427e-06 -1.826696e-05 -9.172974e-01 -2.140503e-01
8.183549e+07 9.676514e-01 2.138672e-01 -1.464225e-05 -5.173497e-06 5.521998e-05 2.422184e-05 -9.104004e-01 -2.243652e-01
8.205422e+07 9.668579e-01 2.144775e-01 2.053753e-05 -2.402253e-05 2.844259e-05 -2.779253e-05 -9.042969e-01 -2.357178e-01
8.227295e+07 9.662476e-01 2.150879e-01 -4.362315e-05 3.693625e-05 -3.922731e-06 2.304837e-05 -8.981934e-01 -2.475586e-01
8.249168e+07 9.673462e-01 2.155151e-01 -1.502037e-05 -5.767494e-05 -8.810312e-07 -2.982095e-05 -8.931274e-01 -2.601929e-01
8.271041e+07 9.679565e-01 2.161865e-01 6.258488e-06 -1.581479e-05 -4.198402e-06 -4.524738e-05 -8.889160e-01 -2.749023e-01
8.292914e+07 9.679565e-01 2.166138e-01 2.667680e-05 -5.232170e-06 2.348796e-06 2.117828e-05 -8.865967e-01 -2.871094e-01
8.314788e+07 9.689941e-01 2.186279e-01 -1.709815e-05 -1.181941e-05 3.553741e-05 3.576651e-05 -8.864746e-01 -3.008423e-01
8.336661e+07 9.687500e-01 2.185669e-01 3.462099e-05 -2.138317e-06 8.229166e-06 -1.345668e-05 -8.859253e-01 -3.133545e-01
8.358534e+07 9.690552e-01 2.192993e-01 1.139939e-06 -3.807433e-05 5.103648e-05 1.458824e-05 -8.876343e-01 -3.254395e-01
8.380407e+07 9.701538e-01 2.197876e-01 -5.343929e-05 1.050532e-05 1.881644e-05 -5.733222e-06 -8.897095e-01 -3.360596e-01
8.402280e+07 9.708862e-01 2.202148e-01 5.508959e-05 8.486211e-06 -1.883041e-05 5.749054e-06 -8.917847e-01 -3.442383e-01
8.424153e+07 9.707031e-01 2.206421e-01 2.507120e-05 1.496449e-05 -1.540594e-05 -1.450535e-05 -8.936157e-01 -3.519287e-01
8.446026e+07 9.707031e-01 2.214355e-01 -3.042817e-05 -6.983057e-06 -2.746284e-05 -1.357496e-05 -8.939209e-01 -3.572388e-01
8.467899e+07 9.710693e-01 2.216187e-01 7.944182e-06 4.235283e-05 2.943911e-05 1.987442e-06 -8.942261e-01 -3.612671e-01
8.489772e+07 9.713135e-01 2.230835e-01 2.049375e-06 -6.790739e-06 6.281771e-06 -1.912937e-06 -8.917847e-01 -3.662720e-01
8.511646e+07 9.725342e-01 2.236938e-01 9.860843e-06 -8.130446e-06 -1.788884e-05 -4.749745e-08 -8.884888e-01 -3.698730e-01
8.533519e+07 9.720459e-01 2.243652e-01 -1.401640e-06 -1.005270e-05 2.405792e-05 3.389083e-05 -8.842163e-01 -3.756104e-01
8.555392e+07 9.724731e-01 2.243042e-01 -3.254414e-05 -1.918525e-07 -2.752431e-05 -1.360290e-05 -8.785400e-01 -3.814697e-01
8.577265e+07 9.739380e-01 2.251587e-01 -5.373359e-05 4.536659e-05 3.021210e-06 -5.324930e-05 -8.728027e-01 -3.886108e-01
8.599138e+07 9.739380e-01 2.258911e-01 9.851530e-06 3.116019e-05 -1.733564e-05 -3.878772e-05 -8.675537e-01 -3.969116e-01
8.621011e+07 9.734497e-01 2.263184e-01 -2.910383e-05 4.242919e-05 -2.558716e-05 -2.523698e-05 -8.617554e-01 -4.057007e-01
8.642884e+07 9.744263e-01 2.269287e-01 7.695053e-06 -5.831942e-06 -7.285737e-06 7.731840e-06 -8.583984e-01 -4.156494e-01
8.664758e+07 9.746704e-01 2.271729e-01 2.957880e-06 2.465211e-05 5.527586e-05 -8.586794e-06 -8.557129e-01 -4.265747e-01
8.686631e+07 9.743652e-01 2.277832e-01 -1.375750e-05 3.073737e-05 -3.004260e-05 8.922070e-07 -8.529663e-01 -4.353638e-01
8.708504e+07 9.760132e-01 2.278442e-01 5.779788e-06 5.459413e-06 9.830110e-07 -5.821697e-06 -8.515625e-01 -4.452515e-01
8.730377e+07 9.756470e-01 2.282715e-01 -1.092255e-05 1.156144e-05 -5.820766e-06 -9.839423e-07 -8.513794e-01 -4.532471e-01
8.752250e+07 9.766235e-01 2.296753e-01 1.234841e-05 -1.481734e-06 -9.881333e-07 5.825423e-06 -8.507690e-01 -4.601440e-01
8.774123e+07 9.761963e-01 2.297974e-01 1.568720e-05 3.672019e-05 2.631545e-05 -4.944205e-05 -8.500366e-01 -4.663696e-01
8.795996e+07 9.768677e-01 2.301636e-01 -1.660828e-05 1.062080e-05 6.609038e-05 -8.121133e-07 -8.486938e-01 -4.703369e-01
8.817869e+07 9.781494e-01 2.306519e-01 -1.623575e-05 -1.531839e-05 -4.578754e-05 2.227351e-05 -8.455811e-01 -4.739380e-01
8.839742e+07 9.777222e-01 2.307129e-01 -1.558755e-05 7.222407e-06 -6.706268e-05 -2.932549e-05 -8.406982e-01 -4.769287e-01
8.861616e+07 9.774170e-01 2.316284e-01 -1.068786e-05 2.062228e-05 1.018587e-05 1.072045e-05 -8.355713e-01 -4.799805e-01
8.883489e+07 9.777832e-01 2.322998e-01 -3.354624e-06 1.225155e-06 -4.274398e-05 -3.125891e-05 -8.274536e-01 -4.837646e-01
8.905362e+07 9.791260e-01 2.320557e-01 1.443457e-05 -8.314848e-06 -5.456433e-05 2.827495e-06 -8.179932e-01 -4.880981e-01
8.927235e+07 9.785156e-01 2.331543e-01 7.017702e-05 4.742295e-06 -1.118984e-05 -4.899688e-06 -8.071899e-01 -4.949951e-01
8.949108e+07 9.792480e-01 2.335815e-01 3.798306e-05 6.223097e-05 1.119543e-05 4.901551e-06 -7.961426e-01 -5.030518e-01
8.970981e+07 9.794312e-01 2.337036e-01 3.930181e-07 1.354795e-05 2.437830e-05 -1.899898e-06 -7.843628e-01 -5.137939e-01
8.992854e+07 9.799805e-01 2.348022e-01 3.034249e-05 -6.532297e-06 -4.859641e-06 -6.843358e-06 -7.738037e-01 -5.250244e-01
9.014728e+07 9.795532e-01 2.341919e-01 5.951617e-06 1.001498e-05 -9.311363e-06 1.948047e-05 -7.630615e-01 -5.386963e-01
9.036601e+07 9.801636e-01 2.354126e-01 -3.763475e-06 -1.234747e-05 -1.904927e-05 5.802140e-06 -7.553101e-01 -5.543823e-01
9.058474e+07 9.803467e-01 2.354126e-01 -7.347204e-06 1.947954e-05 3.324077e-05 -1.846626e-05 -7.478638e-01 -5.714722e-01
9.080347e+07 9.808960e-01 2.366333e-01 -2.121367e-05 1.082942e-05 -1.989305e-06 1.171883e-05 -7.431030e-01 -5.882568e-01
9.102220e+07 9.810791e-01 2.362061e-01 2.562255e-05 -1.549162e-05 7.348135e-06 -7.798895e-06 -7.399902e-01 -6.047363e-01
9.124093e+07 9.822388e-01 2.362061e-01 1.091324e-05 2.348237e-05 1.710746e-05 5.901791e-06 -7.401733e-01 -6.213379e-01
9.145966e+07 9.819336e-01 2.362061e-01 3.967434e-07 1.359824e-05 1.915172e-05 -4.203618e-05 -7.410278e-01 -6.363525e-01
9.167839e+07 9.815063e-01 2.359009e-01 -1.685787e-05 6.171875e-06 1.228042e-05 -3.713742e-05 -7.440796e-01 -6.501465e-01
9.189712e+07 9.824829e-01 2.368164e-01 -1.504458e-05 -9.788200e-06 1.488719e-06 -8.803327e-06 -7.472534e-01 -6.622314e-01
9.211586e+07 9.832764e-01 2.372437e-01 1.738593e-05 1.196563e-05 -1.373421e-05 9.769574e-06 -7.506104e-01 -6.699219e-01
9.233459e+07 9.830933e-01 2.373047e-01 -9.984709e-06 8.252449e-06 3.475510e-05 8.886680e-06 -7.535400e-01 -6.775513e-01
9.255332e+07 9.837036e-01 2.375488e-01 -1.751259e-05 2.324395e-05 5.442649e-06 -3.234111e-05 -7.556152e-01 -6.824951e-01
9.277205e+07 9.840698e-01 2.380981e-01 2.481416e-05 -7.545575e-06 8.232892e-06 5.885959e-05 -7.553101e-01 -6.864014e-01
9.299078e+07 9.840698e-01 2.389526e-01 1.001358e-05 3.155693e-05 4.891306e-06 6.876420e-06 -7.543335e-01 -6.898193e-01
9.320951e+07 9.844360e-01 2.391968e-01 -6.780028e-07 -2.274290e-05 -4.469231e-05 1.363084e-05 -7.498779e-01 -6.931152e-01
9.342824e+07 9.847412e-01 2.386475e-01 1.791958e-05 -9.639189e-06 1.370534e-05 2.652407e-05 -7.451172e-01 -6.978149e-01
9.364698e+07 9.850464e-01 2.404785e-01 6.314367e-07 -1.709908e-05 -7.787719e-06 -2.557039e-05 -7.385864e-01 -7.031250e-01
9.386571e+07 9.849243e-01 2.389526e-01 -2.547726e-05 2.469122e-05 1.475494e-05 -1.569558e-05 -7.330933e-01 -7.106934e-01
9.408444e+07 9.851685e-01 2.403564e-01 -8.982606e-07 8.009840e-06 2.117455e-05 -1.764484e-05 -7.236328e-01 -7.153931e-01
9.430317e+07 9.857178e-01 2.404175e-01 -2.727844e-05 -3.453530e-05 -3.149547e-05 6.807968e-06 -7.208252e-01 -7.273560e-01
9.452190e+07 9.859619e-01 2.405396e-01 4.457682e-05 2.097338e-06 2.609193e-05 -1.077168e-05 -7.152710e-01 -7.381592e-01
9.474063e+07 9.863892e-01 2.404785e-01 -6.230548e-07 1.712609e-05 7.776543e-05 6.977469e-06 -7.120972e-01 -7.482910e-01
9.495936e+07 9.862671e-01 2.412720e-01 -6.503426e-06 1.160149e-05 -4.407950e-06 -9.856187e-06 -7.094116e-01 -7.586670e-01
9.517809e+07 9.870605e-01 2.407837e-01 -8.718111e-06 1.395121e-05 2.711639e-05 -1.671538e-05 -7.105713e-01 -7.683716e-01
9.539682e+07 9.865112e-01 2.415161e-01 3.250130e-05 1.733191e-05 1.181848e-05 1.991168e-06 -7.130127e-01 -7.769165e-01
9.561556e+07 9.871826e-01 2.427979e-01 -2.722070e-05 4.540756e-05 -3.990903e-05 -1.587719e-05 -7.161865e-01 -7.831421e-01
9.583429e+07 9.865723e-01 2.419434e-01 -1.555309e-05 -2.355874e-05 -1.381710e-05 9.827316e-06 -7.196045e-01 -7.874756e-01
9.605302e+07 9.867554e-01 2.418823e-01 5.739555e-05 -7.037818e-05 2.414919e-05 1.028180e-06 -7.223511e-01 -7.872314e-01
9.627175e+07 9.868164e-01 2.426147e-01 -1.875684e-06 -2.396666e-05 4.250184e-05 -3.541261e-05 -7.243042e-01 -7.850952e-01
9.649048e+07 9.874878e-01 2.416382e-01 -3.748387e-05 9.128824e-06 -1.880154e-05 3.945455e-05 -7.225952e-01 -7.796021e-01
9.670921e+07 9.880981e-01 2.429199e-01 1.326948e-05 -5.421415e-05 1.627766e-05 1.188554e-05 -7.181396e-01 -7.751465e-01
9.692794e+07 9.882812e-01 2.426147e-01 1.185946e-05 -2.438948e-05 1.439825e-06 2.767332e-05 -7.107544e-01 -7.694092e-01
9.714668e+07 9.876099e-01 2.429199e-01 -2.760068e-05 -3.768131e-06 1.384784e-05 -9.854324e-06 -7.007446e-01 -7.647095e-01
9.736541e+07 9.879761e-01 2.428589e-01 -1.316890e-06 -5.693641e-06 3.859773e-05 -4.838780e-05 -6.876221e-01 -7.615967e-01
9.758414e+07 9.878540e-01 2.424316e-01 4.027225e-05 -3.335439e-05 2.669729e-05 -1.381710e-05 -6.753540e-01 -7.599487e-01
9.780287e+07 9.887085e-01 2.432251e-01 1.709349e-05 -4.180335e-05 2.226233e-05 1.290068e-05 -6.597900e-01 -7.611084e-01
9.802160e+07 9.885864e-01 2.432861e-01 2.627447e-05 -4.211627e-05 9.885989e-06 1.387484e-05 -6.469116e-01 -7.650146e-01
9.824033e+07 9.882812e-01 2.441406e-01 -3.911182e-05 3.451295e-05 -3.464520e-05 -1.194701e-05 -6.323853e-01 -7.697144e-01
9.845906e+07 9.880981e-01 2.448730e-01 -6.884336e-06 3.808737e-05 1.832750e-05 4.190952e-08 -6.197510e-01 -7.768555e-01
9.867779e+07 9.893799e-01 2.441406e-01 1.294538e-05 -2.795085e-05 -2.440438e-05 7.237494e-05 -6.086426e-01 -7.829590e-01
9.889652e+07 9.885864e-01 2.445679e-01 -1.816079e-06 1.614913e-05 -1.979060e-05 -2.779625e-05 -5.989990e-01 -7.908936e-01
9.911526e+07 9.887695e-01 2.443237e-01 -1.246296e-05 6.129034e-06 -5.950686e-06 -1.000706e-06 -5.908813e-01 -7.997437e-01
9.933399e+07 9.888916e-01 2.446289e-01 3.363937e-05 9.329990e-06 2.481416e-05 -1.948327e-06 -5.838623e-01 -8.061523e-01
9.955272e+07 9.893188e-01 2.447510e-01 4.496053e-05 2.078712e-06 1.837127e-05 2.142042e-08 -5.791016e-01 -8.103638e-01
9.977145e+07 9.890137e-01 2.447510e-01 -1.804903e-06 1.617428e-05 -8.920208e-06 -1.986697e-05 -5.728760e-01 -8.140259e-01
9.999018e+07 9.899902e-01 2.451782e-01 7.448718e-06 -1.980271e-05 4.474074e-05 -1.087412e-05 -5.676270e-01 -8.167114e-01
1.002089e+08 9.898071e-01 2.455444e-01 4.352443e-05 -8.227304e-06 -1.884066e-05 -3.382005e-05 -5.611572e-01 -8.168335e-01
1.004276e+08 9.894409e-01 2.461548e-01 2.336875e-05 -2.720207e-05 -1.242943e-05 9.741634e-07 -5.537720e-01 -8.159790e-01
1.006464e+08 9.896851e-01 2.461548e-01 -8.654781e-06 1.870561e-05 -2.458692e-06 -2.188794e-05 -5.458374e-01 -8.141479e-01
1.008651e+08 9.899902e-01 2.462769e-01 6.080605e-06 1.017936e-05 1.240708e-05 3.584474e-05 -5.357056e-01 -8.114624e-01
1.010838e+08 9.888916e-01 2.453613e-01 -3.924407e-05 -1.085922e-06 -2.487749e-05 3.877655e-05 -5.228882e-01 -8.108521e-01
1.013026e+08 9.895020e-01 2.464600e-01 -8.512288e-06 2.332032e-05 -2.539530e-05 4.941598e-06 -5.097656e-01 -8.095093e-01
1.015213e+08 9.882202e-01 2.456665e-01 -1.189124e-06 -1.116889e-06 4.127622e-05 9.980053e-06 -4.931641e-01 -8.097534e-01
1.017400e+08 9.890137e-01 2.458496e-01 -4.200265e-07 -1.384225e-05 -4.031509e-05 -1.595914e-05 -4.783936e-01 -8.116455e-01
1.019588e+08 9.884033e-01 2.462769e-01 -1.634471e-05 -4.221499e-05 1.641456e-05 1.196377e-05 -4.630127e-01 -8.156738e-01
1.021775e+08 9.888916e-01 2.462158e-01 -6.118789e-07 1.733005e-05 2.970919e-06 1.893006e-05 -4.462280e-01 -8.213501e-01
1.023962e+08 9.886475e-01 2.466431e-01 -2.905726e-07 -9.232666e-06 -1.446623e-05 1.294259e-05 -4.296875e-01 -8.281860e-01
1.026150e+08 9.884033e-01 2.470703e-01 2.069212e-05 -2.938323e-06 -5.022157e-07 2.989778e-06 -4.161377e-01 -8.365479e-01
1.028337e+08 9.887695e-01 2.470703e-01 6.010756e-06 -3.022887e-05 1.396891e-05 -9.967946e-06 -4.044189e-01 -8.462524e-01
1.030524e+08 9.887695e-01 2.478027e-01 -3.054179e-05 -1.522526e-05 9.006821e-06 -1.695473e-05 -3.934937e-01 -8.560791e-01
1.032712e+08 9.891357e-01 2.483521e-01 1.967791e-05 5.541369e-07 -1.747254e-05 -6.021932e-06 -3.842163e-01 -8.666382e-01
1.034899e+08 9.877930e-01 2.467651e-01 -9.860843e-06 1.766626e-05 -3.503636e-06 2.094917e-05 -3.756104e-01 -8.758545e-01
1.037086e+08 9.874878e-01 2.482910e-01 2.955459e-05 -1.710095e-05 1.197308e-05 2.016313e-06 -3.696289e-01 -8.840942e-01
1.039273e+08 9.882812e-01 2.473755e-01 -4.041009e-06 1.864787e-05 1.649000e-05 -2.495572e-05 -3.644409e-01 -8.909302e-01
1.041461e+08 9.879761e-01 2.481079e-01 -1.907162e-05 -1.791865e-05 -4.524365e-06 2.696179e-05 -3.598022e-01 -8.964233e-01
1.043648e+08 9.878540e-01 2.487183e-01 -1.941435e-05 8.732080e-06 1.596287e-05 1.501478e-05 -3.551025e-01 -9.013672e-01
1.045835e+08 9.877319e-01 2.490234e-01 3.194623e-05 2.099201e-05 6.747246e-05 2.089888e-06 -3.487549e-01 -9.036255e-01
1.048023e+08 9.871216e-01 2.492065e-01 1.341105e-06 5.747192e-06 -2.851151e-05 2.296455e-05 -3.425903e-01 -9.047852e-01
1.050210e+08 9.876709e-01 2.487183e-01 3.049895e-05 -2.530031e-05 -9.987503e-06 -5.101785e-05 -3.342285e-01 -9.049072e-01
1.052397e+08 9.876099e-01 2.489014e-01 -2.392754e-05 1.349673e-05 -1.301244e-05 3.996305e-06 -3.256226e-01 -9.055786e-01
1.054585e+08 9.866333e-01 2.486572e-01 -2.345443e-05 -8.547679e-06 -1.950655e-05 5.997717e-06 -3.142700e-01 -9.077148e-01
1.056772e+08 9.866333e-01 2.494507e-01 -1.700222e-05 -2.498552e-05 1.703389e-05 -2.800860e-05 -3.028564e-01 -9.094238e-01
1.058959e+08 9.859619e-01 2.489624e-01 1.664273e-06 -2.092868e-05 -4.000030e-06 -1.300871e-05 -2.906494e-01 -9.138794e-01
1.061147e+08 9.850464e-01 2.495117e-01 -3.731344e-06 -8.006580e-06 -2.479181e-06 -2.201274e-05 -2.790527e-01 -9.193115e-01
1.063334e+08 9.863892e-01 2.499390e-01 8.507632e-06 1.250859e-05 2.455339e-05 1.020730e-06 -2.658081e-01 -9.252319e-01
1.065521e+08 9.864502e-01 2.496338e-01 3.972463e-05 -3.029406e-05 2.305768e-05 1.003034e-05 -2.554932e-01 -9.351196e-01
1.067708e+08 9.857788e-01 2.501831e-01 -3.932044e-06 2.335571e-05 -2.055988e-05 1.201779e-05 -2.465820e-01 -9.449463e-01
1.069896e+08 9.857178e-01 2.500610e-01 4.313514e-05 4.436821e-06 1.151860e-05 4.212186e-05 -2.390747e-01 -9.542236e-01
1.072083e+08 9.846191e-01 2.507324e-01 1.077726e-05 1.011603e-05 -5.973503e-06 -3.810227e-05 -2.332764e-01 -9.642334e-01
1.074270e+08 9.854736e-01 2.500610e-01 -3.100187e-05 -2.457947e-05 -4.537404e-06 -4.718825e-05 -2.314453e-01 -9.718628e-01
1.076458e+08 9.846802e-01 2.510986e-01 -1.633540e-05 -1.801178e-06 -5.472451e-05 -6.064773e-06 -2.293701e-01 -9.786987e-01
1.078645e+08 9.841919e-01 2.505493e-01 -2.879649e-06 1.985021e-05 1.756754e-05 6.024726e-06 -2.293701e-01 -9.826050e-01
1.080832e+08 9.840088e-01 2.513428e-01 1.955777e-06 -1.169369e-05 4.009344e-06 1.305249e-05 -2.296143e-01 -9.846191e-01
1.083020e+08 9.844971e-01 2.518311e-01 -1.711212e-05 1.101568e-05 -3.365427e-05 -2.113357e-05 -2.283325e-01 -9.825439e-01
1.085207e+08 9.825439e-01 2.515259e-01 7.652678e-06 -1.536962e-05 -4.665554e-05 -1.709536e-05 -2.255859e-01 -9.798584e-01
1.087394e+08 9.841309e-01 2.518921e-01 -9.296928e-06 3.003515e-07 -9.529293e-06 -5.431101e-05 -2.197266e-01 -9.747314e-01
1.089582e+08 9.837646e-01 2.523193e-01 -1.155771e-05 2.696179e-06 2.464466e-05 1.013279e-06 -2.125244e-01 -9.694214e-01
1.091769e+08 9.827881e-01 2.527466e-01 3.034063e-05 -3.477372e-05 -1.106039e-05 -8.047558e-06 -2.020264e-01 -9.645996e-01
1.093956e+08 9.825439e-01 2.536011e-01 -2.235733e-05 -7.430092e-06 1.459289e-05 -1.306832e-05 -1.907959e-01 -9.613037e-01
1.096144e+08 9.822388e-01 2.534790e-01 -1.261290e-05 6.236136e-06 -3.019720e-05 3.218837e-05 -1.752930e-01 -9.587402e-01
1.098331e+08 9.819336e-01 2.531128e-01 2.808310e-05 3.769994e-06 1.458917e-05 -1.308322e-05 -1.611328e-01 -9.588013e-01
1.100518e+08 9.809570e-01 2.537231e-01 -2.613477e-05 -1.549721e-05 8.048490e-06 2.615340e-05 -1.448364e-01 -9.613647e-01
1.102706e+08 9.807739e-01 2.539062e-01 1.650304e-06 -2.104323e-05 1.358893e-05 -7.043593e-06 -1.317749e-01 -9.651489e-01
1.104893e+08 9.798584e-01 2.539062e-01 1.368113e-05 2.637506e-05 2.615154e-05 -8.054078e-06 -1.177979e-01 -9.689331e-01
1.107080e+08 9.797363e-01 2.543335e-01 1.549348e-05 -2.615154e-05 5.122274e-07 3.422238e-05 -1.063232e-01 -9.763184e-01
1.109267e+08 9.791260e-01 2.540894e-01 -1.352187e-05 -2.170727e-05 -4.681572e-05 2.014637e-05 -9.375000e-02 -9.828491e-01
1.111455e+08 9.786377e-01 2.550049e-01 -1.202803e-06 -1.127191e-06 -8.056872e-06 1.107808e-05 -8.459473e-02 -9.898682e-01
1.113642e+08 9.781494e-01 2.553101e-01 -3.547966e-05 5.716830e-05 1.209415e-05 -3.524683e-05 -7.611084e-02 -9.973145e-01
1.115829e+08 9.786987e-01 2.557373e-01 7.829629e-06 -1.075864e-05 8.068047e-06 -1.108926e-05 -7.092285e-02 -1.004211e+00
1.118017e+08 9.786377e-01 2.554932e-01 -1.774356e-05 -4.378706e-05 8.063391e-06 -1.109950e-05 -6.518555e-02 -1.009399e+00
1.120204e+08 9.780884e-01 2.562256e-01 6.604940e-06 -4.808232e-05 1.512468e-05 -1.613144e-05 -6.127930e-02 -1.013000e+00
1.122391e+08 9.776001e-01 2.564697e-01 -2.574176e-06 2.928823e-05 7.565599e-06 -8.066185e-06 -5.853271e-02 -1.014160e+00
1.124579e+08 9.775391e-01 2.572021e-01 -1.370162e-05 -2.642721e-05 2.526678e-06 -1.513679e-05 -5.407715e-02 -1.012939e+00
1.126766e+08 9.762573e-01 2.571411e-01 2.363883e-05 8.586794e-06 -4.135445e-05 -1.312047e-05 -4.986572e-02 -1.012329e+00
1.128953e+08 9.769287e-01 2.579346e-01 -8.454546e-06 2.830289e-05 -4.948303e-05 -2.019107e-06 -4.278564e-02 -1.008240e+00
1.131141e+08 9.761963e-01 2.575684e-01 -4.729629e-05 1.906976e-05 -1.717359e-05 -4.643574e-05 -3.424072e-02 -1.003784e+00
1.133328e+08 9.761353e-01 2.581787e-01 -2.939813e-05 -4.902482e-06 1.769513e-05 4.343688e-05 -2.380371e-02 -1.001465e+00
1.135515e+08 9.746704e-01 2.585449e-01 2.865866e-05 -5.473569e-05 -5.032867e-06 3.028661e-05 -1.159668e-02 -9.970703e-01
1.137702e+08 9.750366e-01 2.595825e-01 -1.115538e-05 1.673959e-05 -1.819059e-05 -4.043803e-05 1.647949e-03 -9.962158e-01
1.139890e+08 9.748535e-01 2.592773e-01 -3.198348e-05 2.445653e-05 6.064773e-06 1.003966e-06 1.507568e-02 -9.960327e-01
1.142077e+08 9.738159e-01 2.600098e-01 1.070369e-05 5.506910e-06 4.224887e-10 -3.020943e-10 2.984619e-02 -9.978638e-01
1.144264e+08 9.731445e-01 2.604980e-01 -2.023578e-05 -9.876676e-06 -1.111999e-05 -8.081086e-06 4.376221e-02 -1.002197e+00
1.146452e+08 9.737549e-01 2.606201e-01 -6.079674e-06 -4.196353e-05 1.868792e-05 -3.743730e-05 5.590820e-02 -1.005920e+00
1.148639e+08 9.721069e-01 2.607422e-01 5.263835e-06 -1.775008e-05 1.764670e-05 -3.135577e-05 6.671143e-02 -1.011841e+00
1.150826e+08 9.725342e-01 2.618408e-01 2.350844e-05 -3.241375e-05 1.771096e-05 6.060116e-06 7.666016e-02 -1.018921e+00
1.153014e+08 9.716187e-01 2.624512e-01 -1.861341e-05 -3.101118e-05 1.618266e-05 -2.226420e-05 8.398438e-02 -1.024109e+00
1.155201e+08 9.714966e-01 2.633667e-01 -4.414096e-05 -2.316013e-05 -3.037974e-06 -1.923461e-05 8.947754e-02 -1.030884e+00
1.157388e+08 9.705811e-01 2.627563e-01 1.118518e-05 -1.679175e-05 2.482347e-05 3.844313e-05 9.332275e-02 -1.034668e+00
1.159576e+08 9.703979e-01 2.638550e-01 4.746020e-05 -1.912937e-05 -3.089197e-05 3.545918e-05 9.576416e-02 -1.038269e+00
1.161763e+08 9.702759e-01 2.642212e-01 -1.817010e-06 -1.987256e-05 -2.178364e-05 -1.924299e-05 9.759521e-02 -1.040283e+00
1.163950e+08 9.699707e-01 2.636108e-01 -1.239311e-05 1.566112e-05 2.179854e-05 1.921691e-05 1.014404e-01 -1.039307e+00
1.166138e+08 9.692993e-01 2.650757e-01 4.991423e-06 9.227544e-06 2.026185e-05 -9.123236e-06 1.031494e-01 -1.038940e+00
1.168325e+08 9.696655e-01 2.653809e-01 -3.568083e-05 2.115965e-05 4.240235e-10 -3.030607e-10 1.060181e-01 -1.037537e+00
1.170512e+08 9.690552e-01 2.669067e-01 -1.211558e-05 -1.133885e-05 -5.023554e-05 9.946525e-07 1.083374e-01 -1.033081e+00
1.172700e+08 9.684448e-01 2.662964e-01 -2.132729e-06 -2.928823e-05 4.718453e-05 -2.033636e-05 1.132202e-01 -1.029297e+00
1.174887e+08 9.667358e-01 2.666016e-01 -1.891144e-05 3.237464e-05 -1.926720e-05 3.054738e-06 1.176147e-01 -1.022705e+00
1.177074e+08 9.673462e-01 2.676392e-01 3.669411e-06 3.982708e-05 1.626089e-05 1.521129e-05 1.226807e-01 -1.018005e+00
1.179261e+08 9.664307e-01 2.679443e-01 1.518987e-05 3.240258e-05 3.759563e-05 3.750995e-05 1.290894e-01 -1.012085e+00
1.181449e+08 9.656372e-01 2.689209e-01 1.556426e-05 -2.638437e-05 2.537109e-05 -2.050772e-06 1.353760e-01 -1.008789e+00
1.183636e+08 9.661865e-01 2.700806e-01 7.119030e-06 2.112705e-06 -7.620081e-06 8.134171e-06 1.431274e-01 -1.003723e+00
1.185823e+08 9.658813e-01 2.696533e-01 2.260134e-05 7.465482e-06 -6.560236e-06 3.965199e-05 1.518555e-01 -9.993286e-01
1.188011e+08 9.650269e-01 2.703247e-01 1.109298e-05 1.491420e-05 6.645918e-06 3.556907e-05 1.594849e-01 -9.949341e-01
1.190198e+08 9.652100e-01 2.716675e-01 -2.046302e-05 2.186559e-05 -2.495944e-05 -3.865361e-05 1.661377e-01 -9.924927e-01
1.192385e+08 9.639893e-01 2.720947e-01 -1.426227e-05 -4.238449e-06 2.747774e-05 2.336875e-05 1.727905e-01 -9.891968e-01
1.194573e+08 9.636230e-01 2.726440e-01 -2.204813e-05 -2.516806e-05 -1.518521e-06 9.156764e-06 1.776123e-01 -9.870605e-01
1.196760e+08 9.636841e-01 2.733154e-01 -1.988374e-05 4.196540e-06 2.696179e-05 -1.122802e-05 1.821899e-01 -9.804077e-01
1.198947e+08 9.630737e-01 2.736816e-01 2.592336e-06 6.989576e-06 -1.015700e-05 2.342276e-05 1.865845e-01 -9.758911e-01
1.201135e+08 9.625244e-01 2.748413e-01 1.018494e-05 2.322905e-05 -4.529580e-05 8.158386e-06 1.894531e-01 -9.682007e-01
1.203322e+08 9.624634e-01 2.750854e-01 -1.853425e-05 1.004618e-05 1.428463e-05 2.748892e-05 1.937256e-01 -9.586792e-01
1.205509e+08 9.627686e-01 2.757568e-01 8.837320e-06 1.739711e-05 -2.351403e-05 -4.788861e-05 2.005615e-01 -9.490967e-01
1.207696e+08 9.624634e-01 2.764282e-01 -1.171138e-05 2.749264e-06 -2.564862e-06 -2.243929e-05 2.079468e-01 -9.397583e-01
1.209884e+08 9.610596e-01 2.765503e-01 3.592484e-05 1.530722e-05 -1.071580e-05 -1.119822e-05 2.164917e-01 -9.288940e-01
1.212071e+08 9.591064e-01 2.772827e-01 -2.503954e-05 -1.581199e-05 1.410302e-05 -1.931936e-05 2.290039e-01 -9.195557e-01
1.214258e+08 9.586182e-01 2.777710e-01 -1.062220e-05 -9.068754e-06 4.529953e-06 -4.200265e-05 2.427979e-01 -9.118042e-01
1.216446e+08 9.586182e-01 2.786255e-01 2.273545e-05 -1.361780e-05 -3.866665e-05 -2.822280e-05 2.548218e-01 -9.051514e-01
1.218633e+08 9.591675e-01 2.803345e-01 1.247786e-05 -2.425909e-05 -1.380220e-05 -4.325062e-05 2.690430e-01 -8.997192e-01
1.220820e+08 9.573975e-01 2.801514e-01 8.219853e-06 3.111362e-05 -2.269447e-05 9.603798e-06 2.807007e-01 -8.970947e-01
1.223008e+08 9.567871e-01 2.806396e-01 -3.028661e-06 2.500415e-05 4.092604e-05 7.193536e-06 2.926025e-01 -8.948364e-01
1.225195e+08 9.564819e-01 2.813110e-01 -1.364201e-05 3.050081e-06 -2.457947e-05 -4.756078e-05 3.038330e-01 -8.937378e-01
1.227382e+08 9.565430e-01 2.821655e-01 -1.897570e-06 -5.307840e-06 8.657575e-06 -5.894806e-06 3.130493e-01 -8.927002e-01
1.229570e+08 9.555054e-01 2.828979e-01 -3.756769e-05 -4.528090e-06 -3.868528e-05 -2.823025e-05 3.209839e-01 -8.912354e-01
1.231757e+08 9.552612e-01 2.837524e-01 -6.824732e-06 1.519453e-06 1.287553e-05 1.462549e-05 3.279419e-01 -8.885498e-01
1.233944e+08 9.550171e-01 2.846680e-01 -1.782365e-05 6.840564e-06 -6.321818e-06 -3.078394e-05 3.328247e-01 -8.870850e-01
1.236132e+08 9.544678e-01 2.861938e-01 -5.312497e-06 -4.548114e-06 -1.515169e-05 6.384216e-06 3.383179e-01 -8.831787e-01
1.238319e+08 9.533081e-01 2.867432e-01 2.162810e-05 1.667906e-05 1.212209e-05 -4.526600e-05 3.440552e-01 -8.778076e-01
1.240506e+08 9.541016e-01 2.878418e-01 2.920441e-05 -7.972121e-07 -3.376976e-06 2.375245e-05 3.502197e-01 -8.717041e-01
1.242694e+08 9.534302e-01 2.883301e-01 -1.024408e-05 2.284069e-06 -9.598210e-06 -2.274662e-05 3.557739e-01 -8.638306e-01
1.244881e+08 9.531250e-01 2.888794e-01 -3.832206e-05 -4.022941e-05 1.010485e-06 1.297332e-05 3.612061e-01 -8.554077e-01
1.247068e+08 9.522095e-01 2.899780e-01 1.442153e-05 -1.899991e-05 -7.670373e-06 1.885369e-05 3.686523e-01 -8.461914e-01
1.249255e+08 9.524536e-01 2.902832e-01 -2.428330e-05 1.974404e-05 -9.765849e-06 8.595176e-06 3.773193e-01 -8.363037e-01
1.251443e+08 9.511719e-01 2.915039e-01 -1.177378e-05 -4.329346e-05 -1.097098e-06 2.693618e-06 3.878784e-01 -8.245239e-01
1.253630e+08 9.522095e-01 2.930298e-01 6.830320e-06 -2.733245e-05 -6.399117e-06 -1.518428e-05 4.000244e-01 -8.146362e-01
1.255817e+08 9.499512e-01 2.929077e-01 5.319715e-06 -2.125837e-05 2.685934e-05 2.660789e-05 4.140625e-01 -8.051147e-01
1.258005e+08 9.506836e-01 2.936401e-01 -4.940666e-06 -6.076414e-06 -3.581308e-05 2.631731e-05 4.307251e-01 -7.957153e-01
1.260192e+08 9.500122e-01 2.955322e-01 2.428144e-05 -3.268756e-05 -5.312264e-05 2.237782e-05 4.479370e-01 -7.886353e-01
1.262379e+08 9.497681e-01 2.965698e-01 -5.547702e-05 2.302229e-06 5.814806e-05 4.255772e-05 4.664307e-01 -7.852783e-01
1.264567e+08 9.493408e-01 2.963867e-01 -2.130028e-05 -5.318783e-06 1.720246e-05 1.956057e-05 4.846802e-01 -7.829590e-01
1.266754e+08 9.488525e-01 2.976074e-01 6.612763e-05 3.268197e-05 2.807751e-05 8.272007e-06 5.026855e-01 -7.835693e-01
1.268941e+08 9.490967e-01 2.988281e-01 7.964671e-06 5.860999e-05 -2.397597e-05 2.800487e-05 5.203857e-01 -7.860107e-01
1.271129e+08 9.491577e-01 2.994995e-01 3.042817e-05 -3.115833e-05 -1.527742e-05 2.212077e-05 5.340576e-01 -7.910767e-01
1.273316e+08 9.486084e-01 3.010254e-01 -3.461540e-05 -3.827736e-06 2.909265e-05 2.129562e-05 5.460205e-01 -7.974243e-01
1.275503e+08 9.483032e-01 3.017578e-01 1.027714e-05 -1.521129e-05 1.318753e-05 -3.241934e-05 5.537109e-01 -8.023682e-01
1.277690e+08 9.482422e-01 3.030396e-01 2.778135e-05 -2.052449e-05 -6.504823e-06 5.024485e-07 5.587769e-01 -8.075562e-01
1.279878e+08 9.467163e-01 3.029785e-01 3.874302e-07 -2.741069e-05 -3.441423e-05 -3.915466e-05 5.626221e-01 -8.091431e-01
1.282065e+08 9.468384e-01 3.044434e-01 7.220544e-06 9.908341e-06 -3.901683e-05 2.996996e-06 5.651855e-01 -8.102417e-01
1.284252e+08 9.460449e-01 3.052368e-01 1.066271e-05 9.136740e-06 -5.198643e-06 -3.360584e-05 5.682983e-01 -8.093262e-01
1.286440e+08 9.468994e-01 3.060913e-01 7.983297e-06 3.277324e-05 -5.306304e-05 -9.011477e-06 5.703735e-01 -8.051147e-01
1.288627e+08 9.464111e-01 3.076172e-01 -4.299544e-05 -2.214313e-05 1.301710e-05 -9.937212e-07 5.744019e-01 -8.009033e-01
1.290814e+08 9.463501e-01 3.081665e-01 -6.482005e-06 2.590194e-05 -3.974885e-06 -5.208328e-05 5.798950e-01 -7.937622e-01
1.293002e+08 9.456787e-01 3.094482e-01 1.257844e-05 -1.142453e-05 1.422875e-05 -1.942739e-05 5.869141e-01 -7.875366e-01
1.295189e+08 9.455566e-01 3.104248e-01 1.944136e-05 -1.293235e-05 -1.004711e-05 4.007667e-05 5.932007e-01 -7.820435e-01
1.297376e+08 9.456787e-01 3.104248e-01 1.372863e-05 -3.034249e-06 -2.104789e-06 -1.031999e-05 6.012573e-01 -7.755127e-01
1.299564e+08 9.448853e-01 3.117065e-01 -1.714099e-05 -9.173527e-06 6.615184e-06 -1.622830e-05 6.093750e-01 -7.672119e-01
1.301751e+08 9.448242e-01 3.130493e-01 5.183741e-05 5.191192e-05 -1.212582e-06 1.843553e-05 6.191406e-01 -7.600098e-01
1.303938e+08 9.443359e-01 3.136597e-01 -6.493181e-06 1.296867e-05 2.174079e-05 -6.910414e-06 6.283569e-01 -7.540894e-01
1.306126e+08 9.448853e-01 3.147583e-01 3.669411e-07 1.143292e-05 -9.727199e-06 -7.119495e-06 6.394043e-01 -7.480469e-01
1.308313e+08 9.447021e-01 3.159180e-01 -1.718663e-05 1.673028e-05 -3.801472e-05 2.868474e-07 6.505127e-01 -7.434082e-01
1.310500e+08 9.437866e-01 3.167725e-01 -1.681410e-05 2.819300e-05 -4.308764e-06 -4.916452e-06 6.610718e-01 -7.405396e-01
1.312688e+08 9.437256e-01 3.181763e-01 1.144130e-05 6.118789e-06 -2.098270e-06 -1.033209e-05 6.710205e-01 -7.374878e-01
1.314875e+08 9.438477e-01 3.191528e-01 2.285466e-06 3.816560e-06 -4.311092e-06 -4.923437e-06 6.803589e-01 -7.373047e-01
1.317062e+08 9.442749e-01 3.204956e-01 -1.518056e-06 -6.875955e-06 -1.282059e-05 -3.054738e-05 6.880493e-01 -7.356567e-01
1.319249e+08 9.436035e-01 3.208618e-01 -3.930554e-05 -1.149438e-05 1.084339e-05 4.428439e-06 6.928101e-01 -7.345581e-01
1.321437e+08 9.431152e-01 3.214722e-01 2.598017e-05 -2.591684e-05 3.395788e-05 -3.671274e-05 6.977539e-01 -7.313232e-01
1.323624e+08 9.435425e-01 3.223877e-01 1.900597e-06 5.346723e-06 2.190098e-05 -2.267770e-05 7.003784e-01 -7.272949e-01
1.325811e+08 9.436646e-01 3.234253e-01 -4.625320e-05 2.893806e-05 2.932176e-05 5.641952e-06 7.028198e-01 -7.213135e-01
1.327999e+08 9.429321e-01 3.246460e-01 -8.748844e-06 -1.680665e-05 -1.183152e-05 -1.747906e-05 7.078247e-01 -7.132874e-01
1.330186e+08 9.427490e-01 3.261719e-01 -8.013099e-06 -6.880611e-06 -1.947302e-05 -1.428369e-05 7.125854e-01 -7.050476e-01
1.332373e+08 9.423828e-01 3.273926e-01 1.184642e-06 -3.058650e-05 -1.305807e-05 9.872019e-07 7.205811e-01 -6.946411e-01
1.334561e+08 9.426270e-01 3.278198e-01 -1.950376e-05 1.296028e-05 -2.834946e-06 -5.496666e-05 7.296143e-01 -6.857910e-01
1.336748e+08 9.426270e-01 3.289185e-01 -3.862567e-05 2.439693e-05 1.849234e-05 1.228414e-06 7.404175e-01 -6.776733e-01
1.338935e+08 9.433594e-01 3.302002e-01 -3.855489e-05 -2.763420e-05 -5.551614e-06 1.357123e-05 7.508545e-01 -6.720581e-01
1.341123e+08 9.433594e-01 3.307495e-01 -6.499700e-06 -1.769513e-08 2.294779e-05 -9.642914e-06 7.626343e-01 -6.680908e-01
1.343310e+08 9.427490e-01 3.322144e-01 -2.224371e-05 3.666244e-05 4.570211e-10 -1.914771e-10 7.720947e-01 -6.667480e-01
1.345497e+08 9.436646e-01 3.338623e-01 2.028141e-05 9.985641e-06 -3.078952e-06 -2.347678e-05 7.808228e-01 -6.657715e-01
1.347684e+08 9.415283e-01 3.336792e-01 4.630536e-05 -2.942979e-06 1.739245e-05 3.946945e-06 7.871704e-01 -6.666870e-01
1.349872e+08 9.425049e-01 3.347778e-01 4.629605e-06 -1.836102e-05 -1.518335e-05 -9.370968e-06 7.899780e-01 -6.669312e-01
1.352059e+08 9.421997e-01 3.362427e-01 -3.010035e-06 -2.680346e-05 8.632429e-06 9.877607e-06 7.910156e-01 -6.656494e-01
1.354246e+08 9.428711e-01 3.365479e-01 1.791492e-05 3.217719e-05 -2.926961e-05 -2.148375e-05 7.901001e-01 -6.628418e-01
1.356434e+08 9.419556e-01 3.376465e-01 -6.274879e-05 -2.238154e-05 4.923344e-05 -2.739951e-05 7.892456e-01 -6.596069e-01
1.358621e+08 9.423218e-01 3.387451e-01 -1.805369e-05 1.989771e-05 6.910414e-06 -4.791096e-05 7.874146e-01 -6.539307e-01
1.360808e+08 9.428101e-01 3.391113e-01 2.259947e-05 8.288771e-07 -2.186745e-05 6.912276e-06 7.864380e-01 -6.459961e-01
1.362996e+08 9.428101e-01 3.405762e-01 9.225216e-06 -1.070509e-05 3.210269e-06 7.661059e-06 7.871704e-01 -6.380615e-01
1.365183e+08 9.426880e-01 3.421021e-01 5.709939e-06 1.611561e-05 -4.322268e-06 -4.949514e-06 7.855225e-01 -6.271362e-01
1.367370e+08 9.426880e-01 3.430786e-01 -3.149733e-06 2.529658e-05 1.841132e-05 1.707580e-05 7.862549e-01 -6.174927e-01
1.369558e+08 9.423218e-01 3.441162e-01 -1.419056e-05 4.555099e-06 8.437783e-07 2.892502e-05 7.870483e-01 -6.060181e-01
1.371745e+08 9.433594e-01 3.442383e-01 -1.878385e-05 -3.108755e-06 -4.582432e-10 1.921308e-10 7.895508e-01 -5.941772e-01
1.373932e+08 9.428711e-01 3.454590e-01 -1.164153e-05 4.598126e-05 -2.536364e-05 3.088824e-05 7.915649e-01 -5.824585e-01
1.376120e+08 9.434814e-01 3.464966e-01 -1.540966e-05 2.217852e-05 3.084540e-06 2.349913e-05 7.969360e-01 -5.701294e-01
1.378307e+08 9.436035e-01 3.477173e-01 1.986511e-06 -2.072100e-05 -3.181212e-05 1.556613e-05 8.023071e-01 -5.598145e-01
1.380494e+08 9.437866e-01 3.484497e-01 7.322989e-06 -1.609512e-05 -1.200382e-05 -1.736917e-06 8.092041e-01 -5.485229e-01
1.382682e+08 9.439697e-01 3.491211e-01 2.064556e-05 3.460981e-05 2.945401e-05 5.697832e-06 8.165283e-01 -5.397339e-01
1.384869e+08 9.430542e-01 3.510132e-01 -2.527609e-05 -1.619570e-05 3.793649e-05 3.148057e-05 8.218994e-01 -5.331421e-01
1.387056e+08 9.434814e-01 3.515015e-01 3.595836e-05 3.847666e-05 -9.628013e-06 -2.303347e-05 8.284912e-01 -5.280762e-01
1.389243e+08 9.442749e-01 3.532715e-01 -4.837289e-05 -2.451241e-06 -1.873262e-05 1.459103e-05 8.334961e-01 -5.248413e-01
1.391431e+08 9.443970e-01 3.532104e-01 -6.883405e-06 -1.153816e-05 1.359731e-07 -1.585577e-05 8.359375e-01 -5.220337e-01
1.393618e+08 9.441528e-01 3.537598e-01 2.616271e-05 -1.294911e-05 3.556907e-05 -7.132441e-05 8.339233e-01 -5.194702e-01
1.395805e+08 9.448242e-01 3.551025e-01 2.202205e-05 -3.526174e-05 1.383945e-05 4.388019e-05 8.318481e-01 -5.154419e-01
1.397993e+08 9.446411e-01 3.563843e-01 -2.768077e-05 6.061047e-06 -5.585141e-06 1.362432e-05 8.267212e-01 -5.091553e-01
1.400180e+08 9.454956e-01 3.578491e-01 6.142538e-06 1.559034e-06 4.472584e-05 1.518801e-05 8.200684e-01 -4.988403e-01
1.402367e+08 9.450073e-01 3.583374e-01 1.536775e-05 3.892928e-06 -3.060140e-05 -3.006309e-06 8.145752e-01 -4.868774e-01
1.404555e+08 9.450073e-01 3.593750e-01 5.460344e-06 -2.149586e-05 1.956243e-05 1.439918e-05 8.104248e-01 -4.724731e-01
1.406742e+08 9.457397e-01 3.607788e-01 1.121685e-05 -1.842249e-05 5.019084e-05 1.742691e-05 8.098145e-01 -4.558105e-01
1.408929e+08 9.451294e-01 3.610229e-01 -3.928691e-05 1.296401e-05 -2.083182e-05 4.179776e-06 8.099365e-01 -4.384766e-01
1.411117e+08 9.466553e-01 3.621216e-01 -5.372986e-05 -2.020225e-05 9.505078e-06 3.898144e-05 8.130493e-01 -4.209595e-01
1.413304e+08 9.465942e-01 3.636475e-01 1.698732e-05 -1.532771e-05 -2.198294e-05 6.902963e-06 8.195801e-01 -4.053955e-01
1.415491e+08 9.469604e-01 3.645630e-01 2.023950e-05 -6.687269e-05 -2.407283e-05 -3.518537e-06 8.262939e-01 -3.905640e-01
1.417678e+08 9.470215e-01 3.647461e-01 1.966488e-05 -1.300592e-05 -5.038455e-05 -1.583248e-06 8.350830e-01 -3.782959e-01
1.419866e+08 9.468994e-01 3.662720e-01 -2.299249e-05 -2.548099e-05 6.581191e-06 -4.814938e-07 8.432617e-01 -3.679810e-01
1.422053e+08 9.475098e-01 3.665771e-01 -1.838990e-05 -1.778174e-05 -2.506189e-05 -1.668558e-05 8.518066e-01 -3.593750e-01
1.424240e+08 9.481201e-01 3.676147e-01 -1.801364e-05 -1.930911e-05 4.639104e-05 -3.521517e-05 8.596802e-01 -3.523560e-01
1.426428e+08 9.477539e-01 3.677368e-01 2.701767e-05 -1.606159e-05 1.637079e-05 6.726012e-06 8.660278e-01 -3.467407e-01
1.428615e+08 9.487305e-01 3.689575e-01 3.469409e-06 -7.564668e-07 1.653470e-05 -9.167939e-06 8.717041e-01 -3.425903e-01
1.430802e+08 9.482422e-01 3.699341e-01 -1.905253e-06 -5.401205e-06 -4.510581e-05 1.655146e-05 8.751831e-01 -3.393555e-01
1.432990e+08 9.497681e-01 3.706665e-01 -6.883405e-06 -1.158193e-05 1.107994e-05 -1.141615e-05 8.776245e-01 -3.342896e-01
1.435177e+08 9.497070e-01 3.717041e-01 -1.807883e-05 -6.232411e-06 1.157075e-05 4.947186e-05 8.774414e-01 -3.322144e-01
1.437364e+08 9.494629e-01 3.732910e-01 3.639422e-05 -3.993697e-05 -4.482642e-05 -1.529232e-05 8.752441e-01 -3.280029e-01
1.439552e+08 9.497681e-01 3.740845e-01 -3.470480e-05 7.553026e-06 -9.799376e-06 -7.240567e-06 8.723755e-01 -3.223877e-01
1.441739e+08 9.507446e-01 3.747559e-01 3.261492e-05 2.630986e-05 -1.448020e-05 1.962204e-05 8.674316e-01 -3.139038e-01
1.443926e+08 9.511108e-01 3.754272e-01 5.285069e-05 -1.311302e-06 4.165620e-05 7.547438e-06 8.623047e-01 -3.051147e-01
1.446114e+08 9.509888e-01 3.760376e-01 1.036376e-05 1.084246e-05 1.189299e-05 1.769140e-05 8.573608e-01 -2.921143e-01
1.448301e+08 9.519043e-01 3.773804e-01 -2.265535e-05 -2.711266e-05 -4.342757e-06 -4.991423e-06 8.526611e-01 -2.767944e-01
1.450488e+08 9.523315e-01 3.773804e-01 8.467585e-06 5.441252e-06 1.544040e-05 -6.433576e-06 8.504639e-01 -2.598267e-01
1.452676e+08 9.528198e-01 3.778687e-01 9.972602e-06 1.239311e-05 -1.865625e-05 -1.276843e-06 8.519287e-01 -2.400513e-01
1.454863e+08 9.536133e-01 3.790283e-01 -2.059899e-05 2.919883e-05 -2.091751e-06 -1.046434e-05 8.554688e-01 -2.202148e-01
1.457050e+08 9.530640e-01 3.796387e-01 -1.345389e-05 -1.165364e-05 3.544614e-06 -2.413988e-05 8.621826e-01 -2.017822e-01
1.459237e+08 9.539185e-01 3.806763e-01 -4.476309e-05 -4.850328e-06 9.642914e-06 2.319179e-05 8.704834e-01 -1.847534e-01
1.461425e+08 9.540405e-01 3.816528e-01 1.779199e-05 -5.317852e-06 7.550232e-06 1.273118e-05 8.817749e-01 -1.690063e-01
1.463612e+08 9.539795e-01 3.819580e-01 3.607944e-06 -2.701581e-05 -1.866836e-05 -1.299195e-06 8.949585e-01 -1.556396e-01
1.465799e+08 9.558716e-01 3.831787e-01 1.068972e-05 2.247095e-05 -7.009506e-05 -3.208593e-05 9.068604e-01 -1.462402e-01
1.467987e+08 9.561157e-01 3.839722e-01 7.908791e-06 3.327243e-05 1.298264e-06 -1.869723e-05 9.193115e-01 -1.389160e-01
1.470174e+08 9.563599e-01 3.851929e-01 -4.401058e-05 -7.983297e-06 -6.783754e-06 1.642946e-05 9.296265e-01 -1.342163e-01
1.472361e+08 9.570312e-01 3.846436e-01 -2.302416e-05 -2.561137e-05 2.546422e-05 -1.513958e-05 9.384155e-01 -1.304321e-01
1.474549e+08 9.565430e-01 3.853760e-01 -3.814511e-05 -1.796335e-05 -1.063384e-05 -3.641285e-05 9.443970e-01 -1.273193e-01
1.476736e+08 9.580688e-01 3.865356e-01 -2.287887e-05 1.225621e-05 -5.289540e-05 3.851950e-06 9.503174e-01 -1.243286e-01
1.478923e+08 9.581909e-01 3.868408e-01 4.600268e-06 7.756986e-06 1.869816e-05 1.296401e-06 9.528198e-01 -1.206055e-01
1.481111e+08 9.591675e-01 3.880005e-01 1.912937e-05 -3.621913e-05 9.836629e-06 7.266179e-06 9.562988e-01 -1.165771e-01
1.483298e+08 9.588013e-01 3.878784e-01 -1.979992e-05 1.303758e-05 1.208577e-05 1.775101e-06 9.571533e-01 -1.108398e-01
1.485485e+08 9.597168e-01 3.888550e-01 3.322959e-06 2.556294e-05 7.926486e-06 -1.918245e-05 9.586792e-01 -1.043701e-01
1.487672e+08 9.606323e-01 3.901367e-01 1.782179e-05 -5.324371e-06 7.752795e-06 -3.213529e-06 9.586792e-01 -9.887695e-02
1.489860e+08 9.608765e-01 3.905029e-01 3.050081e-05 9.451061e-06 1.699477e-05 -4.113466e-05 9.578857e-01 -9.039307e-02
1.492047e+08 9.606323e-01 3.908691e-01 -1.085456e-05 3.803056e-06 2.533011e-05 8.456409e-07 9.580688e-01 -8.209229e-02
1.494234e+08 9.621582e-01 3.916016e-01 -2.972968e-05 -1.255423e-05 -9.844080e-06 -7.278286e-06 9.574585e-01 -7.214355e-02
1.496422e+08 9.622803e-01 3.917236e-01 3.265962e-05 -2.460741e-05 6.444752e-06 1.550373e-05 9.572144e-01 -6.005859e-02
1.498609e+08 9.622192e-01 3.923340e-01 -1.933984e-05 -1.647510e-06 -1.812726e-05 4.387274e-05 9.577637e-01 -4.785156e-02
1.500796e+08 9.636841e-01 3.933716e-01 2.226792e-05 2.877414e-05 3.219582e-06 7.756986e-06 9.598999e-01 -3.295898e-02
1.502984e+08 9.636841e-01 3.939209e-01 2.675690e-05 -1.453049e-05 2.061948e-05 2.779625e-05 9.645996e-01 -1.904297e-02
1.505171e+08 9.640503e-01 3.936768e-01 -5.296618e-05 -1.192838e-05 -1.741946e-05 -2.003275e-05 9.688110e-01 -5.493164e-03
1.507358e+08 9.653320e-01 3.941650e-01 1.039635e-05 1.089927e-05 -4.296750e-05 -4.876405e-06 9.769897e-01 8.056641e-03
1.509546e+08 9.659424e-01 3.946533e-01 4.439801e-05 1.963228e-05 -2.178177e-05 -2.507120e-05 9.863892e-01 1.855469e-02
1.511733e+08 9.657593e-01 3.966675e-01 -7.636845e-08 1.316797e-05 -4.759058e-06 2.698787e-05 9.954224e-01 2.752686e-02
1.513920e+08 9.656982e-01 3.966064e-01 -2.578646e-05 3.626384e-05 7.762574e-06 -3.214926e-06 1.004211e+00 3.411865e-02
1.516108e+08 9.668579e-01 3.967285e-01 3.618747e-05 3.895722e-05 2.310239e-05 6.342307e-06 1.010559e+00 3.826904e-02
1.518295e+08 9.667358e-01 3.973999e-01 7.215887e-06 -4.103594e-05 -3.211666e-06 -7.764902e-06 1.015137e+00 4.156494e-02
1.520482e+08 9.680786e-01 3.975830e-01 5.002134e-06 6.233808e-06 1.836568e-05 3.334880e-05 1.016724e+00 4.473877e-02
1.522670e+08 9.690552e-01 3.972778e-01 -3.353320e-05 2.771243e-05 -1.839735e-05 -3.333762e-05 1.017944e+00 4.992676e-02
1.524857e+08 9.700928e-01 3.982544e-01 -2.698041e-06 -2.342276e-06 5.880371e-06 -2.977625e-05 1.016174e+00 5.712891e-02
1.527044e+08 9.697876e-01 3.988037e-01 -3.135949e-05 -6.413087e-06 2.236106e-05 -2.291426e-05 1.016541e+00 6.567383e-02
1.529231e+08 9.704590e-01 3.988647e-01 -1.079496e-05 -9.372365e-06 1.080148e-05 2.056733e-05 1.016846e+00 7.495117e-02
1.531419e+08 9.703979e-01 3.994751e-01 -2.289191e-05 -9.331852e-07 -3.019348e-06 -2.378039e-05 1.019897e+00 8.587646e-02
1.533606e+08 9.714966e-01 4.000854e-01 -2.568215e-05 9.914860e-06 -1.193676e-05 -1.782179e-05 1.024353e+00 9.613037e-02
1.535793e+08 9.725342e-01 4.007568e-01 -4.507601e-05 8.262694e-06 6.842427e-06 -1.650117e-05 1.029053e+00 1.050415e-01
1.537981e+08 9.724121e-01 3.998413e-01 -2.009887e-05 -1.177564e-05 3.598630e-06 -2.426468e-05 1.034729e+00 1.129761e-01
1.540168e+08 9.736938e-01 4.006348e-01 3.583916e-05 -2.381578e-05 5.464256e-05 -3.859028e-05 1.039917e+00 1.177368e-01
1.542355e+08 9.743652e-01 4.004517e-01 1.239404e-05 3.187917e-06 6.448478e-06 1.555588e-05 1.044739e+00 1.212769e-01
1.544543e+08 9.736938e-01 4.010620e-01 1.179334e-05 -2.010539e-05 2.426468e-05 3.620982e-06 1.047363e+00 1.238403e-01
1.546730e+08 9.742432e-01 4.016724e-01 -1.120660e-05 -7.840805e-06 3.300421e-05 1.368113e-05 1.048096e+00 1.249390e-01
1.548917e+08 9.750366e-01 4.023438e-01 -2.931617e-05 -2.738647e-05 7.079914e-05 3.539026e-07 1.047363e+00 1.263428e-01
1.551105e+08 9.758911e-01 4.017334e-01 1.160614e-05 6.301329e-06 -1.254119e-05 3.027916e-05 1.046204e+00 1.293945e-01
1.553292e+08 9.766846e-01 4.021606e-01 3.641099e-05 1.268648e-05 2.012961e-05 -1.745671e-05 1.044128e+00 1.321411e-01
1.555479e+08 9.769897e-01 4.022827e-01 3.221445e-05 3.337860e-06 4.556403e-05 -1.658127e-05 1.039612e+00 1.353760e-01
1.557666e+08 9.774170e-01 4.028320e-01 8.109491e-06 7.051043e-06 4.159287e-06 2.107583e-05 1.035522e+00 1.391602e-01
1.559854e+08 9.792480e-01 4.033813e-01 7.912517e-06 3.347546e-05 -4.107133e-05 5.558133e-06 1.031982e+00 1.433105e-01
1.562041e+08 9.786987e-01 4.022827e-01 2.794899e-05 7.206574e-06 -2.282206e-06 5.505048e-06 1.026428e+00 1.472168e-01
1.564228e+08 9.789429e-01 4.032593e-01 6.315298e-06 -1.162104e-05 -3.324077e-05 2.335757e-06 1.020813e+00 1.514282e-01
1.566416e+08 9.793701e-01 4.038086e-01 -3.113784e-05 5.226582e-06 8.939765e-06 -5.971175e-06 1.014954e+00 1.567993e-01
1.568603e+08 9.807129e-01 4.033813e-01 -9.008683e-06 9.263400e-06 -2.340041e-05 9.678304e-06 1.006592e+00 1.643677e-01
1.570790e+08 9.806519e-01 4.033203e-01 -3.125146e-05 -3.290363e-05 -6.450340e-06 -1.559127e-05 1.000305e+00 1.721191e-01
1.572978e+08 9.810791e-01 4.031982e-01 -5.312264e-06 3.338419e-05 2.224185e-05 -6.914139e-06 9.932251e-01 1.810913e-01
1.575165e+08 9.822998e-01 4.041138e-01 -2.514571e-06 -2.880394e-05 -3.630854e-05 -2.154708e-05 9.891357e-01 1.925049e-01
1.577352e+08 9.826050e-01 4.044189e-01 1.312420e-05 1.333654e-05 -9.659678e-06 -2.341159e-05 9.862671e-01 2.032471e-01
1.579540e+08 9.832764e-01 4.037476e-01 -4.914589e-06 -1.949072e-05 2.050400e-05 4.404411e-05 9.856567e-01 2.128296e-01
1.581727e+08 9.838257e-01 4.038696e-01 -4.311791e-06 3.854977e-06 -3.635883e-06 2.435036e-05 9.862671e-01 2.206421e-01
1.583914e+08 9.840088e-01 4.044189e-01 2.837926e-05 5.662441e-06 -4.827231e-05 -3.949180e-05 9.876099e-01 2.247925e-01
1.586102e+08 9.835205e-01 4.039917e-01 -4.090555e-05 4.330650e-06 -2.226979e-05 6.899238e-06 9.880371e-01 2.257080e-01
1.588289e+08 9.845581e-01 4.031372e-01 1.506321e-05 -3.256090e-05 -2.499670e-06 2.158992e-05 9.868774e-01 2.244873e-01
1.590476e+08 9.846191e-01 4.038696e-01 7.599592e-06 2.185442e-05 6.844848e-05 2.199039e-05 9.797363e-01 2.208252e-01
1.592664e+08 9.852295e-01 4.037476e-01 -3.761984e-05 -2.131425e-05 -1.217611e-05 -1.828186e-06 9.698486e-01 2.165527e-01
1.594851e+08 9.861450e-01 4.035034e-01 -2.113357e-05 -3.365986e-05 -1.147157e-06 2.758810e-06 9.558105e-01 2.158203e-01
1.597038e+08 9.866943e-01 4.033813e-01 6.952323e-07 1.013465e-05 2.177432e-05 -5.244091e-05 9.400024e-01 2.174683e-01
1.599225e+08 9.869385e-01 4.030762e-01 -6.039813e-05 2.630055e-06 1.354236e-05 -1.702365e-05 9.216309e-01 2.222900e-01
1.601413e+08 9.877319e-01 4.046021e-01 1.173466e-05 -6.915070e-06 2.784096e-05 -4.626811e-06 9.046631e-01 2.319336e-01
1.603600e+08 9.881592e-01 4.041138e-01 -9.506941e-06 -2.733991e-05 -4.762039e-05 -1.008436e-05 8.889160e-01 2.439575e-01
1.605787e+08 9.887085e-01 4.037476e-01 -2.119690e-06 2.102647e-05 2.001785e-05 -1.400709e-06 8.739624e-01 2.584839e-01
1.607975e+08 9.877319e-01 4.038086e-01 1.464970e-05 2.041087e-05 4.436448e-05 2.264977e-06 8.620605e-01 2.745361e-01
1.610162e+08 9.894409e-01 4.041138e-01 1.543947e-05 1.726020e-05 1.887139e-05 1.376495e-06 8.531494e-01 2.900391e-01
1.612349e+08 9.896240e-01 4.032593e-01 -2.079457e-05 1.620222e-05 9.678304e-06 2.346374e-05 8.461304e-01 3.060913e-01
1.614537e+08 9.901733e-01 4.037476e-01 -8.832663e-06 -1.723319e-05 1.836568e-06 2.670102e-05 8.408203e-01 3.222046e-01
1.616724e+08 9.905396e-01 4.031372e-01 3.667362e-05 -4.954636e-07 7.376075e-06 2.900511e-05 8.356323e-01 3.366699e-01
1.618911e+08 9.910278e-01 4.026489e-01 2.219900e-05 4.090369e-06 -4.099309e-05 -1.056865e-05 8.325806e-01 3.513794e-01
1.621099e+08 9.901733e-01 4.020996e-01 -1.368113e-06 -2.028700e-05 4.157424e-06 2.116710e-05 8.302002e-01 3.643799e-01
1.623286e+08 9.910278e-01 4.024048e-01 -6.224029e-06 -1.611188e-06 1.495145e-05 -3.593788e-05 8.277588e-01 3.766479e-01
1.625473e+08 9.916382e-01 4.021606e-01 -1.638196e-05 -9.220093e-07 -3.548898e-05 -8.270144e-06 8.278198e-01 3.880005e-01
1.627660e+08 9.914551e-01 4.021606e-01 -2.071168e-05 2.931803e-06 -2.764165e-06 -4.008040e-05 8.280029e-01 3.988037e-01
1.629848e+08 9.920044e-01 4.019165e-01 -9.757932e-06 -8.721836e-07 3.640167e-05 2.163276e-05 8.300781e-01 4.079590e-01
1.632035e+08 9.930420e-01 4.012451e-01 7.217750e-06 2.347678e-05 8.333474e-06 4.239753e-05 8.315430e-01 4.146118e-01
1.634222e+08 9.933472e-01 4.011841e-01 -1.257844e-05 1.004431e-05 4.604459e-06 -1.106691e-05 8.314209e-01 4.182129e-01
1.636410e+08 9.929810e-01 4.007568e-01 1.613051e-06 -6.233808e-06 1.150649e-06 -2.765097e-06 8.293457e-01 4.185181e-01
1.638597e+08 9.920044e-01 3.999634e-01 -8.692965e-06 -3.053062e-05 -2.945215e-05 3.961846e-05 8.244629e-01 4.192505e-01
1.640784e+08 9.923706e-01 4.001465e-01 -2.540834e-05 -4.316308e-05 2.902374e-05 -7.379800e-06 8.170776e-01 4.202271e-01
1.642972e+08 9.935303e-01 4.003296e-01 2.816506e-05 -6.003305e-06 -7.841736e-06 3.228895e-06 8.049316e-01 4.224854e-01
1.645159e+08 9.926758e-01 3.997192e-01 -8.655246e-06 7.739756e-06 -8.517876e-06 -2.626888e-05 7.917480e-01 4.275513e-01
1.647346e+08 9.937744e-01 4.005737e-01 -4.272908e-05 -2.771430e-05 -1.891330e-05 -1.403503e-06 7.778931e-01 4.363403e-01
1.649534e+08 9.937744e-01 3.992310e-01 -3.836676e-05 6.714836e-06 1.867767e-05 1.752656e-05 7.642822e-01 4.489136e-01
1.651721e+08 9.943848e-01 3.993530e-01 -7.734634e-06 -8.666888e-06 2.490357e-05 4.938245e-05 7.507935e-01 4.641724e-01
1.653908e+08 9.940186e-01 3.989258e-01 2.171192e-05 1.895707e-05 -5.163252e-05 -4.751235e-05 7.410278e-01 4.818726e-01
1.656096e+08 9.938354e-01 3.984375e-01 -3.812090e-05 -1.987070e-05 3.459863e-06 -8.302741e-06 7.352905e-01 5.003052e-01
1.658283e+08 9.940796e-01 3.978271e-01 2.171937e-05 1.896452e-05 7.610768e-06 1.291558e-05 7.315674e-01 5.187988e-01
1.660470e+08 9.945679e-01 3.976440e-01 -1.617335e-05 -2.750754e-05 -2.987683e-06 -2.400391e-05 7.316895e-01 5.360718e-01
1.662658e+08 9.946899e-01 3.970947e-01 8.379109e-06 -1.948979e-05 2.561882e-05 9.294599e-07 7.335205e-01 5.515747e-01
1.664845e+08 9.952393e-01 3.964233e-01 -2.671592e-05 1.307018e-05 2.678484e-05 -1.851469e-06 7.367554e-01 5.654907e-01
1.667032e+08 9.940186e-01 3.969116e-01 2.714433e-05 -1.462176e-05 -7.606111e-06 -1.292489e-05 7.395020e-01 5.761108e-01
1.669219e+08 9.949341e-01 3.967896e-01 -5.000085e-05 3.860146e-05 1.016445e-05 -8.770265e-06 7.429199e-01 5.850830e-01
1.671407e+08 9.951782e-01 3.963013e-01 2.133660e-05 2.053846e-05 -7.163733e-06 3.279559e-05 7.427368e-01 5.908813e-01
1.673594e+08 9.942627e-01 3.956909e-01 3.105029e-05 -1.693703e-05 2.607331e-05 4.664436e-05 7.434692e-01 5.983276e-01
1.675781e+08 9.946899e-01 3.962402e-01 1.507439e-05 1.891889e-05 2.498552e-05 -2.863444e-05 7.418823e-01 6.036987e-01
1.677969e+08 9.949951e-01 3.948364e-01 3.161095e-05 -3.179349e-05 4.390720e-06 5.082227e-06 7.410278e-01 6.098022e-01
1.680156e+08 9.946899e-01 3.946533e-01 1.746230e-06 -1.955125e-05 -3.349222e-05 2.292916e-06 7.391357e-01 6.161499e-01
1.682343e+08 9.945068e-01 3.944702e-01 -1.903530e-05 -1.660176e-05 3.580377e-05 -7.839873e-06 7.363281e-01 6.215820e-01
1.684531e+08 9.946899e-01 3.947144e-01 1.345947e-05 2.518669e-05 -3.885478e-06 -3.744289e-05 7.312622e-01 6.272583e-01
1.686718e+08 9.942017e-01 3.931885e-01 -2.268329e-05 -2.555549e-06 -2.217479e-05 -9.251758e-06 7.260132e-01 6.326904e-01
1.688905e+08 9.949341e-01 3.931274e-01 9.492505e-06 -1.087179e-05 5.546492e-06 2.313871e-06 7.196045e-01 6.390991e-01
1.691093e+08 9.937134e-01 3.931274e-01 -5.156267e-06 6.998423e-06 -1.042895e-05 2.493523e-05 7.105408e-01 6.465454e-01
1.693280e+08 9.941406e-01 3.928833e-01 1.328066e-06 -1.801457e-05 3.701076e-05 -1.060218e-05 7.019958e-01 6.561279e-01
1.695467e+08 9.943237e-01 3.916016e-01 1.059659e-05 -2.254732e-06 -1.318101e-05 -1.526996e-05 6.941223e-01 6.684265e-01
1.697654e+08 9.934692e-01 3.916016e-01 -2.802722e-05 -2.063066e-05 -3.189035e-05 -3.285147e-05 6.866760e-01 6.830750e-01
1.699842e+08 9.940796e-01 3.912354e-01 1.128018e-05 7.946044e-06 -4.638918e-06 1.110137e-05 6.798096e-01 6.998291e-01
1.702029e+08 9.942627e-01 3.909912e-01 1.916196e-05 3.323890e-06 -9.272248e-06 2.221577e-05 6.776123e-01 7.168579e-01
1.704216e+08 9.937744e-01 3.905029e-01 -9.385869e-06 -2.441928e-06 4.093722e-05 2.686307e-05 6.781006e-01 7.349243e-01
1.706404e+08 9.925537e-01 3.903809e-01 5.165581e-06 -7.008202e-06 1.895893e-05 1.413748e-06 6.828003e-01 7.495117e-01
1.708591e+08 9.931641e-01 3.898926e-01 -1.823902e-05 -1.976453e-05 -3.635883e-06 -5.370006e-05 6.900024e-01 7.616577e-01
1.710778e+08 9.926147e-01 3.885498e-01 -9.592623e-07 -2.198294e-05 -4.636124e-06 1.110509e-05 6.970825e-01 7.693481e-01
1.712966e+08 9.927979e-01 3.886719e-01 -1.604669e-05 -2.507120e-06 -2.319925e-06 5.555339e-06 7.034912e-01 7.731934e-01
1.715153e+08 9.923096e-01 3.880615e-01 -2.041087e-05 1.383014e-06 1.641549e-05 2.316758e-05 7.072754e-01 7.723999e-01
1.717340e+08 9.912720e-01 3.886108e-01 2.997927e-06 1.416169e-05 -6.977469e-06 1.665577e-05 7.074585e-01 7.691650e-01
1.719528e+08 9.919434e-01 3.878174e-01 -1.455657e-05 4.561618e-06 -4.902482e-06 2.733618e-05 7.026978e-01 7.689819e-01
1.721715e+08 9.921265e-01 3.871460e-01 -1.145154e-05 -3.307313e-05 -6.724149e-07 -2.967753e-05 6.964722e-01 7.677612e-01
1.723902e+08 9.920044e-01 3.871460e-01 -1.906417e-06 -5.515758e-06 2.324115e-06 -5.563255e-06 6.863403e-01 7.702637e-01
1.726090e+08 9.908447e-01 3.868408e-01 7.767230e-06 -2.978370e-05 -9.695068e-06 -2.365746e-05 6.752930e-01 7.761841e-01
1.728277e+08 9.904175e-01 3.864746e-01 2.002716e-05 3.870018e-05 -9.126961e-07 -1.345016e-05 6.658325e-01 7.830200e-01
1.730464e+08 9.899902e-01 3.855591e-01 2.112798e-05 8.846633e-06 2.223812e-05 9.294599e-06 6.575317e-01 7.932129e-01
1.732652e+08 9.893188e-01 3.845825e-01 -9.941868e-06 1.246948e-05 3.938004e-05 -1.619756e-05 6.506348e-01 8.033447e-01
1.734839e+08 9.898071e-01 3.851318e-01 -4.230067e-06 2.900325e-05 -1.979619e-05 4.728884e-05 6.464844e-01 8.154907e-01
1.737026e+08 9.893188e-01 3.849487e-01 -2.331659e-05 -2.614595e-05 -5.563255e-06 -2.326444e-06 6.440430e-01 8.235474e-01
1.739213e+08 9.890137e-01 3.856812e-01 -1.359731e-07 1.335051e-05 -1.049973e-05 2.503954e-05 6.415405e-01 8.310547e-01
1.741401e+08 9.887085e-01 3.836670e-01 2.833083e-05 3.252737e-05 -4.648231e-06 1.113117e-05 6.406860e-01 8.373413e-01
1.743588e+08 9.876709e-01 3.840942e-01 -2.657995e-05 -1.365691e-05 -7.893424e-06 3.235415e-06 6.369019e-01 8.450317e-01
1.745775e+08 9.876709e-01 3.835449e-01 1.296215e-05 1.708046e-06 -9.969808e-06 -7.441267e-06 6.343994e-01 8.475342e-01
1.747963e+08 9.864502e-01 3.831177e-01 3.273785e-05 -9.872019e-06 3.714673e-05 -1.062825e-05 6.307983e-01 8.545532e-01
1.750150e+08 9.855957e-01 3.829956e-01 -3.139256e-06 -8.207280e-07 -2.317317e-05 -2.277829e-05 6.273193e-01 8.545532e-01
1.752337e+08 9.858398e-01 3.822632e-01 2.523139e-05 3.172271e-05 5.824491e-06 -1.392420e-05 6.258545e-01 8.560181e-01
1.754525e+08 9.859619e-01 3.821411e-01 -1.801830e-05 -8.046627e-06 -3.461353e-05 -1.119450e-05 6.227417e-01 8.623657e-01
1.756712e+08 9.852295e-01 3.812866e-01 -2.946146e-05 -2.676621e-06 -2.718903e-05 1.808815e-05 6.192627e-01 8.621826e-01
1.758899e+08 9.844971e-01 3.823853e-01 -1.296867e-05 -1.706183e-06 2.172217e-05 4.187599e-05 6.163330e-01 8.654175e-01
1.761087e+08 9.840698e-01 3.816528e-01 3.281981e-06 -1.255143e-05 -1.815055e-05 1.204200e-05 6.119385e-01 8.641968e-01
1.763274e+08 9.830322e-01 3.810425e-01 -3.236160e-05 -3.027730e-05 -3.431737e-05 -2.748892e-05 6.067505e-01 8.645630e-01
1.765461e+08 9.830933e-01 3.807373e-01 2.224743e-05 1.754612e-05 -2.347678e-05 -6.550923e-06 5.992432e-01 8.621826e-01
1.767648e+08 9.819946e-01 3.809204e-01 5.394220e-05 -9.983778e-07 9.981915e-06 7.460825e-06 5.894775e-01 8.626099e-01
1.769836e+08 9.814453e-01 3.796997e-01 -4.943088e-05 -1.627207e-05 2.373569e-05 -9.723008e-06 5.800171e-01 8.640747e-01
1.772023e+08 9.804077e-01 3.795166e-01 1.802295e-05 8.069910e-06 9.052455e-07 1.348462e-05 5.711060e-01 8.668213e-01
1.774210e+08 9.802856e-01 3.800049e-01 4.786067e-06 -5.461741e-06 2.258085e-05 -6.930903e-06 5.643921e-01 8.721313e-01
1.776398e+08 9.792480e-01 3.793335e-01 2.664514e-05 1.369976e-05 -1.620874e-05 -3.956258e-05 5.584717e-01 8.769531e-01
1.778585e+08 9.786987e-01 3.792114e-01 -1.601689e-05 2.265535e-05 2.815947e-05 -4.595146e-06 5.550537e-01 8.808594e-01
1.780772e+08 9.788208e-01 3.789673e-01 -2.592802e-06 1.898501e-05 -2.165511e-05 1.645833e-05 5.551147e-01 8.817139e-01
1.782960e+08 9.771118e-01 3.783569e-01 2.218224e-05 -3.978983e-05 2.477504e-05 1.796894e-05 5.555420e-01 8.803101e-01
1.785147e+08 9.774780e-01 3.782959e-01 -2.633408e-05 -2.846681e-05 -2.374873e-06 -2.583303e-05 5.548096e-01 8.748779e-01
1.787334e+08 9.771118e-01 3.786011e-01 3.412366e-05 2.747588e-05 2.885237e-06 3.159232e-05 5.502930e-01 8.665161e-01
1.789522e+08 9.765015e-01 3.782959e-01 -1.626089e-05 2.349168e-05 1.328439e-05 -4.467368e-05 5.439453e-01 8.551636e-01
1.791709e+08 9.741211e-01 3.776855e-01 -2.839975e-05 -3.200024e-06 -3.624335e-05 4.667789e-05 5.316772e-01 8.429565e-01
1.793896e+08 9.742432e-01 3.775635e-01 -4.829839e-06 1.299195e-05 6.810576e-05 -1.490861e-05 5.167236e-01 8.325195e-01
1.796084e+08 9.739380e-01 3.784180e-01 -2.751127e-06 -4.022568e-05 1.776032e-05 4.177913e-06 4.980469e-01 8.258667e-01
1.798271e+08 9.733276e-01 3.774414e-01 6.936491e-06 -2.255104e-05 -1.280382e-05 -1.331512e-05 4.785156e-01 8.229980e-01
1.800458e+08 9.733887e-01 3.773193e-01 -3.038533e-05 2.196617e-05 -5.539507e-05 2.826750e-05 4.576416e-01 8.216553e-01
1.802646e+08 9.713135e-01 3.774414e-01 -1.859572e-05 -1.359079e-05 -2.718158e-05 1.982972e-05 4.403687e-01 8.247681e-01
1.804833e+08 9.705200e-01 3.766479e-01 2.865493e-05 -5.298480e-05 -2.142042e-05 -4.440174e-05 4.234009e-01 8.308105e-01
1.807020e+08 9.698486e-01 3.769531e-01 -3.306195e-07 -3.084075e-06 2.482161e-05 1.803227e-05 4.096680e-01 8.358765e-01
1.809207e+08 9.692383e-01 3.769531e-01 -2.599321e-05 -9.693205e-06 -1.777522e-05 -4.183501e-06 3.964844e-01 8.392334e-01
1.811395e+08 9.685059e-01 3.759766e-01 1.903716e-05 -1.140684e-05 -1.724996e-05 1.579523e-06 3.852539e-01 8.444824e-01
1.813582e+08 9.679565e-01 3.768311e-01 -1.940131e-05 -3.536418e-05 1.020636e-05 -1.542270e-05 3.751831e-01 8.474121e-01
1.815769e+08 9.671021e-01 3.771362e-01 1.648441e-06 1.543295e-05 -9.410083e-06 -3.976747e-05 3.634644e-01 8.494873e-01
1.817957e+08 9.660645e-01 3.766479e-01 -2.260692e-05 -6.956980e-06 -3.401190e-06 2.640858e-05 3.527832e-01 8.510742e-01
1.820144e+08 9.655762e-01 3.764648e-01 2.723560e-05 6.476417e-06 -3.975630e-05 9.410083e-06 3.419189e-01 8.538208e-01
1.822331e+08 9.646606e-01 3.769531e-01 8.810312e-07 -6.341841e-06 -7.581897e-06 -1.961738e-05 3.305054e-01 8.562622e-01
1.824519e+08 9.639282e-01 3.762207e-01 3.836304e-05 8.411705e-06 1.935661e-05 2.144091e-05 3.200684e-01 8.593140e-01
1.826706e+08 9.619141e-01 3.760986e-01 1.545181e-06 -1.650769e-07 -2.796389e-05 1.123361e-05 3.098755e-01 8.616333e-01
1.828893e+08 9.618530e-01 3.764648e-01 -4.377216e-07 2.504885e-05 -1.301989e-06 -1.438987e-05 3.020020e-01 8.649902e-01
1.831081e+08 9.621582e-01 3.767700e-01 1.864508e-05 1.364294e-05 4.269183e-05 -4.164129e-05 2.936401e-01 8.645020e-01
1.833268e+08 9.612427e-01 3.765869e-01 -1.919270e-05 -4.206784e-06 -2.958626e-05 -6.027520e-06 2.855225e-01 8.638306e-01
1.835455e+08 9.604492e-01 3.767090e-01 -4.392117e-05 4.220754e-05 3.718957e-05 -3.823824e-05 2.769775e-01 8.638306e-01
1.837642e+08 9.594116e-01 3.769531e-01 -2.318248e-05 2.460554e-06 2.435222e-05 1.231581e-05 2.639160e-01 8.601074e-01
1.839830e+08 9.583130e-01 3.761597e-01 1.015980e-05 -7.336494e-06 -3.136694e-06 2.932176e-05 2.508545e-01 8.588867e-01
1.842017e+08 9.577026e-01 3.759766e-01 -4.962087e-06 -4.636869e-05 4.530698e-05 -1.282245e-05 2.334595e-01 8.563843e-01
1.844204e+08 9.571533e-01 3.767700e-01 3.781170e-06 -3.794767e-05 -5.765352e-06 5.206093e-07 2.152710e-01 8.577881e-01
1.846392e+08 9.558105e-01 3.768311e-01 5.639158e-07 -9.446405e-06 -1.464970e-05 -3.354251e-05 1.965332e-01 8.605957e-01
1.848579e+08 9.547119e-01 3.771973e-01 6.581470e-05 -1.326203e-05 2.176687e-05 -1.647696e-05 1.791382e-01 8.681641e-01
1.850766e+08 9.542236e-01 3.766479e-01 -1.863576e-05 -1.364946e-05 -3.091246e-05 -2.045743e-05 1.621704e-01 8.770142e-01
1.852954e+08 9.534302e-01 3.768921e-01 -1.536496e-05 1.726579e-05 -1.361221e-05 -2.202205e-05 1.470947e-01 8.900146e-01
1.855141e+08 9.533691e-01 3.768311e-01 1.944881e-05 -8.321367e-06 -2.866611e-06 -3.173575e-05 1.380005e-01 9.016113e-01
1.857328e+08 9.514771e-01 3.768311e-01 -2.850965e-05 -3.216788e-06 -1.965836e-05 -2.438761e-05 1.299438e-01 9.151611e-01
1.859516e+08 9.499512e-01 3.772583e-01 -5.400740e-06 -2.132356e-05 -1.755729e-05 -1.321547e-06 1.250000e-01 9.248657e-01
1.861703e+08 9.502563e-01 3.774414e-01 -3.327616e-06 1.286529e-05 2.346933e-06 2.597272e-05 1.212158e-01 9.321899e-01
1.863890e+08 9.489136e-01 3.775635e-01 3.207661e-05 -2.217107e-05 -1.991913e-05 -2.728775e-05 1.191406e-01 9.387817e-01
1.866078e+08 9.478760e-01 3.778687e-01 2.841279e-05 -1.242198e-05 3.098324e-05 -4.351139e-05 1.140747e-01 9.400024e-01
1.868265e+08 9.475098e-01 3.781738e-01 -1.734123e-06 -3.111921e-05 -1.706276e-05 4.444271e-06 1.094971e-01 9.416504e-01
1.870452e+08 9.468384e-01 3.779297e-01 2.455153e-05 -3.394112e-05 -4.208647e-06 1.784507e-05 1.022949e-01 9.417725e-01
1.872640e+08 9.454346e-01 3.779907e-01 -5.867798e-06 3.749039e-06 -4.041567e-05 3.643334e-06 9.118652e-02 9.443970e-01
1.874827e+08 9.441528e-01 3.787231e-01 5.483627e-06 -6.635115e-05 5.250331e-06 -6.291084e-06 8.062744e-02 9.461060e-01
1.877014e+08 9.440918e-01 3.793335e-01 1.270790e-05 1.785345e-06 -6.483123e-05 -8.709729e-06 7.128906e-02 9.481812e-01
1.879201e+08 9.436035e-01 3.786621e-01 -6.977469e-06 2.266653e-05 2.074055e-05 -2.809241e-05 5.987549e-02 9.525146e-01
1.881389e+08 9.421387e-01 3.792725e-01 4.174188e-06 2.461672e-05 4.994217e-06 -9.182375e-06 4.901123e-02 9.563599e-01
1.883576e+08 9.426270e-01 3.796387e-01 -2.769288e-06 3.428431e-06 4.677847e-05 1.590699e-06 3.820801e-02 9.619751e-01
1.885763e+08 9.396973e-01 3.796387e-01 -1.037121e-05 -2.398714e-05 2.541579e-05 2.390519e-05 2.770996e-02 9.667358e-01
1.887951e+08 9.398193e-01 3.798828e-01 -3.164448e-05 -2.935529e-06 -2.337247e-05 -8.102506e-07 1.489258e-02 9.718018e-01
1.890138e+08 9.386597e-01 3.803101e-01 -3.697909e-05 -8.618459e-06 -2.888404e-05 2.594665e-06 2.929688e-03 9.765015e-01
1.892325e+08 9.375000e-01 3.814087e-01 -1.947861e-05 8.329749e-06 2.552941e-05 -4.013628e-05 -1.019287e-02 9.857178e-01
1.894513e+08 9.372559e-01 3.808594e-01 3.043190e-05 -5.340576e-05 -2.337992e-05 -8.102506e-07 -2.154541e-02 9.965820e-01
1.896700e+08 9.366455e-01 3.814087e-01 -4.077330e-05 2.938509e-05 5.215406e-07 5.780254e-06 -3.302002e-02 1.009827e+00
1.898887e+08 9.355469e-01 3.813477e-01 -6.670132e-06 2.579577e-05 4.213303e-06 -1.786463e-05 -3.948975e-02 1.023987e+00
1.901075e+08 9.347534e-01 3.822632e-01 -4.902855e-05 -4.250556e-06 2.156943e-06 -4.100427e-05 -4.345703e-02 1.038147e+00
1.903262e+08 9.339600e-01 3.823853e-01 3.398024e-05 -1.926906e-05 -5.308911e-05 -6.873161e-06 -4.296875e-02 1.053650e+00
1.905449e+08 9.329224e-01 3.825684e-01 1.386460e-05 -1.714006e-05 1.338590e-05 1.919828e-05 -3.723145e-02 1.065430e+00
1.907636e+08 9.320068e-01 3.833008e-01 5.712733e-06 -3.509969e-05 8.966774e-06 -2.995692e-05 -3.015137e-02 1.070618e+00
1.909824e+08 9.302368e-01 3.837891e-01 -1.827814e-05 5.061738e-06 -1.942553e-05 -2.156757e-05 -2.209473e-02 1.074890e+00
1.912011e+08 9.304810e-01 3.841553e-01 -5.875714e-06 3.756024e-06 5.364418e-05 1.266971e-05 -1.617432e-02 1.069641e+00
1.914198e+08 9.288330e-01 3.837891e-01 -2.792478e-05 2.944842e-06 2.103858e-05 -2.522953e-05 -1.184082e-02 1.060608e+00
1.916386e+08 9.280396e-01 3.843994e-01 9.207055e-06 -1.665857e-05 5.783513e-06 -5.215406e-07 -1.287842e-02 1.053467e+00
1.918573e+08 9.274902e-01 3.853760e-01 -4.782155e-05 -7.517636e-06 8.976087e-06 -2.998114e-05 -1.971436e-02 1.041687e+00
1.920760e+08 9.265137e-01 3.851929e-01 8.968636e-07 -6.368384e-06 -3.843009e-05 2.677552e-05 -2.935791e-02 1.032593e+00
1.922948e+08 9.259644e-01 3.858643e-01 -2.356246e-07 1.257751e-05 1.814682e-05 7.123686e-06 -4.205322e-02 1.026001e+00
1.925135e+08 9.248657e-01 3.868408e-01 -4.904345e-06 1.307670e-05 7.079914e-06 1.395773e-05 -5.596924e-02 1.022644e+00
1.927322e+08 9.233398e-01 3.874512e-01 3.015436e-05 3.088266e-06 -1.055002e-05 1.260079e-05 -6.884766e-02 1.023132e+00
1.929510e+08 9.227905e-01 3.879395e-01 -2.515875e-05 -5.029142e-07 -1.916103e-05 -1.872797e-05 -8.148193e-02 1.025269e+00
1.931697e+08 9.227295e-01 3.880005e-01 -1.815148e-05 -2.320483e-05 -3.112480e-05 4.364178e-05 -9.216309e-02 1.023132e+00
1.933884e+08 9.218140e-01 3.886108e-01 -2.165604e-05 1.797546e-05 -3.149410e-10 3.769571e-10 -1.032104e-01 1.027893e+00
1.936072e+08 9.205322e-01 3.894653e-01 4.422851e-06 1.209695e-05 7.849187e-06 2.264418e-05 -1.091919e-01 1.027405e+00
1.938259e+08 9.201050e-01 3.892822e-01 5.672872e-05 -2.793595e-05 -4.492700e-06 1.499616e-05 -1.181030e-01 1.026245e+00
1.940446e+08 9.189453e-01 3.908691e-01 -1.160521e-05 -2.076477e-05 1.532398e-05 -2.471730e-05 -1.287842e-01 1.026550e+00
1.942634e+08 9.187622e-01 3.906860e-01 1.438241e-05 1.734309e-05 -1.531094e-05 2.473220e-05 -1.358032e-01 1.024658e+00
1.944821e+08 9.169922e-01 3.908081e-01 3.229454e-05 -6.526709e-06 -9.942800e-06 -4.578382e-05 -1.461792e-01 1.023499e+00
1.947008e+08 9.170532e-01 3.920288e-01 -1.291558e-05 -3.318116e-05 3.477931e-05 -3.090128e-06 -1.535645e-01 1.024780e+00
1.949195e+08 9.161377e-01 3.922119e-01 2.673827e-05 3.315508e-07 1.816079e-06 2.027862e-05 -1.626587e-01 1.025085e+00
1.951383e+08 9.150391e-01 3.929443e-01 2.133474e-05 3.859960e-05 3.346615e-05 -1.758710e-05 -1.691895e-01 1.025269e+00
1.953570e+08 9.138794e-01 3.932495e-01 -2.852082e-05 -4.726648e-05 -4.544109e-05 -5.141646e-05 -1.738281e-01 1.024475e+00
1.955757e+08 9.135132e-01 3.939209e-01 2.533384e-05 3.188103e-05 2.586748e-07 2.897345e-06 -1.795044e-01 1.023560e+00
1.957945e+08 9.120483e-01 3.941040e-01 1.560245e-05 1.407042e-05 1.003686e-05 -1.840666e-05 -1.844482e-01 1.018372e+00
1.960132e+08 9.117432e-01 3.952026e-01 2.707355e-06 -1.912378e-05 -1.027249e-06 -1.159031e-05 -1.902466e-01 1.012939e+00
1.962319e+08 9.102783e-01 3.959961e-01 1.217052e-05 1.129322e-05 -1.917128e-05 -1.874566e-05 -1.974487e-01 1.005920e+00
1.964507e+08 9.097900e-01 3.969727e-01 -9.904150e-06 1.045968e-05 1.005922e-05 -1.841411e-05 -2.061157e-01 9.983521e-01
1.966694e+08 9.089966e-01 3.969727e-01 -4.994124e-05 3.353134e-05 -2.267398e-05 7.849187e-06 -2.159424e-01 9.908447e-01
1.968881e+08 9.089966e-01 3.980103e-01 3.818981e-05 -1.024827e-05 1.029111e-06 1.160242e-05 -2.301636e-01 9.877319e-01
1.971069e+08 9.068604e-01 3.984985e-01 1.185760e-05 8.185394e-06 2.012402e-05 -3.681332e-05 -2.443848e-01 9.849854e-01
1.973256e+08 9.068604e-01 3.988037e-01 -2.232566e-05 1.174957e-05 -7.613003e-05 -2.019107e-06 -2.566528e-01 9.847412e-01
1.975443e+08 9.057007e-01 3.998413e-01 -4.803017e-05 -3.894791e-05 -7.579103e-06 -1.978315e-05 -2.633057e-01 9.866333e-01
1.977630e+08 9.060059e-01 3.995361e-01 2.199784e-05 4.484877e-05 1.003966e-05 -1.844112e-05 -2.723389e-01 9.880371e-01
1.979818e+08 9.047852e-01 4.009399e-01 6.216578e-06 -6.505288e-07 -1.868047e-05 -1.296494e-05 -2.755127e-01 9.880981e-01
1.982005e+08 9.044189e-01 4.015503e-01 -2.007000e-05 3.353879e-05 -4.062429e-05 3.591180e-06 -2.753906e-01 9.871216e-01
1.984192e+08 9.032593e-01 4.024658e-01 -3.221445e-05 -3.750995e-05 2.773665e-05 -1.705810e-05 -2.762451e-01 9.814453e-01
1.986380e+08 9.027710e-01 4.022217e-01 -3.018603e-05 -3.134832e-06 -1.211930e-05 -4.765578e-06 -2.773438e-01 9.732056e-01
1.988567e+08 9.021606e-01 4.039917e-01 4.340196e-06 -3.596768e-06 -5.291309e-06 6.315298e-06 -2.803345e-01 9.607544e-01
1.990754e+08 9.013062e-01 4.044189e-01 -2.512336e-05 3.092922e-05 3.002211e-05 9.028241e-06 -2.845459e-01 9.487305e-01
1.992942e+08 9.006958e-01 4.053955e-01 4.016794e-06 -6.710645e-06 4.259869e-06 -1.791585e-05 -2.935791e-01 9.354248e-01
1.995129e+08 9.003296e-01 4.064331e-01 -1.023756e-05 7.363036e-06 3.252178e-05 -2.918951e-05 -3.039551e-01 9.224854e-01
1.997316e+08 8.997192e-01 4.068604e-01 1.288764e-05 -4.223920e-05 -2.074614e-05 -3.618747e-05 -3.168335e-01 9.136963e-01
1.999504e+08 8.993530e-01 4.072876e-01 1.154840e-07 3.143959e-05 -4.926324e-05 -2.783537e-05 -3.270264e-01 9.060669e-01
2.001691e+08 8.987427e-01 4.090576e-01 1.017936e-05 -2.309680e-05 7.582828e-06 1.981854e-05 -3.400269e-01 8.976440e-01
2.003878e+08 8.973389e-01 4.083862e-01 -7.410534e-06 1.964252e-05 3.837049e-06 4.351512e-05 -3.513184e-01 8.912354e-01
2.006066e+08 8.967285e-01 4.093018e-01 2.145022e-05 -5.383976e-06 4.745275e-05 7.517636e-06 -3.632812e-01 8.843994e-01
2.008253e+08 8.969116e-01 4.102173e-01 1.658313e-05 2.345443e-05 -1.277775e-06 -1.452398e-05 -3.709717e-01 8.787842e-01
2.010440e+08 8.957520e-01 4.108887e-01 -1.121778e-05 -1.986511e-06 -7.340685e-06 -1.690630e-05 -3.803711e-01 8.731079e-01
2.012628e+08 8.947754e-01 4.114380e-01 2.807938e-05 1.281872e-05 1.026317e-06 1.160614e-05 -3.901978e-01 8.641357e-01
2.014815e+08 8.939819e-01 4.125977e-01 -2.373196e-05 -1.640059e-05 1.211744e-05 4.786067e-06 -3.992310e-01 8.574219e-01
2.017002e+08 8.936157e-01 4.141846e-01 -1.273211e-05 1.390558e-05 -2.778694e-05 1.705252e-05 -4.093628e-01 8.526611e-01
2.019189e+08 8.924561e-01 4.143677e-01 -1.923181e-05 2.715923e-05 4.284084e-06 -1.792796e-05 -4.194946e-01 8.482056e-01
2.021377e+08 8.920288e-01 4.149170e-01 1.369230e-05 -4.572794e-06 9.583309e-06 -2.424791e-05 -4.281616e-01 8.434448e-01
2.023564e+08 8.917236e-01 4.153442e-01 1.524948e-05 -4.732050e-06 7.773191e-05 -4.779920e-05 -4.353638e-01 8.401489e-01
2.025751e+08 8.908081e-01 4.160767e-01 2.217665e-05 1.656823e-05 -1.742225e-05 1.533888e-06 -4.408569e-01 8.344727e-01
2.027939e+08 8.912354e-01 4.172363e-01 1.072139e-05 -4.833192e-05 -1.693517e-05 7.337891e-06 -4.451294e-01 8.307495e-01
2.030126e+08 8.900146e-01 4.177856e-01 -1.085270e-05 1.686998e-05 -2.503768e-05 -1.829676e-05 -4.484863e-01 8.223267e-01
2.032313e+08 8.889771e-01 4.185791e-01 4.994217e-06 2.628192e-06 2.022274e-05 3.042445e-05 -4.531250e-01 8.132324e-01
2.034501e+08 8.883667e-01 4.193726e-01 -1.074933e-05 -4.295260e-05 6.824732e-06 1.111068e-05 -4.577026e-01 8.018799e-01
2.036688e+08 8.881836e-01 4.200439e-01 -2.653338e-05 -1.301989e-05 -2.024509e-05 -3.043748e-05 -4.635010e-01 7.886353e-01
2.038875e+08 8.880615e-01 4.207764e-01 1.187064e-05 8.206815e-06 3.615394e-05 1.148507e-05 -4.728394e-01 7.758179e-01
2.041063e+08 8.873901e-01 4.219971e-01 -2.534594e-06 -9.190757e-06 -8.339062e-06 -2.857111e-05 -4.852295e-01 7.631836e-01
2.043250e+08 8.866577e-01 4.222412e-01 1.090392e-05 -1.132488e-06 -6.495416e-05 -6.061047e-06 -4.990845e-01 7.531738e-01
2.045437e+08 8.861084e-01 4.234619e-01 3.882870e-05 -3.554672e-05 1.415610e-05 2.806075e-05 -5.129395e-01 7.456665e-01
2.047624e+08 8.850708e-01 4.246216e-01 -2.963096e-05 3.045425e-06 -1.313444e-05 -1.642946e-05 -5.255127e-01 7.404785e-01
2.049812e+08 8.850708e-01 4.252930e-01 3.203750e-07 3.118301e-06 4.805624e-06 -1.213513e-05 -5.379028e-01 7.359619e-01
2.051999e+08 8.845215e-01 4.258423e-01 3.762543e-06 5.915295e-06 3.159791e-05 2.652779e-05 -5.489502e-01 7.338257e-01
2.054186e+08 8.837280e-01 4.265137e-01 2.402999e-05 3.840774e-06 9.365380e-06 4.017726e-05 -5.552368e-01 7.313843e-01
2.056374e+08 8.833008e-01 4.276733e-01 1.091603e-05 -1.123175e-06 3.792159e-05 -3.552064e-05 -5.623169e-01 7.271118e-01
2.058561e+08 8.830566e-01 4.284058e-01 1.542456e-05 4.250370e-05 -7.588416e-06 -1.985207e-05 -5.661011e-01 7.200928e-01
2.060748e+08 8.828125e-01 4.284058e-01 4.656240e-05 3.934279e-05 3.968924e-05 -1.519546e-05 -5.703735e-01 7.128296e-01
2.062936e+08 8.815918e-01 4.298096e-01 -5.078316e-05 2.731010e-05 6.066635e-06 2.399087e-06 -5.774536e-01 7.027588e-01
2.065123e+08 8.819580e-01 4.308472e-01 1.398288e-05 -3.295951e-05 2.858788e-05 -8.355826e-06 -5.857544e-01 6.931763e-01
2.067310e+08 8.816528e-01 4.316406e-01 -2.036057e-05 -2.943911e-05 1.214352e-05 4.810281e-06 -5.950317e-01 6.820068e-01
2.069498e+08 8.806152e-01 4.330444e-01 -1.750886e-07 5.993620e-05 3.542379e-05 2.792105e-06 -6.064453e-01 6.724548e-01
2.071685e+08 8.798218e-01 4.335327e-01 4.809722e-05 7.703900e-06 3.524125e-06 4.072487e-05 -6.195984e-01 6.632080e-01
2.073872e+08 8.794556e-01 4.335327e-01 1.166575e-05 3.666058e-05 2.428330e-05 9.603798e-06 -6.325378e-01 6.566467e-01
2.076060e+08 8.790894e-01 4.345703e-01 1.282524e-05 1.761504e-05 -2.101995e-05 2.819858e-05 -6.466980e-01 6.504211e-01
2.078247e+08 8.796387e-01 4.355469e-01 1.688395e-05 1.087505e-05 3.951043e-05 -1.809001e-05 -6.594238e-01 6.466370e-01
2.080434e+08 8.785400e-01 4.363403e-01 2.426468e-05 -2.458878e-05 -4.734099e-05 -4.705042e-06 -6.720276e-01 6.416931e-01
2.082622e+08 8.784180e-01 4.375000e-01 -2.248585e-05 -3.993511e-06 -6.331597e-06 -5.320180e-06 -6.842651e-01 6.372986e-01
2.084809e+08 8.776855e-01 4.383545e-01 -2.529286e-05 -5.625188e-07 8.381903e-06 -3.885664e-05 -6.957092e-01 6.328735e-01
2.086996e+08 8.767090e-01 4.389038e-01 -3.033131e-05 -1.898408e-05 7.515773e-07 8.730218e-06 -7.091980e-01 6.307373e-01
2.089183e+08 8.765869e-01 4.396973e-01 8.087605e-06 -1.345389e-05 -3.949925e-05 1.806766e-05 -7.219849e-01 6.273193e-01
2.091371e+08 8.760986e-01 4.406738e-01 9.691808e-06 2.160668e-06 1.321733e-05 -5.098805e-05 -7.360840e-01 6.271362e-01
2.093558e+08 8.765869e-01 4.411011e-01 7.120892e-06 -2.281554e-05 1.788139e-06 -4.711375e-05 -7.476807e-01 6.287842e-01
2.095745e+08 8.756714e-01 4.418945e-01 2.282485e-05 7.124618e-06 -6.328337e-06 -5.321112e-06 -7.606812e-01 6.322632e-01
2.097933e+08 8.758545e-01 4.420166e-01 -7.078052e-08 -3.158301e-05 2.556667e-05 -4.331023e-05 -7.670898e-01 6.366577e-01
2.100120e+08 8.748169e-01 4.437256e-01 -1.814123e-05 -7.618219e-06 4.584342e-05 -1.275539e-05 -7.727051e-01 6.411743e-01
2.102307e+08 8.754272e-01 4.442139e-01 1.176633e-05 -3.908947e-05 4.311092e-06 -1.799408e-05 -7.754517e-01 6.445312e-01
2.104495e+08 8.750000e-01 4.452515e-01 2.469122e-05 -5.681068e-06 -1.191162e-05 -1.908280e-06 -7.748413e-01 6.459961e-01
2.106682e+08 8.742676e-01 4.463501e-01 9.384472e-06 -9.587966e-07 -2.713129e-05 2.582371e-05 -7.727661e-01 6.435547e-01
2.108869e+08 8.742065e-01 4.473267e-01 -1.528859e-05 2.049934e-05 6.080139e-06 2.412591e-06 -7.706299e-01 6.367188e-01
2.111057e+08 8.742065e-01 4.481201e-01 6.865244e-06 -1.016958e-05 5.580951e-06 -3.420282e-06 -7.717896e-01 6.271362e-01
2.113244e+08 8.735962e-01 4.481201e-01 -1.256727e-05 -3.030337e-05 -1.774076e-05 -1.391396e-06 -7.774048e-01 6.168213e-01
2.115431e+08 8.732300e-01 4.492188e-01 1.346041e-05 8.110888e-06 -3.724173e-05 -2.321415e-05 -7.858276e-01 6.052246e-01
2.117618e+08 8.739014e-01 4.505005e-01 -4.622340e-05 4.262105e-05 2.716668e-05 -2.586097e-05 -7.956543e-01 5.958862e-01
2.119806e+08 8.726196e-01 4.513550e-01 2.070330e-05 3.265403e-05 6.582588e-06 8.246861e-06 -8.086548e-01 5.885010e-01
2.121993e+08 8.712158e-01 4.519653e-01 -2.761185e-05 -3.826618e-05 -5.620345e-05 -3.922358e-05 -8.204346e-01 5.842285e-01
2.124180e+08 8.718872e-01 4.525757e-01 -1.312234e-05 1.082476e-05 -1.091603e-05 9.750947e-06 -8.351440e-01 5.819702e-01
2.126368e+08 8.718262e-01 4.531860e-01 -1.286529e-05 -1.764856e-05 5.833805e-06 -5.019829e-07 -8.459473e-01 5.833740e-01
2.128555e+08 8.713379e-01 4.550781e-01 -8.778647e-06 -8.588657e-06 2.235174e-06 2.626702e-05 -8.558350e-01 5.836792e-01
2.130742e+08 8.715820e-01 4.545288e-01 -6.258022e-06 6.337650e-07 3.476068e-05 -5.943701e-06 -8.627930e-01 5.860596e-01
2.132930e+08 8.711548e-01 4.566040e-01 2.530590e-05 -3.103539e-05 3.429316e-05 -1.175329e-05 -8.690796e-01 5.878906e-01
2.135117e+08 8.715210e-01 4.565430e-01 1.912192e-05 1.702271e-05 -2.816319e-06 3.555045e-05 -8.726196e-01 5.902100e-01
2.137304e+08 8.696899e-01 4.573364e-01 -8.748379e-06 7.215887e-06 2.159178e-05 -2.242252e-05 -8.770142e-01 5.918579e-01
2.139492e+08 8.706665e-01 4.583130e-01 1.247739e-06 -3.289664e-06 -5.591661e-06 3.421213e-06 -8.792725e-01 5.931396e-01
2.141679e+08 8.703003e-01 4.594116e-01 -7.215887e-06 -8.760951e-06 5.593523e-06 -3.418885e-06 -8.795166e-01 5.946655e-01
2.143866e+08 8.696899e-01 4.592285e-01 -5.336013e-06 -5.785841e-06 -1.003966e-06 -1.167599e-05 -8.814087e-01 5.967407e-01
2.146054e+08 8.694458e-01 4.600220e-01 -1.566252e-06 1.589069e-07 -1.042616e-05 1.559500e-05 -8.773804e-01 5.979004e-01
2.148241e+08 8.699951e-01 4.605103e-01 -2.665259e-05 -1.310371e-05 -5.085021e-06 9.267591e-06 -8.732910e-01 5.977173e-01
2.150428e+08 8.700562e-01 4.626465e-01 1.316145e-05 4.990026e-06 -1.144782e-05 3.921799e-06 -8.665161e-01 5.938721e-01
2.152616e+08 8.695679e-01 4.626465e-01 -3.206078e-07 -3.132736e-06 7.342547e-06 1.703482e-05 -8.581543e-01 5.885010e-01
2.154803e+08 8.692627e-01 4.629517e-01 -3.775582e-06 -5.943235e-06 -1.752842e-05 1.501292e-06 -8.494873e-01 5.781860e-01
2.156990e+08 8.682251e-01 4.636230e-01 1.909398e-05 -3.042445e-05 2.721697e-05 -2.584420e-05 -8.436279e-01 5.637817e-01
2.159177e+08 8.687134e-01 4.646606e-01 -1.166575e-05 -3.683195e-05 9.950250e-06 -2.145208e-05 -8.405151e-01 5.472412e-01
2.161365e+08 8.689575e-01 4.648438e-01 3.433786e-06 -1.301523e-05 2.672710e-05 -3.174692e-05 -8.407593e-01 5.294800e-01
2.163552e+08 8.687744e-01 4.658813e-01 -1.564249e-05 1.742039e-05 -4.515052e-06 -5.263090e-05 -8.459473e-01 5.105591e-01
2.165739e+08 8.681030e-01 4.669189e-01 -9.079464e-06 1.992751e-05 4.091859e-05 -3.475696e-06 -8.542480e-01 4.954834e-01
2.167927e+08 8.690796e-01 4.678955e-01 -2.495944e-07 4.437193e-05 2.499670e-06 2.926402e-05 -8.651123e-01 4.822998e-01
2.170114e+08 8.683472e-01 4.688110e-01 -3.356114e-05 1.290441e-05 3.602356e-06 -2.683140e-05 -8.772583e-01 4.745483e-01
2.172301e+08 8.687744e-01 4.690552e-01 -1.377054e-05 3.623962e-05 3.102794e-05 1.797453e-05 -8.873291e-01 4.680786e-01
2.174489e+08 8.670654e-01 4.693604e-01 -2.441183e-05 5.634502e-05 1.244526e-05 7.772818e-06 -8.957520e-01 4.666138e-01
2.176676e+08 8.675537e-01 4.700317e-01 2.918579e-05 -9.283423e-06 1.752749e-06 2.047792e-05 -9.016113e-01 4.665527e-01
2.178863e+08 8.676147e-01 4.714966e-01 1.035444e-05 -7.388648e-06 1.681689e-05 -1.027808e-05 -9.047241e-01 4.649048e-01
2.181051e+08 8.675537e-01 4.716797e-01 -2.664514e-05 3.436953e-05 -2.416968e-05 -6.780028e-06 -9.017334e-01 4.620361e-01
2.183238e+08 8.674316e-01 4.724731e-01 1.850352e-05 -2.089050e-05 2.778322e-05 -2.006441e-05 -9.002686e-01 4.591675e-01
2.185425e+08 8.669434e-01 4.730225e-01 8.642673e-07 -5.401671e-05 -6.851740e-06 -1.121219e-05 -8.956909e-01 4.523926e-01
2.187612e+08 8.674927e-01 4.736328e-01 -5.640090e-06 6.918795e-06 -3.590994e-05 -5.779788e-06 -8.940430e-01 4.412231e-01
2.189800e+08 8.666382e-01 4.747314e-01 6.567687e-06 -4.508346e-05 2.666004e-05 3.607757e-05 -8.919067e-01 4.342651e-01
2.191987e+08 8.674316e-01 4.745483e-01 1.230836e-05 5.906448e-05 -1.197308e-05 -1.924112e-06 -8.919678e-01 4.241333e-01
2.194174e+08 8.667603e-01 4.749146e-01 2.137292e-05 7.359311e-06 7.110648e-06 1.414120e-05 -8.914185e-01 4.146729e-01
2.196362e+08 8.675537e-01 4.764404e-01 -5.985610e-06 -1.209415e-05 -6.612390e-06 -8.303206e-06 -8.909912e-01 4.040527e-01
2.198549e+08 8.665161e-01 4.772339e-01 -1.854543e-05 -1.083873e-05 2.418645e-05 6.809831e-06 -8.905640e-01 3.941040e-01
2.200736e+08 8.669434e-01 4.771729e-01 -2.452359e-05 8.827075e-06 3.741682e-05 2.337992e-05 -8.900146e-01 3.835449e-01
2.202924e+08 8.663330e-01 4.778442e-01 -1.391768e-05 -5.893782e-05 4.868023e-06 -1.221802e-05 -8.881836e-01 3.734131e-01
2.205111e+08 8.665161e-01 4.783325e-01 1.009926e-05 3.707781e-05 -4.764274e-05 -4.801899e-06 -8.875732e-01 3.604736e-01
2.207298e+08 8.666382e-01 4.791260e-01 -6.299466e-06 -1.525693e-05 -2.628192e-06 3.860891e-05 -8.867188e-01 3.471069e-01
2.209486e+08 8.668213e-01 4.796753e-01 -1.573004e-05 1.591630e-06 1.710095e-05 -7.360242e-06 -8.882446e-01 3.309326e-01
2.211673e+08 8.663330e-01 4.808960e-01 -1.798570e-05 -3.633276e-05 2.810173e-05 -1.713820e-05 -8.910522e-01 3.179932e-01
2.213860e+08 8.666382e-01 4.815674e-01 8.787960e-06 -2.311543e-05 -2.298690e-05 7.852912e-06 -8.969727e-01 3.052368e-01
2.216048e+08 8.660889e-01 4.810791e-01 -2.796948e-05 2.187863e-05 -1.737848e-06 -2.052821e-05 -9.022827e-01 2.933350e-01
2.218235e+08 8.663330e-01 4.820557e-01 -1.007598e-05 -5.339738e-06 -4.877336e-06 1.223292e-05 -9.092407e-01 2.852783e-01
2.220422e+08 8.670654e-01 4.829102e-01 -2.488308e-05 -1.021288e-05 1.099985e-05 -9.805895e-06 -9.172363e-01 2.781982e-01
2.222610e+08 8.660278e-01 4.830322e-01 2.142787e-05 7.397495e-06 3.546849e-05 -5.587935e-08 -9.182129e-01 2.744141e-01
2.224797e+08 8.665161e-01 4.838867e-01 1.858547e-05 -5.045906e-06 -4.400313e-05 3.921986e-05 -9.210815e-01 2.711182e-01
2.226984e+08 8.663330e-01 4.846802e-01 2.834201e-05 -2.821907e-06 -1.374632e-05 -2.251379e-05 -9.205933e-01 2.661743e-01
2.229171e+08 8.663330e-01 4.852905e-01 -5.988870e-06 3.786292e-06 -3.452785e-05 1.179986e-05 -9.166260e-01 2.606812e-01
2.231359e+08 8.655396e-01 4.858398e-01 7.890165e-06 1.512934e-05 -1.564808e-05 2.498925e-05 -9.130859e-01 2.531128e-01
2.233546e+08 8.654175e-01 4.855957e-01 -8.847564e-06 -2.459250e-05 -1.239590e-06 -1.468882e-05 -9.097900e-01 2.440186e-01
2.235733e+08 8.652954e-01 4.859009e-01 -4.193000e-05 2.649799e-05 2.250262e-05 -1.374260e-05 -9.072876e-01 2.315674e-01
2.237921e+08 8.662109e-01 4.866943e-01 -6.308779e-06 1.657009e-05 -1.449697e-05 -3.135763e-05 -9.075317e-01 2.198486e-01
2.240108e+08 8.661499e-01 4.874268e-01 -1.324061e-05 1.088716e-05 4.143268e-05 -5.327165e-07 -9.079590e-01 2.086182e-01
2.242295e+08 8.651123e-01 4.881592e-01 -2.555363e-05 -1.655519e-05 -1.126993e-05 6.864779e-06 -9.097900e-01 1.978149e-01
2.244483e+08 8.660278e-01 4.881592e-01 -1.514144e-05 -8.041970e-06 2.304278e-05 -7.873401e-06 -9.113159e-01 1.882935e-01
2.246670e+08 8.654175e-01 4.888916e-01 3.282167e-05 -6.496906e-06 -2.229959e-05 1.668930e-05 -9.125366e-01 1.817017e-01
2.248857e+08 8.657837e-01 4.893799e-01 3.170222e-06 3.156438e-05 2.478622e-05 1.273863e-05 -9.107056e-01 1.740112e-01
2.251045e+08 8.660889e-01 4.895630e-01 1.259986e-05 -1.721550e-05 2.870150e-05 -1.132116e-05 -9.075928e-01 1.668091e-01
2.253232e+08 8.654175e-01 4.898682e-01 -1.452211e-05 -1.729466e-06 8.799136e-06 -3.631413e-05 -9.041748e-01 1.572266e-01
2.255419e+08 8.659058e-01 4.903564e-01 2.655014e-05 1.008809e-05 3.510155e-05 -5.928800e-06 -8.986206e-01 1.465454e-01
2.257606e+08 8.646851e-01 4.904175e-01 -6.953254e-06 -2.164207e-05 1.078565e-05 -1.275819e-05 -8.953857e-01 1.339722e-01
2.259794e+08 8.662109e-01 4.910889e-01 1.881272e-06 3.490597e-05 -2.184324e-05 2.261996e-05 -8.916016e-01 1.197510e-01
2.261981e+08 8.657837e-01 4.914551e-01 -3.147870e-07 1.278985e-05 1.694076e-05 -1.033302e-05 -8.910522e-01 1.051025e-01
2.264168e+08 8.660278e-01 4.920654e-01 -4.804879e-05 -1.754239e-05 -5.650334e-06 3.445894e-06 -8.912964e-01 9.027100e-02
2.266356e+08 8.656006e-01 4.918213e-01 1.232326e-05 -6.830692e-05 -2.457760e-05 -9.793788e-06 -8.928833e-01 7.629395e-02
2.268543e+08 8.656006e-01 4.923096e-01 -9.800773e-06 -2.210494e-06 1.029857e-05 -1.868699e-05 -8.946533e-01 6.390381e-02
2.270730e+08 8.648071e-01 4.924927e-01 3.166497e-07 3.509223e-05 -2.358109e-05 1.985580e-06 -8.966675e-01 5.279541e-02
2.272918e+08 8.648682e-01 4.933472e-01 -6.328337e-06 1.661759e-05 -4.154444e-05 4.880130e-07 -8.966064e-01 4.058838e-02
2.275105e+08 8.651123e-01 4.935303e-01 1.265295e-05 -1.267530e-06 2.875924e-05 -1.132675e-05 -8.974609e-01 2.941895e-02
2.277292e+08 8.646851e-01 4.937134e-01 1.075026e-05 -4.264526e-06 -1.620501e-05 1.917593e-05 -8.947754e-01 1.721191e-02
2.279480e+08 8.646240e-01 4.942627e-01 -3.165100e-06 3.110617e-07 2.137385e-05 -2.854317e-05 -8.951416e-01 3.479004e-03
2.281667e+08 8.646240e-01 4.948730e-01 5.629659e-05 3.596768e-05 -9.130687e-06 -3.787689e-05 -8.946533e-01 -1.202393e-02
2.283854e+08 8.646851e-01 4.955444e-01 8.545816e-06 2.153870e-05 1.524016e-05 -3.102235e-05 -8.959961e-01 -2.874756e-02
2.286042e+08 8.643799e-01 4.954224e-01 7.913448e-06 1.521967e-05 -1.479127e-05 -3.444962e-05 -9.001465e-01 -4.479980e-02
2.288229e+08 8.641968e-01 4.960327e-01 -2.217852e-05 3.422238e-05 -5.465001e-05 -1.327693e-05 -9.064941e-01 -6.115723e-02
2.290416e+08 8.641968e-01 4.963989e-01 -3.388338e-05 -3.023073e-06 -2.611242e-05 -2.758019e-05 -9.157104e-01 -7.543945e-02
2.292604e+08 8.641968e-01 4.964600e-01 -2.472475e-05 -7.139519e-06 5.446374e-06 6.501004e-05 -9.235840e-01 -8.557129e-02
2.294791e+08 8.643799e-01 4.963989e-01 -3.170222e-05 -1.284853e-05 -3.922731e-06 2.414174e-05 -9.315186e-01 -9.448242e-02
2.296978e+08 8.640137e-01 4.963989e-01 2.376549e-05 -1.839735e-05 1.032744e-05 -1.873076e-05 -9.380493e-01 -9.906006e-02
2.299165e+08 8.646851e-01 4.974365e-01 -4.249625e-05 7.454306e-06 -3.919378e-05 3.011338e-05 -9.411011e-01 -1.031494e-01
2.301353e+08 8.637695e-01 4.973145e-01 1.591630e-06 1.585484e-05 1.084153e-05 -1.282711e-05 -9.409790e-01 -1.078491e-01
2.303540e+08 8.633423e-01 4.979248e-01 -4.425645e-06 -2.839975e-05 3.746711e-05 2.070516e-05 -9.389648e-01 -1.155396e-01
2.305727e+08 8.628540e-01 4.981079e-01 1.079030e-05 2.776273e-05 1.527742e-05 -3.106147e-05 -9.353638e-01 -1.242676e-01
2.307915e+08 8.630371e-01 4.982300e-01 2.571195e-05 -1.540221e-05 1.481734e-06 1.775008e-05 -9.323730e-01 -1.369629e-01
2.310102e+08 8.634033e-01 4.978027e-01 -1.905300e-05 1.898035e-06 2.785027e-05 -2.321228e-05 -9.307861e-01 -1.520386e-01
2.312289e+08 8.624268e-01 4.987183e-01 -6.030779e-06 3.809575e-06 3.430992e-06 4.143268e-05 -9.313965e-01 -1.687012e-01
2.314477e+08 8.635254e-01 4.986572e-01 -1.288950e-06 3.539585e-05 6.171875e-06 2.468470e-06 -9.359131e-01 -1.855469e-01
2.316664e+08 8.629761e-01 4.984131e-01 5.397946e-06 2.189912e-05 4.929490e-06 -1.234002e-05 -9.421387e-01 -2.009277e-01
2.318851e+08 8.618774e-01 4.992676e-01 -2.219807e-06 -6.191432e-06 2.541207e-05 1.876056e-05 -9.502563e-01 -2.160034e-01
2.321039e+08 8.628540e-01 4.991455e-01 8.897856e-06 -7.295515e-06 1.407973e-05 2.568215e-05 -9.573975e-01 -2.276611e-01
2.323226e+08 8.629150e-01 4.993896e-01 2.256036e-05 9.685755e-07 2.147630e-05 -2.866425e-05 -9.674072e-01 -2.395630e-01
2.325413e+08 8.622437e-01 4.994507e-01 1.206715e-05 8.421019e-06 5.185604e-06 -9.384938e-06 -9.761353e-01 -2.480469e-01
2.327600e+08 8.626709e-01 4.999390e-01 -4.515797e-05 4.620105e-05 -7.424504e-06 -1.729745e-05 -9.857788e-01 -2.545776e-01
2.329788e+08 8.622437e-01 4.993896e-01 -5.116686e-05 1.873821e-06 5.979836e-05 9.350479e-07 -9.952393e-01 -2.611694e-01
2.331975e+08 8.609619e-01 4.997559e-01 -1.399778e-05 -1.145061e-05 2.222322e-05 -1.977198e-05 -1.002869e+00 -2.664795e-01
2.334162e+08 8.610840e-01 5.008545e-01 -2.862699e-05 3.496371e-05 -1.236238e-05 -4.948117e-06 -1.011597e+00 -2.711182e-01
2.336350e+08 8.613892e-01 5.005493e-01 -3.166497e-07 -3.180234e-06 -1.954846e-05 -1.927931e-05 -1.020691e+00 -2.714233e-01
2.338537e+08 8.614502e-01 5.011597e-01 -2.257712e-05 -9.723008e-07 4.973263e-07 5.937647e-06 -1.028564e+00 -2.717285e-01
2.340724e+08 8.607178e-01 5.008545e-01 -5.433336e-06 2.625026e-05 1.087226e-05 -1.287274e-05 -1.035889e+00 -2.672729e-01
2.342912e+08 8.598022e-01 5.017700e-01 -2.292357e-05 -4.151836e-06 7.390045e-07 8.903909e-06 -1.038574e+00 -2.625732e-01
2.345099e+08 8.596191e-01 5.010986e-01 4.155561e-06 -2.291426e-05 4.228950e-05 5.420297e-06 -1.037903e+00 -2.541504e-01
2.347286e+08 8.593750e-01 5.012817e-01 2.288073e-05 5.237758e-05 -2.176687e-05 2.573058e-05 -1.032043e+00 -2.468262e-01
2.349474e+08 8.601074e-01 5.018311e-01 1.815148e-05 4.629605e-06 -1.682993e-05 1.338497e-05 -1.020142e+00 -2.424316e-01
2.351661e+08 8.592529e-01 5.021973e-01 -9.457581e-07 -9.554904e-06 -2.469867e-06 -2.971105e-05 -1.006775e+00 -2.414551e-01
2.353848e+08 8.593750e-01 5.023193e-01 -2.358109e-05 -1.052953e-05 1.065433e-05 -1.585390e-05 -9.924316e-01 -2.443848e-01
2.356036e+08 8.576050e-01 5.020142e-01 -2.556015e-06 6.689224e-06 1.408905e-05 2.574734e-05 -9.780273e-01 -2.528076e-01
2.358223e+08 8.579102e-01 5.020752e-01 -5.429145e-06 1.019565e-05 1.719221e-06 2.080016e-05 -9.661865e-01 -2.634888e-01
2.360410e+08 8.585815e-01 5.025024e-01 1.212023e-05 -2.374314e-05 2.081506e-05 3.421120e-05 -9.568481e-01 -2.766724e-01
2.362598e+08 8.583984e-01 5.022583e-01 -9.882264e-06 -2.233777e-06 -4.760548e-05 3.978610e-06 -9.512939e-01 -2.911377e-01
2.364785e+08 8.580933e-01 5.026855e-01 -1.270324e-05 -4.706532e-05 -1.116097e-05 9.919517e-06 -9.462891e-01 -3.046875e-01
2.366972e+08 8.576660e-01 5.026855e-01 1.084711e-05 -4.289206e-06 -1.884997e-05 -1.041312e-05 -9.461060e-01 -3.154907e-01
2.369159e+08 8.563843e-01 5.029907e-01 -2.265908e-05 1.512840e-05 4.961155e-06 -1.239218e-05 -9.445190e-01 -3.237915e-01
2.371347e+08 8.568726e-01 5.029907e-01 -3.668480e-05 1.975521e-05 -1.240522e-05 -4.961155e-06 -9.435425e-01 -3.312378e-01
2.373534e+08 8.562622e-01 5.024414e-01 -6.337650e-07 -6.375369e-06 3.371574e-05 -2.678111e-05 -9.404907e-01 -3.356934e-01
2.375721e+08 8.562622e-01 5.028076e-01 3.573857e-05 -1.322106e-05 -2.681278e-05 -3.373437e-05 -9.366455e-01 -3.413696e-01
2.377909e+08 8.552246e-01 5.031738e-01 1.531281e-05 -4.019029e-05 -5.953759e-05 4.954636e-06 -9.301147e-01 -3.463135e-01
2.380096e+08 8.557739e-01 5.031738e-01 -3.032759e-05 1.911446e-05 -1.638196e-05 1.937058e-05 -9.244995e-01 -3.521729e-01
2.382283e+08 8.555908e-01 5.029907e-01 3.222562e-05 4.097819e-08 -1.762994e-05 4.479662e-06 -9.186401e-01 -3.588257e-01
2.384471e+08 8.541260e-01 5.028687e-01 -5.118549e-06 1.340918e-05 2.233312e-05 -1.986325e-05 -9.120483e-01 -3.665771e-01
2.386658e+08 8.544312e-01 5.044556e-01 4.216656e-05 2.261251e-06 2.287142e-05 -1.391582e-05 -9.089355e-01 -3.732910e-01
2.388845e+08 8.535156e-01 5.034180e-01 -7.648021e-06 -2.826750e-05 1.117401e-05 -9.941868e-06 -9.053955e-01 -3.795776e-01
2.391033e+08 8.521729e-01 5.039062e-01 5.124137e-06 -1.341384e-05 5.461648e-05 7.487833e-06 -9.002075e-01 -3.842163e-01
2.393220e+08 8.524170e-01 5.037231e-01 -6.389804e-06 1.674797e-05 7.441267e-07 8.940231e-06 -8.956299e-01 -3.880005e-01
2.395407e+08 8.519897e-01 5.043335e-01 -1.278520e-05 1.266599e-06 1.192745e-05 -9.918585e-07 -8.865356e-01 -3.886108e-01
2.397594e+08 8.514404e-01 5.040283e-01 -1.726300e-05 4.937872e-06 -1.515262e-05 3.428012e-05 -8.769531e-01 -3.916626e-01
2.399782e+08 8.502808e-01 5.046997e-01 -3.707595e-05 3.271550e-05 -1.512468e-05 -3.777631e-05 -8.648071e-01 -3.952026e-01
2.401969e+08 8.509521e-01 5.045166e-01 -2.583489e-06 3.899820e-05 -5.519390e-05 -1.342967e-05 -8.520508e-01 -3.995361e-01
2.404156e+08 8.504639e-01 5.048218e-01 2.080668e-05 -1.821108e-05 1.689419e-05 5.866960e-05 -8.372803e-01 -4.080811e-01
2.406344e+08 8.492432e-01 5.046387e-01 1.826510e-05 -2.765469e-05 -3.130361e-05 -1.540408e-05 -8.254395e-01 -4.188232e-01
2.408531e+08 8.483276e-01 5.051270e-01 5.115988e-06 2.728309e-06 -1.118518e-05 9.927899e-06 -8.127441e-01 -4.306641e-01
2.410718e+08 8.491211e-01 5.051270e-01 -3.874302e-06 2.623536e-05 3.725290e-06 -2.736039e-05 -8.037109e-01 -4.434204e-01
2.412906e+08 8.486938e-01 5.057373e-01 8.299015e-06 1.857243e-05 1.020357e-05 -2.189353e-05 -7.968750e-01 -4.553223e-01
2.415093e+08 8.475342e-01 5.053101e-01 -1.120381e-05 1.111068e-06 -2.499670e-06 4.227087e-05 -7.922363e-01 -4.688110e-01
2.417280e+08 8.470459e-01 5.057373e-01 1.508556e-05 -4.353002e-05 -2.477318e-07 -2.985122e-06 -7.869873e-01 -4.784546e-01
2.419468e+08 8.472290e-01 5.051270e-01 4.172325e-06 -2.304278e-05 -3.481284e-06 3.036112e-05 -7.824707e-01 -4.869995e-01
2.421655e+08 8.462524e-01 5.051880e-01 -1.727976e-05 -1.121499e-05 4.975870e-05 1.988560e-05 -7.771606e-01 -4.926758e-01
2.423842e+08 8.455811e-01 5.054321e-01 1.440197e-05 -1.416542e-06 1.745299e-06 2.090260e-05 -7.695312e-01 -5.009155e-01
2.426030e+08 8.453369e-01 5.056152e-01 -1.212768e-05 -2.468005e-05 -3.037229e-05 -3.485009e-06 -7.620850e-01 -5.074463e-01
2.428217e+08 8.441772e-01 5.062256e-01 -1.600385e-05 1.580454e-06 1.841690e-05 4.496425e-06 -7.539673e-01 -5.178833e-01
2.430404e+08 8.430176e-01 5.062256e-01 -1.600850e-05 1.579523e-06 2.290122e-05 -1.391582e-05 -7.459106e-01 -5.289307e-01
2.432592e+08 8.425293e-01 5.062256e-01 9.834766e-07 -2.272800e-05 1.014769e-05 5.028024e-05 -7.396240e-01 -5.418701e-01
2.434779e+08 8.427124e-01 5.068970e-01 -1.889374e-05 -1.107901e-05 1.466461e-05 3.189594e-05 -7.360229e-01 -5.544434e-01
2.436966e+08 8.422852e-01 5.065308e-01 -7.693190e-06 4.002824e-06 3.040209e-05 3.494322e-06 -7.362061e-01 -5.675049e-01
2.439153e+08 8.406982e-01 5.062256e-01 2.367236e-05 2.677366e-05 -2.962723e-05 5.461276e-06 -7.366943e-01 -5.765381e-01
2.441341e+08 8.406372e-01 5.075684e-01 -4.261173e-05 -2.169423e-05 2.417527e-05 1.020730e-06 -7.386475e-01 -5.853882e-01
2.443528e+08 8.395996e-01 5.072021e-01 1.213886e-05 4.086457e-05 -1.695007e-05 1.344457e-05 -7.410889e-01 -5.894775e-01
2.445715e+08 8.391724e-01 5.069580e-01 2.211705e-05 1.078472e-05 4.709512e-05 -1.292676e-05 -7.429199e-01 -5.891113e-01
2.447903e+08 8.382568e-01 5.079956e-01 4.792586e-06 1.572166e-05 2.212450e-05 4.937127e-05 -7.416992e-01 -5.902100e-01
2.450090e+08 8.369751e-01 5.074463e-01 -2.342090e-05 8.799136e-06 2.063252e-05 3.138371e-05 -7.379761e-01 -5.899658e-01
2.452277e+08 8.381958e-01 5.078735e-01 2.823398e-05 -9.270385e-06 -4.788861e-05 3.997236e-06 -7.334595e-01 -5.890503e-01
2.454465e+08 8.367310e-01 5.089111e-01 2.179667e-05 7.577240e-06 -1.320615e-05 -1.398288e-05 -7.235107e-01 -5.894165e-01
2.456652e+08 8.361206e-01 5.084839e-01 -1.639128e-05 1.456682e-05 -2.221391e-05 2.292357e-05 -7.156372e-01 -5.916748e-01
2.458839e+08 8.354492e-01 5.084839e-01 -5.517155e-06 4.264712e-05 1.172349e-05 -3.987923e-06 -7.066040e-01 -5.957642e-01
2.461027e+08 8.340454e-01 5.084839e-01 -1.955777e-06 1.315773e-05 4.004687e-06 -2.442300e-05 -6.981506e-01 -5.984497e-01
2.463214e+08 8.342896e-01 5.087891e-01 -9.289011e-06 -1.205131e-05 -2.295338e-05 1.396984e-05 -6.901550e-01 -6.032410e-01
2.465401e+08 8.336182e-01 5.091553e-01 1.217797e-05 8.524396e-06 9.246171e-06 -3.393739e-05 -6.822205e-01 -6.067200e-01
2.467588e+08 8.323364e-01 5.097046e-01 2.764724e-05 -1.565926e-05 -6.735325e-05 -1.258776e-05 -6.735535e-01 -6.116638e-01
2.469776e+08 8.322754e-01 5.097046e-01 -6.072223e-06 -1.236890e-05 2.619438e-05 2.498366e-05 -6.638794e-01 -6.161194e-01
2.471963e+08 8.309937e-01 5.104980e-01 -3.850088e-06 -6.098766e-06 4.520640e-06 -1.846254e-05 -6.532593e-01 -6.207886e-01
2.474150e+08 8.303223e-01 5.098267e-01 -1.444388e-05 1.419336e-06 -1.969561e-05 -1.949072e-05 -6.414185e-01 -6.284790e-01
2.476338e+08 8.299561e-01 5.104980e-01 -1.258589e-05 2.067536e-05 -9.834766e-07 -1.198892e-05 -6.301575e-01 -6.376648e-01
2.478525e+08 8.286133e-01 5.108032e-01 -1.358241e-05 5.970150e-05 -6.235670e-06 -2.505723e-06 -6.187744e-01 -6.503601e-01
2.480712e+08 8.279419e-01 5.120239e-01 -6.519258e-06 3.306009e-05 -6.238930e-06 -2.512708e-06 -6.091614e-01 -6.633911e-01
2.482900e+08 8.262939e-01 5.111694e-01 -1.787394e-05 -6.635487e-05 -2.541766e-05 -1.601316e-05 -6.033936e-01 -6.786194e-01
2.485087e+08 8.268433e-01 5.119629e-01 1.636334e-06 -1.636613e-05 4.345551e-05 1.455843e-05 -6.011963e-01 -6.951904e-01
2.487274e+08 8.256836e-01 5.112915e-01 -2.254359e-05 3.464147e-05 1.345854e-05 1.699198e-05 -6.014404e-01 -7.090454e-01
2.489462e+08 8.242798e-01 5.119629e-01 4.045293e-05 -7.189810e-07 -1.370348e-05 -1.999177e-05 -6.035156e-01 -7.197266e-01
2.491649e+08 8.236084e-01 5.123291e-01 -4.117750e-05 1.050718e-05 -3.449991e-05 2.091751e-05 -6.073608e-01 -7.283936e-01
2.493836e+08 8.227539e-01 5.118408e-01 1.996011e-05 -2.790429e-05 3.762543e-06 -2.745911e-05 -6.098633e-01 -7.332764e-01
2.496024e+08 8.220215e-01 5.125122e-01 7.373281e-06 9.019393e-06 2.201647e-05 -2.594106e-05 -6.107788e-01 -7.355957e-01
2.498211e+08 8.218994e-01 5.120239e-01 -4.499406e-05 4.399568e-06 1.074560e-05 -1.598243e-05 -6.098633e-01 -7.361450e-01
2.500398e+08 8.206787e-01 5.132446e-01 9.788200e-07 -6.587245e-06 -1.651328e-05 1.946185e-05 -6.042480e-01 -7.388306e-01
2.502586e+08 8.205566e-01 5.129395e-01 3.494322e-06 1.912564e-05 3.797375e-05 2.101995e-05 -5.973511e-01 -7.406616e-01
2.504773e+08 8.193970e-01 5.140991e-01 3.749691e-05 3.530271e-05 1.970679e-06 2.399646e-05 -5.877075e-01 -7.440186e-01
2.506960e+08 8.179932e-01 5.142822e-01 7.725321e-06 -4.006550e-06 -6.485265e-06 -5.508773e-06 -5.784912e-01 -7.514038e-01
2.509147e+08 8.173218e-01 5.152588e-01 8.658972e-06 5.650800e-06 3.574602e-05 -5.919486e-06 -5.679321e-01 -7.607422e-01
2.511335e+08 8.175659e-01 5.160522e-01 1.579337e-05 -2.102833e-05 6.249640e-06 2.516899e-06 -5.605469e-01 -7.716675e-01
2.513522e+08 8.155518e-01 5.159912e-01 -4.153233e-06 -9.343494e-06 -1.726486e-05 1.045689e-05 -5.529175e-01 -7.838745e-01
2.515709e+08 8.153076e-01 5.159912e-01 -1.291931e-05 1.749489e-05 -4.250184e-05 -2.574176e-06 -5.466309e-01 -7.965088e-01
2.517897e+08 8.150635e-01 5.176392e-01 4.922971e-06 -3.297441e-05 5.621463e-05 -5.292147e-05 -5.422974e-01 -8.088379e-01
2.520084e+08 8.139648e-01 5.170288e-01 -4.239380e-06 2.312846e-05 5.207583e-05 -2.843142e-05 -5.390015e-01 -8.217773e-01
2.522271e+08 8.126221e-01 5.178223e-01 -1.256354e-06 -1.287274e-05 3.123470e-05 1.257099e-05 -5.372925e-01 -8.347168e-01
2.524459e+08 8.114624e-01 5.177002e-01 -1.671258e-05 -4.869886e-06 1.970865e-05 1.954287e-05 -5.355835e-01 -8.475952e-01
2.526646e+08 8.112793e-01 5.181885e-01 -1.920853e-06 -3.061490e-06 7.107481e-05 -1.788139e-05 -5.361938e-01 -8.613892e-01
2.528833e+08 8.099976e-01 5.184326e-01 -1.162570e-05 1.411699e-05 3.908202e-05 -3.942475e-05 -5.383301e-01 -8.737183e-01
2.531021e+08 8.099365e-01 5.190430e-01 -3.062747e-05 1.921691e-05 -3.775768e-05 -1.807883e-05 -5.422363e-01 -8.839722e-01
2.533208e+08 8.091431e-01 5.197754e-01 -6.433576e-06 6.277114e-07 -3.224425e-05 -2.459064e-05 -5.480347e-01 -8.927002e-01
2.535395e+08 8.078613e-01 5.200806e-01 1.569465e-05 2.772361e-05 -3.946573e-05 -3.911555e-05 -5.543823e-01 -8.970947e-01
2.537582e+08 8.074341e-01 5.200806e-01 2.312846e-05 2.047420e-05 1.152419e-05 -6.990507e-06 -5.591431e-01 -8.986816e-01
2.539770e+08 8.052368e-01 5.200806e-01 3.114901e-05 1.971051e-05 2.693385e-05 3.403798e-05 -5.634155e-01 -8.955688e-01
2.541957e+08 8.044434e-01 5.209961e-01 7.171184e-06 -2.669916e-05 4.129857e-05 -1.243129e-05 -5.640869e-01 -8.931274e-01
2.544144e+08 8.038330e-01 5.217285e-01 -4.343688e-06 5.566329e-05 1.494214e-05 3.506429e-05 -5.588379e-01 -8.878174e-01
2.546332e+08 8.029785e-01 5.223389e-01 -2.799742e-05 1.245365e-05 -2.667308e-06 -3.305078e-05 -5.492554e-01 -8.816528e-01
2.548519e+08 8.026733e-01 5.224609e-01 -4.150905e-06 -9.341165e-06 -2.447050e-07 -3.005378e-06 -5.385132e-01 -8.783569e-01
2.550706e+08 8.015137e-01 5.236206e-01 4.829839e-06 -4.665926e-07 3.654882e-05 3.106892e-06 -5.247192e-01 -8.808594e-01
2.552894e+08 8.004150e-01 5.234985e-01 -5.163252e-05 3.749505e-05 -9.417534e-06 -4.157797e-05 -5.101318e-01 -8.859863e-01
2.555081e+08 8.001709e-01 5.241089e-01 -1.836568e-05 1.153816e-05 -3.851950e-05 -2.714247e-05 -4.973755e-01 -8.932495e-01
2.557268e+08 7.989502e-01 5.241089e-01 1.029018e-05 5.495269e-06 -1.152977e-05 6.982125e-06 -4.859619e-01 -9.030762e-01
2.559456e+08 7.982178e-01 5.249023e-01 -3.656000e-05 -4.195422e-05 -1.128763e-05 9.991229e-06 -4.798584e-01 -9.144287e-01
2.561643e+08 7.972412e-01 5.254517e-01 -5.394220e-06 -3.848970e-05 5.863979e-05 -2.289936e-05 -4.729004e-01 -9.243164e-01
2.563830e+08 7.955933e-01 5.262451e-01 -8.370262e-06 -2.441462e-06 7.690862e-06 2.054498e-05 -4.705811e-01 -9.320068e-01
2.566018e+08 7.955933e-01 5.272827e-01 8.726958e-06 -1.059845e-05 3.200211e-05 2.162158e-05 -4.696045e-01 -9.360962e-01
2.568205e+08 7.942505e-01 5.274048e-01 2.799556e-05 3.784895e-06 -4.306436e-06 2.151728e-05 -4.683838e-01 -9.388428e-01
2.570392e+08 7.934570e-01 5.278931e-01 -2.299063e-05 3.149733e-05 -1.177471e-05 3.977679e-06 -4.643555e-01 -9.388428e-01
2.572580e+08 7.934570e-01 5.289917e-01 1.034001e-05 -1.075258e-05 4.332140e-05 1.164526e-05 -4.605713e-01 -9.373779e-01
2.574767e+08 7.924194e-01 5.288086e-01 -5.945563e-06 -4.495680e-05 9.741634e-07 1.202337e-05 -4.537354e-01 -9.359131e-01
2.576954e+08 7.911987e-01 5.301514e-01 -5.625188e-07 -2.271496e-05 -7.228926e-06 -1.454912e-05 -4.463501e-01 -9.325562e-01
2.579141e+08 7.910767e-01 5.303345e-01 -1.956429e-05 -1.762062e-05 8.214265e-06 2.657995e-05 -4.357910e-01 -9.296875e-01
2.581329e+08 7.899170e-01 5.309448e-01 2.998114e-05 -9.372830e-06 -3.203191e-05 -2.161600e-05 -4.268188e-01 -9.284058e-01
2.583516e+08 7.883911e-01 5.315552e-01 -3.868528e-05 3.704801e-06 -4.158914e-05 9.402633e-06 -4.151611e-01 -9.265137e-01
2.585703e+08 7.874756e-01 5.324707e-01 -5.139969e-06 -2.754852e-06 -1.274981e-05 -8.055009e-06 -4.045410e-01 -9.236450e-01
2.587891e+08 7.868652e-01 5.322876e-01 -1.374632e-05 -2.468191e-05 -5.036592e-06 1.250673e-05 -3.914795e-01 -9.196777e-01
2.590078e+08 7.860718e-01 5.341797e-01 6.861985e-06 -2.992153e-05 -3.850088e-06 2.755411e-05 -3.774414e-01 -9.145508e-01
2.592265e+08 7.853394e-01 5.343628e-01 1.122151e-05 1.518242e-05 3.488734e-05 -1.794286e-05 -3.633423e-01 -9.104004e-01
2.594453e+08 7.836914e-01 5.358276e-01 4.660338e-06 4.835054e-05 -3.056601e-05 -3.622845e-06 -3.455200e-01 -9.075317e-01
2.596640e+08 7.828369e-01 5.360107e-01 4.857779e-05 -5.349517e-05 -2.117641e-05 -3.766455e-05 -3.272095e-01 -9.049072e-01
2.598827e+08 7.828369e-01 5.361938e-01 2.374314e-05 2.697483e-05 1.033582e-05 -2.203882e-05 -3.082886e-01 -9.059448e-01
2.601015e+08 7.811279e-01 5.367432e-01 2.176687e-05 4.020520e-05 5.530659e-06 -6.498769e-06 -2.893066e-01 -9.067993e-01
2.603202e+08 7.806396e-01 5.379639e-01 2.543908e-06 9.511132e-06 1.998059e-05 2.262369e-05 -2.704468e-01 -9.111938e-01
2.605389e+08 7.802124e-01 5.381470e-01 2.227910e-05 -2.167001e-05 -2.261437e-05 1.999363e-05 -2.538452e-01 -9.171753e-01
2.607576e+08 7.796021e-01 5.388794e-01 -4.277006e-05 -2.187490e-05 -3.829412e-05 -2.418272e-05 -2.418213e-01 -9.235229e-01
2.609764e+08 7.786255e-01 5.393677e-01 3.293157e-06 6.801635e-05 -2.310239e-05 1.398288e-05 -2.298584e-01 -9.279785e-01
2.611951e+08 7.774048e-01 5.402832e-01 1.035584e-05 -1.075026e-05 -8.162111e-06 4.908442e-05 -2.185669e-01 -9.285278e-01
2.614138e+08 7.769165e-01 5.407104e-01 1.277216e-05 3.131852e-05 -2.716668e-05 3.852509e-05 -2.092285e-01 -9.281006e-01
2.616326e+08 7.760010e-01 5.415649e-01 1.835264e-05 4.746951e-06 -5.073845e-06 -6.315857e-05 -1.998901e-01 -9.272461e-01
2.618513e+08 7.749634e-01 5.425415e-01 -3.070384e-05 1.923554e-05 2.888963e-06 3.608875e-05 -1.865845e-01 -9.227905e-01
2.620700e+08 7.749023e-01 5.435181e-01 -2.741441e-05 2.633780e-06 -1.228601e-05 -2.039596e-06 -1.718750e-01 -9.166870e-01
2.622888e+08 7.733154e-01 5.449829e-01 -1.254026e-05 -1.181662e-05 7.698312e-06 2.058409e-05 -1.563110e-01 -9.146729e-01
2.625075e+08 7.725220e-01 5.456543e-01 1.128949e-05 -1.084059e-06 -2.116710e-05 -3.769249e-05 -1.383667e-01 -9.121094e-01
2.627262e+08 7.722778e-01 5.460815e-01 -5.302206e-05 4.088879e-05 1.441687e-06 1.805555e-05 -1.196899e-01 -9.127197e-01
2.629450e+08 7.712402e-01 5.469971e-01 1.842529e-05 5.682185e-05 3.970414e-05 4.226714e-05 -1.018066e-01 -9.133911e-01
2.631637e+08 7.707520e-01 5.476074e-01 -3.117882e-05 -1.980551e-05 7.199124e-07 9.032898e-06 -8.544922e-02 -9.186401e-01
2.633824e+08 7.697754e-01 5.485840e-01 2.188608e-05 7.687137e-06 8.178875e-06 2.661347e-05 -6.945801e-02 -9.216919e-01
2.636012e+08 7.684937e-01 5.494385e-01 2.988055e-05 2.318807e-05 -2.842955e-05 2.344698e-05 -5.718994e-02 -9.240112e-01
2.638199e+08 7.673340e-01 5.499268e-01 8.607283e-06 2.195127e-05 1.060218e-05 -1.900736e-05 -4.541016e-02 -9.287720e-01
2.640386e+08 7.670288e-01 5.509033e-01 -1.173280e-05 -3.794953e-05 1.907349e-06 2.407655e-05 -3.302002e-02 -9.307861e-01
2.642574e+08 7.662354e-01 5.516968e-01 -1.882389e-05 2.457388e-05 2.693944e-05 3.420562e-05 -2.276611e-02 -9.313354e-01
2.644761e+08 7.656250e-01 5.524902e-01 -1.898035e-05 5.716830e-05 2.169050e-05 -3.202073e-05 -1.257324e-02 -9.313354e-01
2.646948e+08 7.647705e-01 5.531006e-01 -2.197735e-05 8.607283e-06 1.925230e-05 1.361407e-05 -2.929688e-03 -9.323730e-01
2.649135e+08 7.628174e-01 5.541382e-01 1.400150e-05 -2.411194e-05 4.599616e-05 -3.089011e-05 8.056641e-03 -9.318848e-01
2.651323e+08 7.633057e-01 5.545654e-01 5.226582e-06 -1.352746e-05 -1.927000e-05 -1.361128e-05 1.745605e-02 -9.328613e-01
2.653510e+08 7.626343e-01 5.556030e-01 1.421757e-05 -4.601665e-06 -2.361462e-05 7.947907e-06 2.685547e-02 -9.344482e-01
2.655697e+08 7.611694e-01 5.561523e-01 6.003305e-06 -3.963150e-05 -1.949631e-05 -1.661759e-05 3.356934e-02 -9.359741e-01
2.657885e+08 7.607422e-01 5.568848e-01 -7.594004e-06 -2.858415e-05 -2.553314e-05 -1.614168e-05 4.272461e-02 -9.332275e-01
2.660072e+08 7.600098e-01 5.580444e-01 -5.763024e-06 -9.222887e-06 -4.383922e-05 -1.771376e-05 4.870605e-02 -9.310303e-01
2.662259e+08 7.592163e-01 5.590820e-01 -3.927853e-06 1.014536e-05 6.142259e-05 1.027435e-05 5.322266e-02 -9.243774e-01
2.664447e+08 7.587891e-01 5.597534e-01 9.262003e-07 9.681098e-06 1.949538e-05 1.664087e-05 6.341553e-02 -9.174194e-01
2.666634e+08 7.578735e-01 5.610962e-01 -3.112666e-05 3.225915e-05 -6.501563e-06 -5.547889e-06 7.452393e-02 -9.107056e-01
2.668821e+08 7.565918e-01 5.613403e-01 2.145581e-05 -3.134087e-05 -6.162748e-05 -1.329556e-05 8.764648e-02 -9.028320e-01
2.671009e+08 7.559204e-01 5.622559e-01 1.305481e-06 -3.382564e-06 -9.585172e-06 -4.467368e-05 1.044922e-01 -9.000244e-01
2.673196e+08 7.558594e-01 5.638428e-01 8.990057e-06 8.919276e-06 1.760945e-05 -7.450581e-06 1.210938e-01 -8.973999e-01
2.675383e+08 7.550659e-01 5.643921e-01 2.704561e-06 -2.306141e-05 2.433732e-05 1.104549e-06 1.390381e-01 -8.973999e-01
2.677570e+08 7.539673e-01 5.653076e-01 5.666167e-06 2.552196e-05 3.827550e-05 2.425350e-05 1.559448e-01 -9.034424e-01
2.679758e+08 7.536011e-01 5.661011e-01 1.815241e-05 -1.475681e-05 -4.786998e-07 -6.022863e-06 1.696777e-01 -9.114990e-01
2.681945e+08 7.521362e-01 5.673218e-01 -1.975149e-05 1.490116e-05 4.864857e-05 2.235174e-06 1.790771e-01 -9.216309e-01
2.684132e+08 7.520752e-01 5.689697e-01 1.352467e-05 5.235896e-06 1.619197e-05 -2.552569e-05 1.836548e-01 -9.291382e-01
2.686320e+08 7.517090e-01 5.693359e-01 -2.406538e-06 2.631359e-05 2.172031e-05 -3.203750e-05 1.865845e-01 -9.369507e-01
2.688507e+08 7.504883e-01 5.698853e-01 -4.548579e-05 1.043081e-06 1.711957e-05 -1.347251e-05 1.884766e-01 -9.410400e-01
2.690694e+08 7.504883e-01 5.711060e-01 -4.054978e-06 -2.567098e-05 3.402680e-05 -2.996437e-05 1.882324e-01 -9.419556e-01
2.692882e+08 7.496948e-01 5.725098e-01 2.512336e-05 7.404014e-06 -5.497038e-05 -4.783273e-06 1.886597e-01 -9.409790e-01
2.695069e+08 7.501221e-01 5.731812e-01 -2.109818e-05 1.829769e-05 2.847984e-05 -2.351590e-05 1.916504e-01 -9.383545e-01
2.697256e+08 7.485352e-01 5.743408e-01 -8.668751e-06 4.644319e-05 -4.457682e-05 -2.681836e-05 1.964722e-01 -9.354858e-01
2.699444e+08 7.481079e-01 5.748291e-01 2.415851e-06 -2.630055e-05 -3.204681e-05 -2.173334e-05 2.022095e-01 -9.333496e-01
2.701631e+08 7.467651e-01 5.756226e-01 -7.074326e-06 -5.851034e-06 4.099309e-05 -1.839548e-05 2.099609e-01 -9.309692e-01
2.703818e+08 7.467041e-01 5.769043e-01 -1.524482e-05 1.120009e-05 3.477000e-05 -2.093986e-05 2.156372e-01 -9.320679e-01
2.706006e+08 7.456055e-01 5.777588e-01 3.260374e-05 5.232543e-05 5.425885e-05 -4.239380e-06 2.238159e-01 -9.343872e-01
2.708193e+08 7.453003e-01 5.789795e-01 2.209097e-05 -2.491102e-05 2.553314e-05 1.621246e-05 2.292480e-01 -9.346924e-01
2.710380e+08 7.439575e-01 5.797119e-01 -9.091105e-06 7.373746e-06 -3.592856e-05 5.839393e-06 2.343140e-01 -9.371338e-01
2.712568e+08 7.436523e-01 5.806885e-01 6.866641e-06 -1.369603e-05 -6.735325e-06 -8.577481e-06 2.396240e-01 -9.379272e-01
2.714755e+08 7.431030e-01 5.818481e-01 2.321787e-06 -9.996817e-06 2.810732e-06 3.618561e-05 2.431030e-01 -9.375610e-01
2.716942e+08 7.427368e-01 5.827637e-01 -3.006496e-05 9.350479e-06 4.011020e-05 -3.043935e-05 2.491455e-01 -9.370117e-01
2.719129e+08 7.420654e-01 5.831299e-01 -1.241080e-05 2.398156e-05 5.555805e-06 -6.502494e-06 2.579956e-01 -9.377441e-01
2.721317e+08 7.408447e-01 5.842285e-01 -2.877600e-05 5.953014e-06 4.100800e-05 -1.837313e-05 2.677002e-01 -9.385376e-01
2.723504e+08 7.408447e-01 5.859375e-01 -8.389354e-06 4.966184e-05 1.927465e-05 1.366902e-05 2.751465e-01 -9.436035e-01
2.725691e+08 7.402954e-01 5.864258e-01 -3.100187e-05 -3.539026e-07 -2.594665e-06 -3.316812e-05 2.826538e-01 -9.490356e-01
2.727879e+08 7.393799e-01 5.873413e-01 1.787301e-05 -1.798850e-05 4.727393e-05 -1.582503e-05 2.877808e-01 -9.580688e-01
2.730066e+08 7.389526e-01 5.885010e-01 6.555580e-06 -1.691561e-05 -4.659593e-05 2.487376e-05 2.882690e-01 -9.644775e-01
2.732253e+08 7.381592e-01 5.894775e-01 3.110059e-05 -1.598708e-05 -2.599880e-05 -2.225116e-05 2.893677e-01 -9.718628e-01
2.734441e+08 7.382812e-01 5.900879e-01 2.804585e-05 3.870577e-06 3.181770e-05 1.874007e-05 2.869873e-01 -9.757080e-01
2.736628e+08 7.375488e-01 5.917969e-01 1.918757e-06 3.078254e-06 2.436526e-05 1.134351e-06 2.817993e-01 -9.739380e-01
2.738815e+08 7.375488e-01 5.927124e-01 1.403503e-06 -1.970213e-05 4.968792e-05 1.431629e-05 2.823486e-01 -9.708252e-01
2.741003e+08 7.365723e-01 5.942383e-01 1.121312e-05 -3.694184e-05 3.667735e-05 3.227964e-06 2.839966e-01 -9.626465e-01
2.743190e+08 7.366333e-01 5.948486e-01 3.100373e-05 3.296882e-07 -3.017858e-05 2.356246e-06 2.898560e-01 -9.565430e-01
2.745377e+08 7.357788e-01 5.958862e-01 -1.212582e-05 -2.495758e-05 1.786742e-05 -4.423782e-06 2.997437e-01 -9.495850e-01
2.747564e+08 7.348022e-01 5.964966e-01 2.102088e-05 -1.967885e-06 -1.002103e-05 -5.079433e-05 3.140259e-01 -9.471436e-01
2.749752e+08 7.343750e-01 5.977173e-01 -1.399592e-05 5.999207e-05 3.713369e-05 9.246171e-06 3.302002e-01 -9.478149e-01
2.751939e+08 7.340698e-01 5.993652e-01 4.341826e-06 2.894551e-05 3.157556e-05 1.576729e-05 3.431396e-01 -9.505005e-01
2.754126e+08 7.333374e-01 6.001587e-01 -3.311969e-05 -2.299994e-05 5.568843e-06 -6.502029e-06 3.586426e-01 -9.605103e-01
2.756314e+08 7.330933e-01 6.017456e-01 2.243556e-05 -2.166629e-05 -1.788326e-05 4.417263e-06 3.652954e-01 -9.714355e-01
2.758501e+08 7.322388e-01 6.016235e-01 2.982467e-05 -1.257472e-05 2.876297e-05 -2.043508e-05 3.715210e-01 -9.834595e-01
2.760688e+08 7.318726e-01 6.031494e-01 3.839657e-05 9.480864e-06 -1.903903e-05 -1.066830e-05 3.729248e-01 -9.958496e-01
2.762876e+08 7.322998e-01 6.041260e-01 -5.178154e-07 2.940930e-05 2.274290e-05 -2.000295e-05 3.693237e-01 -1.001404e+00
2.765063e+08 7.304077e-01 6.053467e-01 7.073395e-07 -9.851065e-06 -7.895753e-06 -2.366863e-05 3.627319e-01 -1.007019e+00
2.767250e+08 7.304688e-01 6.059570e-01 1.811422e-06 1.940783e-05 5.333684e-06 -9.519514e-06 3.584595e-01 -1.008850e+00
2.769438e+08 7.308350e-01 6.068726e-01 8.083880e-06 -7.590279e-07 -3.058463e-06 -3.925525e-05 3.537598e-01 -1.004211e+00
2.771625e+08 7.309570e-01 6.083984e-01 -6.956980e-06 -2.217479e-05 -1.208577e-05 9.424984e-07 3.513184e-01 -1.000610e+00
2.773812e+08 7.300415e-01 6.088867e-01 3.757700e-05 3.562868e-05 1.301523e-05 1.113396e-05 3.495483e-01 -9.920044e-01
2.776000e+08 7.294312e-01 6.099243e-01 -3.970973e-05 -6.088987e-06 2.023391e-05 2.575479e-05 3.492432e-01 -9.843750e-01
2.778187e+08 7.289429e-01 6.107788e-01 -9.122305e-07 -9.698793e-06 1.183525e-05 -3.959984e-06 3.509521e-01 -9.764404e-01
2.780374e+08 7.290039e-01 6.127319e-01 -6.578863e-06 -3.527291e-05 -3.160164e-05 -1.580827e-05 3.512573e-01 -9.686279e-01
2.782562e+08 7.286377e-01 6.128540e-01 1.718104e-05 -8.131377e-06 -1.788419e-05 4.427508e-06 3.562622e-01 -9.554443e-01
2.784749e+08 7.277832e-01 6.144409e-01 2.059620e-05 1.114327e-05 4.181638e-06 -2.462789e-05 3.594971e-01 -9.414673e-01
2.786936e+08 7.274780e-01 6.151733e-01 8.262694e-06 1.878664e-05 4.418194e-06 5.736202e-05 3.657837e-01 -9.285889e-01
2.789123e+08 7.272949e-01 6.161499e-01 -4.655682e-06 2.000015e-05 9.275973e-06 -3.717467e-05 3.728027e-01 -9.147339e-01
2.791311e+08 7.270508e-01 6.171875e-01 2.072752e-05 -5.194917e-06 -7.912517e-06 -2.369098e-05 3.831787e-01 -8.993530e-01
2.793498e+08 7.263794e-01 6.186523e-01 7.273629e-06 2.540834e-05 1.858547e-05 4.642643e-06 3.963013e-01 -8.856812e-01
2.795685e+08 7.259521e-01 6.193237e-01 3.945269e-05 2.862886e-06 -3.970042e-05 3.647432e-05 4.099731e-01 -8.715210e-01
2.797873e+08 7.258301e-01 6.204834e-01 2.628658e-06 -6.772112e-06 -3.552996e-05 1.185574e-05 4.265747e-01 -8.626099e-01
2.800060e+08 7.261353e-01 6.215820e-01 1.162104e-05 2.182089e-06 -3.051013e-06 -3.927946e-05 4.432983e-01 -8.547974e-01
2.802247e+08 7.249756e-01 6.226807e-01 1.384132e-05 8.502975e-06 2.926588e-05 -1.441129e-05 4.566650e-01 -8.492432e-01
2.804435e+08 7.252197e-01 6.231079e-01 8.963980e-07 9.712297e-06 1.764856e-05 -7.444993e-06 4.701538e-01 -8.455811e-01
2.806622e+08 7.241211e-01 6.252441e-01 9.535812e-06 -2.047978e-05 2.021715e-05 2.580695e-05 4.792480e-01 -8.398438e-01
2.808809e+08 7.237549e-01 6.255493e-01 -1.336914e-05 1.429673e-05 -8.599833e-06 -3.275648e-05 4.862671e-01 -8.347168e-01
2.810997e+08 7.233887e-01 6.268921e-01 1.324806e-05 2.042390e-06 3.555603e-05 -1.184829e-05 4.919434e-01 -8.274536e-01
2.813184e+08 7.235107e-01 6.273193e-01 1.498591e-05 -1.444481e-05 2.786331e-05 -3.254786e-05 4.981689e-01 -8.162231e-01
2.815371e+08 7.231445e-01 6.284790e-01 1.367740e-05 -1.105852e-05 4.252419e-05 -2.346933e-07 5.059204e-01 -8.010864e-01
2.817558e+08 7.227173e-01 6.301270e-01 -2.859160e-05 -2.673455e-05 -5.741417e-05 -3.511459e-05 5.121460e-01 -7.866211e-01
2.819746e+08 7.230225e-01 6.308594e-01 1.204759e-05 -1.091138e-05 4.926696e-05 8.370727e-06 5.232544e-01 -7.722778e-01
2.821933e+08 7.221069e-01 6.315308e-01 -2.356805e-05 -7.625669e-06 -2.904423e-05 1.740456e-05 5.355225e-01 -7.554932e-01
2.824120e+08 7.219238e-01 6.325073e-01 4.854985e-06 -4.495960e-07 -3.274344e-05 -3.089942e-05 5.491943e-01 -7.421875e-01
2.826308e+08 7.219849e-01 6.326904e-01 -2.183393e-05 -2.411753e-05 -1.091044e-05 1.602340e-05 5.646973e-01 -7.293091e-01
2.828495e+08 7.221680e-01 6.345215e-01 -2.934830e-06 3.539491e-06 -8.130446e-06 -2.672896e-05 5.779419e-01 -7.174072e-01
2.830682e+08 7.221069e-01 6.355591e-01 1.174398e-05 -1.416449e-05 -7.908791e-06 -2.371147e-05 5.901794e-01 -7.074890e-01
2.832870e+08 7.214966e-01 6.363525e-01 -9.418465e-06 4.136004e-06 2.207607e-05 -2.904981e-05 6.019897e-01 -6.969299e-01
2.835057e+08 7.210083e-01 6.378174e-01 1.697242e-05 2.456829e-05 -2.279505e-05 1.996942e-05 6.135864e-01 -6.848755e-01
2.837244e+08 7.210083e-01 6.384888e-01 -2.001692e-05 -4.672445e-06 -1.023337e-05 2.509542e-05 6.242371e-01 -6.724854e-01
2.839432e+08 7.202148e-01 6.391602e-01 9.940937e-06 -3.358722e-05 -2.088584e-05 -3.485754e-05 6.368408e-01 -6.605530e-01
2.841619e+08 7.214966e-01 6.395874e-01 -8.508563e-06 1.384038e-05 3.625639e-05 -2.820045e-06 6.479187e-01 -6.479187e-01
2.843806e+08 7.208862e-01 6.409912e-01 1.469254e-05 -1.769420e-05 1.952890e-05 1.673307e-05 6.612549e-01 -6.374207e-01
2.845994e+08 7.208252e-01 6.426392e-01 -1.385435e-05 -8.512288e-06 1.232699e-05 2.093613e-06 6.755676e-01 -6.257629e-01
2.848181e+08 7.200928e-01 6.431885e-01 1.083873e-05 -2.386607e-05 -5.649030e-05 -2.302229e-05 6.885681e-01 -6.185303e-01
2.850368e+08 7.202759e-01 6.445312e-01 -3.355555e-06 1.664646e-05 -2.395548e-05 4.872680e-06 6.999207e-01 -6.102295e-01
2.852556e+08 7.200928e-01 6.459961e-01 3.106333e-05 4.116446e-07 6.510876e-06 5.584210e-06 7.108154e-01 -6.047974e-01
2.854743e+08 7.196655e-01 6.467896e-01 1.528766e-05 -1.121778e-05 4.186109e-05 -9.275973e-06 7.176514e-01 -5.983276e-01
2.856930e+08 7.196045e-01 6.473389e-01 1.782179e-05 -1.653098e-06 -1.744088e-05 1.046155e-05 7.227783e-01 -5.901489e-01
2.859117e+08 7.193604e-01 6.491699e-01 7.209368e-06 -1.046155e-05 -5.241111e-05 3.135577e-05 7.259521e-01 -5.809937e-01
2.861305e+08 7.199707e-01 6.494141e-01 -3.025122e-05 -2.662838e-05 1.373515e-05 2.025068e-05 7.300415e-01 -5.688477e-01
2.863492e+08 7.191162e-01 6.501465e-01 -1.382269e-05 2.742186e-05 -1.071300e-05 1.906510e-05 7.330933e-01 -5.555420e-01
2.865679e+08 7.190552e-01 6.510620e-01 8.471310e-06 3.844686e-05 -4.433095e-06 2.163462e-05 7.399902e-01 -5.392456e-01
2.867867e+08 7.188721e-01 6.524048e-01 -4.024431e-05 6.994233e-06 4.909188e-05 5.397946e-06 7.481079e-01 -5.217896e-01
2.870054e+08 7.188721e-01 6.530762e-01 4.696660e-06 -2.005324e-05 -3.280118e-05 -3.097393e-05 7.597656e-01 -5.056763e-01
2.872241e+08 7.185669e-01 6.544189e-01 -2.152380e-05 1.506042e-05 1.677498e-05 -1.953728e-05 7.744751e-01 -4.903564e-01
2.874429e+08 7.183228e-01 6.549683e-01 -7.130206e-06 8.238107e-05 -3.768317e-05 -1.538545e-05 7.910156e-01 -4.797363e-01
2.876616e+08 7.183228e-01 6.560059e-01 -3.129244e-05 -2.001412e-05 4.901551e-06 -1.559034e-05 8.076782e-01 -4.744263e-01
2.878803e+08 7.175903e-01 6.568604e-01 -2.067257e-05 -1.118518e-05 -5.591661e-06 6.507151e-06 8.226318e-01 -4.683838e-01
2.880991e+08 7.185059e-01 6.580200e-01 -3.821030e-05 -6.325543e-06 1.464225e-05 3.238395e-05 8.358765e-01 -4.691162e-01
2.883178e+08 7.185059e-01 6.586914e-01 3.809482e-05 2.267025e-05 -1.118705e-05 1.303386e-05 8.447876e-01 -4.706421e-01
2.885365e+08 7.188721e-01 6.593018e-01 3.022328e-05 -9.341165e-06 -4.892237e-06 1.559965e-05 8.507690e-01 -4.713745e-01
2.887552e+08 7.189331e-01 6.601562e-01 -1.921086e-06 -3.094319e-06 -1.747441e-05 1.047552e-05 8.542480e-01 -4.708862e-01
2.889740e+08 7.182617e-01 6.611938e-01 -2.518296e-05 6.450340e-05 -1.026504e-05 2.515130e-05 8.548584e-01 -4.680786e-01
2.891927e+08 7.180176e-01 6.623535e-01 -1.860969e-05 -2.448261e-05 6.056391e-06 -4.596077e-07 8.550415e-01 -4.653320e-01
2.894114e+08 7.179565e-01 6.618042e-01 -1.046853e-05 1.077447e-05 -3.630482e-05 2.793968e-06 8.563232e-01 -4.580078e-01
2.896302e+08 7.185059e-01 6.636353e-01 3.536418e-05 -4.252791e-05 3.426895e-05 -3.003888e-05 8.568726e-01 -4.523315e-01
2.898489e+08 7.184448e-01 6.647339e-01 -2.435595e-05 2.231449e-06 1.235120e-05 2.113171e-06 8.598022e-01 -4.451294e-01
2.900676e+08 7.184448e-01 6.655273e-01 2.673268e-05 2.373382e-05 -1.841225e-05 -1.646578e-06 8.637695e-01 -4.405518e-01
2.902864e+08 7.184448e-01 6.663208e-01 9.138137e-06 -7.397495e-06 5.831476e-06 -3.489666e-06 8.670044e-01 -4.355469e-01
2.905051e+08 7.180176e-01 6.671143e-01 2.008490e-05 4.073046e-05 -5.375128e-06 9.548385e-06 8.698730e-01 -4.333496e-01
2.907238e+08 7.186890e-01 6.676636e-01 2.033822e-05 -2.806820e-05 -3.169850e-05 -1.587532e-05 8.716431e-01 -4.289551e-01
2.909426e+08 7.182617e-01 6.687622e-01 -2.337433e-05 -4.043989e-05 3.054179e-05 7.338822e-07 8.738403e-01 -4.265137e-01
2.911613e+08 7.179565e-01 6.698608e-01 -6.656162e-06 -1.905113e-05 3.429502e-05 -3.006682e-05 8.736572e-01 -4.206543e-01
2.913800e+08 7.177124e-01 6.701660e-01 -1.406297e-07 1.639593e-05 6.981194e-06 1.165923e-05 8.756714e-01 -4.169922e-01
2.915988e+08 7.180176e-01 6.708374e-01 3.073364e-05 1.357310e-05 6.062444e-06 -4.624017e-07 8.778687e-01 -4.124146e-01
2.918175e+08 7.172241e-01 6.718140e-01 2.158806e-05 2.096221e-05 1.120381e-05 -1.303852e-05 8.817139e-01 -4.093628e-01
2.920362e+08 7.180176e-01 6.739502e-01 -5.340204e-06 -2.246350e-05 1.889374e-05 7.737428e-06 8.851318e-01 -4.060059e-01
2.922550e+08 7.178345e-01 6.732178e-01 2.508238e-05 -4.824251e-05 -3.295019e-06 3.684312e-05 8.888550e-01 -4.047852e-01
2.924737e+08 7.182007e-01 6.749268e-01 -3.696792e-05 -9.749085e-06 1.775008e-05 -7.444993e-06 8.939819e-01 -4.041748e-01
2.926924e+08 7.182007e-01 6.751709e-01 -2.525374e-05 2.855621e-05 5.375594e-06 -9.561889e-06 8.941650e-01 -4.049683e-01
2.929111e+08 7.184448e-01 6.765747e-01 -2.011657e-05 -4.729256e-06 2.406165e-05 -4.876405e-06 8.937988e-01 -4.056396e-01
2.931299e+08 7.178955e-01 6.766357e-01 2.073124e-06 2.278388e-05 1.121406e-05 -1.305621e-05 8.939209e-01 -4.052124e-01
2.933486e+08 7.177124e-01 6.778564e-01 2.617761e-05 1.730770e-05 2.083182e-05 -4.735589e-05 8.905029e-01 -4.031982e-01
2.935673e+08 7.182007e-01 6.787109e-01 -1.112744e-05 -3.179163e-05 -1.152046e-06 -1.518242e-05 8.886108e-01 -3.997192e-01
2.937861e+08 7.185669e-01 6.797485e-01 -2.911873e-05 2.236851e-05 7.211231e-06 1.473259e-05 8.875732e-01 -3.926392e-01
2.940048e+08 7.192993e-01 6.805420e-01 -3.403984e-05 -1.329929e-05 7.226132e-06 1.474004e-05 8.887939e-01 -3.865356e-01
2.942235e+08 7.181396e-01 6.808472e-01 -3.286637e-05 -3.637932e-05 -6.075017e-06 4.540198e-07 8.925781e-01 -3.802490e-01
2.944423e+08 7.188721e-01 6.812744e-01 1.819525e-05 1.613051e-06 4.697591e-06 -1.868885e-05 8.992310e-01 -3.732910e-01
2.946610e+08 7.177734e-01 6.817627e-01 4.000962e-06 -4.633516e-05 -1.191348e-05 3.943220e-06 9.066162e-01 -3.704834e-01
2.948797e+08 7.192383e-01 6.831055e-01 -1.508929e-05 1.450069e-05 -1.686625e-05 1.961458e-05 9.141846e-01 -3.681641e-01
2.950985e+08 7.183838e-01 6.831055e-01 -2.962537e-05 3.553927e-05 -2.005510e-05 -2.292916e-05 9.218140e-01 -3.711548e-01
2.953172e+08 7.186890e-01 6.846924e-01 -2.574548e-05 5.617738e-06 1.193210e-05 -3.953464e-06 9.247437e-01 -3.745728e-01
2.955359e+08 7.189331e-01 6.855469e-01 -1.540780e-05 1.126248e-05 2.455711e-05 1.225621e-06 9.283447e-01 -3.785400e-01
2.957546e+08 7.187500e-01 6.864624e-01 9.616837e-06 -2.057850e-05 -3.200583e-05 -1.901574e-05 9.284058e-01 -3.839111e-01
2.959734e+08 7.188721e-01 6.857910e-01 -5.647540e-06 -2.576970e-05 -2.064928e-05 5.045533e-05 9.254761e-01 -3.856201e-01
2.961921e+08 7.200317e-01 6.887817e-01 7.081777e-06 -6.785616e-06 1.071673e-05 -1.786649e-05 9.205933e-01 -3.861694e-01
2.964108e+08 7.210083e-01 6.893921e-01 -2.197549e-05 -1.021102e-05 -3.082491e-05 -3.904290e-05 9.166260e-01 -3.833618e-01
2.966296e+08 7.205811e-01 6.895752e-01 -2.943911e-05 1.030043e-05 1.508743e-05 -4.702061e-05 9.114380e-01 -3.789062e-01
2.968483e+08 7.200928e-01 6.907959e-01 -1.024408e-05 -7.178169e-06 -2.859905e-05 7.148832e-06 9.096680e-01 -3.729858e-01
2.970670e+08 7.202148e-01 6.909180e-01 -2.110749e-05 -1.584552e-05 5.357899e-06 -8.938834e-06 9.075928e-01 -3.675537e-01
2.972858e+08 7.203979e-01 6.912231e-01 2.261996e-05 -1.752935e-05 1.224130e-05 1.387391e-05 9.057617e-01 -3.618774e-01
2.975045e+08 7.203369e-01 6.918335e-01 2.841651e-05 2.065673e-06 -4.715845e-05 -1.797453e-05 9.042358e-01 -3.547974e-01
2.977232e+08 7.208862e-01 6.914673e-01 4.163012e-05 9.462237e-07 -7.763505e-06 -4.013255e-05 9.016113e-01 -3.472900e-01
2.979420e+08 7.197876e-01 6.926270e-01 -7.444993e-06 -8.512288e-06 2.871267e-05 -4.282221e-06 8.975220e-01 -3.388672e-01
2.981607e+08 7.200928e-01 6.941528e-01 1.667067e-06 1.809094e-05 6.740913e-06 1.993962e-05 8.932495e-01 -3.296509e-01
2.983794e+08 7.205200e-01 6.939697e-01 1.900177e-05 -1.068041e-05 -5.355570e-06 8.943025e-06 8.918457e-01 -3.189697e-01
2.985982e+08 7.200928e-01 6.948853e-01 -2.992712e-05 2.106652e-06 -6.145611e-05 4.637241e-05 8.899536e-01 -3.030396e-01
2.988169e+08 7.213135e-01 6.953125e-01 4.613027e-05 1.774356e-05 -1.846813e-05 -2.227537e-05 8.897095e-01 -2.866821e-01
2.990356e+08 7.207031e-01 6.964722e-01 1.884997e-05 2.545677e-05 -8.353963e-07 -1.734588e-05 8.940430e-01 -2.719727e-01
2.992544e+08 7.213135e-01 6.965942e-01 -3.538467e-05 -2.220273e-06 -2.817251e-07 -5.782116e-06 9.015503e-01 -2.571411e-01
2.994731e+08 7.202759e-01 6.972046e-01 2.579577e-05 -3.274158e-05 1.059100e-05 -2.078153e-05 9.091187e-01 -2.449951e-01
2.996918e+08 7.202759e-01 6.979980e-01 -1.174118e-05 -3.064051e-06 -1.238938e-05 -1.679175e-05 9.176636e-01 -2.346191e-01
2.999105e+08 7.210083e-01 6.984863e-01 -2.531894e-05 1.191162e-05 -1.832284e-05 -1.941063e-05 9.254761e-01 -2.287598e-01
3.001293e+08 7.212524e-01 6.984253e-01 1.721364e-05 7.355586e-06 4.107133e-06 -3.496930e-05 9.320068e-01 -2.274170e-01
3.003480e+08 7.213135e-01 6.997681e-01 2.597459e-05 1.869351e-05 -9.648502e-07 -2.024882e-05 9.334717e-01 -2.244263e-01
3.005667e+08 7.214355e-01 7.002563e-01 -1.125038e-05 5.297363e-06 2.286956e-05 -6.897375e-06 9.308472e-01 -2.230835e-01
3.007855e+08 7.213745e-01 7.012939e-01 3.688410e-05 -3.119744e-05 4.064292e-05 9.499490e-07 9.239502e-01 -2.192383e-01
3.010042e+08 7.211914e-01 7.007446e-01 3.276952e-05 -3.406778e-06 7.458031e-06 3.443100e-05 9.147949e-01 -2.111816e-01
3.012229e+08 7.221069e-01 7.014771e-01 5.859882e-05 -6.984919e-06 2.173893e-05 -3.007613e-05 9.030151e-01 -1.992798e-01
3.014417e+08 7.218018e-01 7.009888e-01 1.621246e-05 -9.358861e-06 5.642418e-06 -3.175344e-06 8.919067e-01 -1.823120e-01
3.016604e+08 7.213745e-01 7.022705e-01 5.944073e-05 -4.171953e-05 7.618219e-05 1.661479e-05 8.846436e-01 -1.624756e-01
3.018791e+08 7.213745e-01 7.026978e-01 -5.638227e-06 -2.656318e-05 -2.865493e-05 7.174909e-06 8.784180e-01 -1.412354e-01
3.020979e+08 7.214355e-01 7.034302e-01 -2.454780e-05 -2.285093e-05 4.575402e-05 -1.378730e-05 8.756714e-01 -1.186523e-01
3.023166e+08 7.221069e-01 7.044067e-01 8.545816e-05 -2.309680e-05 7.987767e-05 -2.995133e-05 8.740845e-01 -9.613037e-02
3.025353e+08 7.212524e-01 7.039185e-01 -1.162291e-06 1.945347e-05 -1.240894e-05 -1.680199e-05 8.757324e-01 -7.342529e-02
3.027540e+08 7.218018e-01 7.047119e-01 -2.948381e-05 1.044013e-05 -5.931128e-06 -2.616551e-06 8.767090e-01 -5.456543e-02
3.029728e+08 7.213135e-01 7.044067e-01 -2.006255e-05 -3.529713e-05 -3.290950e-10 3.624905e-10 8.785400e-01 -3.308105e-02
3.031915e+08 7.214966e-01 7.053223e-01 6.639166e-07 1.409324e-06 3.598630e-05 2.439134e-05 8.800659e-01 -1.336670e-02
3.034102e+08 7.222290e-01 7.052002e-01 3.646128e-06 -6.882008e-06 2.160296e-05 -3.299303e-05 8.834839e-01 4.516602e-03
3.036290e+08 7.213135e-01 7.065430e-01 4.808651e-06 2.896879e-06 -3.932416e-05 2.800301e-05 8.875732e-01 2.404785e-02
3.038477e+08 7.217407e-01 7.071533e-01 -7.616356e-06 -3.084727e-05 -1.378357e-06 -2.899021e-05 8.900146e-01 4.241943e-02
3.040664e+08 7.214355e-01 7.072754e-01 4.159287e-06 -2.777949e-05 2.772920e-05 -2.747588e-05 8.956909e-01 6.030273e-02
3.042852e+08 7.221069e-01 7.081299e-01 1.177657e-05 3.066845e-06 -6.934255e-05 9.104609e-06 8.992920e-01 7.727051e-02
3.045039e+08 7.214966e-01 7.074585e-01 -1.891889e-05 3.729947e-06 -4.678965e-05 -6.470829e-06 9.065552e-01 9.136963e-02
3.047226e+08 7.217407e-01 7.081909e-01 1.742318e-05 4.116446e-07 2.927333e-05 4.416332e-06 9.107056e-01 1.024170e-01
3.049414e+08 7.217407e-01 7.087402e-01 -1.161639e-05 1.925789e-05 -2.201647e-06 -4.639849e-05 9.135132e-01 1.137695e-01
3.051601e+08 7.211914e-01 7.094116e-01 -4.445389e-05 -6.642193e-06 1.228694e-05 1.395401e-05 9.150391e-01 1.218872e-01
3.053788e+08 7.210083e-01 7.101440e-01 -2.522394e-05 4.960224e-06 4.115701e-05 9.674579e-06 9.140015e-01 1.317749e-01
3.055976e+08 7.219849e-01 7.099609e-01 5.744025e-05 1.950562e-05 -2.928264e-05 -4.401430e-06 9.094238e-01 1.412964e-01
3.058163e+08 7.211914e-01 7.103882e-01 5.801208e-06 1.966394e-05 5.109236e-05 -2.571195e-05 9.031982e-01 1.522217e-01
3.060350e+08 7.218018e-01 7.111206e-01 -1.627021e-05 9.380281e-06 -1.342408e-05 -3.718026e-05 8.967285e-01 1.672363e-01
3.062538e+08 7.215576e-01 7.108765e-01 5.681068e-05 -1.119822e-05 -6.781891e-06 -2.002902e-05 8.900146e-01 1.835327e-01
3.064725e+08 7.218018e-01 7.116699e-01 -6.189942e-05 -7.074326e-06 1.133420e-05 -6.360002e-06 8.853149e-01 2.009277e-01
3.066912e+08 7.216797e-01 7.120361e-01 2.988987e-05 4.904345e-06 1.147483e-05 -3.458932e-06 8.842773e-01 2.208252e-01
3.069099e+08 7.216797e-01 7.124634e-01 3.485009e-06 -2.923049e-05 2.792105e-05 -2.463348e-05 8.851318e-01 2.402344e-01
3.071287e+08 7.222900e-01 7.125244e-01 -4.903972e-05 3.511086e-05 8.843094e-05 2.194941e-05 8.883667e-01 2.571411e-01
3.073474e+08 7.208252e-01 7.126465e-01 -6.044656e-05 -4.050136e-05 2.445839e-05 2.502836e-05 8.928833e-01 2.725830e-01
3.075661e+08 7.214355e-01 7.134399e-01 -5.010515e-06 -5.458668e-05 -6.221700e-06 -8.441508e-06 8.976440e-01 2.842407e-01
3.077849e+08 7.220459e-01 7.138672e-01 -1.079869e-05 -1.562480e-05 -1.383014e-07 -2.907123e-06 9.031982e-01 2.930298e-01
3.080036e+08 7.216797e-01 7.133789e-01 2.289936e-05 3.407151e-05 5.949289e-06 2.627727e-06 9.065552e-01 3.005371e-01
3.082223e+08 7.217407e-01 7.136841e-01 -2.494082e-06 1.670327e-05 6.229617e-06 8.437783e-06 9.065552e-01 3.048706e-01
3.084411e+08 7.206421e-01 7.142944e-01 -7.409975e-05 3.837049e-06 1.093466e-05 -1.507066e-05 9.060669e-01 3.099365e-01
3.086598e+08 7.208862e-01 7.143555e-01 4.123710e-05 -4.060566e-07 -1.380220e-06 -2.905354e-05 9.037476e-01 3.161621e-01
3.088785e+08 7.210083e-01 7.149658e-01 -1.755543e-07 6.981194e-06 7.186085e-06 2.879277e-05 8.990479e-01 3.231201e-01
3.090973e+08 7.207642e-01 7.145996e-01 2.660789e-05 -2.145767e-06 -1.217797e-05 -1.107063e-05 8.964233e-01 3.308105e-01
3.093160e+08 7.208862e-01 7.156982e-01 -2.230331e-05 2.603233e-05 -3.198534e-05 6.271899e-05 8.941650e-01 3.379517e-01
3.095347e+08 7.205811e-01 7.158203e-01 -8.646399e-06 -1.839641e-05 1.566298e-05 -3.862381e-05 8.913574e-01 3.475952e-01
3.097534e+08 7.202148e-01 7.162476e-01 -2.130494e-05 1.346506e-05 -4.044920e-05 7.729977e-06 8.900146e-01 3.540649e-01
3.099722e+08 7.207642e-01 7.166138e-01 -4.332513e-06 5.491544e-06 -1.718476e-05 6.649643e-06 8.884888e-01 3.616943e-01
3.101909e+08 7.198486e-01 7.169189e-01 -6.325077e-06 1.248904e-06 6.502494e-06 1.426693e-05 8.864746e-01 3.679199e-01
3.104096e+08 7.197266e-01 7.178955e-01 2.213009e-05 3.972650e-05 -1.705438e-05 9.547919e-06 8.851318e-01 3.746948e-01
3.106284e+08 7.200928e-01 7.178345e-01 -4.329532e-05 2.551079e-05 -2.761371e-07 -5.821697e-06 8.836060e-01 3.800049e-01
3.108471e+08 7.199707e-01 7.178955e-01 -3.495952e-06 -8.638017e-08 -6.640330e-06 -1.719408e-05 8.816528e-01 3.853760e-01
3.110658e+08 7.199097e-01 7.187500e-01 -1.447462e-05 -3.812648e-05 -4.551187e-05 2.545491e-05 8.824463e-01 3.923950e-01
3.112846e+08 7.200928e-01 7.191772e-01 2.022833e-06 -2.513267e-05 1.843087e-05 1.957919e-05 8.823242e-01 3.975220e-01
3.115033e+08 7.184448e-01 7.187500e-01 -3.179535e-06 1.531746e-05 -1.692493e-05 1.244899e-05 8.830566e-01 4.030762e-01
3.117220e+08 7.188721e-01 7.190552e-01 -2.847239e-05 -9.108335e-06 -1.069345e-05 2.091937e-05 8.874512e-01 4.068604e-01
3.119408e+08 7.188721e-01 7.188721e-01 4.196540e-06 -2.790056e-05 1.651049e-05 -2.119690e-05 8.898315e-01 4.069824e-01
3.121595e+08 7.193604e-01 7.188110e-01 -2.615154e-05 -1.885369e-05 -2.766028e-07 -5.824491e-06 8.930664e-01 4.044800e-01
3.123782e+08 7.193604e-01 7.196655e-01 2.565049e-05 1.044199e-05 4.065409e-05 -4.842877e-06 8.929443e-01 3.986206e-01
3.125970e+08 7.187500e-01 7.196655e-01 -1.426786e-05 -4.514679e-05 2.926029e-05 1.547858e-06 8.896484e-01 3.923340e-01
3.128157e+08 7.189331e-01 7.203369e-01 -1.081545e-05 -1.567882e-05 4.135445e-05 9.745359e-06 8.826904e-01 3.862915e-01
3.130344e+08 7.178955e-01 7.198486e-01 -1.564529e-05 -1.859665e-05 5.904958e-05 1.475587e-05 8.718262e-01 3.804932e-01
3.132532e+08 7.183838e-01 7.202759e-01 1.151022e-05 -1.233444e-05 4.963577e-05 6.191432e-05 8.587036e-01 3.798828e-01
3.134719e+08 7.182617e-01 7.197876e-01 -2.837507e-06 1.330627e-06 4.857779e-06 -2.067536e-05 8.447266e-01 3.818970e-01
3.136906e+08 7.181396e-01 7.214966e-01 2.880767e-05 2.453476e-05 4.082918e-05 -1.914799e-06 8.311768e-01 3.893433e-01
3.139093e+08 7.178955e-01 7.211304e-01 -4.833099e-06 -2.924586e-06 2.415106e-05 1.639128e-05 8.199463e-01 3.988037e-01
3.141281e+08 7.170410e-01 7.208862e-01 7.002149e-06 1.825392e-07 1.138169e-05 -6.377697e-06 8.126221e-01 4.118652e-01
3.143468e+08 7.171631e-01 7.209473e-01 -1.550745e-05 3.820285e-06 -6.952509e-05 1.204759e-05 8.067627e-01 4.246216e-01
3.145655e+08 7.173462e-01 7.224121e-01 7.857010e-05 2.718344e-05 2.117455e-05 7.797405e-05 8.069458e-01 4.367676e-01
3.147843e+08 7.164307e-01 7.227173e-01 -1.719501e-05 1.497753e-05 1.046434e-05 -2.678670e-05 8.093262e-01 4.467773e-01
3.150030e+08 7.167358e-01 7.219849e-01 2.252683e-05 -3.626570e-06 -2.820604e-05 2.177991e-05 8.134766e-01 4.557495e-01
3.152217e+08 7.161255e-01 7.227173e-01 2.704561e-06 -2.376363e-05 1.694914e-05 -1.248159e-05 8.176880e-01 4.606934e-01
3.154405e+08 7.156982e-01 7.228394e-01 4.880130e-06 -2.650544e-05 -9.495765e-06 4.719570e-05 8.217163e-01 4.631958e-01
3.156592e+08 7.143555e-01 7.233276e-01 -1.965091e-05 -2.712570e-05 2.359599e-05 4.760921e-06 8.250122e-01 4.638672e-01
3.158779e+08 7.145386e-01 7.235718e-01 2.525747e-06 -1.676381e-05 4.652888e-05 -5.081296e-06 8.241577e-01 4.631958e-01
3.160967e+08 7.139893e-01 7.240601e-01 1.605414e-05 -2.484582e-05 -2.029166e-05 -6.046146e-05 8.250732e-01 4.613647e-01
3.163154e+08 7.141724e-01 7.242432e-01 4.440919e-05 -8.706003e-06 7.056072e-05 8.430332e-06 8.217163e-01 4.621582e-01
3.165341e+08 7.135620e-01 7.248535e-01 3.471039e-05 1.488812e-05 -1.207180e-05 -8.218922e-06 8.171387e-01 4.625244e-01
3.167528e+08 7.134399e-01 7.249756e-01 -5.194917e-06 1.108367e-05 5.302951e-06 -1.194235e-05 8.124390e-01 4.632568e-01
3.169716e+08 7.136841e-01 7.256470e-01 8.573756e-06 -3.344566e-05 1.779292e-05 5.036592e-06 8.073120e-01 4.670410e-01
3.171903e+08 7.127686e-01 7.257080e-01 -5.354360e-05 -1.821667e-05 1.154281e-05 -3.456138e-06 8.029175e-01 4.705811e-01
3.174090e+08 7.125244e-01 7.247925e-01 3.359653e-05 -2.436899e-05 -1.194049e-05 -5.296431e-06 7.957764e-01 4.745483e-01
3.176278e+08 7.126465e-01 7.256470e-01 -1.601595e-05 -4.621223e-06 -1.751445e-05 8.074567e-07 7.903442e-01 4.800415e-01
3.178465e+08 7.124634e-01 7.257080e-01 3.091618e-05 5.126745e-05 -4.617497e-06 2.654269e-05 7.844238e-01 4.865112e-01
3.180652e+08 7.119141e-01 7.261963e-01 -2.187863e-05 5.055219e-06 5.215034e-05 -1.115724e-05 7.771606e-01 4.960938e-01
3.182840e+08 7.120361e-01 7.269287e-01 -4.291907e-05 4.518777e-06 -2.270937e-05 1.567230e-05 7.727051e-01 5.040283e-01
3.185027e+08 7.108154e-01 7.266235e-01 4.025549e-05 -1.018122e-05 -1.287460e-05 -2.574362e-05 7.684937e-01 5.157471e-01
3.187214e+08 7.112427e-01 7.265625e-01 4.169531e-06 1.513166e-06 -3.639981e-05 -2.758764e-05 7.681885e-01 5.287476e-01
3.189402e+08 7.102051e-01 7.268066e-01 -1.402386e-05 -3.669411e-07 -7.845461e-06 -4.352629e-05 7.706909e-01 5.399780e-01
3.191589e+08 7.110596e-01 7.277832e-01 -1.602340e-05 -4.626811e-06 -1.076609e-06 -2.338737e-05 7.745972e-01 5.507202e-01
3.193776e+08 7.094727e-01 7.282104e-01 3.023818e-05 -2.011657e-06 -1.220405e-05 -1.116097e-05 7.806396e-01 5.560303e-01
3.195964e+08 7.092896e-01 7.272339e-01 -3.259629e-05 1.176819e-05 4.626811e-06 -2.653524e-05 7.874756e-01 5.588989e-01
3.198151e+08 7.091064e-01 7.288208e-01 1.070602e-05 -6.738584e-06 -4.781038e-05 -2.126768e-05 7.914429e-01 5.543213e-01
3.200338e+08 7.091064e-01 7.288818e-01 -2.242066e-05 2.609566e-05 -1.289323e-05 -2.576970e-05 7.923584e-01 5.505981e-01
3.202526e+08 7.086792e-01 7.296143e-01 -1.801271e-05 -8.909963e-06 -1.846720e-05 -1.965929e-05 7.880249e-01 5.421143e-01
3.204713e+08 7.081909e-01 7.292480e-01 -5.301833e-05 4.213676e-05 5.855039e-05 2.272427e-07 7.791138e-01 5.371094e-01
3.206900e+08 7.072144e-01 7.299805e-01 1.838058e-05 -5.139038e-06 -2.384186e-06 -5.258247e-05 7.673340e-01 5.309448e-01
3.209087e+08 7.071533e-01 7.296143e-01 -1.069950e-05 6.744638e-06 5.574431e-06 -6.108079e-06 7.511597e-01 5.293579e-01
3.211275e+08 7.071533e-01 7.312012e-01 -1.257472e-05 2.491847e-05 2.392009e-05 1.064129e-05 7.318115e-01 5.323486e-01
3.213462e+08 7.066040e-01 7.312012e-01 4.904345e-06 -2.656318e-05 2.883747e-05 -1.009181e-05 7.145996e-01 5.384521e-01
3.215649e+08 7.047729e-01 7.315674e-01 -1.195632e-05 -2.558716e-05 1.272932e-05 2.285652e-05 6.967773e-01 5.500793e-01
3.217837e+08 7.053223e-01 7.312012e-01 1.531281e-05 3.270619e-05 -5.322509e-06 1.194887e-05 6.813965e-01 5.627747e-01
3.220024e+08 7.044067e-01 7.314453e-01 1.885928e-06 -1.821481e-05 3.997609e-05 -2.228469e-05 6.694946e-01 5.779724e-01
3.222211e+08 7.037354e-01 7.315063e-01 4.287064e-05 -5.644560e-05 5.138665e-05 -2.864376e-05 6.562500e-01 5.919189e-01
3.224399e+08 7.046509e-01 7.318726e-01 1.469348e-05 1.794659e-06 -1.329929e-06 -2.923422e-05 6.492615e-01 6.073608e-01
3.226586e+08 7.043457e-01 7.335815e-01 2.933666e-07 1.545344e-05 9.126961e-07 2.048723e-05 6.419983e-01 6.213379e-01
3.228773e+08 7.031860e-01 7.324219e-01 1.307949e-05 -1.651980e-05 -4.183128e-05 -1.860410e-05 6.364441e-01 6.333313e-01
3.230961e+08 7.028198e-01 7.330933e-01 1.203455e-05 -3.898516e-06 -1.753680e-05 7.832423e-07 6.301880e-01 6.455688e-01
3.233148e+08 7.020874e-01 7.331543e-01 -2.665073e-05 -2.742186e-05 2.389774e-05 1.064315e-05 6.251831e-01 6.546936e-01
3.235335e+08 7.017822e-01 7.330933e-01 -3.412925e-05 -3.604591e-05 -2.658926e-07 -5.842187e-06 6.201782e-01 6.650391e-01
3.237522e+08 7.014771e-01 7.342529e-01 -6.635673e-07 -1.421780e-06 9.164214e-07 2.046488e-05 6.130981e-01 6.726990e-01
3.239710e+08 7.012329e-01 7.341919e-01 -5.501788e-06 -4.359521e-06 -2.364628e-05 -4.785135e-06 6.080322e-01 6.821594e-01
3.241897e+08 7.007446e-01 7.352295e-01 -1.649186e-05 -1.308974e-05 -1.913123e-05 -3.430247e-05 6.018677e-01 6.869507e-01
3.244084e+08 7.000732e-01 7.359009e-01 3.416091e-06 -2.237409e-05 -2.950616e-05 -4.550442e-06 5.947876e-01 6.918335e-01
3.246272e+08 6.989746e-01 7.356567e-01 6.908551e-06 2.967566e-05 7.010996e-06 2.603978e-05 5.869141e-01 6.950684e-01
3.248459e+08 6.992188e-01 7.355957e-01 -5.140156e-05 3.091618e-05 1.647323e-05 -2.418645e-05 5.759277e-01 6.986694e-01
3.250646e+08 6.992188e-01 7.366943e-01 -2.700463e-05 -1.336448e-05 2.458878e-05 2.525188e-05 5.645752e-01 7.022400e-01
3.252834e+08 6.981201e-01 7.364502e-01 -2.853386e-05 -9.188429e-06 1.818966e-05 1.381617e-05 5.504150e-01 7.065430e-01
3.255021e+08 6.970215e-01 7.371216e-01 -4.570186e-05 -2.371892e-05 1.727324e-05 -6.610528e-06 5.332642e-01 7.116394e-01
3.257208e+08 6.967163e-01 7.377930e-01 3.289245e-05 3.688037e-06 -5.200505e-06 1.486856e-05 5.188599e-01 7.233887e-01
3.259396e+08 6.970215e-01 7.380981e-01 1.610629e-05 -2.483092e-05 3.417768e-05 -2.202392e-05 5.028076e-01 7.337646e-01
3.261583e+08 6.967163e-01 7.387695e-01 -1.574401e-05 1.080055e-05 1.051836e-05 -2.683513e-05 4.894409e-01 7.478027e-01
3.263770e+08 6.959839e-01 7.393188e-01 3.736094e-05 2.064742e-05 1.973659e-05 4.892424e-05 4.788208e-01 7.622681e-01
3.265958e+08 6.947632e-01 7.387085e-01 -3.670342e-05 -1.925789e-05 5.061738e-06 -1.778267e-05 4.719849e-01 7.766724e-01
3.268145e+08 6.952515e-01 7.405396e-01 -8.732080e-06 1.099519e-05 2.468564e-05 2.821162e-05 4.657593e-01 7.885742e-01
3.270332e+08 6.945801e-01 7.402344e-01 -1.621619e-05 2.371147e-06 2.494268e-05 3.403425e-05 4.646606e-01 8.004761e-01
3.272520e+08 6.944580e-01 7.404785e-01 2.321228e-05 -2.164394e-06 6.366521e-06 1.143571e-05 4.611206e-01 8.068237e-01
3.274707e+08 6.937866e-01 7.406006e-01 -2.845656e-06 1.326902e-06 2.365001e-05 4.798174e-06 4.633179e-01 8.082886e-01
3.276894e+08 6.930542e-01 7.412720e-01 -1.857802e-05 1.212675e-05 -4.067272e-05 7.659197e-06 4.562988e-01 8.095093e-01
3.279081e+08 6.920166e-01 7.418213e-01 -3.710389e-06 -4.502758e-05 4.676357e-05 -2.067536e-06 4.468994e-01 8.061523e-01
3.281269e+08 6.918945e-01 7.423096e-01 3.313180e-06 7.110648e-06 -3.560632e-05 -1.013279e-05 4.353027e-01 8.058472e-01
3.283456e+08 6.918335e-01 7.430420e-01 -5.968846e-06 -1.280755e-05 -4.056841e-05 1.059100e-05 4.187012e-01 8.049927e-01
3.285643e+08 6.909790e-01 7.425537e-01 2.939254e-05 3.615394e-06 4.727393e-05 9.603798e-06 4.029541e-01 8.073730e-01
3.287831e+08 6.900024e-01 7.438354e-01 5.341694e-05 -2.655759e-05 2.808683e-05 -2.756715e-05 3.861694e-01 8.153687e-01
3.290018e+08 6.898193e-01 7.436523e-01 2.667494e-05 -2.452359e-05 1.017004e-06 2.337806e-05 3.691406e-01 8.242188e-01
3.292205e+08 6.901245e-01 7.447510e-01 -5.895272e-06 9.667128e-06 -5.951524e-05 -2.085045e-05 3.536377e-01 8.366089e-01
3.294393e+08 6.890869e-01 7.443848e-01 -5.594268e-05 -8.564442e-06 4.166737e-06 -3.824756e-05 3.418579e-01 8.499146e-01
3.296580e+08 6.886597e-01 7.450562e-01 1.593214e-05 -1.780875e-05 1.275912e-07 2.922490e-06 3.299561e-01 8.652954e-01
3.298767e+08 6.882935e-01 7.465210e-01 -2.224185e-05 -3.291294e-05 1.562759e-05 -4.464388e-05 3.248901e-01 8.800659e-01
3.300955e+08 6.869507e-01 7.470093e-01 -8.568168e-08 -2.246723e-05 3.569946e-05 1.310557e-05 3.226318e-01 8.924561e-01
3.303142e+08 6.865845e-01 7.465210e-01 -8.619390e-07 5.592126e-06 1.739245e-05 -3.697351e-06 3.190918e-01 9.060669e-01
3.305329e+08 6.867676e-01 7.481689e-01 -2.181390e-06 2.748100e-06 4.195422e-05 2.160296e-05 3.181152e-01 9.164429e-01
3.307516e+08 6.864624e-01 7.488403e-01 -4.647300e-07 -8.437317e-06 1.895428e-05 3.140420e-05 3.205566e-01 9.268799e-01
3.309704e+08 6.857910e-01 7.489624e-01 -2.223253e-05 -3.291294e-05 -5.209818e-06 1.487043e-05 3.248901e-01 9.318237e-01
3.311891e+08 6.851807e-01 7.492676e-01 -2.613291e-05 -1.900271e-05 -3.804453e-07 -8.767005e-06 3.299561e-01 9.364624e-01
3.314078e+08 6.841431e-01 7.491455e-01 -7.478520e-06 -8.629635e-06 3.516860e-05 1.395121e-06 3.366699e-01 9.381104e-01
3.316266e+08 6.844482e-01 7.503662e-01 1.680106e-06 4.072860e-05 2.999231e-05 1.627021e-05 3.414307e-01 9.343872e-01
3.318453e+08 6.836548e-01 7.509766e-01 9.134412e-06 -2.500229e-05 -2.287887e-05 1.269579e-05 3.445435e-01 9.277954e-01
3.320640e+08 6.834106e-01 7.517090e-01 1.660082e-05 -1.637917e-05 2.211891e-05 -3.023632e-05 3.465576e-01 9.172363e-01
3.322828e+08 6.823730e-01 7.520752e-01 7.282011e-06 1.564156e-05 -3.594905e-06 5.284324e-05 3.415527e-01 9.045410e-01
3.325015e+08 6.828613e-01 7.528687e-01 7.207505e-06 -6.817281e-06 -1.266599e-07 -2.924353e-06 3.353882e-01 8.919067e-01
3.327202e+08 6.817017e-01 7.529907e-01 3.939308e-05 -2.697669e-05 4.963949e-06 -2.070330e-05 3.236084e-01 8.796997e-01
3.329390e+08 6.819458e-01 7.532959e-01 -1.331419e-05 2.347678e-05 -1.105480e-05 1.511257e-05 3.078613e-01 8.685913e-01
3.331577e+08 6.809692e-01 7.548218e-01 -1.681596e-05 2.337433e-05 9.853393e-07 2.338924e-05 2.877197e-01 8.625488e-01
3.333764e+08 6.804199e-01 7.541504e-01 -3.595836e-05 4.597008e-06 2.922304e-05 -1.266599e-06 2.661743e-01 8.610229e-01
3.335952e+08 6.810303e-01 7.556152e-01 2.647191e-05 -1.748651e-05 -3.572553e-06 5.291030e-05 2.452393e-01 8.630981e-01
3.338139e+08 6.797485e-01 7.559204e-01 -1.686905e-05 9.229407e-07 -1.194514e-05 -5.346723e-06 2.246704e-01 8.697510e-01
3.340326e+08 6.792603e-01 7.562256e-01 1.413375e-05 4.531443e-05 5.467795e-06 -9.018462e-06 2.085571e-01 8.807373e-01
3.342514e+08 6.781616e-01 7.576904e-01 7.171184e-07 2.390333e-05 1.020357e-05 -3.558025e-05 1.926270e-01 8.927612e-01
3.344701e+08 6.784058e-01 7.578125e-01 -1.799408e-05 -8.939765e-06 4.982576e-07 1.168996e-05 1.835327e-01 9.050293e-01
3.346888e+08 6.774902e-01 7.589111e-01 4.086830e-05 -3.107451e-05 -7.974356e-05 5.314499e-05 1.772461e-01 9.149170e-01
3.349075e+08 6.774292e-01 7.597046e-01 2.640858e-05 -3.996864e-05 -1.966581e-05 -4.895031e-05 1.734009e-01 9.261475e-01
3.351263e+08 6.769409e-01 7.606201e-01 -9.858981e-06 1.121312e-06 -9.872019e-07 -2.339110e-05 1.719971e-01 9.327393e-01
3.353450e+08 6.765747e-01 7.606201e-01 3.570504e-05 2.423301e-06 -1.602992e-05 3.582425e-05 1.704712e-01 9.382935e-01
3.355637e+08 6.765137e-01 7.613525e-01 -1.819525e-05 -1.912005e-06 3.048778e-05 2.797879e-05 1.668701e-01 9.404297e-01
3.357825e+08 6.758423e-01 7.619629e-01 7.420778e-06 -1.381151e-05 -1.244433e-05 -1.703296e-05 1.636963e-01 9.420166e-01
3.360012e+08 6.751099e-01 7.621460e-01 -2.809241e-05 -2.328120e-05 1.155958e-05 -3.419816e-06 1.560059e-01 9.406128e-01
3.362199e+08 6.748047e-01 7.631836e-01 -2.803281e-05 -8.214265e-07 -2.872758e-05 1.292676e-05 1.511230e-01 9.415283e-01
3.364387e+08 6.738281e-01 7.637939e-01 6.555114e-06 -8.229166e-06 5.477574e-06 -9.004492e-06 1.427612e-01 9.423218e-01
3.366574e+08 6.735840e-01 7.637939e-01 7.931143e-06 1.706649e-05 -1.777057e-05 -5.096197e-06 1.313477e-01 9.445801e-01
3.368761e+08 6.735840e-01 7.647095e-01 1.110509e-05 -2.071727e-05 4.562736e-05 -2.826750e-05 1.247559e-01 9.502563e-01
3.370949e+08 6.739502e-01 7.655029e-01 -3.942288e-05 4.485250e-06 4.525855e-05 -3.707409e-05 1.168823e-01 9.509888e-01
3.373136e+08 6.734619e-01 7.663574e-01 -4.735216e-05 -1.263618e-05 -3.022701e-05 -2.214685e-05 1.082153e-01 9.542236e-01
3.375323e+08 6.728516e-01 7.672119e-01 7.665716e-06 1.626089e-06 -3.045611e-05 -2.800114e-05 9.924316e-02 9.586182e-01
3.377510e+08 6.723022e-01 7.678223e-01 8.531380e-06 -3.959518e-06 -3.469922e-05 1.023337e-05 8.953857e-02 9.628906e-01
3.379698e+08 6.719971e-01 7.675171e-01 -2.060924e-05 -1.463108e-05 6.339513e-06 1.143012e-05 8.245850e-02 9.672852e-01
3.381885e+08 6.709595e-01 7.690430e-01 -1.970585e-05 2.205372e-06 2.275594e-05 -1.557916e-05 7.507324e-02 9.742432e-01
3.384072e+08 6.712036e-01 7.702637e-01 2.391823e-05 2.175570e-05 2.301671e-05 -9.743497e-06 6.951904e-02 9.819946e-01
3.386260e+08 6.706543e-01 7.704468e-01 1.525506e-06 -4.161848e-06 2.471730e-05 3.115088e-05 6.390381e-02 9.883423e-01
3.388447e+08 6.717529e-01 7.711792e-01 1.319498e-05 2.844818e-05 8.772314e-05 -3.740191e-06 6.079102e-02 9.946289e-01
3.390634e+08 6.697998e-01 7.713013e-01 -5.481765e-06 -4.372094e-06 1.825206e-05 1.678430e-05 6.353760e-02 1.000977e+00
3.392822e+08 6.700439e-01 7.717896e-01 1.092069e-05 -1.371000e-05 2.349727e-05 1.918525e-06 6.390381e-02 1.002197e+00
3.395009e+08 6.695557e-01 7.732544e-01 2.106279e-05 2.306513e-05 -1.815148e-05 -1.387950e-05 6.665039e-02 9.989624e-01
3.397196e+08 6.687622e-01 7.734375e-01 2.276152e-05 -1.055002e-05 -2.337061e-05 9.834766e-07 6.616211e-02 9.940186e-01
3.399384e+08 6.685181e-01 7.751465e-01 -1.884438e-05 -3.360212e-06 3.579073e-05 1.608394e-05 6.250000e-02 9.843140e-01
3.401571e+08 6.679077e-01 7.760010e-01 -3.922731e-06 1.390465e-05 4.199147e-05 2.461672e-05 5.816650e-02 9.761963e-01
3.403758e+08 6.682129e-01 7.763062e-01 1.619384e-05 -2.326444e-06 -2.387166e-05 -1.071952e-05 4.602051e-02 9.678345e-01
3.405946e+08 6.679688e-01 7.768555e-01 1.643971e-05 1.310464e-05 1.083687e-05 -2.094172e-05 3.570557e-02 9.612427e-01
3.408133e+08 6.668701e-01 7.775269e-01 -6.243587e-06 6.859750e-05 -5.841721e-06 2.384186e-07 1.708984e-02 9.573975e-01
3.410320e+08 6.679688e-01 7.775269e-01 -3.921799e-05 -2.542511e-06 -2.984144e-05 -1.336075e-05 2.746582e-03 9.575806e-01
3.412508e+08 6.666260e-01 7.784424e-01 -4.683807e-05 4.075840e-05 2.074987e-06 4.964694e-05 -1.263428e-02 9.609375e-01
3.414695e+08 6.666870e-01 7.795410e-01 -3.236160e-05 2.712384e-05 1.156703e-05 -3.408641e-06 -2.636719e-02 9.667358e-01
3.416882e+08 6.665649e-01 7.798462e-01 -6.429851e-06 -4.366785e-05 2.361648e-05 4.855916e-06 -3.308105e-02 9.739990e-01
3.419069e+08 6.664429e-01 7.805786e-01 -2.279691e-05 -1.187995e-05 1.229346e-07 2.921326e-06 -3.656006e-02 9.815063e-01
3.421257e+08 6.662598e-01 7.816162e-01 1.945812e-05 -1.766626e-05 -1.181103e-05 -2.434477e-06 -4.095459e-02 9.874268e-01
3.423444e+08 6.665039e-01 7.822876e-01 2.667680e-05 -2.446026e-05 1.974404e-06 4.675984e-05 -3.845215e-02 9.888306e-01
3.425631e+08 6.658936e-01 7.832031e-01 8.437783e-07 -2.804026e-05 3.859773e-05 -5.725026e-05 -3.424072e-02 9.870605e-01
3.427819e+08 6.658936e-01 7.835693e-01 1.228321e-05 1.159031e-05 -3.345683e-05 3.948435e-05 -3.210449e-02 9.802246e-01
3.430006e+08 6.658325e-01 7.843018e-01 7.461756e-06 8.651055e-06 -1.082942e-05 2.095103e-05 -3.149414e-02 9.694214e-01
3.432193e+08 6.648560e-01 7.846069e-01 -5.247071e-06 1.106504e-05 -5.719718e-06 3.164634e-06 -3.472900e-02 9.589844e-01
3.434381e+08 6.648560e-01 7.857056e-01 -2.128072e-07 7.011928e-06 3.469735e-05 -1.023524e-05 -3.790283e-02 9.462280e-01
3.436568e+08 6.647949e-01 7.862549e-01 8.773990e-06 1.148600e-05 -4.212931e-05 -2.751872e-05 -4.705811e-02 9.315186e-01
3.438755e+08 6.646729e-01 7.868652e-01 4.733726e-05 -9.860843e-06 -1.741014e-05 3.652647e-06 -5.657959e-02 9.205933e-01
3.440943e+08 6.649170e-01 7.875366e-01 1.222081e-05 -3.333949e-05 2.947077e-05 4.621223e-06 -6.805420e-02 9.085083e-01
3.443130e+08 6.635742e-01 7.877808e-01 3.020652e-05 -2.439320e-05 1.228042e-05 1.411792e-05 -7.977295e-02 8.973999e-01
3.445317e+08 6.647339e-01 7.896729e-01 -5.441904e-05 -5.778670e-05 -2.412498e-05 -1.657568e-05 -9.558105e-02 8.884888e-01
3.447504e+08 6.641846e-01 7.897949e-01 -1.207553e-05 -1.859944e-05 4.982576e-06 -2.069958e-05 -1.094360e-01 8.786621e-01
3.449692e+08 6.635742e-01 7.916870e-01 4.654750e-06 3.243610e-05 -3.425218e-05 2.190284e-05 -1.265869e-01 8.721313e-01
3.451879e+08 6.629639e-01 7.910767e-01 2.392754e-05 2.179667e-05 1.071580e-05 -2.385676e-05 -1.450195e-01 8.679810e-01
3.454066e+08 6.632080e-01 7.924805e-01 -3.991649e-06 -3.102422e-05 -1.060404e-05 2.679974e-05 -1.631470e-01 8.653564e-01
3.456254e+08 6.629639e-01 7.930298e-01 -2.536923e-05 4.977733e-05 4.640594e-05 -1.069903e-05 -1.802979e-01 8.646240e-01
3.458441e+08 6.632080e-01 7.939453e-01 -5.909242e-06 9.647105e-06 6.016344e-07 1.462270e-05 -1.964111e-01 8.667603e-01
3.460628e+08 6.629639e-01 7.941284e-01 -9.418000e-06 9.553041e-06 2.180785e-05 -3.897026e-05 -2.102661e-01 8.698120e-01
3.462816e+08 6.623535e-01 7.952881e-01 -1.779199e-05 -1.598150e-05 -2.959929e-05 -7.579103e-06 -2.197876e-01 8.753662e-01
3.465003e+08 6.636353e-01 7.957764e-01 -3.539026e-08 -2.247281e-05 2.444722e-07 5.850103e-06 -2.272949e-01 8.814087e-01
3.467190e+08 6.636963e-01 7.965088e-01 2.739578e-05 -5.867332e-07 -2.450682e-05 -2.535991e-05 -2.317505e-01 8.837280e-01
3.469378e+08 6.628418e-01 7.968140e-01 -4.535541e-07 -8.447096e-06 5.738437e-05 -2.877042e-05 -2.315063e-01 8.843994e-01
3.471565e+08 6.624756e-01 7.971191e-01 -7.001311e-05 -3.154203e-05 -4.031509e-05 1.631305e-05 -2.327881e-01 8.839722e-01
3.473752e+08 6.627808e-01 7.986450e-01 7.439405e-06 -1.382921e-05 -6.329268e-06 -1.146365e-05 -2.373047e-01 8.760986e-01
3.475940e+08 6.627808e-01 7.990723e-01 1.908280e-05 -3.637746e-06 -1.290813e-05 -2.877228e-05 -2.426758e-01 8.669434e-01
3.478127e+08 6.624146e-01 8.001099e-01 -1.668930e-05 -6.131828e-06 3.511831e-05 -1.423061e-06 -2.507935e-01 8.574829e-01
3.480314e+08 6.626587e-01 8.006592e-01 -1.405925e-05 -2.292171e-05 -1.779757e-05 -5.136244e-06 -2.623291e-01 8.492432e-01
3.482502e+08 6.624146e-01 8.015137e-01 2.283044e-05 1.193397e-05 6.804243e-06 2.317317e-05 -2.772217e-01 8.426514e-01
3.484689e+08 6.629639e-01 8.015747e-01 1.315027e-05 -1.645833e-05 -5.852897e-06 2.416782e-07 -2.939453e-01 8.389893e-01
3.486876e+08 6.622925e-01 8.026123e-01 1.560990e-05 1.874752e-05 -3.559515e-05 -1.027808e-05 -3.100586e-01 8.405762e-01
3.489063e+08 6.621704e-01 8.034668e-01 1.989305e-06 2.676994e-05 4.085153e-05 -4.578382e-06 -3.261108e-01 8.440552e-01
3.491251e+08 6.623535e-01 8.035889e-01 -6.578863e-06 -1.426693e-05 -3.463961e-05 1.314096e-05 -3.406372e-01 8.487549e-01
3.493438e+08 6.635132e-01 8.033447e-01 -4.614238e-06 -9.985641e-06 -1.669861e-05 2.121739e-05 -3.524170e-01 8.577881e-01
3.495625e+08 6.625977e-01 8.043823e-01 -6.161630e-06 -2.830662e-05 3.878772e-05 -5.437061e-05 -3.604736e-01 8.659058e-01
3.497813e+08 6.629028e-01 8.060913e-01 6.364658e-06 -1.215842e-06 -7.051229e-05 -2.969056e-06 -3.688965e-01 8.757935e-01
3.500000e+08 6.626587e-01 8.068237e-01 -2.501905e-05 1.328066e-05 6.930903e-06 2.611056e-05 -3.729248e-01 8.839722e-01
