# Hz S RI R 50
! RAW DATA - UNCALIBRATED
3.000000e+04 1.047241e+00 1.273804e-01 -1.351610e-04 -7.966161e-05 -1.154840e-05 -2.791882e-04 1.045227e+00 1.284790e-01
2.487312e+05 1.036743e+00 -1.859741e+00 3.607012e-05 -2.568774e-05 -6.017089e-05 3.748387e-05 9.791260e-01 2.685547e-03
4.674625e+05 9.755249e-01 -2.911377e-02 1.127645e-05 9.654090e-06 3.132503e-06 1.091044e-06 9.832153e-01 2.490234e-02
6.861938e+05 9.780273e-01 -9.521484e-03 2.464838e-05 -5.260110e-06 1.425855e-05 -4.562549e-06 1.000732e+00 3.741455e-02
9.049250e+05 9.796143e-01 -5.187988e-03 7.999595e-06 3.876630e-06 -7.525086e-07 -2.016686e-05 1.002808e+00 3.894043e-02
1.123656e+06 9.789429e-01 -1.531982e-02 -1.478009e-05 -5.488284e-06 6.567687e-06 -1.536682e-06 1.005554e+00 7.281494e-02
1.342388e+06 9.783325e-01 -1.965332e-02 -2.682209e-07 1.405645e-05 -9.021256e-06 -3.307592e-06 1.017395e+00 8.233643e-02
1.561119e+06 9.765015e-01 -1.947021e-02 -1.381151e-06 -8.950941e-06 1.249835e-05 -1.766160e-05 1.029541e+00 8.154297e-02
1.779850e+06 9.769287e-01 -1.837158e-02 8.053146e-06 8.497387e-06 -2.344372e-06 2.503162e-06 1.039185e+00 7.623291e-02
1.998581e+06 9.765625e-01 -1.544189e-02 5.049631e-06 1.433957e-05 -1.913495e-05 3.849156e-06 1.041443e+00 7.330322e-02
2.217312e+06 9.772339e-01 -1.177979e-02 4.653353e-06 5.475711e-06 -2.115965e-06 2.184324e-05 1.036133e+00 6.994629e-02
2.436044e+06 9.759521e-01 -8.056641e-03 9.930693e-06 3.532041e-06 3.551133e-06 -1.351722e-05 1.027466e+00 7.122803e-02
2.654775e+06 9.765015e-01 -2.807617e-03 1.740828e-05 -1.448207e-06 7.773284e-06 -6.138347e-06 1.015930e+00 7.354736e-02
2.873506e+06 9.772339e-01 1.098633e-03 7.080380e-06 4.237518e-06 -4.285946e-06 -1.384318e-05 1.003662e+00 8.123779e-02
3.092238e+06 9.772949e-01 5.432129e-03 7.888302e-06 -3.864989e-06 9.147916e-07 3.405614e-06 9.916992e-01 9.228516e-02
3.310969e+06 9.805298e-01 1.318359e-02 -5.493406e-06 3.272202e-06 2.166070e-05 -3.883615e-06 9.789429e-01 1.057129e-01
3.529700e+06 9.797363e-01 1.397705e-02 -2.604094e-06 1.866138e-06 -2.049841e-06 2.766028e-06 9.682617e-01 1.219482e-01
3.748431e+06 9.794312e-01 1.440430e-02 1.426972e-05 -2.142973e-06 6.921589e-06 2.847984e-05 9.625244e-01 1.372070e-01
3.967162e+06 9.791260e-01 1.513672e-02 -3.450550e-06 7.336494e-06 6.432645e-06 1.841504e-05 9.583130e-01 1.553345e-01
4.185894e+06 9.791870e-01 1.647949e-02 2.022367e-06 -9.002630e-06 6.528571e-06 2.361368e-06 9.566040e-01 1.714478e-01
4.404625e+06 9.792480e-01 1.702881e-02 2.477691e-05 1.691282e-06 -1.267251e-05 -6.749295e-06 9.588013e-01 1.883545e-01
4.623356e+06 9.785156e-01 1.782227e-02 1.601223e-05 -1.239777e-05 2.887100e-06 -2.075173e-05 9.627686e-01 2.031860e-01
4.842088e+06 9.779053e-01 2.087402e-02 -2.108281e-06 1.995824e-06 -1.441129e-05 9.960495e-06 9.682617e-01 2.161865e-01
5.060819e+06 9.786987e-01 2.197266e-02 5.417503e-06 2.025068e-05 1.382641e-05 -4.241243e-06 9.743652e-01 2.259521e-01
5.279550e+06 9.786987e-01 2.319336e-02 3.010500e-06 5.774200e-06 -5.643815e-06 -3.826246e-05 9.801636e-01 2.330933e-01
5.498281e+06 9.787598e-01 2.447510e-02 -2.864748e-06 2.532080e-05 1.650769e-06 6.857328e-06 9.848022e-01 2.385864e-01
5.717012e+06 9.779053e-01 2.685547e-02 -3.707595e-06 7.930677e-06 2.299435e-06 6.683636e-06 9.879761e-01 2.432251e-01
5.935744e+06 9.783325e-01 2.716064e-02 1.533609e-05 -3.832392e-06 5.759299e-06 1.294073e-05 9.898071e-01 2.459717e-01
6.154475e+06 9.798584e-01 2.905273e-02 -1.490116e-07 1.809653e-05 6.176997e-06 -3.512483e-06 9.876099e-01 2.478027e-01
6.373206e+06 9.799194e-01 3.057861e-02 8.253381e-06 4.230998e-06 5.474314e-06 -1.692306e-05 9.832764e-01 2.514648e-01
6.591938e+06 9.807739e-01 3.332520e-02 -4.778616e-06 8.605421e-06 7.704366e-06 -2.020970e-06 9.774170e-01 2.562256e-01
6.810669e+06 9.810791e-01 3.375244e-02 2.295151e-05 -1.019984e-05 5.250331e-06 4.844740e-06 9.705811e-01 2.635498e-01
7.029400e+06 9.822388e-01 3.619385e-02 9.714626e-06 1.326576e-05 -2.578646e-05 -1.402572e-06 9.634399e-01 2.739258e-01
7.248131e+06 9.831543e-01 3.765869e-02 -4.468486e-06 -1.098122e-05 1.338311e-06 -1.597684e-05 9.537354e-01 2.863159e-01
7.466862e+06 9.843140e-01 3.936768e-02 1.622085e-05 9.668060e-06 -2.793968e-06 2.248958e-05 9.493408e-01 3.001099e-01
7.685594e+06 9.852295e-01 3.973389e-02 2.476387e-06 1.189485e-05 1.517683e-05 -9.612180e-06 9.441528e-01 3.174438e-01
7.904325e+06 9.862671e-01 4.077148e-02 -3.274996e-06 8.850358e-06 -5.050562e-06 -8.825213e-06 9.431763e-01 3.348999e-01
8.123056e+06 9.883423e-01 4.241943e-02 -5.961861e-06 4.336238e-06 -3.541121e-06 -6.486662e-07 9.453125e-01 3.505859e-01
8.341788e+06 9.888916e-01 4.333496e-02 -1.472887e-05 1.093373e-06 1.245923e-05 2.281368e-05 9.485474e-01 3.671265e-01
8.560519e+06 9.902344e-01 4.382324e-02 -7.246621e-06 3.285706e-06 -7.183757e-06 -7.250812e-06 9.560547e-01 3.813477e-01
8.779250e+06 9.911499e-01 4.534912e-02 -4.156027e-06 4.535541e-07 8.404255e-06 1.379568e-05 9.631958e-01 3.930664e-01
8.997981e+06 9.927979e-01 4.595947e-02 7.078052e-08 -1.065992e-05 -9.492505e-06 8.942094e-06 9.730225e-01 4.001465e-01
9.216712e+06 9.934692e-01 4.626465e-02 4.142988e-06 1.077866e-05 -7.093884e-06 -1.313724e-05 9.816284e-01 4.036865e-01
9.435444e+06 9.940186e-01 4.626465e-02 2.596527e-06 1.578405e-05 1.296401e-06 1.488160e-05 9.889526e-01 4.019775e-01
9.654175e+06 9.953003e-01 4.705811e-02 2.775341e-07 7.965602e-06 -1.537334e-05 -1.702085e-05 9.949341e-01 3.990479e-01
9.872906e+06 9.962158e-01 4.785156e-02 5.701091e-06 1.575798e-06 9.619165e-06 -5.085021e-06 9.945679e-01 3.927002e-01
1.009164e+07 9.970093e-01 4.748535e-02 3.788620e-06 1.130905e-05 -4.015863e-06 -4.038587e-05 9.918213e-01 3.862915e-01
1.031037e+07 9.977417e-01 4.846191e-02 1.273770e-05 -7.500872e-06 -4.378147e-06 1.233909e-05 9.833984e-01 3.802490e-01
1.052910e+07 9.986572e-01 4.766846e-02 1.482479e-05 -8.912757e-07 -1.025293e-05 -7.506460e-07 9.728394e-01 3.781128e-01
1.074783e+07 9.996338e-01 4.919434e-02 -5.970709e-06 -1.224689e-06 2.699904e-06 1.795590e-05 9.601440e-01 3.746338e-01
1.096656e+07 9.998169e-01 4.876709e-02 1.917593e-05 1.112558e-05 -1.634657e-05 1.951866e-05 9.445801e-01 3.782959e-01
1.118529e+07 1.000244e+00 4.882812e-02 4.084548e-06 5.191658e-06 4.202127e-06 -5.938113e-06 9.304199e-01 3.828735e-01
1.140402e+07 1.000427e+00 4.901123e-02 7.333700e-06 4.027504e-06 -3.117137e-06 1.935661e-05 9.158936e-01 3.930664e-01
1.162276e+07 1.001709e+00 4.852295e-02 1.420453e-05 4.028901e-06 1.147110e-05 9.682029e-06 9.025879e-01 4.031982e-01
1.184149e+07 1.002380e+00 4.931641e-02 1.234002e-07 -6.589573e-06 -1.336914e-06 3.387686e-06 8.912354e-01 4.156494e-01
1.206022e+07 1.002258e+00 4.962158e-02 3.385358e-07 -5.310168e-06 1.815986e-05 -9.777024e-06 8.828125e-01 4.292603e-01
1.227895e+07 1.002625e+00 4.949951e-02 3.566500e-06 1.013977e-05 -3.989786e-06 -1.579523e-05 8.755493e-01 4.434814e-01
1.249768e+07 1.003662e+00 5.017090e-02 -3.608875e-07 4.157424e-06 -4.606321e-06 -2.262555e-05 8.703003e-01 4.571533e-01
1.271641e+07 1.002380e+00 5.181885e-02 2.093730e-06 2.084766e-06 -1.459569e-05 -5.066395e-07 8.678589e-01 4.691162e-01
1.293514e+07 1.002930e+00 5.108643e-02 -1.156703e-06 1.057284e-05 -3.962778e-07 -7.293187e-06 8.668213e-01 4.799194e-01
1.315388e+07 1.003296e+00 5.114746e-02 5.608425e-06 7.461756e-06 -6.725080e-06 4.651025e-06 8.656006e-01 4.893799e-01
1.337261e+07 1.002319e+00 5.163574e-02 -8.892268e-06 2.210215e-05 -2.474897e-05 -9.080395e-06 8.641357e-01 4.944458e-01
1.359134e+07 1.003418e+00 5.206299e-02 1.097657e-05 8.031726e-06 -9.162351e-06 1.856778e-05 8.628540e-01 4.996338e-01
1.381007e+07 1.003235e+00 5.242920e-02 5.120877e-06 -1.438661e-06 3.033318e-06 6.660353e-06 8.572998e-01 5.029297e-01
1.402880e+07 1.003296e+00 5.261230e-02 5.765818e-06 1.252629e-06 -5.564187e-06 -9.479932e-06 8.511963e-01 5.045776e-01
1.424753e+07 1.002625e+00 5.340576e-02 2.931105e-06 3.296882e-07 6.510410e-06 8.861069e-06 8.427124e-01 5.068970e-01
1.446626e+07 1.003052e+00 5.267334e-02 -4.428672e-06 -2.514571e-08 3.356114e-05 4.269183e-06 8.300171e-01 5.093994e-01
1.468499e+07 1.004333e+00 5.371094e-02 -1.472700e-05 1.629628e-05 6.198206e-10 -3.257128e-11 8.169556e-01 5.156860e-01
1.490372e+07 1.003235e+00 5.541992e-02 -4.604924e-06 6.972346e-06 1.489744e-05 1.076888e-05 8.014526e-01 5.236206e-01
1.512246e+07 1.002319e+00 5.633545e-02 -1.898268e-06 3.719702e-06 -1.121126e-05 -3.204308e-05 7.870483e-01 5.325317e-01
1.534119e+07 1.002441e+00 5.731201e-02 1.108833e-05 1.771282e-05 -3.367430e-06 -1.486158e-06 7.733154e-01 5.447388e-01
1.555992e+07 1.003540e+00 5.798340e-02 4.419126e-07 6.592367e-06 6.220303e-06 1.734495e-05 7.583008e-01 5.592041e-01
1.577865e+07 1.002747e+00 5.828857e-02 -1.788139e-06 -1.715496e-05 2.314895e-05 -3.010035e-06 7.474976e-01 5.751953e-01
1.599738e+07 1.002991e+00 5.908203e-02 1.823064e-06 1.051789e-05 1.827441e-05 2.678484e-06 7.369385e-01 5.924072e-01
1.621611e+07 1.003845e+00 6.219482e-02 1.450814e-05 -3.742799e-05 4.003569e-05 -1.732260e-06 7.291870e-01 6.098022e-01
1.643484e+07 1.004150e+00 6.201172e-02 2.524443e-05 -2.792850e-05 -2.049468e-05 3.601238e-05 7.231445e-01 6.268921e-01
1.665358e+07 1.003174e+00 6.402588e-02 7.973611e-05 6.828457e-06 -1.190975e-05 -5.179271e-05 7.208252e-01 6.449585e-01
1.687231e+07 1.003601e+00 6.396484e-02 1.018122e-05 4.961342e-05 -8.784700e-06 -3.822148e-06 7.187500e-01 6.607666e-01
1.709104e+07 1.004028e+00 6.457520e-02 4.084036e-05 -3.953464e-05 2.095848e-05 -3.775582e-06 7.176514e-01 6.747437e-01
1.730977e+07 1.003540e+00 6.561279e-02 2.095476e-05 2.476014e-05 -1.855940e-05 -1.289882e-05 7.189331e-01 6.882324e-01
1.752850e+07 1.003296e+00 6.689453e-02 3.074668e-05 1.118146e-05 -1.543760e-05 -4.056841e-05 7.210083e-01 6.990356e-01
1.774723e+07 1.003845e+00 6.781006e-02 -2.197549e-05 -1.334399e-05 1.365319e-06 3.775582e-05 7.225342e-01 7.058716e-01
1.796596e+07 1.004883e+00 6.848145e-02 4.259311e-05 -2.686307e-05 -2.990104e-05 -4.097819e-08 7.211914e-01 7.131958e-01
1.818469e+07 1.004517e+00 6.951904e-02 -2.208911e-05 2.275035e-05 3.069639e-06 3.207289e-05 7.191772e-01 7.185669e-01
1.840342e+07 1.005127e+00 7.055664e-02 6.686151e-05 6.769598e-05 2.416596e-05 2.831966e-05 7.160645e-01 7.233276e-01
1.862216e+07 1.005066e+00 7.141113e-02 -3.228663e-06 4.080590e-06 -1.341943e-05 -1.392327e-05 7.107544e-01 7.265015e-01
1.884089e+07 1.005554e+00 7.177734e-02 -4.975870e-05 6.057322e-06 -1.560990e-05 1.919363e-05 7.037354e-01 7.318115e-01
1.905962e+07 1.006104e+00 7.208252e-02 -2.652407e-05 5.109236e-06 1.874566e-05 1.296960e-05 6.968384e-01 7.380981e-01
1.927835e+07 1.006531e+00 7.421875e-02 1.056120e-06 -1.298822e-05 -1.106225e-05 2.934970e-05 6.875610e-01 7.467041e-01
1.949708e+07 1.007385e+00 7.574463e-02 6.042421e-06 -3.876723e-05 -3.119931e-06 2.794340e-05 6.800537e-01 7.553101e-01
1.971581e+07 1.007996e+00 7.543945e-02 -7.277355e-06 -1.805834e-05 -1.901388e-05 3.087521e-05 6.723633e-01 7.670288e-01
1.993454e+07 1.008240e+00 7.696533e-02 2.905168e-05 3.732182e-05 -4.851073e-05 -4.050881e-05 6.673584e-01 7.787476e-01
2.015328e+07 1.009155e+00 7.647705e-02 1.892075e-05 5.548820e-05 2.499670e-06 4.348159e-05 6.641235e-01 7.904053e-01
2.037201e+07 1.009521e+00 7.763672e-02 3.205426e-05 -3.543310e-05 3.288686e-05 -5.532056e-07 6.624756e-01 8.015747e-01
2.059074e+07 1.010742e+00 7.812500e-02 3.372133e-05 -1.926161e-05 -1.110137e-06 -6.587803e-05 6.644897e-01 8.128052e-01
2.080947e+07 1.011230e+00 7.818604e-02 -4.101545e-06 -2.229027e-05 5.230308e-06 4.312396e-05 6.674194e-01 8.215332e-01
2.102820e+07 1.012634e+00 7.989502e-02 -2.041087e-05 -3.823265e-05 -1.095422e-05 -1.455657e-05 6.713867e-01 8.272705e-01
2.124693e+07 1.012878e+00 8.050537e-02 -9.402633e-06 4.477054e-05 -5.302206e-05 -1.783669e-05 6.757812e-01 8.293457e-01
2.146566e+07 1.013794e+00 8.020020e-02 1.472514e-05 -3.194436e-07 -2.208538e-05 1.514517e-05 6.781006e-01 8.289185e-01
2.168439e+07 1.014954e+00 8.178711e-02 3.556907e-05 -3.121793e-06 2.311915e-05 -9.797513e-06 6.796265e-01 8.257446e-01
2.190312e+07 1.014893e+00 8.166504e-02 -7.111579e-06 1.564249e-05 -3.005378e-05 -2.769195e-05 6.784668e-01 8.203735e-01
2.212186e+07 1.015747e+00 8.251953e-02 1.526251e-05 -4.452094e-05 2.973713e-06 1.609419e-05 6.734619e-01 8.133545e-01
2.234059e+07 1.017090e+00 8.203125e-02 -8.757412e-05 -1.272559e-05 -2.417341e-05 4.492700e-06 6.644897e-01 8.088379e-01
2.255932e+07 1.017822e+00 8.221436e-02 6.882101e-05 -1.093373e-05 -5.233660e-05 -5.700067e-05 6.557617e-01 8.044434e-01
2.277805e+07 1.018188e+00 8.245850e-02 2.330728e-05 4.757196e-06 -3.697909e-05 -4.239380e-06 6.433105e-01 8.023071e-01
2.299678e+07 1.019043e+00 8.355713e-02 -1.415797e-05 -8.496456e-06 3.701635e-05 4.226342e-06 6.316528e-01 8.009644e-01
2.321551e+07 1.020142e+00 8.294678e-02 2.949685e-05 2.244487e-06 3.909506e-05 -2.961978e-05 6.180420e-01 8.023071e-01
2.343424e+07 1.020752e+00 8.282471e-02 -2.438575e-05 8.534640e-06 -3.203191e-05 -2.190471e-05 6.051025e-01 8.063354e-01
2.365298e+07 1.021423e+00 8.319092e-02 -1.296028e-05 -2.475083e-05 6.068498e-06 -1.232140e-05 5.933838e-01 8.102417e-01
2.387171e+07 1.022644e+00 8.245850e-02 -6.250106e-06 3.986992e-06 -3.813580e-05 3.517978e-05 5.820312e-01 8.157959e-01
2.409044e+07 1.024597e+00 8.312988e-02 8.586794e-06 4.380196e-05 -2.806634e-05 4.453212e-05 5.739136e-01 8.209839e-01
2.430917e+07 1.024048e+00 8.270264e-02 9.668991e-06 -9.705313e-06 -9.803101e-06 7.458497e-06 5.667725e-01 8.265991e-01
2.452790e+07 1.025085e+00 8.380127e-02 -1.769513e-07 -3.727898e-05 -2.680160e-05 -2.304092e-05 5.596313e-01 8.313599e-01
2.474663e+07 1.025574e+00 8.398438e-02 3.345776e-07 -4.452188e-06 2.815574e-05 3.110617e-07 5.534668e-01 8.353271e-01
2.496536e+07 1.026733e+00 8.398438e-02 7.046387e-06 -1.442339e-05 -3.869273e-05 1.854822e-05 5.494385e-01 8.371582e-01
2.518409e+07 1.027771e+00 8.270264e-02 -1.753494e-05 3.459863e-05 1.955777e-06 -3.418140e-05 5.419922e-01 8.372803e-01
2.540282e+07 1.028137e+00 8.209229e-02 -2.272613e-05 2.377108e-05 -1.490116e-05 2.538599e-05 5.372314e-01 8.364258e-01
2.562156e+07 1.028809e+00 8.337402e-02 -3.247708e-05 -4.733354e-05 -1.154747e-05 1.347996e-05 5.299072e-01 8.330688e-01
2.584029e+07 1.029541e+00 8.276367e-02 3.918074e-05 -3.108755e-06 -3.237277e-06 -6.150454e-05 5.201416e-01 8.294678e-01
2.605902e+07 1.030457e+00 8.172607e-02 -4.868954e-06 -1.536589e-05 3.922917e-05 -1.842156e-06 5.076904e-01 8.256836e-01
2.627775e+07 1.030579e+00 8.215332e-02 6.014481e-06 4.100613e-05 4.662201e-06 -3.484637e-05 4.926147e-01 8.226318e-01
2.649648e+07 1.030701e+00 8.197021e-02 -2.645701e-05 3.264099e-05 1.285411e-05 -3.642961e-05 4.756470e-01 8.209839e-01
2.671521e+07 1.032166e+00 8.172607e-02 2.497807e-06 -3.443286e-05 3.373250e-06 -1.198892e-05 4.586792e-01 8.217773e-01
2.693394e+07 1.032227e+00 8.032227e-02 1.724809e-06 -2.397783e-05 1.074933e-05 2.629682e-05 4.406738e-01 8.245239e-01
2.715268e+07 1.033447e+00 8.154297e-02 -2.958253e-05 3.404357e-05 2.361648e-05 -1.020916e-05 4.216919e-01 8.300171e-01
2.737141e+07 1.033020e+00 7.989502e-02 -1.233816e-05 3.643334e-06 -1.855195e-06 3.447756e-05 4.039917e-01 8.378906e-01
2.759014e+07 1.034119e+00 8.062744e-02 1.641735e-05 2.384558e-05 -1.329556e-05 1.962949e-05 3.865967e-01 8.472290e-01
2.780887e+07 1.034973e+00 8.026123e-02 -4.178286e-05 3.480352e-05 2.548099e-06 2.801232e-05 3.715210e-01 8.580322e-01
2.802760e+07 1.034851e+00 8.026123e-02 4.296191e-06 -1.788046e-05 3.995374e-06 -2.359040e-05 3.585815e-01 8.710938e-01
2.824633e+07 1.035522e+00 7.916260e-02 -3.765803e-06 1.034420e-05 1.500361e-05 -2.574734e-05 3.480835e-01 8.850098e-01
2.846506e+07 1.036438e+00 7.891846e-02 9.593088e-06 -6.905291e-06 2.158806e-05 -2.134033e-05 3.400879e-01 8.988647e-01
2.868379e+07 1.036072e+00 7.867432e-02 -3.396720e-05 8.216128e-06 -1.386926e-05 -7.168204e-05 3.356323e-01 9.108887e-01
2.890252e+07 1.037231e+00 7.849121e-02 -9.075273e-06 -6.356277e-07 3.995374e-06 -2.369843e-05 3.316650e-01 9.213867e-01
2.912126e+07 1.036438e+00 7.739258e-02 9.188429e-06 -8.782372e-07 5.136803e-05 -1.575053e-05 3.288574e-01 9.299316e-01
2.933999e+07 1.037781e+00 7.666016e-02 2.511404e-05 -1.042336e-05 1.118332e-05 -3.088452e-05 3.279419e-01 9.360352e-01
2.955872e+07 1.038208e+00 7.604980e-02 7.336214e-05 -4.670024e-05 -3.147870e-06 -4.535913e-05 3.259888e-01 9.392090e-01
2.977745e+07 1.037964e+00 7.635498e-02 -3.668480e-06 8.903444e-06 -1.371466e-05 -2.606399e-05 3.223877e-01 9.418335e-01
2.999618e+07 1.038574e+00 7.592773e-02 -2.096687e-05 -6.031245e-06 5.932525e-07 -1.163036e-05 3.188477e-01 9.427490e-01
3.021491e+07 1.039612e+00 7.543945e-02 4.564971e-05 3.106892e-06 1.120940e-05 -3.101863e-05 3.118896e-01 9.412842e-01
3.043364e+07 1.039856e+00 7.452393e-02 2.816319e-05 -8.763745e-06 3.281794e-05 -2.377667e-05 3.041382e-01 9.425659e-01
3.065238e+07 1.039185e+00 7.476807e-02 3.099069e-05 -5.541369e-06 -9.965152e-07 -3.443658e-05 2.946167e-01 9.425049e-01
3.087111e+07 1.040100e+00 7.336426e-02 2.826005e-05 -5.479157e-05 -7.178634e-06 -2.170168e-05 2.831421e-01 9.432983e-01
3.108984e+07 1.039978e+00 7.440186e-02 1.826137e-05 5.511567e-06 -2.962165e-05 1.663342e-05 2.716675e-01 9.464111e-01
3.130857e+07 1.040649e+00 7.440186e-02 -1.567043e-05 3.358722e-05 -5.332753e-05 -2.172217e-05 2.604370e-01 9.527588e-01
3.152730e+07 1.039673e+00 7.391357e-02 1.991633e-05 1.162104e-05 6.197020e-06 3.446639e-05 2.478027e-01 9.569702e-01
3.174603e+07 1.039856e+00 7.348633e-02 -6.832182e-06 2.734736e-05 -9.462237e-07 -2.796203e-05 2.377319e-01 9.661255e-01
3.196476e+07 1.039978e+00 7.324219e-02 2.444908e-05 1.154095e-05 9.585172e-06 -1.488719e-05 2.274170e-01 9.746094e-01
3.218349e+07 1.040039e+00 7.348633e-02 -1.560897e-06 -6.044656e-05 1.727603e-06 -1.575612e-05 2.212524e-01 9.856567e-01
3.240222e+07 1.039917e+00 7.348633e-02 -8.111820e-06 -2.096966e-05 1.752563e-05 3.911555e-06 2.162476e-01 9.949951e-01
3.262096e+07 1.041199e+00 7.299805e-02 -1.712423e-05 -1.771282e-05 -1.496449e-05 -2.760813e-05 2.147827e-01 1.004578e+00
3.283969e+07 1.040710e+00 7.257080e-02 2.469867e-06 -2.127327e-05 3.412180e-05 -3.825128e-05 2.152100e-01 1.010437e+00
3.305842e+07 1.040039e+00 7.202148e-02 2.558343e-05 -6.744638e-06 5.001575e-05 -5.215406e-07 2.166138e-01 1.014709e+00
3.327715e+07 1.039612e+00 7.263184e-02 2.895854e-05 5.314127e-06 -5.005300e-05 4.954636e-07 2.184448e-01 1.014526e+00
3.349588e+07 1.039612e+00 7.263184e-02 6.146729e-06 2.876855e-06 2.988428e-05 1.287088e-06 2.196045e-01 1.012451e+00
3.371461e+07 1.040710e+00 7.263184e-02 1.438661e-06 -3.072899e-06 4.434958e-06 3.255159e-05 2.178345e-01 1.005859e+00
3.393334e+07 1.040161e+00 7.128906e-02 2.414361e-05 -6.698072e-06 -3.439933e-05 -3.381073e-05 2.140503e-01 9.989624e-01
3.415208e+07 1.039490e+00 7.208252e-02 -1.261197e-05 -1.792982e-05 -9.629875e-06 5.108118e-05 2.065430e-01 9.902344e-01
3.437081e+07 1.039307e+00 7.208252e-02 2.934597e-05 1.751073e-05 2.556853e-05 2.288446e-05 1.965942e-01 9.824219e-01
3.458954e+07 1.039612e+00 7.232666e-02 -1.131371e-05 3.376603e-05 1.939386e-05 -3.000535e-05 1.823730e-01 9.755249e-01
3.480827e+07 1.039368e+00 7.141113e-02 1.514796e-05 -3.431924e-06 4.406320e-06 -3.533904e-06 1.674194e-01 9.700317e-01
3.502700e+07 1.038391e+00 7.257080e-02 -3.296137e-05 -3.881194e-05 -2.471730e-05 2.337061e-05 1.509399e-01 9.671631e-01
3.524573e+07 1.038269e+00 7.116699e-02 2.285652e-05 -5.792826e-07 5.286187e-06 -2.958439e-05 1.335449e-01 9.669189e-01
3.546446e+07 1.038269e+00 7.122803e-02 9.810552e-06 -3.382750e-05 -2.650172e-05 3.932789e-05 1.162720e-01 9.673462e-01
3.568319e+07 1.038330e+00 7.165527e-02 3.603846e-05 3.576279e-05 -9.731855e-06 -3.092922e-06 9.942627e-02 9.733276e-01
3.590192e+07 1.038147e+00 7.055664e-02 3.804639e-05 -7.020310e-06 8.950010e-07 1.017377e-05 8.325195e-02 9.777832e-01
3.612066e+07 1.037964e+00 7.037354e-02 -1.352932e-05 9.509735e-06 -5.289912e-06 4.782155e-05 7.171631e-02 9.849243e-01
3.633939e+07 1.038086e+00 7.135010e-02 -6.273389e-06 -5.966518e-06 9.747222e-06 2.126954e-05 5.914307e-02 9.909668e-01
3.655812e+07 1.037659e+00 7.092285e-02 1.905486e-05 -3.416836e-05 -1.241080e-05 2.083927e-05 4.943848e-02 9.996948e-01
3.677685e+07 1.036316e+00 7.177734e-02 1.706555e-05 8.782372e-06 5.055591e-05 -4.097819e-07 4.119873e-02 1.005066e+00
3.699558e+07 1.036621e+00 7.043457e-02 1.459382e-06 -3.100373e-06 1.776963e-06 7.497147e-05 3.601074e-02 1.010559e+00
3.721431e+07 1.036560e+00 7.135010e-02 -1.525600e-05 3.447756e-06 8.020550e-06 -3.553182e-05 3.112793e-02 1.015015e+00
3.743304e+07 1.036255e+00 7.061768e-02 -2.691336e-05 2.830662e-05 -3.561378e-06 1.377426e-05 2.758789e-02 1.017639e+00
3.765178e+07 1.035889e+00 7.110596e-02 2.304278e-05 -5.662441e-07 -1.246110e-05 2.663583e-06 2.307129e-02 1.016235e+00
3.787051e+07 1.035522e+00 7.037354e-02 -1.119636e-05 -1.816545e-05 -7.124618e-06 9.348150e-06 1.873779e-02 1.015015e+00
3.808924e+07 1.034912e+00 7.025146e-02 -1.307949e-05 3.107823e-05 -2.319738e-05 4.407763e-05 1.159668e-02 1.009033e+00
3.830797e+07 1.034729e+00 7.049561e-02 -8.064322e-06 -1.519173e-05 -3.206171e-05 -2.186373e-05 4.577637e-03 1.005981e+00
3.852670e+07 1.033997e+00 7.092285e-02 6.975606e-06 -3.097951e-05 2.657063e-06 1.248904e-05 -6.591797e-03 9.998169e-01
3.874543e+07 1.033203e+00 7.086182e-02 2.367795e-05 2.406165e-05 5.370006e-06 -1.158752e-05 -1.934814e-02 9.953003e-01
3.896416e+07 1.032898e+00 7.049561e-02 -1.540035e-05 3.585592e-07 1.693889e-05 1.207832e-05 -3.411865e-02 9.913940e-01
3.918289e+07 1.032715e+00 7.025146e-02 3.818423e-06 3.074110e-05 -5.093217e-05 3.613532e-07 -4.864502e-02 9.902954e-01
3.940162e+07 1.031128e+00 7.073975e-02 -2.099015e-05 2.518669e-05 -1.781620e-05 -2.237037e-05 -6.433105e-02 9.898682e-01
3.962036e+07 1.031982e+00 7.019043e-02 -1.447275e-05 4.048645e-05 -2.413243e-05 -2.105907e-05 -7.995605e-02 9.925537e-01
3.983909e+07 1.030212e+00 6.933594e-02 3.573298e-05 -5.644560e-05 -4.381314e-05 -8.970499e-06 -9.472656e-02 9.977417e-01
4.005782e+07 1.029663e+00 7.012939e-02 1.140311e-05 2.446957e-05 -3.847294e-05 -2.307817e-06 -1.064453e-01 1.004639e+00
4.027655e+07 1.030457e+00 7.104492e-02 -1.760386e-05 4.063360e-05 7.152557e-06 8.981209e-06 -1.163330e-01 1.010925e+00
4.049528e+07 1.028748e+00 7.012939e-02 2.820790e-05 1.480803e-05 -1.615100e-05 1.654495e-05 -1.227417e-01 1.018372e+00
4.071401e+07 1.028076e+00 7.067871e-02 1.414306e-05 8.967705e-06 2.336130e-05 -2.593733e-05 -1.277466e-01 1.023621e+00
4.093274e+07 1.027588e+00 6.915283e-02 -7.384457e-06 1.567043e-05 4.484877e-05 9.723008e-07 -1.296387e-01 1.029663e+00
4.115148e+07 1.027344e+00 7.092285e-02 -9.509735e-06 -9.080395e-06 -1.524016e-05 -9.921379e-06 -1.312866e-01 1.031189e+00
4.137021e+07 1.027161e+00 7.104492e-02 1.677033e-05 -1.279917e-05 3.077462e-05 -7.227436e-05 -1.304321e-01 1.031067e+00
4.158894e+07 1.026245e+00 7.165527e-02 2.771616e-05 -9.961426e-06 2.346188e-05 -2.598576e-05 -1.312256e-01 1.026611e+00
4.180767e+07 1.025696e+00 7.110596e-02 3.570877e-05 -7.711351e-07 -2.225861e-05 -7.427484e-05 -1.325684e-01 1.021301e+00
4.202640e+07 1.024292e+00 7.104492e-02 6.280839e-06 2.963003e-06 -1.162477e-05 -2.388097e-05 -1.359253e-01 1.013245e+00
4.224513e+07 1.024231e+00 7.153320e-02 9.822659e-06 2.155825e-05 -2.662651e-06 -1.262035e-05 -1.411133e-01 1.005554e+00
4.246386e+07 1.023926e+00 7.147217e-02 1.074374e-05 -6.466173e-06 -4.419312e-05 9.343028e-06 -1.480713e-01 9.959717e-01
4.268259e+07 1.023193e+00 7.080078e-02 -1.125969e-05 -1.531653e-05 5.857646e-05 8.687377e-06 -1.566772e-01 9.879761e-01
4.290132e+07 1.021545e+00 7.208252e-02 1.563504e-05 2.766028e-06 3.616512e-05 -2.872013e-05 -1.683350e-01 9.801636e-01
4.312006e+07 1.022217e+00 7.214355e-02 4.292652e-05 3.643893e-05 -6.876141e-05 2.504885e-05 -1.788940e-01 9.729004e-01
4.333879e+07 1.022034e+00 7.232666e-02 2.472848e-05 -9.905547e-06 -6.265938e-06 -1.720432e-05 -1.911621e-01 9.685059e-01
4.355752e+07 1.020935e+00 7.214355e-02 3.417768e-05 -6.999820e-06 2.340972e-05 2.947450e-05 -2.023926e-01 9.647217e-01
4.377625e+07 1.020569e+00 7.287598e-02 1.140032e-05 2.160575e-05 8.076429e-06 1.949258e-05 -2.140503e-01 9.612427e-01
4.399498e+07 1.019348e+00 7.269287e-02 -9.718351e-06 -1.542736e-05 4.079193e-05 -1.388043e-05 -2.246704e-01 9.599609e-01
4.421371e+07 1.018860e+00 7.293701e-02 1.629256e-05 -4.104152e-05 3.614090e-05 2.686307e-05 -2.340088e-01 9.583740e-01
4.443244e+07 1.018127e+00 7.250977e-02 -2.304837e-05 1.927279e-05 7.160753e-05 6.128103e-06 -2.406616e-01 9.578857e-01
4.465118e+07 1.017151e+00 7.379150e-02 -1.603737e-05 -1.842901e-05 -2.456829e-05 1.578033e-05 -2.476807e-01 9.561768e-01
4.486991e+07 1.016663e+00 7.305908e-02 6.610528e-06 1.552328e-05 -1.975894e-05 -6.223470e-05 -2.526855e-01 9.542236e-01
4.508864e+07 1.015808e+00 7.427979e-02 -7.145107e-06 -4.060753e-05 6.528571e-06 -3.856421e-05 -2.571411e-01 9.487915e-01
4.530737e+07 1.015503e+00 7.397461e-02 1.078146e-05 -9.650365e-06 1.831912e-05 -3.310479e-05 -2.609253e-01 9.425659e-01
4.552610e+07 1.014343e+00 7.531738e-02 -1.577009e-05 -2.807938e-06 -4.092231e-05 -4.764646e-06 -2.647705e-01 9.337769e-01
4.574483e+07 1.013977e+00 7.476807e-02 1.275074e-05 9.169802e-06 5.432870e-06 6.852672e-06 -2.705078e-01 9.250488e-01
4.596356e+07 1.013306e+00 7.513428e-02 1.042336e-05 4.692748e-05 2.735294e-05 -3.052875e-06 -2.784424e-01 9.128418e-01
4.618229e+07 1.013062e+00 7.482910e-02 5.104020e-05 3.352389e-05 -2.839975e-05 2.996251e-05 -2.877808e-01 9.006958e-01
4.640102e+07 1.010803e+00 7.611084e-02 2.110563e-05 3.104657e-05 -1.182035e-05 -5.534850e-06 -2.984619e-01 8.895264e-01
4.661976e+07 1.010559e+00 7.678223e-02 3.943965e-05 2.326444e-06 1.470186e-05 -1.908187e-05 -3.121948e-01 8.786621e-01
4.683849e+07 1.009338e+00 7.720947e-02 8.733943e-06 -3.487617e-05 -3.017113e-05 8.942559e-06 -3.270264e-01 8.682861e-01
4.705722e+07 1.009338e+00 7.666016e-02 -6.641261e-06 -1.562573e-05 2.121739e-05 -3.918633e-05 -3.430176e-01 8.602905e-01
4.727595e+07 1.008911e+00 7.794189e-02 2.235919e-05 1.216307e-05 -6.207079e-05 -2.185628e-05 -3.598633e-01 8.536987e-01
4.749468e+07 1.008240e+00 7.757568e-02 2.127513e-05 -4.149228e-05 -2.191775e-05 -8.810312e-06 -3.763428e-01 8.496704e-01
4.771341e+07 1.007324e+00 7.812500e-02 -1.060963e-05 -5.349889e-05 -2.748705e-05 3.062189e-06 -3.927002e-01 8.445435e-01
4.793214e+07 1.006836e+00 7.818604e-02 2.021715e-05 -1.623947e-05 -2.386607e-05 7.664785e-06 -4.071655e-01 8.447266e-01
4.815088e+07 1.006104e+00 7.934570e-02 -6.324612e-06 1.252629e-07 -3.043562e-05 2.777204e-05 -4.221191e-01 8.435669e-01
4.836961e+07 1.005615e+00 8.013916e-02 3.070943e-05 3.103353e-05 4.393980e-06 3.397837e-05 -4.336548e-01 8.433838e-01
4.858834e+07 1.004333e+00 8.154297e-02 -1.801178e-05 5.101413e-05 4.723668e-05 -6.344542e-05 -4.471436e-01 8.423462e-01
4.880707e+07 1.003784e+00 8.154297e-02 -6.081536e-06 1.280755e-05 3.039837e-06 -4.360080e-05 -4.564819e-01 8.432007e-01
4.902580e+07 1.003174e+00 8.154297e-02 -1.412909e-05 6.612390e-06 -1.555495e-05 -1.021102e-05 -4.663696e-01 8.413086e-01
4.924453e+07 1.002502e+00 8.215332e-02 -6.157905e-06 9.640586e-06 4.865229e-06 -4.135072e-05 -4.762573e-01 8.389893e-01
4.946326e+07 1.001465e+00 8.294678e-02 3.045611e-05 1.526996e-05 -4.889816e-05 2.357736e-05 -4.852295e-01 8.357544e-01
4.968199e+07 1.000549e+00 8.294678e-02 -1.941345e-10 -1.865885e-10 2.214126e-05 -9.987503e-06 -4.950562e-01 8.319092e-01
4.990072e+07 1.000488e+00 8.343506e-02 -5.969778e-06 1.918152e-05 2.119131e-05 -1.708046e-06 -5.062256e-01 8.267822e-01
5.011946e+07 9.995728e-01 8.447266e-02 -1.375191e-05 2.889335e-05 -3.132597e-05 -1.594424e-06 -5.167236e-01 8.225708e-01
5.033819e+07 9.992065e-01 8.538818e-02 1.424551e-05 -3.458932e-06 -4.343688e-05 1.167133e-05 -5.288086e-01 8.169556e-01
5.055692e+07 9.979248e-01 8.593750e-02 -1.521222e-05 3.531016e-05 2.304837e-05 6.258488e-07 -5.426025e-01 8.134766e-01
5.077565e+07 9.980469e-01 8.557129e-02 -2.260320e-05 -1.548044e-05 1.025200e-05 -1.562946e-05 -5.576782e-01 8.092041e-01
5.099438e+07 9.970093e-01 8.666992e-02 3.235415e-05 -5.796924e-05 2.604164e-05 -2.429634e-05 -5.727539e-01 8.082886e-01
5.121311e+07 9.954834e-01 8.782959e-02 -2.768077e-05 -3.132597e-05 -7.461291e-06 9.642914e-06 -5.899658e-01 8.071289e-01
5.143184e+07 9.949951e-01 8.831787e-02 -2.649613e-05 3.241189e-05 -2.531335e-06 -3.189966e-05 -6.057739e-01 8.105469e-01
5.165058e+07 9.932861e-01 8.935547e-02 4.600268e-06 -9.659678e-06 -3.656140e-06 -4.646834e-06 -6.209717e-01 8.150635e-01
5.186931e+07 9.937744e-01 8.941650e-02 -2.132729e-06 -2.869591e-05 -1.044944e-05 3.461167e-05 -6.339722e-01 8.238525e-01
5.208804e+07 9.928589e-01 8.935547e-02 4.420988e-06 -1.922995e-05 -1.467206e-05 -1.861248e-05 -6.453857e-01 8.328857e-01
5.230677e+07 9.919434e-01 9.088135e-02 8.048024e-06 3.045425e-06 -3.667315e-06 -4.655682e-06 -6.524048e-01 8.425293e-01
5.252550e+07 9.906006e-01 9.161377e-02 5.915761e-06 -2.568774e-05 7.478055e-06 -9.659678e-06 -6.521606e-01 8.544922e-01
5.274423e+07 9.901733e-01 9.228516e-02 1.359731e-05 4.449114e-05 -2.116524e-05 -1.729839e-05 -6.525879e-01 8.637695e-01
5.296296e+07 9.895020e-01 9.259033e-02 2.751686e-05 1.865998e-05 -2.995506e-05 3.865734e-05 -6.463623e-01 8.692017e-01
5.318169e+07 9.882812e-01 9.320068e-02 2.766587e-05 2.508797e-05 -3.822148e-06 1.432560e-05 -6.405029e-01 8.707886e-01
5.340042e+07 9.882812e-01 9.448242e-02 -4.447997e-06 1.929048e-05 3.434718e-05 -4.341826e-06 -6.300659e-01 8.692017e-01
5.361916e+07 9.876709e-01 9.545898e-02 2.110470e-05 1.562573e-05 3.673136e-06 4.671980e-06 -6.254883e-01 8.621826e-01
5.383789e+07 9.868164e-01 9.625244e-02 -1.542503e-06 3.228197e-06 -1.952983e-05 4.000962e-06 -6.196899e-01 8.522949e-01
5.405662e+07 9.862061e-01 9.667969e-02 -1.263246e-05 9.843148e-06 3.739446e-05 -2.936460e-05 -6.171875e-01 8.409424e-01
5.427535e+07 9.852295e-01 9.735107e-02 -1.419615e-05 1.307484e-05 1.235493e-05 -3.238767e-05 -6.188965e-01 8.273315e-01
5.449408e+07 9.843140e-01 9.930420e-02 -2.376921e-05 1.646578e-05 5.683862e-06 -1.201592e-05 -6.226196e-01 8.132324e-01
5.471281e+07 9.838257e-01 9.912109e-02 6.578397e-06 9.507407e-06 -2.238341e-05 1.003034e-05 -6.284790e-01 8.012695e-01
5.493154e+07 9.827881e-01 1.005249e-01 9.838492e-06 1.266226e-05 2.484769e-06 3.207661e-05 -6.374512e-01 7.913208e-01
5.515028e+07 9.832153e-01 1.006470e-01 3.879145e-05 1.541711e-05 1.839176e-05 2.340972e-05 -6.468506e-01 7.816772e-01
5.536901e+07 9.818726e-01 1.021118e-01 -3.062002e-05 -5.882233e-06 4.502013e-06 1.539197e-05 -6.561279e-01 7.756958e-01
5.558774e+07 9.813843e-01 1.027222e-01 -6.364193e-06 3.321562e-06 -2.877787e-05 -7.709488e-06 -6.660156e-01 7.696533e-01
5.580647e+07 9.801636e-01 1.036987e-01 -5.625933e-05 -2.231449e-06 -7.538125e-06 9.694137e-06 -6.755981e-01 7.669067e-01
5.602520e+07 9.806519e-01 1.038818e-01 -1.141801e-05 -9.448268e-06 -1.389906e-05 -8.045696e-06 -6.820679e-01 7.659302e-01
5.624393e+07 9.782715e-01 1.057129e-01 -3.708526e-06 -2.887845e-05 -1.955777e-07 1.907349e-05 -6.882324e-01 7.640381e-01
5.646266e+07 9.779053e-01 1.058960e-01 4.198216e-05 8.957461e-06 -3.496185e-06 -2.377667e-05 -6.900024e-01 7.636719e-01
5.668139e+07 9.776001e-01 1.075439e-01 9.314157e-06 -1.945719e-05 -2.634339e-05 2.441555e-05 -6.907959e-01 7.631226e-01
5.690012e+07 9.766846e-01 1.083984e-01 2.391636e-05 -1.327321e-05 -7.141382e-06 -2.849847e-05 -6.885376e-01 7.598877e-01
5.711886e+07 9.762573e-01 1.088867e-01 -1.942180e-05 -6.125309e-06 4.743412e-05 1.214445e-05 -6.853638e-01 7.542725e-01
5.733759e+07 9.754639e-01 1.093140e-01 -5.848706e-06 3.552251e-05 1.326576e-05 -2.177618e-05 -6.810913e-01 7.455444e-01
5.755632e+07 9.757080e-01 1.107788e-01 -4.399568e-06 2.583861e-05 1.494028e-05 -3.110617e-07 -6.777344e-01 7.349854e-01
5.777505e+07 9.752808e-01 1.112671e-01 1.138449e-05 6.261282e-06 -8.188188e-06 -2.016500e-05 -6.739502e-01 7.216187e-01
5.799378e+07 9.734497e-01 1.133423e-01 -8.881092e-06 4.852936e-05 -6.021932e-05 3.943592e-05 -6.733398e-01 7.053223e-01
5.821251e+07 9.725952e-01 1.136475e-01 3.384892e-06 9.625684e-06 5.908310e-06 5.609170e-05 -6.745605e-01 6.882019e-01
5.843124e+07 9.727173e-01 1.143799e-01 -1.483690e-05 -1.912098e-05 1.229253e-05 -1.341198e-05 -6.780396e-01 6.706543e-01
5.864998e+07 9.724731e-01 1.151733e-01 9.143725e-06 -3.243983e-05 1.885928e-05 -1.475215e-05 -6.846924e-01 6.522217e-01
5.886871e+07 9.707031e-01 1.159668e-01 9.599142e-06 -6.605871e-06 -3.052130e-05 -2.930872e-05 -6.931763e-01 6.345520e-01
5.908744e+07 9.715576e-01 1.172485e-01 3.284542e-06 3.179535e-06 3.481284e-06 2.391264e-05 -7.036743e-01 6.184082e-01
5.930617e+07 9.710083e-01 1.177979e-01 2.107304e-05 2.903864e-06 -4.724134e-06 3.695022e-06 -7.161255e-01 6.040039e-01
5.952490e+07 9.700928e-01 1.193848e-01 9.751879e-06 3.090594e-06 1.232699e-05 -1.343433e-05 -7.290649e-01 5.919800e-01
5.974363e+07 9.697876e-01 1.203003e-01 -3.382098e-06 -9.659212e-06 -2.365373e-05 1.846254e-05 -7.433472e-01 5.819702e-01
5.996236e+07 9.694214e-01 1.220093e-01 3.087800e-06 -9.764452e-06 -2.897717e-05 -7.875264e-06 -7.567749e-01 5.748291e-01
6.018109e+07 9.686890e-01 1.220703e-01 -1.084432e-05 3.255345e-05 8.203089e-06 2.026558e-05 -7.677612e-01 5.681152e-01
6.039982e+07 9.681396e-01 1.231079e-01 -3.053807e-06 1.301616e-05 5.775131e-06 -1.213420e-05 -7.782593e-01 5.643921e-01
6.061856e+07 9.677124e-01 1.242065e-01 3.943220e-05 3.506616e-05 -5.907193e-05 -7.249415e-06 -7.885742e-01 5.606079e-01
6.083729e+07 9.673462e-01 1.255493e-01 9.980984e-06 1.608860e-05 4.059449e-05 -1.640245e-05 -7.954712e-01 5.576172e-01
6.105602e+07 9.655151e-01 1.259766e-01 -1.684763e-05 -1.573097e-05 1.251698e-05 -5.042553e-05 -8.002930e-01 5.533447e-01
6.127475e+07 9.650269e-01 1.266479e-01 -3.296882e-07 1.403783e-05 -2.145767e-05 -1.761876e-05 -8.055420e-01 5.492554e-01
6.149348e+07 9.649048e-01 1.281128e-01 -4.285946e-06 -4.512258e-07 -2.499670e-06 2.018735e-05 -8.084717e-01 5.427856e-01
6.171221e+07 9.638672e-01 1.292725e-01 3.280863e-05 -3.185123e-06 5.052425e-06 1.008809e-05 -8.108521e-01 5.375977e-01
6.193094e+07 9.639282e-01 1.298218e-01 9.475276e-06 -7.671770e-06 -3.028847e-05 2.564862e-06 -8.140259e-01 5.292358e-01
6.214968e+07 9.639282e-01 1.311035e-01 2.565794e-05 -7.165596e-06 7.593073e-06 1.515821e-05 -8.167725e-01 5.206909e-01
6.236841e+07 9.633179e-01 1.315308e-01 -2.827868e-05 3.295951e-05 1.376122e-05 -7.332489e-05 -8.210449e-01 5.112915e-01
6.258714e+07 9.630127e-01 1.326904e-01 -4.343130e-05 4.338846e-05 -3.921427e-05 -1.511537e-05 -8.256226e-01 5.020142e-01
6.280587e+07 9.622803e-01 1.336060e-01 -2.557412e-05 1.695752e-05 3.658235e-06 -8.094311e-05 -8.319702e-01 4.917603e-01
6.302460e+07 9.622803e-01 1.347046e-01 -1.934357e-06 -2.366491e-06 5.072914e-06 1.011509e-05 -8.367920e-01 4.815674e-01
6.324333e+07 9.625244e-01 1.355591e-01 9.675859e-07 1.183245e-06 3.542937e-05 -1.779012e-05 -8.435669e-01 4.729614e-01
6.346206e+07 9.623413e-01 1.361084e-01 -2.259761e-05 3.032573e-05 1.505214e-10 -4.543494e-10 -8.511353e-01 4.658813e-01
6.368079e+07 9.620972e-01 1.370239e-01 -2.893992e-05 -2.573431e-05 2.536550e-05 1.262128e-05 -8.597412e-01 4.592896e-01
6.389952e+07 9.616089e-01 1.385498e-01 7.650349e-06 -3.185123e-07 -2.553686e-06 -1.774449e-05 -8.663940e-01 4.542847e-01
6.411826e+07 9.616699e-01 1.394653e-01 1.841784e-05 2.253056e-05 2.540462e-05 2.533942e-05 -8.729858e-01 4.499512e-01
6.433699e+07 9.608154e-01 1.398315e-01 -2.479367e-05 8.394942e-06 2.142042e-08 1.268275e-05 -8.782959e-01 4.474487e-01
6.455572e+07 9.610596e-01 1.413574e-01 2.484769e-06 -3.567897e-05 -3.048778e-05 -1.011416e-05 -8.811035e-01 4.455566e-01
6.477445e+07 9.604492e-01 1.416016e-01 -1.090765e-05 1.089927e-05 6.318092e-06 -1.271069e-05 -8.820801e-01 4.414062e-01
6.499318e+07 9.603271e-01 1.436768e-01 2.008490e-05 -4.538335e-06 5.097128e-06 1.015514e-05 -8.822021e-01 4.385376e-01
6.521191e+07 9.591064e-01 1.436157e-01 -2.309680e-07 2.396293e-05 1.147203e-05 2.282113e-05 -8.805542e-01 4.325562e-01
6.543064e+07 9.597168e-01 1.454468e-01 -2.744049e-05 3.432482e-05 -1.016352e-05 5.098060e-06 -8.772583e-01 4.262695e-01
6.564938e+07 9.593506e-01 1.465454e-01 -2.865680e-05 1.352653e-05 -5.103648e-06 -1.016352e-05 -8.752441e-01 4.171753e-01
6.586811e+07 9.592285e-01 1.471558e-01 1.024827e-05 -2.629310e-05 -2.289005e-05 5.131587e-06 -8.732910e-01 4.060669e-01
6.608684e+07 9.592285e-01 1.489868e-01 -1.627021e-06 -1.654960e-05 -7.255375e-05 7.681549e-06 -8.714600e-01 3.944702e-01
6.630557e+07 9.586182e-01 1.494141e-01 4.956499e-05 7.141382e-06 -1.779199e-05 1.530722e-05 -8.709106e-01 3.809814e-01
6.652430e+07 9.583130e-01 1.506348e-01 -1.322478e-05 2.274476e-05 1.274887e-05 1.270976e-05 -8.731689e-01 3.673096e-01
6.674303e+07 9.582520e-01 1.511841e-01 9.834766e-07 -4.256517e-05 -2.158247e-05 3.316626e-05 -8.765259e-01 3.548584e-01
6.696176e+07 9.581909e-01 1.522217e-01 1.343712e-05 -3.026798e-06 -3.184378e-05 1.280941e-05 -8.807983e-01 3.413086e-01
6.718049e+07 9.578247e-01 1.529541e-01 7.370487e-06 1.388788e-05 7.677823e-06 1.528021e-05 -8.845215e-01 3.295288e-01
6.739922e+07 9.581299e-01 1.544189e-01 -5.486608e-05 -4.272535e-05 2.172403e-05 1.782365e-05 -8.906860e-01 3.188477e-01
6.761796e+07 9.583130e-01 1.544189e-01 -1.736265e-05 -1.736917e-06 -1.529884e-05 7.691793e-06 -8.967285e-01 3.086548e-01
6.783669e+07 9.575195e-01 1.565552e-01 1.638662e-05 5.429611e-07 -1.333654e-06 -6.636232e-05 -9.010620e-01 3.003540e-01
6.805542e+07 9.580078e-01 1.570435e-01 3.475323e-05 3.473833e-06 -3.868714e-06 -2.042763e-05 -9.049683e-01 2.913818e-01
6.827415e+07 9.575806e-01 1.582642e-01 3.204495e-05 -2.421252e-05 -1.155585e-05 -3.574230e-05 -9.088745e-01 2.832642e-01
6.849288e+07 9.572754e-01 1.588135e-01 8.789357e-06 1.076236e-05 5.021691e-06 -4.090369e-05 -9.107666e-01 2.746582e-01
6.871161e+07 9.575195e-01 1.602783e-01 -1.140218e-05 1.533329e-05 1.583248e-08 1.279078e-05 -9.118042e-01 2.655640e-01
6.893034e+07 9.580078e-01 1.608276e-01 1.978781e-05 -2.272427e-07 1.925603e-05 2.555922e-05 -9.129028e-01 2.559204e-01
6.914908e+07 9.567261e-01 1.618652e-01 6.243214e-05 -3.112108e-05 -3.773719e-06 3.070384e-05 -9.128418e-01 2.455444e-01
6.936781e+07 9.569702e-01 1.630249e-01 -2.043135e-05 2.873316e-05 2.557226e-05 -1.285039e-05 -9.128418e-01 2.332764e-01
6.958654e+07 9.575806e-01 1.641846e-01 3.200583e-05 9.804964e-06 -1.242384e-06 2.306513e-05 -9.133301e-01 2.195435e-01
6.980527e+07 9.577026e-01 1.650391e-01 4.777685e-05 -4.914403e-05 2.815388e-05 -2.056919e-05 -9.147339e-01 2.050171e-01
7.002400e+07 9.575806e-01 1.666870e-01 3.345124e-05 6.608665e-06 -7.823110e-08 -5.129352e-05 -9.177246e-01 1.892090e-01
7.024273e+07 9.574585e-01 1.680298e-01 -1.415843e-06 3.160443e-06 -5.200505e-06 -4.875287e-05 -9.211426e-01 1.730957e-01
7.046146e+07 9.575195e-01 1.682739e-01 2.223812e-05 -2.186745e-06 1.278892e-05 -2.568774e-05 -9.267578e-01 1.560669e-01
7.068019e+07 9.570312e-01 1.694946e-01 -3.172085e-06 -2.345629e-05 2.510846e-06 -3.337301e-05 -9.348755e-01 1.395264e-01
7.089892e+07 9.575806e-01 1.702881e-01 -1.307577e-06 1.308694e-05 1.794193e-05 -1.545530e-05 -9.439087e-01 1.231079e-01
7.111766e+07 9.572144e-01 1.713867e-01 1.474470e-05 6.207451e-05 2.429262e-05 -4.115701e-05 -9.549561e-01 1.085815e-01
7.133639e+07 9.572754e-01 1.726685e-01 2.206862e-05 2.204068e-05 5.645305e-05 -4.121661e-05 -9.687500e-01 9.558105e-02
7.155512e+07 9.575195e-01 1.731567e-01 -2.478994e-05 3.834628e-05 -3.341399e-05 -2.503395e-06 -9.828491e-01 8.477783e-02
7.177385e+07 9.575195e-01 1.738281e-01 -2.284721e-05 -3.363937e-06 5.012751e-05 -2.685934e-06 -9.971924e-01 7.843018e-02
7.199258e+07 9.581299e-01 1.747437e-01 1.465157e-05 8.076429e-06 1.413096e-05 -1.032557e-05 -1.011902e+00 7.214355e-02
7.221131e+07 9.578247e-01 1.758423e-01 -1.911446e-05 2.570637e-05 3.224425e-05 3.855489e-05 -1.023743e+00 7.061768e-02
7.243004e+07 9.576416e-01 1.767578e-01 -2.310239e-05 -2.325512e-05 -3.801659e-06 3.090315e-05 -1.035339e+00 7.135010e-02
7.264878e+07 9.574585e-01 1.770630e-01 -1.139473e-05 -1.880527e-05 3.346987e-05 2.497807e-06 -1.041077e+00 7.238770e-02
7.286751e+07 9.578247e-01 1.783447e-01 2.165418e-05 -1.775380e-05 1.356006e-06 2.833642e-05 -1.045715e+00 7.379150e-02
7.308624e+07 9.581299e-01 1.798096e-01 3.073551e-05 -3.123283e-05 3.733113e-05 -2.842769e-05 -1.047791e+00 7.537842e-02
7.330497e+07 9.575806e-01 1.809082e-01 3.718771e-06 -1.511723e-05 1.420267e-05 1.543574e-05 -1.047119e+00 7.415771e-02
7.352370e+07 9.580688e-01 1.818237e-01 4.819594e-06 -3.944617e-06 -2.579018e-05 4.470348e-08 -1.044739e+00 7.159424e-02
7.374243e+07 9.573975e-01 1.825562e-01 -1.099147e-05 -2.325140e-05 7.766299e-06 1.545530e-05 -1.042419e+00 6.738281e-02
7.396116e+07 9.581299e-01 1.837158e-01 -1.886580e-05 1.142174e-05 -1.158752e-05 1.550745e-05 -1.040222e+00 5.987549e-02
7.417989e+07 9.586792e-01 1.840820e-01 -1.713727e-05 -6.118789e-06 -6.394461e-06 2.584234e-05 -1.038452e+00 5.236816e-02
7.439862e+07 9.581909e-01 1.854248e-01 -3.805757e-05 3.728084e-05 1.156889e-05 -2.842396e-05 -1.039368e+00 4.302979e-02
7.461736e+07 9.584961e-01 1.862183e-01 -1.887511e-05 1.144875e-05 -2.644956e-06 -3.099628e-05 -1.040527e+00 3.442383e-02
7.483609e+07 9.586182e-01 1.871338e-01 5.868077e-05 -3.191084e-05 -1.354143e-06 -2.842024e-05 -1.042419e+00 2.441406e-02
7.505482e+07 9.584961e-01 1.885376e-01 -1.759920e-05 -1.735054e-06 3.358163e-05 -1.041777e-05 -1.047180e+00 1.715088e-02
7.527355e+07 9.589844e-01 1.887207e-01 -1.474656e-05 -8.114614e-06 -2.973154e-05 5.245209e-06 -1.052368e+00 1.098633e-02
7.549228e+07 9.595337e-01 1.901245e-01 -9.485520e-06 -1.649186e-05 -1.291186e-05 1.297146e-05 -1.057068e+00 7.934570e-03
7.571101e+07 9.603271e-01 1.905518e-01 -1.550000e-05 1.069997e-05 2.850592e-05 5.099922e-06 -1.062134e+00 6.530762e-03
7.592974e+07 9.599609e-01 1.917725e-01 5.277246e-05 -3.926829e-05 2.195314e-05 -2.077408e-05 -1.065369e+00 6.713867e-03
7.614848e+07 9.595947e-01 1.925049e-01 -8.651987e-07 8.808915e-06 -1.389533e-06 -4.141033e-05 -1.065918e+00 9.155273e-03
7.636721e+07 9.598389e-01 1.940918e-01 -4.216656e-05 -4.640967e-05 -7.801689e-06 -1.552701e-05 -1.062927e+00 1.281738e-02
7.658594e+07 9.610596e-01 1.951294e-01 5.401438e-06 1.646578e-06 3.892742e-05 1.288578e-05 -1.057007e+00 1.721191e-02
7.680467e+07 9.609375e-01 1.951294e-01 -4.842877e-06 3.975816e-06 4.658848e-05 -4.938990e-05 -1.047302e+00 1.818848e-02
7.702340e+07 9.607544e-01 1.961060e-01 6.470829e-06 4.739687e-05 -6.458722e-06 1.298357e-05 -1.035339e+00 1.873779e-02
7.724213e+07 9.605713e-01 1.964722e-01 -3.729574e-05 -5.893409e-06 2.986751e-05 2.067722e-05 -1.020569e+00 1.617432e-02
7.746086e+07 9.611206e-01 1.976929e-01 1.041219e-06 -3.330596e-05 -1.555402e-05 7.822178e-06 -1.006348e+00 9.277344e-03
7.767959e+07 9.614868e-01 1.984863e-01 2.082530e-05 -1.913309e-05 -2.338551e-05 -7.735565e-06 -9.913940e-01 -1.220703e-04
7.789832e+07 9.619751e-01 1.994629e-01 -6.455928e-06 3.171898e-05 -1.818314e-05 2.633780e-06 -9.769897e-01 -1.208496e-02
7.811706e+07 9.618530e-01 2.003174e-01 -2.153218e-05 3.475696e-06 -2.641231e-06 -1.818407e-05 -9.649658e-01 -2.777100e-02
7.833579e+07 9.622192e-01 2.008667e-01 3.656745e-05 -1.986139e-05 -1.826882e-05 -2.336502e-05 -9.550171e-01 -4.370117e-02
7.855452e+07 9.626465e-01 2.019653e-01 6.079674e-06 5.195290e-05 5.169772e-06 -1.562666e-05 -9.464722e-01 -6.060791e-02
7.877325e+07 9.630737e-01 2.022095e-01 1.069158e-06 4.590303e-05 -1.559500e-05 7.853843e-06 -9.403687e-01 -7.849121e-02
7.899198e+07 9.626465e-01 2.039795e-01 -2.570078e-05 -1.145899e-05 -4.944578e-05 5.301088e-06 -9.381104e-01 -9.564209e-02
7.921071e+07 9.628906e-01 2.042236e-01 -1.540221e-05 -1.379289e-05 2.341531e-05 -5.261973e-06 -9.357910e-01 -1.126709e-01
7.942944e+07 9.638062e-01 2.053833e-01 -1.640618e-05 -1.500733e-05 -3.778376e-05 2.698973e-06 -9.357300e-01 -1.274414e-01
7.964818e+07 9.634399e-01 2.061768e-01 -1.785718e-05 -1.181196e-05 -2.346002e-05 -7.759780e-06 -9.372559e-01 -1.408691e-01
7.986691e+07 9.643555e-01 2.064209e-01 -2.815388e-05 -9.467825e-06 1.816824e-05 -2.872013e-05 -9.374390e-01 -1.528931e-01
8.008564e+07 9.645386e-01 2.075806e-01 -3.868714e-06 5.215872e-06 -2.473220e-05 1.570769e-05 -9.398804e-01 -1.630859e-01
8.030437e+07 9.647827e-01 2.081299e-01 7.078052e-07 1.574028e-05 3.518537e-05 -7.925555e-06 -9.397583e-01 -1.718750e-01
8.052310e+07 9.649048e-01 2.090454e-01 2.236292e-05 -2.245232e-05 -4.175305e-05 -5.092472e-06 -9.383545e-01 -1.792603e-01
8.074183e+07 9.653320e-01 2.102051e-01 -4.482269e-05 9.313226e-08 -6.621704e-06 -3.915094e-05 -9.376831e-01 -1.858521e-01
8.096056e+07 9.650879e-01 2.109375e-01 3.698841e-05 -3.449619e-05 3.000349e-05 -5.280599e-06 -9.342651e-01 -1.925659e-01
8.117929e+07 9.662476e-01 2.109375e-01 1.088344e-05 3.303401e-06 2.507120e-06 -3.397092e-05 -9.294434e-01 -1.987915e-01
8.139802e+07 9.662476e-01 2.119751e-01 -3.742799e-05 4.174188e-06 3.941357e-06 7.826369e-06 -9.242554e-01 -2.062988e-01
8.161676e+07 9.663696e-01 2.120972e-01 -2.364814e-05 -3.369339e-05 -1.040753e-05 1.832470e-05 -9.172974e-01 -2.140503e-01
8.183549e+07 9.666138e-01 2.128906e-01 2.665073e-05 2.628192e-06 -2.888963e-05 -4.436076e-05 -9.104004e-01 -2.243652e-01
8.205422e+07 9.672241e-01 2.141724e-01 2.581999e-05 1.151115e-05 -6.472692e-06 2.618134e-05 -9.042969e-01 -2.357178e-01
8.227295e+07 9.672241e-01 2.145386e-01 -1.562759e-05 -2.398528e-05 -2.083927e-05 3.668293e-05 -8.981934e-01 -2.475586e-01
8.249168e+07 9.683838e-01 2.150269e-01 -1.350604e-05 2.340786e-05 5.877391e-05 -5.258247e-05 -8.931274e-01 -2.601929e-01
8.271041e+07 9.675293e-01 2.156982e-01 2.931617e-05 -2.414174e-05 -3.662705e-05 5.329028e-06 -8.889160e-01 -2.749023e-01
8.292914e+07 9.689331e-01 2.164307e-01 4.537776e-05 -4.608184e-06 1.570303e-05 -7.906929e-06 -8.865967e-01 -2.871094e-01
8.314788e+07 9.681396e-01 2.172241e-01 -2.213567e-05 7.960945e-06 1.181103e-05 1.044758e-05 -8.864746e-01 -3.008423e-01
8.336661e+07 9.684448e-01 2.183228e-01 6.726012e-05 2.030283e-06 2.572313e-06 -2.097338e-05 -8.859253e-01 -3.133545e-01
8.358534e+07 9.697876e-01 2.183228e-01 7.346272e-06 -6.040093e-06 3.939122e-05 1.297519e-05 -8.876343e-01 -3.254395e-01
8.380407e+07 9.701538e-01 2.193604e-01 7.191673e-06 1.870841e-05 2.363883e-05 7.800758e-06 -8.897095e-01 -3.360596e-01
8.402280e+07 9.711914e-01 2.192993e-01 -1.339242e-05 -1.310371e-06 4.723296e-05 -1.068041e-05 -8.917847e-01 -3.442383e-01
8.424153e+07 9.705811e-01 2.204590e-01 -5.562231e-05 2.726912e-05 2.100877e-05 2.559274e-06 -8.936157e-01 -3.519287e-01
8.446026e+07 9.714355e-01 2.208862e-01 -3.430247e-05 2.823398e-05 -1.176726e-05 1.580454e-05 -8.939209e-01 -3.572388e-01
8.467899e+07 9.716187e-01 2.215576e-01 -4.408881e-05 -3.362447e-05 -5.396083e-05 -2.873316e-05 -8.942261e-01 -3.612671e-01
8.489772e+07 9.716797e-01 2.224731e-01 5.616806e-06 1.182780e-05 5.249307e-05 -2.644956e-05 -8.917847e-01 -3.662720e-01
8.511646e+07 9.720459e-01 2.227173e-01 -2.236292e-05 -2.160668e-06 -1.583621e-05 -1.835357e-05 -8.884888e-01 -3.698730e-01
8.533519e+07 9.718018e-01 2.238159e-01 -4.615169e-06 -1.060497e-05 -6.606802e-06 -1.313165e-05 -8.842163e-01 -3.756104e-01
8.555392e+07 9.735107e-01 2.244873e-01 6.204471e-06 -1.747068e-05 -2.629869e-05 1.324899e-05 -8.785400e-01 -3.814697e-01
8.577265e+07 9.740601e-01 2.247314e-01 2.830476e-05 -6.202608e-07 9.240117e-06 5.238689e-06 -8.728027e-01 -3.886108e-01
8.599138e+07 9.738159e-01 2.256470e-01 4.552305e-05 2.026185e-05 -5.036592e-06 8.168817e-05 -8.675537e-01 -3.969116e-01
8.621011e+07 9.743042e-01 2.260132e-01 -2.903864e-05 1.980364e-05 7.917173e-06 2.614222e-06 -8.617554e-01 -4.057007e-01
8.642884e+07 9.745483e-01 2.269897e-01 -5.932525e-06 -3.223307e-05 -1.199171e-05 -5.007535e-05 -8.583984e-01 -4.156494e-01
8.664758e+07 9.751587e-01 2.265625e-01 8.675270e-06 -1.952145e-05 -1.452118e-05 -2.595596e-06 -8.557129e-01 -4.265747e-01
8.686631e+07 9.752197e-01 2.277832e-01 3.689155e-05 -3.037415e-05 1.050439e-05 -1.850817e-05 -8.529663e-01 -4.353638e-01
8.708504e+07 9.754028e-01 2.271729e-01 -2.908893e-05 -1.528487e-05 2.704561e-06 1.846533e-05 -8.515625e-01 -4.452515e-01
8.730377e+07 9.755859e-01 2.280273e-01 -5.529821e-05 -1.970679e-06 -3.961101e-05 1.154840e-07 -8.513794e-01 -4.532471e-01
8.752250e+07 9.763794e-01 2.289429e-01 2.596527e-06 4.330091e-05 -2.771989e-05 1.065247e-05 -8.507690e-01 -4.601440e-01
8.774123e+07 9.765015e-01 2.282715e-01 -9.418465e-06 3.621448e-06 2.753362e-05 -5.031005e-05 -8.500366e-01 -4.663696e-01
8.795996e+07 9.767456e-01 2.286987e-01 -8.271076e-06 1.507718e-05 -2.559274e-06 2.115779e-05 -8.486938e-01 -4.703369e-01
8.817869e+07 9.780884e-01 2.293701e-01 2.420507e-05 1.935475e-05 1.223758e-06 -2.383441e-05 -8.455811e-01 -4.739380e-01
8.839742e+07 9.775391e-01 2.307739e-01 7.721037e-05 -1.180917e-05 -2.784468e-05 -1.580082e-05 -8.406982e-01 -4.769287e-01
8.861616e+07 9.785156e-01 2.305298e-01 -1.890026e-05 4.244782e-05 1.181290e-05 -2.918020e-05 -8.355713e-01 -4.799805e-01
8.883489e+07 9.780884e-01 2.307129e-01 -4.049391e-06 -4.013069e-05 1.190696e-05 -2.695248e-06 -8.274536e-01 -4.837646e-01
8.905362e+07 9.792480e-01 2.312012e-01 3.488734e-06 3.440678e-05 1.443550e-06 2.916344e-05 -8.179932e-01 -4.880981e-01
8.927235e+07 9.794922e-01 2.319336e-01 9.297393e-06 -1.387391e-05 3.587082e-05 1.841970e-05 -8.071899e-01 -4.949951e-01
8.949108e+07 9.796753e-01 2.322998e-01 -8.435920e-06 4.012510e-05 -2.369657e-05 4.518777e-05 -7.961426e-01 -5.030518e-01
8.970981e+07 9.787598e-01 2.333984e-01 5.971640e-06 3.240444e-05 -2.522208e-05 -1.053326e-05 -7.843628e-01 -5.137939e-01
8.992854e+07 9.798584e-01 2.332764e-01 -7.410534e-06 6.110873e-06 -2.391636e-05 -7.875264e-06 -7.738037e-01 -5.250244e-01
9.014728e+07 9.795532e-01 2.329712e-01 -1.755543e-06 1.805276e-05 1.337845e-06 2.647284e-06 -7.630615e-01 -5.386963e-01
9.036601e+07 9.806519e-01 2.343140e-01 9.764917e-06 1.688674e-05 -1.452863e-05 2.395920e-05 -7.553101e-01 -5.543823e-01
9.058474e+07 9.807739e-01 2.345581e-01 -1.644902e-05 4.055724e-05 -3.200397e-05 -3.709644e-05 -7.478638e-01 -5.714722e-01
9.080347e+07 9.813843e-01 2.344360e-01 6.997958e-06 -1.606531e-06 3.200583e-05 2.379343e-05 -7.431030e-01 -5.882568e-01
9.102220e+07 9.813843e-01 2.355957e-01 1.223106e-05 -2.049096e-05 -2.659671e-05 8.381903e-08 -7.399902e-01 -6.047363e-01
9.124093e+07 9.821777e-01 2.356567e-01 1.064781e-05 7.858966e-06 -3.997236e-05 -1.316145e-05 -7.401733e-01 -6.213379e-01
9.145966e+07 9.818115e-01 2.359009e-01 7.105991e-07 -1.932215e-05 -4.140288e-05 -4.246086e-05 -7.410278e-01 -6.363525e-01
9.167839e+07 9.827271e-01 2.352295e-01 -1.643226e-05 4.065037e-05 6.891787e-06 5.324557e-05 -7.440796e-01 -6.501465e-01
9.189712e+07 9.830933e-01 2.358398e-01 2.872385e-05 -2.579950e-05 3.339723e-05 2.651662e-05 -7.472534e-01 -6.622314e-01
9.211586e+07 9.835205e-01 2.363892e-01 4.135072e-07 -3.995746e-05 -1.399778e-06 -1.598895e-05 -7.506104e-01 -6.699219e-01
9.233459e+07 9.833984e-01 2.366333e-01 1.154095e-05 3.423169e-05 -2.687797e-06 -5.321577e-06 -7.535400e-01 -6.775513e-01
9.255332e+07 9.833984e-01 2.378540e-01 3.489479e-05 -1.837686e-05 4.073605e-06 2.131797e-05 -7.556152e-01 -6.824951e-01
9.277205e+07 9.839478e-01 2.378540e-01 2.617639e-11 -2.715694e-10 -1.343712e-05 -2.663583e-05 -7.553101e-01 -6.864014e-01
9.299078e+07 9.839478e-01 2.383423e-01 2.191588e-05 -4.937500e-05 -5.374663e-06 -1.065992e-05 -7.543335e-01 -6.898193e-01
9.320951e+07 9.847412e-01 2.379150e-01 -2.047047e-05 1.061521e-05 2.929196e-05 -2.148561e-05 -7.498779e-01 -6.931152e-01
9.342824e+07 9.849854e-01 2.384644e-01 1.345575e-05 -8.995645e-06 5.334150e-06 -2.691988e-06 -7.451172e-01 -6.978149e-01
9.364698e+07 9.852905e-01 2.387695e-01 -3.875047e-05 -1.426786e-06 -2.943166e-05 -5.232170e-06 -7.385864e-01 -7.031250e-01
9.386571e+07 9.850464e-01 2.389526e-01 -2.399459e-05 1.144409e-05 2.128445e-05 -2.414919e-05 -7.330933e-01 -7.106934e-01
9.408444e+07 9.850464e-01 2.390747e-01 -9.089708e-07 -2.645329e-05 1.471490e-05 2.613291e-06 -7.236328e-01 -7.153931e-01
9.430317e+07 9.846191e-01 2.396851e-01 -4.099496e-05 2.129003e-05 -1.356378e-05 -5.341321e-05 -7.208252e-01 -7.273560e-01
9.452190e+07 9.855957e-01 2.401123e-01 -8.735806e-07 9.088311e-06 2.541952e-05 -2.766028e-06 -7.152710e-01 -7.381592e-01
9.474063e+07 9.857178e-01 2.395630e-01 -1.250580e-05 -2.528913e-05 3.205612e-05 -1.620315e-05 -7.120972e-01 -7.482910e-01
9.495936e+07 9.865112e-01 2.404785e-01 6.364286e-05 -2.948195e-05 -2.398714e-05 3.224984e-05 -7.094116e-01 -7.586670e-01
9.517809e+07 9.861450e-01 2.412109e-01 -1.558475e-05 -2.904236e-05 -1.086667e-05 -4.820526e-05 -7.105713e-01 -7.683716e-01
9.539682e+07 9.865112e-01 2.413330e-01 3.744476e-05 -3.086030e-05 5.636737e-05 1.857430e-05 -7.130127e-01 -7.769165e-01
9.561556e+07 9.877319e-01 2.408447e-01 -1.382362e-05 -1.167227e-05 -3.754906e-05 5.537644e-06 -7.161865e-01 -7.831421e-01
9.583429e+07 9.870605e-01 2.416382e-01 3.799796e-06 -1.572166e-05 -1.201499e-05 1.613889e-05 -7.196045e-01 -7.874756e-01
9.605302e+07 9.873657e-01 2.412720e-01 -6.024260e-06 2.869871e-06 -1.867488e-05 2.959557e-05 -7.223511e-01 -7.872314e-01
9.627175e+07 9.874268e-01 2.412109e-01 1.498591e-05 -1.236610e-05 9.307638e-06 -2.152100e-05 -7.243042e-01 -7.850952e-01
9.649048e+07 9.879761e-01 2.417603e-01 -4.712492e-06 -1.080800e-05 -2.569519e-05 -3.751554e-05 -7.225952e-01 -7.796021e-01
9.670921e+07 9.877930e-01 2.421265e-01 -5.859882e-06 1.323875e-05 -2.536923e-05 4.309043e-05 -7.181396e-01 -7.751465e-01
9.692794e+07 9.887695e-01 2.422485e-01 -1.106411e-05 -2.867542e-05 -2.034381e-05 -4.027411e-05 -7.107544e-01 -7.694092e-01
9.714668e+07 9.876709e-01 2.424927e-01 8.533243e-06 -4.941598e-06 -2.759509e-06 -1.880806e-05 -7.007446e-01 -7.647095e-01
9.736541e+07 9.885254e-01 2.420654e-01 -1.608767e-05 -2.455153e-05 2.548657e-05 -1.627021e-05 -6.876221e-01 -7.615967e-01
9.758414e+07 9.888306e-01 2.426758e-01 -2.190471e-06 2.281927e-05 4.016329e-06 -5.403068e-06 -6.753540e-01 -7.599487e-01
9.780287e+07 9.888916e-01 2.429199e-01 -7.069204e-06 1.626555e-06 4.297495e-05 -3.521144e-05 -6.597900e-01 -7.611084e-01
9.802160e+07 9.883423e-01 2.435913e-01 1.016725e-05 2.117828e-06 2.955459e-05 -2.167188e-05 -6.469116e-01 -7.650146e-01
9.824033e+07 9.888916e-01 2.423706e-01 2.316944e-05 2.295524e-05 1.600012e-05 -3.512204e-05 -6.323853e-01 -7.697144e-01
9.845906e+07 9.884033e-01 2.432251e-01 -1.578592e-05 -3.810041e-06 -3.636070e-05 8.234754e-06 -6.197510e-01 -7.768555e-01
9.867779e+07 9.880981e-01 2.437134e-01 -1.900736e-05 1.779571e-05 -1.483969e-05 -2.636574e-06 -6.086426e-01 -7.829590e-01
9.889652e+07 9.878540e-01 2.436523e-01 -5.504116e-06 -2.708100e-05 2.717599e-06 5.380251e-06 -5.989990e-01 -7.908936e-01
9.911526e+07 9.896851e-01 2.441406e-01 1.683831e-05 5.076639e-06 -1.422130e-06 -1.620408e-05 -5.908813e-01 -7.997437e-01
9.933399e+07 9.888306e-01 2.440796e-01 2.204068e-05 1.134351e-05 -3.108382e-05 -7.962808e-06 -5.838623e-01 -8.061523e-01
9.955272e+07 9.895020e-01 2.443237e-01 2.817065e-05 -1.696497e-05 4.029367e-06 -5.424954e-06 -5.791016e-01 -8.103638e-01
9.977145e+07 9.892578e-01 2.448120e-01 2.050586e-05 -2.115220e-05 5.405769e-05 -2.197921e-07 -5.728760e-01 -8.140259e-01
9.999018e+07 9.901123e-01 2.440186e-01 5.783513e-06 1.210440e-05 -2.593920e-05 -5.126372e-05 -5.676270e-01 -8.167114e-01
1.002089e+08 9.895630e-01 2.450562e-01 2.213009e-05 -1.406856e-05 1.221430e-05 1.076888e-05 -5.611572e-01 -8.168335e-01
1.004276e+08 9.890747e-01 2.443237e-01 5.103275e-05 1.062453e-05 7.990748e-06 -2.437271e-05 -5.537720e-01 -8.159790e-01
1.006464e+08 9.891357e-01 2.452393e-01 3.656186e-05 2.889149e-05 -9.430107e-06 8.159783e-06 -5.458374e-01 -8.141479e-01
1.008651e+08 9.896851e-01 2.449341e-01 2.795830e-05 -1.972541e-06 6.767455e-06 -3.492460e-08 -5.357056e-01 -8.114624e-01
1.010838e+08 9.885864e-01 2.457275e-01 -5.867332e-06 -4.799664e-05 2.302602e-05 5.325302e-06 -5.228882e-01 -8.108521e-01
1.013026e+08 9.896240e-01 2.448730e-01 2.371147e-05 1.846626e-05 -1.431443e-06 -1.625158e-05 -5.097656e-01 -8.095093e-01
1.015213e+08 9.884033e-01 2.457886e-01 1.004850e-05 -8.307397e-06 2.565794e-05 -1.635402e-05 -4.931641e-01 -8.097534e-01
1.017400e+08 9.885864e-01 2.454834e-01 -1.152046e-05 1.163781e-05 -4.324317e-05 2.187118e-05 -4.783936e-01 -8.116455e-01
1.019588e+08 9.893799e-01 2.449951e-01 8.828938e-06 4.136935e-05 -1.203269e-05 2.988428e-05 -4.630127e-01 -8.156738e-01
1.021775e+08 9.885254e-01 2.459106e-01 -1.109671e-05 7.057562e-06 2.586097e-05 2.427213e-05 -4.462280e-01 -8.213501e-01
1.023962e+08 9.890747e-01 2.465820e-01 -4.569069e-05 -1.940504e-05 -9.464100e-06 8.180737e-06 -4.296875e-01 -8.281860e-01
1.026150e+08 9.887695e-01 2.460938e-01 2.264977e-05 -1.871772e-05 -2.563559e-05 2.997555e-05 -4.161377e-01 -8.365479e-01
1.028337e+08 9.883423e-01 2.456665e-01 -6.616116e-06 3.298558e-05 1.348928e-05 -1.364015e-05 -4.044189e-01 -8.462524e-01
1.030524e+08 9.884644e-01 2.462769e-01 -1.084479e-05 -7.987022e-06 -9.257346e-06 4.890561e-05 -3.934937e-01 -8.560791e-01
1.032712e+08 9.884033e-01 2.471313e-01 -8.603558e-06 4.985835e-06 3.114715e-05 -1.915544e-05 -3.842163e-01 -8.666382e-01
1.034899e+08 9.881592e-01 2.471313e-01 -4.167482e-05 1.114793e-05 2.179854e-05 1.620129e-05 -3.756104e-01 -8.758545e-01
1.037086e+08 9.880981e-01 2.476196e-01 5.375594e-06 -4.475191e-05 -9.476207e-06 8.191913e-06 -3.696289e-01 -8.840942e-01
1.039273e+08 9.884644e-01 2.473755e-01 7.377006e-06 -1.672003e-05 -2.920628e-06 -4.619360e-05 -3.644409e-01 -8.909302e-01
1.041461e+08 9.880371e-01 2.478027e-01 -7.558148e-06 6.247777e-06 -4.111789e-06 -8.136965e-06 -3.598022e-01 -8.964233e-01
1.043648e+08 9.876709e-01 2.470703e-01 4.866160e-06 -1.463108e-05 -4.338101e-05 2.195686e-05 -3.551025e-01 -9.013672e-01
1.045835e+08 9.874878e-01 2.474365e-01 8.861534e-06 -2.006534e-05 -1.627579e-05 8.234754e-06 -3.487549e-01 -9.036255e-01
1.048023e+08 9.880371e-01 2.476807e-01 3.000163e-05 -9.980053e-06 4.052650e-06 -5.465001e-06 -3.425903e-01 -9.047852e-01
1.050210e+08 9.877930e-01 2.476807e-01 2.180599e-05 -9.560958e-06 -4.647300e-05 -3.785640e-05 -3.342285e-01 -9.049072e-01
1.052397e+08 9.868774e-01 2.482910e-01 2.500415e-05 3.026240e-05 3.118813e-05 -1.920946e-05 -3.256226e-01 -9.055786e-01
1.054585e+08 9.871826e-01 2.485352e-01 7.638708e-06 2.977252e-05 2.751593e-06 5.431939e-06 -3.142700e-01 -9.077148e-01
1.056772e+08 9.870605e-01 2.484741e-01 -7.251278e-06 2.723001e-05 1.375796e-06 2.716668e-06 -3.028564e-01 -9.094238e-01
1.058959e+08 9.868774e-01 2.490234e-01 7.818453e-06 -2.135616e-05 4.761294e-05 -1.386553e-05 -2.906494e-01 -9.138794e-01
1.061147e+08 9.868164e-01 2.490845e-01 -2.427399e-05 -1.389720e-05 3.926456e-06 -3.273971e-05 -2.790527e-01 -9.193115e-01
1.063334e+08 9.867554e-01 2.485962e-01 -9.833835e-06 -6.745569e-06 2.060831e-05 2.715923e-05 -2.658081e-01 -9.252319e-01
1.065521e+08 9.855957e-01 2.492065e-01 -2.135057e-05 -2.064183e-05 -3.284216e-05 -2.436712e-05 -2.554932e-01 -9.351196e-01
1.067708e+08 9.849854e-01 2.495117e-01 1.699198e-05 5.094334e-06 2.201274e-05 4.350767e-05 -2.465820e-01 -9.449463e-01
1.069896e+08 9.860840e-01 2.498169e-01 -2.666004e-05 -1.354143e-06 1.364946e-05 -6.891787e-08 -2.390747e-01 -9.542236e-01
1.072083e+08 9.841309e-01 2.501221e-01 -3.469177e-05 9.536743e-06 1.500640e-05 2.658926e-06 -2.332764e-01 -9.642334e-01
1.074270e+08 9.847412e-01 2.500000e-01 1.865160e-05 1.222733e-05 -3.006309e-05 -5.310401e-06 -2.314453e-01 -9.718628e-01
1.076458e+08 9.846802e-01 2.504883e-01 1.551211e-05 8.434989e-06 -4.795194e-05 -2.709031e-05 -2.293701e-01 -9.786987e-01
1.078645e+08 9.840088e-01 2.496948e-01 1.480337e-06 -3.356487e-06 -5.445909e-06 2.763234e-06 -2.293701e-01 -9.826050e-01
1.080832e+08 9.837646e-01 2.509766e-01 2.239086e-05 2.193451e-05 1.516379e-05 2.997927e-05 -2.296143e-01 -9.846191e-01
1.083020e+08 9.837036e-01 2.506104e-01 3.183819e-05 -2.849102e-05 -2.042763e-05 1.376867e-05 -2.283325e-01 -9.825439e-01
1.085207e+08 9.843750e-01 2.507324e-01 -1.116749e-05 7.119961e-06 -1.391768e-05 -4.095212e-05 -2.255859e-01 -9.798584e-01
1.087394e+08 9.831543e-01 2.510376e-01 1.282990e-05 4.004687e-08 4.806742e-05 4.075840e-05 -2.197266e-01 -9.747314e-01
1.089582e+08 9.828491e-01 2.516479e-01 2.146140e-05 -4.976057e-06 2.313405e-05 -2.199784e-05 -2.125244e-01 -9.694214e-01
1.091769e+08 9.819946e-01 2.518311e-01 -1.151953e-05 -1.391489e-05 -1.919176e-05 -1.083221e-05 -2.020264e-01 -9.645996e-01
1.093956e+08 9.829102e-01 2.522583e-01 -2.104230e-05 3.529713e-07 -1.376960e-05 -1.361035e-05 -1.907959e-01 -9.613037e-01
1.096144e+08 9.816895e-01 2.522583e-01 1.251884e-05 4.084222e-05 -5.203858e-05 -7.919967e-06 -1.752930e-01 -9.587402e-01
1.098331e+08 9.818726e-01 2.525635e-01 -1.580827e-05 6.681308e-06 3.829971e-05 -5.695969e-06 -1.611328e-01 -9.588013e-01
1.100518e+08 9.816895e-01 2.529297e-01 -3.285706e-05 1.579523e-06 -5.544163e-06 -1.092721e-05 -1.448364e-01 -9.613647e-01
1.102706e+08 9.804077e-01 2.538452e-01 -3.293157e-05 2.725422e-05 2.763700e-06 5.461276e-06 -1.317749e-01 -9.651489e-01
1.104893e+08 9.804077e-01 2.534790e-01 3.523380e-05 -1.421012e-05 1.361873e-05 -1.377333e-05 -1.177979e-01 -9.689331e-01
1.107080e+08 9.800415e-01 2.541504e-01 8.216593e-06 -3.990717e-07 -2.771150e-06 -5.465001e-06 -1.063232e-01 -9.763184e-01
1.109267e+08 9.799194e-01 2.532349e-01 -1.154467e-05 -1.393631e-05 -2.937391e-06 -3.287755e-05 -9.375000e-02 -9.828491e-01
1.111455e+08 9.783325e-01 2.540894e-01 1.677871e-05 -4.165620e-05 -2.171285e-05 3.847107e-05 -8.459473e-02 -9.898682e-01
1.113642e+08 9.779663e-01 2.542114e-01 -3.875233e-05 -1.063757e-05 -1.608669e-10 4.919514e-10 -7.611084e-02 -9.973145e-01
1.115829e+08 9.785767e-01 2.549438e-01 -1.698919e-05 -3.083237e-05 -4.319474e-06 -3.563985e-05 -7.092285e-02 -1.004211e+00
1.118017e+08 9.779663e-01 2.550659e-01 -5.580485e-06 3.454834e-05 -2.473220e-05 -8.089468e-06 -6.518555e-02 -1.009399e+00
1.120204e+08 9.784546e-01 2.551270e-01 3.586989e-06 -8.319039e-07 -1.471490e-06 -1.645554e-05 -6.127930e-02 -1.013000e+00
1.122391e+08 9.777222e-01 2.557983e-01 -4.583970e-06 -2.616085e-05 -1.642201e-05 8.323230e-06 -5.853271e-02 -1.014160e+00
1.124579e+08 9.776611e-01 2.565308e-01 -4.515052e-06 3.585778e-05 -7.264316e-08 -1.373049e-05 -5.407715e-02 -1.012939e+00
1.126766e+08 9.771118e-01 2.569580e-01 1.978409e-05 1.356006e-05 1.629069e-05 -3.579445e-05 -4.986572e-02 -1.012329e+00
1.128953e+08 9.763794e-01 2.568359e-01 5.255453e-06 6.343704e-06 3.688037e-06 -7.417053e-05 -4.278564e-02 -1.008240e+00
1.131141e+08 9.758911e-01 2.574463e-01 -3.966503e-05 -1.346692e-06 -4.089903e-06 5.515758e-06 -3.424072e-02 -1.003784e+00
1.133328e+08 9.749756e-01 2.572632e-01 -1.936033e-05 -1.818873e-05 -2.736412e-05 1.390837e-05 -2.380371e-02 -1.001465e+00
1.135515e+08 9.748535e-01 2.575684e-01 8.508563e-06 4.646927e-05 1.773518e-05 -1.934823e-05 -1.159668e-02 -9.970703e-01
1.137702e+08 9.748535e-01 2.580566e-01 2.848729e-05 8.532777e-06 -4.086178e-06 5.523209e-06 1.647949e-03 -9.962158e-01
1.139890e+08 9.746704e-01 2.584839e-01 3.542751e-06 -6.293133e-05 1.235586e-05 -2.832152e-06 1.507568e-02 -9.960327e-01
1.142077e+08 9.739380e-01 2.589722e-01 9.223819e-06 2.664141e-05 9.569805e-06 -8.310657e-06 2.984619e-02 -9.978638e-01
1.144264e+08 9.739380e-01 2.597046e-01 6.174669e-07 5.915761e-06 7.419288e-05 -1.700222e-05 4.376221e-02 -1.002197e+00
1.146452e+08 9.732056e-01 2.606812e-01 -1.438893e-05 3.354624e-06 -1.113862e-05 -2.194941e-05 5.590820e-02 -1.005920e+00
1.148639e+08 9.721069e-01 2.602539e-01 -2.600586e-11 2.787317e-10 1.523271e-05 1.639966e-05 6.671143e-02 -1.011841e+00
1.150826e+08 9.724731e-01 2.611084e-01 3.038347e-05 5.209818e-05 -8.661300e-08 -1.376681e-05 7.666016e-02 -1.018921e+00
1.153014e+08 9.711914e-01 2.619019e-01 -2.209097e-06 4.910678e-05 -9.739771e-06 -1.920480e-05 8.398438e-02 -1.024109e+00
1.155201e+08 9.710693e-01 2.623291e-01 2.685748e-05 1.341105e-06 -3.043562e-06 -4.678965e-05 8.947754e-02 -1.030884e+00
1.157388e+08 9.707031e-01 2.621460e-01 -7.390045e-06 -8.911826e-06 2.871267e-06 1.926441e-05 9.332275e-02 -1.034668e+00
1.159576e+08 9.703979e-01 2.614746e-01 -2.778880e-05 3.379211e-05 2.625398e-05 1.082011e-05 9.576416e-02 -1.038269e+00
1.161763e+08 9.703979e-01 2.630005e-01 2.948940e-05 -2.660789e-05 4.272908e-05 2.473593e-06 9.759521e-02 -1.040283e+00
1.163950e+08 9.690552e-01 2.643433e-01 -3.172830e-05 4.993752e-05 1.106597e-05 8.203089e-06 1.014404e-01 -1.039307e+00
1.166138e+08 9.700928e-01 2.634888e-01 1.008809e-05 -4.488975e-05 -5.125999e-06 5.796924e-05 1.031494e-01 -1.038940e+00
1.168325e+08 9.690552e-01 2.646484e-01 9.259209e-06 2.674386e-05 -1.231302e-05 1.662225e-05 1.060181e-01 -1.037537e+00
1.170512e+08 9.686890e-01 2.656860e-01 4.411675e-06 1.569185e-05 -6.983988e-06 -1.376122e-05 1.083374e-01 -1.033081e+00
1.172700e+08 9.686890e-01 2.653809e-01 -4.522502e-06 3.604963e-05 9.406358e-08 1.380872e-05 1.132202e-01 -1.029297e+00
1.174887e+08 9.682007e-01 2.662964e-01 -2.551591e-06 2.114335e-06 -3.322959e-05 -1.083314e-05 1.176147e-01 -1.022705e+00
1.177074e+08 9.672241e-01 2.675171e-01 -1.705438e-05 3.135577e-05 8.387491e-06 1.652446e-05 1.226807e-01 -1.018005e+00
1.179261e+08 9.669800e-01 2.672729e-01 4.032627e-05 -3.330410e-06 4.202593e-06 8.259900e-06 1.290894e-01 -1.012085e+00
1.181449e+08 9.667358e-01 2.680054e-01 7.589348e-06 1.953542e-05 2.764352e-05 -1.881272e-07 1.353760e-01 -1.008789e+00
1.183636e+08 9.666748e-01 2.687988e-01 -3.721751e-05 3.303960e-05 -3.299117e-05 3.065169e-05 1.431274e-01 -1.003723e+00
1.185823e+08 9.658203e-01 2.690430e-01 7.468276e-06 -1.697149e-05 4.147738e-05 -3.054738e-07 1.518555e-01 -9.993286e-01
1.188011e+08 9.652710e-01 2.699585e-01 3.425404e-05 -2.627820e-05 -1.214445e-06 2.490357e-05 1.594849e-01 -9.949341e-01
1.190198e+08 9.647827e-01 2.699585e-01 -2.250075e-05 -1.152232e-05 7.212162e-06 4.144385e-05 1.661377e-01 -9.924927e-01
1.192385e+08 9.643555e-01 2.713013e-01 2.744142e-06 8.511823e-06 -1.225993e-05 3.052317e-05 1.727905e-01 -9.891968e-01
1.194573e+08 9.636841e-01 2.719727e-01 -1.933612e-05 -7.702969e-06 1.944322e-05 1.095235e-05 1.776123e-01 -9.870605e-01
1.196760e+08 9.636841e-01 2.723389e-01 2.232566e-05 8.940697e-07 1.244526e-05 -2.855435e-06 1.821899e-01 -9.804077e-01
1.198947e+08 9.633789e-01 2.727051e-01 8.678064e-06 2.087560e-05 -3.593974e-05 1.133420e-05 1.865845e-01 -9.758911e-01
1.201135e+08 9.628296e-01 2.734375e-01 2.764165e-05 7.292256e-06 4.116446e-06 -5.567912e-06 1.894531e-01 -9.682007e-01
1.203322e+08 9.619751e-01 2.747192e-01 2.027489e-05 -2.764352e-05 -2.069958e-05 1.396984e-05 1.937256e-01 -9.586792e-01
1.205509e+08 9.626465e-01 2.747192e-01 2.328679e-05 -3.441796e-05 5.376339e-05 -4.477054e-05 2.005615e-01 -9.490967e-01
1.207696e+08 9.613037e-01 2.754517e-01 2.343394e-05 2.194196e-06 -1.351163e-05 5.553290e-05 2.079468e-01 -9.397583e-01
1.209884e+08 9.619751e-01 2.755127e-01 -1.688302e-05 1.615938e-05 -1.367182e-05 2.784654e-05 2.164917e-01 -9.288940e-01
1.212071e+08 9.603271e-01 2.764282e-01 1.826975e-05 5.030073e-06 8.195639e-08 1.742318e-05 2.290039e-01 -9.195557e-01
1.214258e+08 9.588013e-01 2.768555e-01 1.500826e-05 6.305054e-06 -5.226210e-05 -2.671033e-06 2.427979e-01 -9.118042e-01
1.216446e+08 9.586182e-01 2.785645e-01 3.409013e-05 3.697351e-06 -1.739897e-05 5.871989e-06 2.548218e-01 -9.051514e-01
1.218633e+08 9.580688e-01 2.783813e-01 9.301584e-06 9.965152e-07 -2.514571e-08 -5.806796e-06 2.690430e-01 -8.997192e-01
1.220820e+08 9.579468e-01 2.795410e-01 5.166046e-06 -1.825392e-05 1.743436e-05 -7.171184e-08 2.807007e-01 -8.970947e-01
1.223008e+08 9.576416e-01 2.799683e-01 3.428198e-05 2.119690e-06 2.324209e-05 -1.061708e-07 2.926025e-01 -8.948364e-01
1.225195e+08 9.567871e-01 2.813721e-01 -1.795590e-05 -8.189119e-06 -5.934387e-06 -3.193691e-05 3.038330e-01 -8.937378e-01
1.227382e+08 9.562378e-01 2.813721e-01 2.935762e-06 1.881737e-06 1.156330e-05 -1.167227e-05 3.130493e-01 -8.927002e-01
1.229570e+08 9.559326e-01 2.830811e-01 3.154017e-05 -1.322478e-06 1.341105e-07 4.068390e-05 3.209839e-01 -8.912354e-01
1.231757e+08 9.554443e-01 2.833862e-01 -5.218200e-06 -9.986572e-06 -2.912432e-05 -1.440383e-05 3.279419e-01 -8.885498e-01
1.233944e+08 9.557495e-01 2.841797e-01 -2.618693e-05 9.780750e-06 -4.650280e-05 8.907169e-06 3.328247e-01 -8.870850e-01
1.236132e+08 9.544067e-01 2.844849e-01 1.669861e-05 -9.207986e-06 -1.247972e-07 -3.196485e-05 3.383179e-01 -8.831787e-01
1.238319e+08 9.540405e-01 2.855225e-01 3.727153e-05 3.978610e-06 1.158286e-05 -1.167692e-05 3.440552e-01 -8.778076e-01
1.240506e+08 9.529419e-01 2.861938e-01 4.943460e-06 -1.675449e-05 -2.329983e-05 -1.153909e-05 3.502197e-01 -8.717041e-01
1.242694e+08 9.531860e-01 2.874756e-01 -5.587563e-05 2.233312e-05 -3.494881e-05 -1.442805e-05 3.557739e-01 -8.638306e-01
1.244881e+08 9.528198e-01 2.882690e-01 -7.382128e-06 1.021056e-05 6.424263e-05 6.087497e-05 3.612061e-01 -8.554077e-01
1.247068e+08 9.522095e-01 2.891846e-01 2.930500e-05 -9.430572e-06 -5.780719e-06 1.165271e-05 3.686523e-01 -8.461914e-01
1.249255e+08 9.522095e-01 2.893677e-01 2.333336e-05 -4.154630e-05 -1.752563e-05 -1.738872e-05 3.773193e-01 -8.363037e-01
1.251443e+08 9.530029e-01 2.904663e-01 1.144316e-05 1.067482e-05 -5.860813e-06 -8.717179e-06 3.878784e-01 -8.245239e-01
1.253630e+08 9.514771e-01 2.918701e-01 1.227483e-05 2.900138e-06 1.160707e-05 -1.168065e-05 4.000244e-01 -8.146362e-01
1.255817e+08 9.509277e-01 2.922974e-01 -3.192760e-05 4.446134e-06 -5.812850e-06 2.932735e-06 4.140625e-01 -8.051147e-01
1.258005e+08 9.503784e-01 2.933350e-01 1.167879e-05 6.740540e-05 -1.168903e-05 -1.160614e-05 4.307251e-01 -7.957153e-01
1.260192e+08 9.511108e-01 2.946777e-01 2.262183e-05 -5.444512e-06 -4.658848e-05 1.763180e-05 4.479370e-01 -7.886353e-01
1.262379e+08 9.489746e-01 2.957153e-01 -2.429262e-05 2.097897e-05 1.160055e-05 -2.040341e-05 4.664307e-01 -7.852783e-01
1.264567e+08 9.495239e-01 2.965698e-01 4.054047e-06 2.091564e-05 2.188608e-08 8.741859e-06 4.846802e-01 -7.829590e-01
1.266754e+08 9.492798e-01 2.970581e-01 4.120637e-06 -9.015203e-06 -2.908148e-05 2.048910e-05 5.026855e-01 -7.835693e-01
1.268941e+08 9.491577e-01 2.978516e-01 -1.180079e-05 -7.588416e-06 1.170579e-05 1.453701e-05 5.203857e-01 -7.860107e-01
1.271129e+08 9.487305e-01 2.996216e-01 4.036166e-05 5.908310e-06 1.734495e-05 -5.836412e-05 5.340576e-01 -7.910767e-01
1.273316e+08 9.484253e-01 3.003540e-01 2.280343e-06 8.126721e-06 2.918951e-05 1.450069e-05 5.460205e-01 -7.974243e-01
1.275503e+08 9.482422e-01 3.006592e-01 1.819059e-05 6.696209e-06 -5.938113e-06 -3.206544e-05 5.537109e-01 -8.023682e-01
1.277690e+08 9.470215e-01 3.023071e-01 3.793277e-06 -5.898532e-06 -5.893409e-06 -2.914108e-05 5.587769e-01 -8.075562e-01
1.279878e+08 9.472046e-01 3.024902e-01 2.782606e-05 -2.379715e-05 3.497303e-05 -5.945563e-06 5.626221e-01 -8.091431e-01
1.282065e+08 9.468384e-01 3.039551e-01 1.155958e-05 -1.926627e-05 -5.841255e-06 -2.901535e-06 5.651855e-01 -8.102417e-01
1.284252e+08 9.467163e-01 3.040771e-01 3.228337e-05 2.241321e-05 1.175329e-05 2.622046e-05 5.682983e-01 -8.093262e-01
1.286440e+08 9.467773e-01 3.049316e-01 2.463348e-05 5.818903e-06 -1.164153e-05 1.170486e-05 5.703735e-01 -8.051147e-01
1.288627e+08 9.463501e-01 3.066406e-01 7.937662e-06 -1.492072e-05 -1.163781e-05 1.754053e-05 5.744019e-01 -8.009033e-01
1.290814e+08 9.462891e-01 3.077393e-01 -1.300033e-05 3.325753e-06 -1.154840e-07 -5.842000e-05 5.798950e-01 -7.937622e-01
1.293002e+08 9.458008e-01 3.085938e-01 -4.988164e-05 -3.540516e-05 5.254894e-05 -1.764670e-05 5.869141e-01 -7.875366e-01
1.295189e+08 9.451904e-01 3.097534e-01 -4.331954e-05 2.059340e-05 3.504939e-05 -7.264316e-08 5.932007e-01 -7.820435e-01
1.297376e+08 9.448242e-01 3.099976e-01 6.532297e-06 -3.089942e-05 3.508851e-05 2.327561e-05 6.012573e-01 -7.755127e-01
1.299564e+08 9.454956e-01 3.112183e-01 1.683366e-07 -1.562759e-06 1.170114e-05 5.817041e-06 6.093750e-01 -7.672119e-01
1.301751e+08 9.451294e-01 3.119507e-01 1.175608e-05 -2.087280e-05 -1.170672e-05 -5.813316e-06 6.191406e-01 -7.600098e-01
1.303938e+08 9.447632e-01 3.131714e-01 -2.103671e-05 -1.020357e-05 -4.092231e-05 9.313226e-08 6.283569e-01 -7.540894e-01
1.306126e+08 9.445190e-01 3.142700e-01 3.320351e-05 1.469254e-05 2.335198e-05 -1.467392e-05 6.394043e-01 -7.480469e-01
1.308313e+08 9.442749e-01 3.143921e-01 -8.305535e-06 1.808535e-05 1.759082e-05 2.041087e-05 6.505127e-01 -7.434082e-01
1.310500e+08 9.442749e-01 3.154297e-01 7.790513e-06 -1.340639e-05 1.747534e-05 -2.929382e-05 6.610718e-01 -7.405396e-01
1.312688e+08 9.429321e-01 3.169556e-01 1.302920e-05 -3.338791e-06 2.919883e-05 -1.466461e-05 6.710205e-01 -7.374878e-01
1.314875e+08 9.432373e-01 3.178101e-01 -1.535192e-05 5.374849e-05 -3.489333e-10 3.500702e-10 6.803589e-01 -7.373047e-01
1.317062e+08 9.439697e-01 3.187866e-01 -7.969327e-06 1.497474e-05 1.167227e-05 -1.758989e-05 6.880493e-01 -7.356567e-01
1.319249e+08 9.434814e-01 3.200073e-01 -3.878586e-05 6.867573e-06 2.346188e-05 2.337620e-05 6.928101e-01 -7.345581e-01
1.321437e+08 9.437866e-01 3.209839e-01 9.224750e-06 2.591871e-06 -1.170486e-05 5.881302e-06 6.977539e-01 -7.313232e-01
1.323624e+08 9.429321e-01 3.222046e-01 3.379770e-05 1.002848e-05 5.898997e-06 3.510527e-05 7.003784e-01 -7.272949e-01
1.325811e+08 9.428711e-01 3.224487e-01 3.922544e-05 1.851656e-05 1.175888e-05 2.631918e-05 7.028198e-01 -7.213135e-01
1.327999e+08 9.439697e-01 3.234253e-01 2.576783e-05 -3.540888e-06 -4.112348e-05 -4.679710e-05 7.078247e-01 -7.132874e-01
1.330186e+08 9.428101e-01 3.248901e-01 -1.538545e-06 1.410209e-05 2.344139e-05 5.805865e-06 7.125854e-01 -7.050476e-01
1.332373e+08 9.425049e-01 3.257446e-01 -3.125332e-05 -3.353320e-05 -5.832873e-06 1.172721e-05 7.205811e-01 -6.946411e-01
1.334561e+08 9.432373e-01 3.270264e-01 1.100451e-05 1.548789e-05 5.862210e-06 -9.778887e-09 7.296143e-01 -6.857910e-01
1.336748e+08 9.436646e-01 3.278809e-01 6.783754e-06 -4.018657e-06 -5.843118e-06 1.467578e-05 7.404175e-01 -6.776733e-01
1.338935e+08 9.428711e-01 3.287964e-01 1.037866e-05 -3.693812e-05 -4.097819e-08 -2.638623e-05 7.508545e-01 -6.720581e-01
1.341123e+08 9.430542e-01 3.295898e-01 -2.114102e-06 -9.757932e-06 4.470348e-08 2.932549e-05 7.626343e-01 -6.680908e-01
1.343310e+08 9.436646e-01 3.311157e-01 2.368726e-05 -1.329742e-05 -1.172442e-05 1.175702e-05 7.720947e-01 -6.667480e-01
1.345497e+08 9.428711e-01 3.322144e-01 1.252629e-06 1.761876e-05 -4.110485e-05 -2.928823e-05 7.808228e-01 -6.657715e-01
1.347684e+08 9.421387e-01 3.334961e-01 -2.684630e-05 1.294911e-05 -5.875714e-06 -8.797739e-06 7.871704e-01 -6.666870e-01
1.349872e+08 9.430542e-01 3.347168e-01 6.283633e-06 6.807968e-07 -5.912036e-06 -3.522821e-05 7.899780e-01 -6.669312e-01
1.352059e+08 9.428101e-01 3.355713e-01 -1.354702e-05 3.666244e-05 3.519282e-05 -3.820471e-05 7.910156e-01 -6.656494e-01
1.354246e+08 9.426270e-01 3.362427e-01 -1.170486e-05 -9.224750e-06 -2.347864e-05 1.469627e-05 7.901001e-01 -6.628418e-01
1.356434e+08 9.429321e-01 3.361206e-01 -2.954528e-05 -2.074428e-05 4.284084e-08 2.348050e-05 7.892456e-01 -6.596069e-01
1.358621e+08 9.427490e-01 3.378296e-01 -6.662682e-06 -2.618879e-05 3.524497e-05 8.756295e-06 7.874146e-01 -6.539307e-01
1.360808e+08 9.422607e-01 3.388672e-01 2.458692e-06 6.633811e-06 -4.695728e-05 2.057105e-05 7.864380e-01 -6.459961e-01
1.362996e+08 9.431152e-01 3.396606e-01 -7.853843e-06 1.346879e-05 1.171790e-05 -2.058223e-05 7.871704e-01 -6.380615e-01
1.365183e+08 9.434204e-01 3.406372e-01 4.746951e-06 1.485646e-05 4.118308e-05 1.759082e-05 7.855225e-01 -6.271362e-01
1.367370e+08 9.422607e-01 3.416748e-01 -5.254522e-06 -1.013139e-05 -2.980232e-08 -4.114211e-05 7.862549e-01 -6.174927e-01
1.369558e+08 9.423828e-01 3.432007e-01 -1.557078e-05 -3.295019e-06 -2.350658e-05 5.882233e-06 7.870483e-01 -6.060181e-01
1.371745e+08 9.434204e-01 3.440552e-01 5.716830e-05 -5.589426e-05 -5.294755e-05 8.866191e-06 7.895508e-01 -5.941772e-01
1.373932e+08 9.436646e-01 3.452759e-01 -7.690862e-06 1.190696e-05 5.880371e-05 -2.650172e-05 7.915649e-01 -5.824585e-01
1.376120e+08 9.440308e-01 3.450928e-01 1.640432e-05 -3.323704e-05 5.872454e-06 -5.891081e-06 7.969360e-01 -5.701294e-01
1.378307e+08 9.442749e-01 3.471069e-01 8.385628e-06 -1.822039e-05 5.869195e-06 -2.649054e-05 8.023071e-01 -5.598145e-01
1.380494e+08 9.428711e-01 3.474731e-01 -1.769979e-05 -1.311768e-05 -3.725290e-08 -4.115701e-05 8.092041e-01 -5.485229e-01
1.382682e+08 9.442139e-01 3.489380e-01 1.555681e-05 -2.540834e-05 1.177378e-05 5.879439e-06 8.165283e-01 -5.397339e-01
1.384869e+08 9.439697e-01 3.499146e-01 1.696683e-05 -3.806502e-05 1.177378e-05 2.943352e-05 8.218994e-01 -5.331421e-01
1.387056e+08 9.439697e-01 3.508301e-01 -1.625158e-05 3.173389e-05 -1.766626e-05 5.886890e-06 8.284912e-01 -5.280762e-01
1.389243e+08 9.443970e-01 3.513794e-01 -5.133078e-05 2.287328e-06 2.355501e-05 -2.356991e-05 8.334961e-01 -5.248413e-01
1.391431e+08 9.440918e-01 3.527832e-01 -1.912937e-06 1.734961e-05 -1.766626e-05 -2.944842e-06 8.359375e-01 -5.220337e-01
1.393618e+08 9.443970e-01 3.535767e-01 3.540702e-05 -2.505258e-06 1.178309e-05 1.472328e-05 8.339233e-01 -5.194702e-01
1.395805e+08 9.447021e-01 3.544312e-01 2.521276e-05 -2.596900e-05 3.535673e-05 4.123524e-05 8.318481e-01 -5.154419e-01
1.397993e+08 9.443359e-01 3.557739e-01 3.331155e-05 1.647882e-05 1.766905e-05 8.836389e-06 8.267212e-01 -5.091553e-01
1.400180e+08 9.451904e-01 3.566284e-01 5.098060e-06 4.052743e-05 2.793968e-09 1.472700e-05 8.200684e-01 -4.988403e-01
1.402367e+08 9.455566e-01 3.588867e-01 -9.100884e-06 5.332381e-05 -3.539771e-05 1.767278e-05 8.145752e-01 -4.868774e-01
1.404555e+08 9.453125e-01 3.587646e-01 -1.224689e-06 1.105387e-05 -5.890615e-06 1.768302e-05 8.104248e-01 -4.724731e-01
1.406742e+08 9.461670e-01 3.596191e-01 -4.385412e-05 2.072752e-05 -5.307794e-05 6.486848e-05 8.098145e-01 -4.558105e-01
1.408929e+08 9.461060e-01 3.600464e-01 -3.426895e-05 -3.739074e-05 6.486103e-05 -1.773238e-05 8.099365e-01 -4.384766e-01
1.411117e+08 9.472046e-01 3.607788e-01 1.227669e-05 -2.424978e-05 3.542192e-05 3.835559e-05 8.130493e-01 -4.209595e-01
1.413304e+08 9.468384e-01 3.618164e-01 3.985502e-05 -1.318008e-05 3.539957e-05 -2.359040e-05 8.195801e-01 -4.053955e-01
1.415491e+08 9.476318e-01 3.635254e-01 -2.985820e-05 9.516254e-06 3.541820e-05 1.477450e-05 8.262939e-01 -3.905640e-01
1.417678e+08 9.476318e-01 3.642578e-01 3.968738e-05 -1.160614e-05 2.951361e-05 1.182221e-05 8.350830e-01 -3.782959e-01
1.419866e+08 9.475098e-01 3.659668e-01 8.602627e-06 -1.985114e-05 1.766719e-05 3.842264e-05 8.432617e-01 -3.679810e-01
1.422053e+08 9.476318e-01 3.657837e-01 1.828093e-05 8.425675e-06 1.179613e-05 2.067722e-05 8.518066e-01 -3.593750e-01
1.424240e+08 9.473877e-01 3.666992e-01 -2.110749e-05 4.570186e-05 -4.725531e-05 2.948567e-05 8.596802e-01 -3.523560e-01
1.426428e+08 9.481812e-01 3.680420e-01 -2.990710e-06 -1.932960e-06 3.542192e-05 5.938113e-06 8.660278e-01 -3.467407e-01
1.428615e+08 9.494019e-01 3.688965e-01 -1.707487e-05 -1.951400e-05 -1.769885e-05 -4.434958e-05 8.717041e-01 -3.425903e-01
1.430802e+08 9.492798e-01 3.694458e-01 2.905168e-05 2.723932e-05 3.544800e-05 2.421439e-08 8.751831e-01 -3.393555e-01
1.432990e+08 9.497681e-01 3.701782e-01 -2.446398e-05 -1.071207e-05 1.181848e-05 2.793968e-09 8.776245e-01 -3.342896e-01
1.435177e+08 9.501953e-01 3.707886e-01 2.569705e-05 -3.818423e-07 -5.867332e-06 -5.025417e-05 8.774414e-01 -3.322144e-01
1.437364e+08 9.501343e-01 3.713379e-01 -3.500283e-05 2.657808e-05 -5.922280e-06 1.773052e-05 8.752441e-01 -3.280029e-01
1.439552e+08 9.502563e-01 3.724976e-01 2.232939e-05 -2.801418e-05 1.186877e-05 -4.136562e-05 8.723755e-01 -3.223877e-01
1.441739e+08 9.511108e-01 3.734131e-01 -1.848489e-05 2.201833e-05 -1.771003e-05 -3.256276e-05 8.674316e-01 -3.139038e-01
1.443926e+08 9.513550e-01 3.740234e-01 2.695248e-05 -4.037842e-05 -3.725290e-09 5.913898e-06 8.623047e-01 -3.051147e-01
1.446114e+08 9.519043e-01 3.751221e-01 1.956150e-05 -2.644956e-06 -4.137307e-05 -4.443899e-05 8.573608e-01 -2.921143e-01
1.448301e+08 9.520874e-01 3.756104e-01 9.000301e-06 3.473461e-05 -5.921349e-06 2.951361e-06 8.526611e-01 -2.767944e-01
1.450488e+08 9.523926e-01 3.761597e-01 -3.173761e-05 -3.516674e-06 -1.862645e-08 2.660975e-05 8.504639e-01 -2.598267e-01
1.452676e+08 9.536133e-01 3.778076e-01 -2.678484e-05 9.868294e-06 -2.367236e-05 -5.953014e-06 8.519287e-01 -2.400513e-01
1.454863e+08 9.530029e-01 3.777466e-01 2.959557e-05 2.258085e-05 1.181476e-05 1.479965e-05 8.554688e-01 -2.202148e-01
1.457050e+08 9.539185e-01 3.790894e-01 -2.539158e-05 -2.827495e-06 1.777895e-05 -1.775101e-05 8.621826e-01 -2.017822e-01
1.459237e+08 9.538574e-01 3.800049e-01 1.075864e-05 1.887139e-05 2.960861e-05 5.587935e-08 8.704834e-01 -1.847534e-01
1.461425e+08 9.543457e-01 3.799438e-01 -4.638731e-05 4.148111e-05 -2.962351e-05 2.068095e-05 8.817749e-01 -1.690063e-01
1.463612e+08 9.557495e-01 3.814697e-01 -1.182035e-05 -9.352341e-06 -2.966076e-05 1.180917e-05 8.949585e-01 -1.556396e-01
1.465799e+08 9.559326e-01 3.822632e-01 7.594004e-06 -1.041545e-05 -2.369843e-05 -5.964190e-06 9.068604e-01 -1.462402e-01
1.467987e+08 9.556274e-01 3.827515e-01 9.013340e-06 -2.311543e-05 -1.186132e-05 8.865260e-06 9.193115e-01 -1.389160e-01
1.470174e+08 9.567871e-01 3.836670e-01 1.580454e-06 1.464877e-05 -2.373755e-05 1.478381e-05 9.296265e-01 -1.342163e-01
1.472361e+08 9.570312e-01 3.848877e-01 -3.796071e-05 -5.833805e-06 -1.774728e-05 -2.078526e-05 9.384155e-01 -1.304321e-01
1.474549e+08 9.567871e-01 3.850098e-01 -4.117191e-05 2.279878e-05 -1.185387e-05 -1.955777e-08 9.443970e-01 -1.273193e-01
1.476736e+08 9.578857e-01 3.862915e-01 -1.573376e-05 2.559647e-05 6.891787e-08 -3.260933e-05 9.503174e-01 -1.243286e-01
1.478923e+08 9.577637e-01 3.864136e-01 -2.847984e-06 2.544560e-05 -1.771562e-05 -3.558397e-05 9.528198e-01 -1.206055e-01
1.481111e+08 9.581909e-01 3.864136e-01 6.895047e-06 -4.065223e-06 9.313226e-09 -5.925074e-06 9.562988e-01 -1.165771e-01
1.483298e+08 9.586182e-01 3.870239e-01 2.934039e-05 -3.170222e-06 5.335361e-05 -1.769513e-05 9.571533e-01 -1.108398e-01
1.485485e+08 9.600830e-01 3.886719e-01 -1.572073e-05 -3.363937e-06 -5.910173e-06 -8.916948e-06 9.586792e-01 -1.043701e-01
1.487672e+08 9.609375e-01 3.895874e-01 -9.026378e-06 5.210936e-05 1.193769e-05 -2.074428e-05 9.586792e-01 -9.887695e-02
1.489860e+08 9.614258e-01 3.889771e-01 7.944182e-06 1.539383e-05 -5.962327e-06 1.482293e-05 9.578857e-01 -9.039307e-02
1.492047e+08 9.611816e-01 3.893433e-01 -3.315508e-07 -2.580695e-05 -1.185667e-05 -5.956739e-06 9.580688e-01 -8.209229e-02
1.494234e+08 9.619141e-01 3.909912e-01 -1.909584e-05 -2.132729e-06 2.970174e-05 -5.856156e-06 9.574585e-01 -7.214355e-02
1.496422e+08 9.627686e-01 3.917236e-01 4.755333e-06 1.503062e-05 5.029142e-08 -1.782738e-05 9.572144e-01 -6.005859e-02
1.498609e+08 9.633789e-01 3.914795e-01 2.581812e-05 2.864935e-05 5.897135e-06 2.080202e-05 9.577637e-01 -4.785156e-02
1.500796e+08 9.635010e-01 3.922119e-01 -6.191432e-06 -2.300367e-06 -4.470348e-08 1.780782e-05 9.598999e-01 -3.295898e-02
1.502984e+08 9.637451e-01 3.923340e-01 1.928862e-05 5.709007e-07 -2.371892e-05 -1.192279e-05 9.645996e-01 -1.904297e-02
1.505171e+08 9.646606e-01 3.930054e-01 4.778430e-05 -2.365559e-05 -5.900860e-06 -1.783110e-05 9.688110e-01 -5.493164e-03
1.507358e+08 9.656372e-01 3.935547e-01 -1.148134e-05 -1.257006e-05 5.906448e-06 1.486484e-05 9.769897e-01 8.056641e-03
1.509546e+08 9.659424e-01 3.938599e-01 -7.969327e-06 1.362525e-05 2.370402e-05 2.678670e-05 9.863892e-01 1.855469e-02
1.511733e+08 9.667358e-01 3.949585e-01 -5.630776e-06 -3.611110e-05 -1.788512e-05 1.482014e-05 9.954224e-01 2.752686e-02
1.513920e+08 9.667358e-01 3.946533e-01 2.264045e-05 -6.873161e-07 4.746020e-05 4.168600e-05 1.004211e+00 3.411865e-02
1.516108e+08 9.674072e-01 3.953857e-01 -7.623341e-06 1.043919e-05 1.187529e-05 5.978160e-06 1.010559e+00 3.826904e-02
1.518295e+08 9.678955e-01 3.953857e-01 1.643598e-05 2.606399e-05 4.767254e-05 -4.150346e-05 1.015137e+00 4.156494e-02
1.520482e+08 9.681396e-01 3.963013e-01 -1.802109e-07 1.593377e-06 -3.571063e-05 1.179427e-05 1.016724e+00 4.473877e-02
1.522670e+08 9.693604e-01 3.964233e-01 9.179115e-06 3.333017e-05 6.038696e-06 -3.568269e-05 1.017944e+00 4.992676e-02
1.524857e+08 9.697266e-01 3.967896e-01 1.414865e-05 1.773331e-05 -5.915761e-06 -1.488812e-05 1.016174e+00 5.712891e-02
1.527044e+08 9.699707e-01 3.973389e-01 -3.417954e-06 3.027171e-05 5.969312e-06 -8.904375e-06 1.016541e+00 6.567383e-02
1.529231e+08 9.700928e-01 3.973999e-01 1.243502e-05 -2.442300e-05 -5.978160e-06 1.187716e-05 1.016846e+00 7.495117e-02
1.531419e+08 9.707642e-01 3.982544e-01 1.968350e-05 -2.618879e-06 -2.971850e-05 -9.002164e-06 1.019897e+00 8.587646e-02
1.533606e+08 9.711914e-01 3.988647e-01 4.092231e-06 -7.614959e-06 -1.773238e-05 -4.168600e-05 1.024353e+00 9.613037e-02
1.535793e+08 9.721069e-01 3.988037e-01 1.930539e-05 5.690381e-07 -2.380088e-05 -6.705523e-08 1.029053e+00 1.050415e-01
1.537981e+08 9.730225e-01 4.000854e-01 1.336634e-05 -3.241748e-05 -5.835667e-06 -3.277510e-05 1.034729e+00 1.129761e-01
1.540168e+08 9.731445e-01 4.000244e-01 -7.457566e-06 8.844305e-06 2.378598e-05 6.029382e-06 1.039917e+00 1.177368e-01
1.542355e+08 9.743652e-01 4.004517e-01 5.748123e-05 -2.256036e-05 -1.778640e-05 -2.686307e-05 1.044739e+00 1.212769e-01
1.544543e+08 9.746094e-01 4.003296e-01 1.576729e-05 3.403984e-06 -3.574230e-05 2.851710e-06 1.047363e+00 1.238403e-01
1.546730e+08 9.748535e-01 4.012451e-01 5.300622e-06 1.029531e-05 2.968870e-05 2.692454e-05 1.048096e+00 1.249390e-01
1.548917e+08 9.757690e-01 4.008789e-01 -2.631545e-05 3.258884e-05 2.977625e-05 6.059185e-06 1.047363e+00 1.263428e-01
1.551105e+08 9.757080e-01 4.018555e-01 -1.069717e-05 3.757142e-05 2.468005e-08 -5.959999e-06 1.046204e+00 1.293945e-01
1.553292e+08 9.769287e-01 4.008789e-01 -3.627501e-07 3.190245e-06 -1.195073e-05 1.188368e-05 1.044128e+00 1.321411e-01
1.555479e+08 9.768066e-01 4.006958e-01 2.244301e-05 3.003888e-05 8.940697e-08 -3.275461e-05 1.039612e+00 1.353760e-01
1.557666e+08 9.777222e-01 4.012451e-01 1.325086e-05 2.575666e-05 5.874783e-06 2.981164e-05 1.035522e+00 1.391602e-01
1.559854e+08 9.784546e-01 4.016113e-01 4.562549e-06 1.669396e-05 -2.977252e-05 -9.048730e-06 1.031982e+00 1.433105e-01
1.562041e+08 9.796753e-01 4.014282e-01 -1.861714e-05 -6.969087e-06 5.358458e-05 2.701208e-05 1.026428e+00 1.472168e-01
1.564228e+08 9.789429e-01 4.023438e-01 -3.566965e-05 7.767230e-07 -1.207367e-05 3.571250e-05 1.020813e+00 1.514282e-01
1.566416e+08 9.797363e-01 4.025879e-01 3.880076e-05 2.870522e-05 -5.977694e-06 2.957880e-06 1.014954e+00 1.567993e-01
1.568603e+08 9.802856e-01 4.020386e-01 2.591684e-05 -2.961606e-07 2.970174e-05 3.589503e-05 1.006592e+00 1.643677e-01
1.570790e+08 9.814453e-01 4.024658e-01 3.376044e-06 -1.230510e-06 -5.990267e-06 5.946960e-06 1.000305e+00 1.721191e-01
1.572978e+08 9.806519e-01 4.020996e-01 2.263859e-05 2.846681e-05 1.206435e-05 -3.573857e-05 9.932251e-01 1.810913e-01
1.575165e+08 9.818115e-01 4.019775e-01 4.468020e-06 -1.081871e-05 3.586523e-05 -1.778081e-05 9.891357e-01 1.925049e-01
1.577352e+08 9.826050e-01 4.031372e-01 2.353825e-05 2.048351e-05 -1.779757e-05 -2.693012e-05 9.862671e-01 2.032471e-01
1.579540e+08 9.832764e-01 4.027710e-01 -1.378916e-05 -2.099760e-05 5.880371e-06 2.389960e-05 9.856567e-01 2.128296e-01
1.581727e+08 9.837036e-01 4.024048e-01 -1.640990e-06 -4.227087e-05 2.997369e-05 -3.870204e-05 9.862671e-01 2.206421e-01
1.583914e+08 9.835205e-01 4.024658e-01 2.129283e-05 1.213513e-05 -5.993992e-06 5.944632e-06 9.876099e-01 2.247925e-01
1.586102e+08 9.843140e-01 4.028931e-01 -2.154149e-05 1.856685e-05 -2.992526e-05 1.480989e-05 9.880371e-01 2.257080e-01
1.588289e+08 9.848633e-01 4.030151e-01 -6.107613e-06 2.519786e-05 -2.369285e-05 -4.492328e-05 9.868774e-01 2.244873e-01
1.590476e+08 9.848633e-01 4.020386e-01 2.363697e-06 3.587641e-05 -1.154840e-07 2.985448e-05 9.797363e-01 2.208252e-01
1.592664e+08 9.860229e-01 4.031982e-01 1.405180e-05 -9.724870e-06 5.393475e-05 -2.965331e-05 9.698486e-01 2.165527e-01
1.594851e+08 9.869385e-01 4.024658e-01 -9.676442e-06 2.804771e-05 1.202803e-05 -1.789164e-05 9.558105e-01 2.158203e-01
1.597038e+08 9.860229e-01 4.020996e-01 1.830049e-07 -1.597684e-06 -5.796552e-06 -4.183874e-05 9.400024e-01 2.174683e-01
1.599225e+08 9.871216e-01 4.021606e-01 -1.480058e-05 1.612585e-05 -2.370402e-05 -5.091354e-05 9.216309e-01 2.222900e-01
1.601413e+08 9.879761e-01 4.028320e-01 3.669411e-07 -3.194902e-06 -6.575137e-05 -1.522526e-05 9.046631e-01 2.319336e-01
1.603600e+08 9.875488e-01 4.021606e-01 2.830289e-06 3.561843e-06 6.984919e-08 -1.792517e-05 8.889160e-01 2.439575e-01
1.605787e+08 9.885864e-01 4.027100e-01 -2.732873e-05 -1.609698e-05 4.795194e-05 -2.971664e-05 8.739624e-01 2.584839e-01
1.607975e+08 9.873657e-01 4.021606e-01 -4.113186e-06 7.627532e-06 -2.386048e-05 -6.074086e-06 8.620605e-01 2.745361e-01
1.610162e+08 9.888916e-01 4.028931e-01 8.596107e-06 -1.845229e-05 -3.588200e-05 -1.974404e-07 8.531494e-01 2.900391e-01
1.612349e+08 9.897461e-01 4.025879e-01 2.469867e-06 6.345287e-05 -1.201220e-05 8.915551e-06 8.461304e-01 3.060913e-01
1.614537e+08 9.895630e-01 4.015503e-01 -3.382331e-06 1.233770e-06 -9.126961e-08 2.092868e-05 8.408203e-01 3.222046e-01
1.616724e+08 9.913330e-01 4.022217e-01 -4.040077e-06 3.518350e-05 1.215376e-05 -3.588572e-05 8.356323e-01 3.366699e-01
1.618911e+08 9.911499e-01 4.020386e-01 6.813556e-05 2.729148e-05 -1.196377e-05 -3.051013e-06 8.325806e-01 3.513794e-01
1.621099e+08 9.901123e-01 4.018555e-01 -1.243036e-05 -4.672445e-06 -1.803227e-05 1.487229e-05 8.302002e-01 3.643799e-01
1.623286e+08 9.909058e-01 4.015503e-01 3.720075e-05 -1.351722e-05 -1.098961e-07 2.095476e-05 8.277588e-01 3.766479e-01
1.625473e+08 9.915161e-01 4.008179e-01 1.507625e-05 9.837560e-06 2.403185e-05 -1.786277e-05 8.278198e-01 3.880005e-01
1.627660e+08 9.916382e-01 4.006348e-01 1.587905e-05 3.099255e-05 4.786626e-05 9.182841e-06 8.280029e-01 3.988037e-01
1.629848e+08 9.922485e-01 4.008179e-01 3.094226e-05 4.084781e-05 -3.007613e-05 2.680905e-05 8.300781e-01 4.079590e-01
1.632035e+08 9.927368e-01 4.004517e-01 3.311783e-05 -5.921349e-06 2.973527e-05 4.805624e-05 8.315430e-01 4.146118e-01
1.634222e+08 9.924927e-01 4.005737e-01 3.082305e-05 -1.426972e-05 -2.991408e-05 -6.161630e-06 8.314209e-01 4.182129e-01
1.636410e+08 9.930420e-01 4.000244e-01 8.855946e-06 7.505063e-06 -3.593042e-05 -3.185123e-06 8.293457e-01 4.185181e-01
1.638597e+08 9.933472e-01 3.997803e-01 -2.215989e-05 2.336316e-05 -1.807418e-05 1.789071e-05 8.244629e-01 4.192505e-01
1.640784e+08 9.932861e-01 3.992920e-01 1.882575e-05 5.415641e-06 2.386980e-05 2.110004e-05 8.170776e-01 4.202271e-01
1.642972e+08 9.938354e-01 3.994751e-01 2.991222e-05 -6.273389e-06 -1.215190e-05 2.992526e-05 8.049316e-01 4.224854e-01
1.645159e+08 9.937134e-01 3.988647e-01 6.215647e-06 2.339017e-06 1.786649e-05 2.407283e-05 7.917480e-01 4.275513e-01
1.647346e+08 9.942017e-01 3.983154e-01 3.052130e-05 1.653470e-05 1.206808e-05 -1.493469e-05 7.778931e-01 4.363403e-01
1.649534e+08 9.949341e-01 3.984985e-01 -3.581867e-05 -2.682954e-05 -1.806393e-05 1.191068e-05 7.642822e-01 4.489136e-01
1.651721e+08 9.940186e-01 3.978882e-01 -1.563318e-05 -5.046837e-06 -2.995878e-05 -6.148592e-06 7.507935e-01 4.641724e-01
1.653908e+08 9.943848e-01 3.977051e-01 -1.935288e-05 2.694316e-05 -3.584847e-05 -2.716482e-05 7.410278e-01 4.818726e-01
1.656096e+08 9.941406e-01 3.973999e-01 -2.318993e-06 -3.593415e-05 4.801527e-05 -8.750707e-06 7.352905e-01 5.003052e-01
1.658283e+08 9.949951e-01 3.968506e-01 1.674611e-05 -4.548579e-06 -1.804717e-05 8.914620e-06 7.315674e-01 5.187988e-01
1.660470e+08 9.939575e-01 3.964233e-01 2.110563e-05 1.382362e-05 -3.577769e-05 -3.618374e-05 7.316895e-01 5.360718e-01
1.662658e+08 9.948120e-01 3.966675e-01 -1.709163e-05 3.534928e-05 -2.998300e-05 -6.172806e-06 7.335205e-01 5.515747e-01
1.664845e+08 9.949951e-01 3.958740e-01 1.294352e-05 -2.770498e-05 -5.871058e-06 -2.404861e-05 7.367554e-01 5.654907e-01
1.667032e+08 9.953003e-01 3.955688e-01 -4.363246e-06 -1.836102e-05 1.629815e-08 -3.002817e-06 7.395020e-01 5.761108e-01
1.669219e+08 9.951782e-01 3.956909e-01 2.416782e-06 -2.080947e-05 4.174188e-05 5.427375e-05 7.429199e-01 5.850830e-01
1.671407e+08 9.949951e-01 3.959961e-01 9.050593e-06 5.914830e-06 5.766749e-06 3.906898e-05 7.427368e-01 5.908813e-01
1.673594e+08 9.953003e-01 3.951416e-01 -1.003221e-05 -2.550706e-05 -2.404302e-05 -1.247972e-07 7.434692e-01 5.983276e-01
1.675781e+08 9.950562e-01 3.952026e-01 2.785586e-05 -1.622550e-05 6.059650e-06 -8.978881e-06 7.418823e-01 6.036987e-01
1.677969e+08 9.948730e-01 3.943481e-01 1.338311e-06 1.638755e-05 -6.058253e-06 8.978881e-06 7.410278e-01 6.098022e-01
1.680156e+08 9.942017e-01 3.934937e-01 -3.575580e-06 2.830056e-06 3.032759e-05 -5.685538e-05 7.391357e-01 6.161499e-01
1.682343e+08 9.950562e-01 3.931274e-01 -1.937151e-05 2.697110e-05 -2.430007e-05 5.093589e-05 7.363281e-01 6.215820e-01
1.684531e+08 9.943237e-01 3.937988e-01 -1.907721e-05 -3.142655e-05 1.199357e-05 3.085472e-06 7.312622e-01 6.272583e-01
1.686718e+08 9.951782e-01 3.928833e-01 8.464791e-06 -1.685508e-05 2.397597e-05 1.217239e-05 7.260132e-01 6.326904e-01
1.688905e+08 9.949951e-01 3.922729e-01 4.147179e-05 6.429851e-06 -5.824491e-06 -3.310293e-05 7.196045e-01 6.390991e-01
1.691093e+08 9.946899e-01 3.919067e-01 4.359521e-06 1.835916e-05 3.012270e-05 -1.184270e-05 7.105408e-01 6.465454e-01
1.693280e+08 9.936523e-01 3.909912e-01 -8.682255e-06 -9.126496e-06 -4.209951e-05 5.770475e-06 7.019958e-01 6.561279e-01
1.695467e+08 9.945679e-01 3.911133e-01 -9.242445e-06 -4.320871e-06 7.230788e-05 -2.064556e-05 6.941223e-01 6.684265e-01
1.697654e+08 9.940186e-01 3.900146e-01 8.865725e-06 7.531606e-06 3.615022e-05 -1.183338e-05 6.866760e-01 6.830750e-01
1.699842e+08 9.939575e-01 3.900757e-01 1.073675e-05 -8.491799e-06 1.781806e-05 4.220754e-05 6.798096e-01 6.998291e-01
1.702029e+08 9.937744e-01 3.898926e-01 1.259893e-05 -2.449378e-05 -5.869195e-06 -2.410822e-05 6.776123e-01 7.168579e-01
1.704216e+08 9.945068e-01 3.892822e-01 2.643559e-06 5.175592e-06 1.200382e-05 6.080605e-06 6.781006e-01 7.349243e-01
1.706404e+08 9.935913e-01 3.890991e-01 5.281065e-06 1.037261e-05 -4.832074e-05 2.980977e-05 6.828003e-01 7.495117e-01
1.708591e+08 9.940796e-01 3.888550e-01 5.657319e-06 7.155817e-06 1.219288e-05 -2.401136e-05 6.900024e-01 7.616577e-01
1.710778e+08 9.926147e-01 3.880615e-01 -1.528207e-05 -8.284114e-06 -4.808977e-05 -9.324402e-06 6.970825e-01 7.693481e-01
1.712966e+08 9.920654e-01 3.882446e-01 -2.809986e-05 -9.790063e-06 2.981350e-05 4.232302e-05 7.034912e-01 7.731934e-01
1.715153e+08 9.917603e-01 3.875122e-01 2.734363e-05 -3.905408e-05 -2.999417e-05 -1.524389e-05 7.072754e-01 7.723999e-01
1.717340e+08 9.926147e-01 3.870239e-01 2.075639e-05 1.706649e-05 4.243106e-05 -4.192069e-05 7.074585e-01 7.691650e-01
1.719528e+08 9.923706e-01 3.864136e-01 1.262967e-05 3.112480e-06 -3.010780e-05 -3.192574e-06 7.026978e-01 7.689819e-01
1.721715e+08 9.921875e-01 3.863525e-01 1.432654e-05 1.630001e-05 -5.878508e-06 -2.415292e-05 6.964722e-01 7.677612e-01
1.723902e+08 9.921265e-01 3.856201e-01 4.140660e-06 1.999922e-05 1.210999e-05 -8.971430e-06 6.863403e-01 7.702637e-01
1.726090e+08 9.907837e-01 3.858032e-01 2.299808e-05 -2.164394e-06 2.384931e-05 3.931485e-05 6.752930e-01 7.761841e-01
1.728277e+08 9.906006e-01 3.859253e-01 2.113543e-05 -1.376309e-05 3.025308e-05 -1.487136e-05 6.658325e-01 7.830200e-01
1.730464e+08 9.899292e-01 3.847046e-01 -1.925044e-05 -2.265908e-06 1.811422e-05 -5.915761e-06 6.575317e-01 7.932129e-01
1.732652e+08 9.898682e-01 3.842773e-01 1.000986e-05 -2.971850e-05 -2.405606e-05 -9.186566e-06 6.506348e-01 8.033447e-01
1.734839e+08 9.896851e-01 3.833618e-01 -3.055297e-05 1.102872e-05 5.634502e-08 -9.043608e-06 6.464844e-01 8.154907e-01
1.737026e+08 9.885864e-01 3.839722e-01 1.452956e-05 1.471955e-05 4.051253e-08 -6.028451e-06 6.440430e-01 8.235474e-01
1.739213e+08 9.891968e-01 3.834839e-01 -6.223097e-06 -2.360437e-06 -1.815520e-05 8.931383e-06 6.415405e-01 8.310547e-01
1.741401e+08 9.882812e-01 3.836670e-01 5.276874e-06 1.037493e-05 -6.217510e-06 2.710521e-05 6.406860e-01 8.373413e-01
1.743588e+08 9.880981e-01 3.831177e-01 -1.943111e-05 -2.831034e-05 -1.202803e-05 -6.114133e-06 6.369019e-01 8.450317e-01
1.745775e+08 9.872437e-01 3.826904e-01 1.303852e-08 -2.765097e-05 1.806114e-05 6.156042e-06 6.343994e-01 8.475342e-01
1.747963e+08 9.869995e-01 3.821411e-01 -2.001878e-05 4.156493e-06 3.014877e-05 6.224960e-06 6.307983e-01 8.545532e-01
1.750150e+08 9.867554e-01 3.821411e-01 3.568828e-06 2.482161e-05 -1.177937e-05 -4.538149e-05 6.273193e-01 8.545532e-01
1.752337e+08 9.850464e-01 3.821411e-01 -1.888722e-05 2.216920e-05 8.940697e-08 -1.207273e-05 6.258545e-01 8.560181e-01
1.754525e+08 9.852295e-01 3.811035e-01 4.778430e-05 -1.876056e-05 5.871058e-06 2.720580e-05 6.227417e-01 8.623657e-01
1.756712e+08 9.856567e-01 3.810425e-01 -2.463348e-06 2.086163e-05 -1.803134e-05 -1.521781e-05 6.192627e-01 8.621826e-01
1.758899e+08 9.848633e-01 3.806152e-01 -4.910864e-06 -1.360662e-05 1.801923e-05 1.521781e-05 6.163330e-01 8.654175e-01
1.761087e+08 9.840698e-01 3.808594e-01 3.753230e-06 2.324022e-05 1.805369e-05 9.201467e-06 6.119385e-01 8.641968e-01
1.763274e+08 9.838257e-01 3.801270e-01 -4.021451e-05 -4.547462e-05 -6.146729e-08 9.064563e-06 6.067505e-01 8.645630e-01
1.765461e+08 9.827271e-01 3.801880e-01 2.115034e-05 4.160218e-05 2.428703e-05 -1.494028e-05 5.992432e-01 8.621826e-01
1.767648e+08 9.815674e-01 3.784180e-01 -6.068498e-06 2.370588e-05 6.280839e-06 -3.922358e-05 5.894775e-01 8.626099e-01
1.769836e+08 9.812012e-01 3.790283e-01 -1.113489e-05 -1.598150e-05 3.638305e-05 -1.788512e-05 5.800171e-01 8.640747e-01
1.772023e+08 9.804688e-01 3.791504e-01 4.861504e-06 4.127994e-05 -1.207180e-05 -3.113411e-06 5.711060e-01 8.668213e-01
1.774210e+08 9.807129e-01 3.792114e-01 4.719011e-06 1.522806e-05 3.649108e-05 -2.394058e-05 5.643921e-01 8.721313e-01
1.776398e+08 9.803467e-01 3.787842e-01 7.622875e-07 -6.425660e-06 8.754432e-08 -1.210906e-05 5.584717e-01 8.769531e-01
1.778585e+08 9.794312e-01 3.782959e-01 8.495990e-06 1.078704e-05 -5.968846e-06 -1.214724e-05 5.550537e-01 8.808594e-01
1.780772e+08 9.780273e-01 3.792114e-01 2.798624e-05 1.591444e-05 -5.578622e-06 2.310425e-05 5.551147e-01 8.817139e-01
1.782960e+08 9.773560e-01 3.776855e-01 1.867861e-05 -4.976057e-06 1.489744e-05 5.171075e-05 5.555420e-01 8.803101e-01
1.785147e+08 9.772949e-01 3.781738e-01 -3.669970e-05 2.192706e-05 -2.630055e-05 -4.012510e-05 5.548096e-01 8.748779e-01
1.787334e+08 9.766846e-01 3.774414e-01 2.088025e-06 -4.032254e-05 -5.658716e-06 1.158565e-05 5.502930e-01 8.665161e-01
1.789522e+08 9.760742e-01 3.770752e-01 -5.484093e-06 9.275973e-07 -2.612360e-05 -1.704320e-05 5.439453e-01 8.551636e-01
1.791709e+08 9.744263e-01 3.775024e-01 6.910414e-07 -2.617575e-05 4.880130e-07 5.763397e-05 5.316772e-01 8.429565e-01
1.793896e+08 9.751587e-01 3.765869e-01 2.688728e-06 -1.958851e-05 2.053007e-05 3.442355e-05 5.167236e-01 8.325195e-01
1.796084e+08 9.739380e-01 3.768311e-01 8.172356e-06 -2.054125e-05 8.281320e-06 -4.047155e-05 4.980469e-01 8.258667e-01
1.798271e+08 9.739990e-01 3.768921e-01 2.148375e-05 1.366250e-05 -1.144223e-05 1.165457e-05 4.785156e-01 8.229980e-01
1.800458e+08 9.728394e-01 3.764648e-01 -1.579430e-05 1.925882e-05 -2.065301e-05 -4.598498e-05 4.576416e-01 8.216553e-01
1.802646e+08 9.718018e-01 3.755493e-01 -3.169104e-05 2.644956e-07 3.468059e-05 5.450100e-06 4.403687e-01 8.247681e-01
1.804833e+08 9.697876e-01 3.754272e-01 -6.394461e-06 3.585592e-05 3.136694e-06 2.880581e-05 4.234009e-01 8.308105e-01
1.807020e+08 9.700928e-01 3.754272e-01 1.234235e-06 -5.430775e-06 4.902110e-05 -6.239861e-06 4.096680e-01 8.358765e-01
1.809207e+08 9.696655e-01 3.760986e-01 -7.056631e-06 1.947954e-05 -2.022088e-05 1.750886e-07 3.964844e-01 8.392334e-01
1.811395e+08 9.691162e-01 3.758545e-01 -1.995359e-05 1.042057e-05 1.712888e-05 -2.327375e-05 3.852539e-01 8.444824e-01
1.813582e+08 9.682007e-01 3.751221e-01 9.304844e-06 -2.162531e-05 -6.053597e-06 -2.883747e-05 3.751831e-01 8.474121e-01
1.815769e+08 9.669189e-01 3.753662e-01 1.959130e-05 4.533306e-05 2.057478e-05 4.024804e-05 3.634644e-01 8.494873e-01
1.817957e+08 9.666748e-01 3.762207e-01 -3.870577e-06 -6.029382e-05 1.996756e-05 -2.908520e-05 3.527832e-01 8.510742e-01
1.820144e+08 9.655151e-01 3.757935e-01 1.121685e-05 -1.064595e-05 3.229454e-05 5.748868e-05 3.419189e-01 8.538208e-01
1.822331e+08 9.653320e-01 3.758545e-01 -3.017485e-05 -6.093830e-05 2.302974e-05 -1.176260e-05 3.305054e-01 8.562622e-01
1.824519e+08 9.638672e-01 3.756714e-01 6.701797e-06 7.893518e-05 -2.854317e-05 4.070997e-05 3.200684e-01 8.593140e-01
1.826706e+08 9.633179e-01 3.752441e-01 -3.827736e-06 2.069864e-05 8.113682e-06 -5.788356e-05 3.098755e-01 8.616333e-01
1.828893e+08 9.620361e-01 3.759155e-01 1.919642e-05 -2.249144e-05 2.063066e-05 4.605576e-05 3.020020e-01 8.649902e-01
1.831081e+08 9.622803e-01 3.758545e-01 1.133885e-07 -4.372792e-06 8.473173e-06 -2.322346e-05 2.936401e-01 8.645020e-01
1.833268e+08 9.613647e-01 3.757324e-01 -1.093000e-05 4.021823e-05 -2.536923e-06 4.051998e-05 2.855225e-01 8.638306e-01
1.835455e+08 9.608765e-01 3.749390e-01 -1.379661e-05 -1.679268e-05 -8.402392e-06 2.901442e-05 2.769775e-01 8.638306e-01
1.837642e+08 9.591675e-01 3.759766e-01 2.941117e-06 -2.840906e-05 6.656721e-05 5.215406e-06 2.639160e-01 8.601074e-01
1.839830e+08 9.592896e-01 3.757324e-01 2.122112e-05 -1.586694e-05 3.715977e-05 -5.245954e-05 2.508545e-01 8.588867e-01
1.842017e+08 9.578247e-01 3.746948e-01 -5.957857e-05 -2.456829e-05 2.040528e-05 1.716800e-05 2.334595e-01 8.563843e-01
1.844204e+08 9.573975e-01 3.759766e-01 3.425963e-05 -1.116283e-05 1.144037e-05 -1.746602e-05 2.152710e-01 8.577881e-01
1.846392e+08 9.563599e-01 3.760376e-01 -1.716986e-05 -1.360290e-05 2.050214e-05 2.878904e-05 1.965332e-01 8.605957e-01
1.848579e+08 9.550781e-01 3.758545e-01 2.798624e-05 -2.226420e-05 -2.980232e-07 -3.473647e-05 1.791382e-01 8.681641e-01
1.850766e+08 9.548340e-01 3.757324e-01 3.352761e-08 -4.273653e-05 1.483411e-05 4.040450e-05 1.621704e-01 8.770142e-01
1.852954e+08 9.536133e-01 3.758545e-01 -4.550442e-05 -2.095848e-05 -8.426607e-06 2.903119e-05 1.470947e-01 8.900146e-01
1.855141e+08 9.529419e-01 3.757324e-01 3.850088e-05 -4.501641e-05 -3.046356e-06 -1.734868e-05 1.380005e-01 9.016113e-01
1.857328e+08 9.517822e-01 3.765259e-01 2.527796e-05 -2.615154e-06 1.439266e-05 -1.170766e-05 1.299438e-01 9.151611e-01
1.859516e+08 9.509888e-01 3.762817e-01 -3.298745e-05 -3.705360e-05 1.457985e-05 1.147110e-05 1.250000e-01 9.248657e-01
1.861703e+08 9.502563e-01 3.759766e-01 -5.611777e-05 6.191432e-06 -3.181957e-05 6.087124e-06 1.212158e-01 9.321899e-01
1.863890e+08 9.495850e-01 3.762817e-01 8.622557e-05 1.655146e-05 6.001443e-06 2.313033e-05 1.191406e-01 9.387817e-01
1.866078e+08 9.483032e-01 3.768921e-01 -2.115034e-05 1.150556e-05 -2.308749e-05 1.179427e-05 1.140747e-01 9.400024e-01
1.868265e+08 9.475708e-01 3.762207e-01 -1.614913e-05 -5.305931e-05 2.898276e-06 -2.747402e-08 1.094971e-01 9.416504e-01
1.870452e+08 9.478149e-01 3.771362e-01 4.126132e-05 1.649931e-05 3.497489e-05 1.709349e-05 1.022949e-01 9.417725e-01
1.872640e+08 9.464111e-01 3.774414e-01 1.844577e-05 8.180737e-06 -1.150556e-05 1.170114e-05 9.118652e-02 9.443970e-01
1.874827e+08 9.451904e-01 3.781738e-01 -1.068227e-05 -1.127925e-05 5.204976e-05 -1.783669e-05 8.062744e-02 9.461060e-01
1.877014e+08 9.436646e-01 3.785400e-01 -5.682930e-06 -3.311038e-05 1.720525e-05 -2.333522e-05 7.128906e-02 9.481812e-01
1.879201e+08 9.430542e-01 3.782959e-01 4.679337e-05 1.558289e-05 -3.503263e-05 -2.871267e-05 5.987549e-02 9.525146e-01
1.881389e+08 9.423828e-01 3.784180e-01 5.923212e-07 -2.196059e-05 2.346747e-05 3.460608e-05 4.901123e-02 9.563599e-01
1.883576e+08 9.421997e-01 3.788452e-01 -5.283859e-06 -7.834285e-06 -2.597645e-05 1.762621e-05 3.820801e-02 9.619751e-01
1.885763e+08 9.406128e-01 3.797607e-01 -1.536123e-05 -4.108809e-05 -1.772121e-05 -4.048273e-05 2.770996e-02 9.667358e-01
1.887951e+08 9.401245e-01 3.795776e-01 3.563426e-05 -1.660921e-05 2.588145e-05 -2.923980e-05 1.489258e-02 9.718018e-01
1.890138e+08 9.384766e-01 3.800659e-01 5.974248e-05 -1.375005e-05 -3.244728e-06 -4.639477e-05 2.929688e-03 9.765015e-01
1.892325e+08 9.384155e-01 3.800049e-01 -1.786649e-05 -3.020279e-05 1.128390e-05 -4.073605e-05 -1.019287e-02 9.857178e-01
1.894513e+08 9.373779e-01 3.806763e-01 -3.625639e-06 1.199730e-05 -2.858229e-06 5.828217e-06 -2.154541e-02 9.965820e-01
1.896700e+08 9.363403e-01 3.812866e-01 1.501665e-05 5.429611e-05 1.144223e-05 -2.330728e-05 -3.302002e-02 1.009827e+00
1.898887e+08 9.355469e-01 3.803711e-01 -1.760479e-05 -4.740432e-07 2.652407e-06 -2.904423e-05 -3.948975e-02 1.023987e+00
1.901075e+08 9.350586e-01 3.808594e-01 -1.157355e-05 -1.901202e-05 4.079565e-05 1.705438e-05 -4.345703e-02 1.038147e+00
1.903262e+08 9.335327e-01 3.815918e-01 4.518544e-06 -4.276633e-06 -4.354119e-05 3.315508e-07 -4.296875e-02 1.053650e+00
1.905449e+08 9.331665e-01 3.817749e-01 -3.455393e-05 1.556613e-05 -8.662697e-06 5.878508e-06 -3.723145e-02 1.065430e+00
1.907636e+08 9.324341e-01 3.823242e-01 -9.282492e-06 1.734495e-05 2.295338e-05 -3.504008e-05 -3.015137e-02 1.070618e+00
1.909824e+08 9.311523e-01 3.827515e-01 9.160489e-06 -1.295377e-05 -2.638623e-05 -2.884679e-05 -2.209473e-02 1.074890e+00
1.912011e+08 9.297485e-01 3.829956e-01 6.909482e-06 -1.081685e-05 -3.082678e-06 -2.321228e-05 -1.617432e-02 1.069641e+00
1.914198e+08 9.291382e-01 3.831177e-01 1.686625e-05 2.687797e-05 -2.615154e-06 3.488176e-05 -1.184082e-02 1.060608e+00
1.916386e+08 9.284058e-01 3.840942e-01 1.433492e-05 -7.143244e-07 -1.444109e-05 1.173653e-05 -1.287842e-02 1.053467e+00
1.918573e+08 9.276733e-01 3.841553e-01 3.471784e-05 1.856498e-05 -9.186566e-06 -5.805492e-05 -1.971436e-02 1.041687e+00
1.920760e+08 9.265747e-01 3.850098e-01 2.427399e-05 -1.540408e-06 2.736226e-06 -2.327003e-05 -2.935791e-02 1.032593e+00
1.922948e+08 9.255371e-01 3.853149e-01 3.295951e-05 3.099442e-06 2.607703e-07 3.486685e-05 -4.205322e-02 1.026001e+00
1.925135e+08 9.254150e-01 3.851929e-01 -5.536899e-05 -2.907217e-05 4.941225e-05 -3.874302e-07 -5.596924e-02 1.022644e+00
1.927322e+08 9.240723e-01 3.868408e-01 -1.078472e-06 3.965758e-05 1.724437e-05 -2.918951e-05 -6.884766e-02 1.023132e+00
1.929510e+08 9.232788e-01 3.865356e-01 4.060566e-07 2.537295e-05 4.928187e-05 -1.783669e-05 -8.148193e-02 1.025269e+00
1.931697e+08 9.230347e-01 3.875122e-01 -8.049421e-06 1.190510e-05 1.188926e-05 3.482588e-05 -9.216309e-02 1.023132e+00
1.933884e+08 9.218750e-01 3.878174e-01 1.766346e-05 3.909506e-05 -3.127381e-06 -2.905168e-05 -1.032104e-01 1.027893e+00
1.936072e+08 9.208984e-01 3.880615e-01 2.630800e-05 4.373491e-05 1.757964e-05 1.730490e-05 -1.091919e-01 1.027405e+00
1.938259e+08 9.204712e-01 3.886719e-01 -2.078619e-05 -6.095506e-06 6.088987e-06 3.485568e-05 -1.181030e-01 1.026245e+00
1.940446e+08 9.199219e-01 3.897095e-01 1.736358e-05 -2.929382e-05 -8.689240e-06 5.881302e-06 -1.287842e-01 1.026550e+00
1.942634e+08 9.192505e-01 3.898926e-01 -1.548789e-05 4.040450e-05 1.313165e-07 1.746509e-05 -1.358032e-01 1.024658e+00
1.944821e+08 9.176636e-01 3.901367e-01 -1.941063e-05 2.265163e-05 -1.745112e-05 1.322478e-07 -1.461792e-01 1.023499e+00
1.947008e+08 9.168091e-01 3.906250e-01 -1.032837e-05 1.406111e-05 -8.404255e-06 4.078075e-05 -1.535645e-01 1.024780e+00
1.949195e+08 9.160156e-01 3.920288e-01 -1.501385e-05 -1.587998e-05 -3.479980e-05 1.769327e-05 -1.626587e-01 1.025085e+00
1.951383e+08 9.152222e-01 3.920288e-01 -5.587935e-07 -5.963072e-05 -2.622046e-05 -5.623326e-06 -1.691895e-01 1.025269e+00
1.953570e+08 9.144897e-01 3.928223e-01 3.529713e-06 -7.627066e-06 -1.164060e-05 8.475035e-08 -1.738281e-01 1.024475e+00
1.955757e+08 9.141846e-01 3.933716e-01 -1.625158e-05 2.827309e-05 2.685934e-06 -2.913177e-05 -1.795044e-01 1.023560e+00
1.957945e+08 9.128418e-01 3.941650e-01 -3.165379e-05 2.562255e-05 8.894131e-06 2.321787e-05 -1.844482e-01 1.018372e+00
1.960132e+08 9.123535e-01 3.942261e-01 3.858097e-05 2.183020e-06 -3.189035e-05 1.768209e-05 -1.902466e-01 1.012939e+00
1.962319e+08 9.114990e-01 3.941650e-01 -1.057237e-05 2.290495e-05 2.042390e-05 5.658716e-06 -1.974487e-01 1.005920e+00
1.964507e+08 9.105225e-01 3.956909e-01 -1.110137e-05 1.904555e-06 -8.894131e-06 -2.323277e-05 -2.061157e-01 9.983521e-01
1.966694e+08 9.089966e-01 3.972778e-01 1.898967e-06 1.110975e-05 2.842396e-06 -1.166016e-05 -2.159424e-01 9.908447e-01
1.968881e+08 9.091797e-01 3.964233e-01 -1.514889e-05 -1.148321e-05 2.632849e-05 1.729093e-05 -2.301636e-01 9.877319e-01
1.971069e+08 9.075317e-01 3.970337e-01 3.957003e-05 4.860014e-05 -3.520772e-05 -4.049018e-05 -2.443848e-01 9.849854e-01
1.973256e+08 9.072876e-01 3.988037e-01 -1.946092e-05 -1.602992e-05 1.108274e-07 1.747534e-05 -2.566528e-01 9.847412e-01
1.975443e+08 9.071045e-01 3.989258e-01 6.079674e-06 2.008304e-05 -1.165736e-05 8.009374e-08 -2.633057e-01 9.866333e-01
1.977630e+08 9.057007e-01 3.995361e-01 -1.085736e-05 3.176369e-05 2.049655e-05 1.734495e-05 -2.723389e-01 9.880371e-01
1.979818e+08 9.056396e-01 4.002075e-01 7.585157e-06 5.742069e-06 -5.525351e-05 1.785159e-05 -2.755127e-01 9.880981e-01
1.982005e+08 9.049683e-01 4.008179e-01 2.577901e-05 -1.145341e-05 -3.812276e-05 -3.472157e-05 -2.753906e-01 9.871216e-01
1.984192e+08 9.041138e-01 4.008789e-01 7.291138e-05 4.261732e-06 -1.765229e-05 -2.318434e-05 -2.762451e-01 9.814453e-01
1.986380e+08 9.030151e-01 4.019775e-01 1.895148e-05 -5.011447e-06 2.042949e-05 5.688518e-06 -2.773438e-01 9.732056e-01
1.988567e+08 9.022217e-01 4.025879e-01 7.452443e-06 -2.860464e-05 -3.500283e-05 -5.584210e-06 -2.803345e-01 9.607544e-01
1.990754e+08 9.015503e-01 4.035645e-01 1.189299e-05 1.029763e-05 1.726672e-05 -2.923608e-05 -2.845459e-01 9.487305e-01
1.992942e+08 9.014893e-01 4.045410e-01 2.972223e-05 6.381422e-06 4.054978e-05 -3.523007e-05 -2.935791e-01 9.354248e-01
1.995129e+08 9.000854e-01 4.053955e-01 -8.609146e-06 2.969988e-05 -3.206916e-05 -5.627051e-06 -3.039551e-01 9.224854e-01
1.997316e+08 8.994751e-01 4.055786e-01 -4.311837e-05 3.647432e-05 4.394725e-05 4.047528e-05 -3.168335e-01 9.136963e-01
1.999504e+08 8.990479e-01 4.052734e-01 2.960861e-05 1.081824e-05 -3.794022e-05 -1.137331e-05 -3.270264e-01 9.060669e-01
2.001691e+08 8.982544e-01 4.067383e-01 -3.419351e-06 3.227266e-06 -1.456402e-05 9.313226e-08 -3.400269e-01 8.976440e-01
2.003878e+08 8.975830e-01 4.085693e-01 2.661534e-05 3.955513e-05 1.484901e-05 5.237758e-05 -3.513184e-01 8.912354e-01
2.006066e+08 8.973999e-01 4.085083e-01 3.288966e-06 1.201406e-06 -3.632158e-08 -5.830079e-06 -3.632812e-01 8.843994e-01
2.008253e+08 8.964233e-01 4.095459e-01 -2.317689e-05 -3.989786e-06 3.781915e-05 -1.189299e-05 -3.709717e-01 8.787842e-01
2.010440e+08 8.962402e-01 4.096069e-01 4.055910e-06 1.342688e-05 -1.457613e-05 9.778887e-08 -3.803711e-01 8.731079e-01
2.012628e+08 8.952026e-01 4.114380e-01 1.722947e-05 -2.057943e-05 -2.936088e-05 -3.481098e-05 -3.901978e-01 8.641357e-01
2.014815e+08 8.941650e-01 4.116211e-01 -6.216578e-06 -1.570676e-05 -6.061047e-06 -4.076958e-05 -3.992310e-01 8.574219e-01
2.017002e+08 8.935547e-01 4.125977e-01 3.672205e-05 -4.494563e-06 -2.919510e-05 -5.656853e-06 -4.093628e-01 8.526611e-01
2.019189e+08 8.927612e-01 4.136353e-01 8.099712e-06 -1.197867e-05 2.365932e-05 5.818531e-05 -4.194946e-01 8.482056e-01
2.021377e+08 8.923340e-01 4.135742e-01 2.410263e-06 -4.543737e-05 -2.953224e-06 -5.811453e-06 -4.281616e-01 8.434448e-01
2.023564e+08 8.922729e-01 4.149780e-01 -4.062429e-06 2.543069e-05 1.722574e-05 -4.679710e-05 -4.353638e-01 8.401489e-01
2.025751e+08 8.910522e-01 4.160156e-01 -2.928451e-05 -2.412684e-05 -4.093722e-05 -1.726672e-05 -4.408569e-01 8.344727e-01
2.027939e+08 8.916626e-01 4.154053e-01 -2.028141e-05 1.053698e-05 1.142360e-05 -3.510341e-05 -4.451294e-01 8.307495e-01
2.030126e+08 8.894043e-01 4.164429e-01 1.153536e-05 -1.522247e-05 8.996576e-06 4.075840e-05 -4.484863e-01 8.223267e-01
2.032313e+08 8.887939e-01 4.179688e-01 1.686160e-05 -7.293187e-06 8.745119e-06 -4.656613e-08 -4.531250e-01 8.132324e-01
2.034501e+08 8.883667e-01 4.183350e-01 2.664141e-05 7.469207e-07 -1.149066e-05 2.922863e-05 -4.577026e-01 8.018799e-01
2.036688e+08 8.880005e-01 4.199219e-01 -1.447462e-05 3.961101e-05 5.890615e-06 1.164060e-05 -4.635010e-01 7.886353e-01
2.038875e+08 8.880005e-01 4.199219e-01 1.015607e-05 -5.269889e-06 -4.346669e-05 5.277619e-05 -4.728394e-01 7.758179e-01
2.041063e+08 8.873901e-01 4.219971e-01 -2.359413e-05 9.331852e-06 4.087016e-05 -1.825392e-07 -4.852295e-01 7.631836e-01
2.043250e+08 8.865356e-01 4.215088e-01 1.612492e-05 1.935195e-05 2.904423e-05 -2.349727e-05 -4.990845e-01 7.531738e-01
2.045437e+08 8.864136e-01 4.224854e-01 3.731810e-05 -2.230145e-05 -2.308190e-05 5.266443e-05 -5.129395e-01 7.456665e-01
2.047624e+08 8.862305e-01 4.230347e-01 -1.319870e-05 -4.374236e-05 -1.142919e-05 4.093349e-05 -5.255127e-01 7.404785e-01
2.049812e+08 8.857422e-01 4.237671e-01 -1.766160e-05 -4.961155e-06 8.757226e-06 -5.261973e-08 -5.379028e-01 7.359619e-01
2.051999e+08 8.847046e-01 4.252319e-01 2.548099e-06 -1.105200e-05 -1.757406e-05 -1.158379e-05 -5.489502e-01 7.338257e-01
2.054186e+08 8.836060e-01 4.261475e-01 1.728348e-05 -2.063625e-05 -5.945563e-06 -2.331659e-05 -5.552368e-01 7.313843e-01
2.056374e+08 8.836060e-01 4.269409e-01 -1.385063e-05 -2.154056e-05 -3.233552e-05 -4.069135e-05 -5.623169e-01 7.271118e-01
2.058561e+08 8.832397e-01 4.277954e-01 3.582798e-05 3.107078e-05 3.218092e-05 1.150742e-05 -5.661011e-01 7.200928e-01
2.060748e+08 8.820801e-01 4.285278e-01 2.286397e-06 -2.158224e-06 8.726958e-06 -5.877111e-06 -5.703735e-01 7.128296e-01
2.062936e+08 8.826294e-01 4.288940e-01 1.614541e-05 -1.955777e-05 6.128103e-06 5.253404e-05 -5.774536e-01 7.027588e-01
2.065123e+08 8.820801e-01 4.299316e-01 -4.712958e-06 8.772593e-06 -5.780719e-06 1.171324e-05 -5.857544e-01 6.931763e-01
2.067310e+08 8.818359e-01 4.305420e-01 -1.399312e-06 9.977724e-06 -1.730397e-05 4.099309e-05 -5.950317e-01 6.820068e-01
2.069498e+08 8.809204e-01 4.314575e-01 -9.141862e-06 -3.032573e-05 2.908520e-05 -2.353638e-05 -6.064453e-01 6.724548e-01
2.071685e+08 8.801270e-01 4.323730e-01 -8.777250e-06 -4.716218e-06 -1.736172e-05 3.513508e-05 -6.195984e-01 6.632080e-01
2.073872e+08 8.803711e-01 4.340820e-01 8.814968e-07 7.831026e-06 1.444295e-05 -3.516115e-05 -6.325378e-01 6.566467e-01
2.076060e+08 8.795776e-01 4.343872e-01 -3.343821e-05 1.266599e-06 2.611428e-05 -4.103780e-05 -6.466980e-01 6.504211e-01
2.078247e+08 8.788452e-01 4.357300e-01 1.475029e-05 2.935715e-05 -5.751848e-06 2.340786e-05 -6.594238e-01 6.466370e-01
2.080434e+08 8.787231e-01 4.359131e-01 1.871027e-05 -3.066473e-05 -2.895016e-06 5.859416e-06 -6.720276e-01 6.416931e-01
2.082622e+08 8.787231e-01 4.368286e-01 -6.444752e-07 2.226606e-05 -3.538281e-05 -6.417185e-05 -6.842651e-01 6.372986e-01
2.084809e+08 8.778076e-01 4.373779e-01 4.034862e-05 -7.783994e-06 -4.392117e-05 -1.733750e-05 -6.957092e-01 6.328735e-01
2.086996e+08 8.775024e-01 4.381714e-01 -4.223920e-05 -3.466383e-06 1.485273e-05 5.255267e-05 -7.091980e-01 6.307373e-01
2.089183e+08 8.772583e-01 4.391479e-01 -6.372109e-06 2.768822e-05 4.393980e-05 1.735240e-05 -7.219849e-01 6.273193e-01
2.091371e+08 8.774414e-01 4.393921e-01 1.906417e-06 1.121312e-05 5.902722e-06 1.167320e-05 -7.360840e-01 6.271362e-01
2.093558e+08 8.764648e-01 4.408569e-01 8.411705e-06 -2.096873e-05 2.926774e-05 5.727634e-06 -7.476807e-01 6.287842e-01
2.095745e+08 8.756104e-01 4.412231e-01 2.370216e-05 -9.363517e-06 -1.451373e-05 2.344325e-05 -7.606812e-01 6.322632e-01
2.097933e+08 8.751831e-01 4.421997e-01 -8.035451e-06 7.574912e-06 -3.814884e-05 -3.491528e-05 -7.670898e-01 6.366577e-01
2.100120e+08 8.756104e-01 4.431763e-01 -2.575107e-05 -3.645383e-05 3.510900e-05 -1.601875e-07 -7.727051e-01 6.411743e-01
2.102307e+08 8.750610e-01 4.433594e-01 2.956763e-05 -1.925230e-05 3.527477e-05 3.491342e-05 -7.754517e-01 6.445312e-01
2.104495e+08 8.750000e-01 4.442749e-01 2.562627e-05 1.879409e-06 1.175608e-05 1.164805e-05 -7.748413e-01 6.459961e-01
2.106682e+08 8.743286e-01 4.461670e-01 -4.859269e-05 -1.931936e-05 -1.765788e-05 -2.333149e-05 -7.727661e-01 6.435547e-01
2.108869e+08 8.745728e-01 4.467773e-01 -1.492072e-05 1.407042e-05 5.699694e-06 -3.514625e-05 -7.706299e-01 6.367188e-01
2.111057e+08 8.747559e-01 4.471436e-01 3.443845e-05 6.603077e-06 5.914830e-06 1.167972e-05 -7.717896e-01 6.271362e-01
2.113244e+08 8.732910e-01 4.481201e-01 -6.894581e-06 6.496441e-06 3.226288e-05 1.740642e-05 -7.774048e-01 6.168213e-01
2.115431e+08 8.736572e-01 4.488525e-01 3.864057e-05 1.564808e-05 -1.468696e-05 -1.164991e-05 -7.858276e-01 6.052246e-01
2.117618e+08 8.733521e-01 4.496460e-01 2.690591e-06 -1.556426e-05 2.602488e-05 -7.622316e-05 -7.956543e-01 5.958862e-01
2.119806e+08 8.730469e-01 4.503784e-01 2.574176e-06 -5.019456e-05 -5.807728e-06 1.173560e-05 -8.086548e-01 5.885010e-01
2.121993e+08 8.725586e-01 4.511108e-01 -1.684856e-05 2.858229e-06 -4.389882e-05 6.046146e-06 -8.204346e-01 5.842285e-01
2.124180e+08 8.725586e-01 4.522095e-01 -8.713454e-06 2.991222e-05 5.833339e-06 -5.886424e-06 -8.351440e-01 5.819702e-01
2.126368e+08 8.712158e-01 4.531250e-01 1.916662e-06 -2.789125e-05 1.470093e-05 1.751259e-05 -8.459473e-01 5.833740e-01
2.128555e+08 8.715210e-01 4.534912e-01 -1.584832e-05 6.248243e-06 -3.526546e-05 -2.914108e-05 -8.558350e-01 5.836792e-01
2.130742e+08 8.715820e-01 4.545288e-01 -1.123641e-05 1.901761e-06 -8.814968e-06 -5.826820e-06 -8.627930e-01 5.860596e-01
2.132930e+08 8.720093e-01 4.553223e-01 4.868023e-06 -1.327787e-05 8.989125e-06 4.687905e-05 -8.690796e-01 5.878906e-01
2.135117e+08 8.714600e-01 4.561768e-01 3.012456e-05 2.007931e-06 -2.354942e-05 -2.336502e-05 -8.726196e-01 5.902100e-01
2.137304e+08 8.704834e-01 4.569702e-01 -2.335012e-05 -4.045665e-06 3.155321e-06 5.859509e-05 -8.770142e-01 5.918579e-01
2.139492e+08 8.707886e-01 4.577637e-01 -1.349486e-05 -3.510900e-05 -5.281717e-05 -1.153722e-05 -8.792725e-01 5.931396e-01
2.141679e+08 8.704224e-01 4.585571e-01 1.937896e-05 2.520159e-05 -8.754432e-06 1.176074e-05 -8.795166e-01 5.946655e-01
2.143866e+08 8.706055e-01 4.592285e-01 8.856878e-07 7.866882e-06 -2.937950e-05 -1.161732e-05 -8.814087e-01 5.967407e-01
2.146054e+08 8.699951e-01 4.599609e-01 -2.201460e-05 2.508238e-05 1.168437e-05 -1.177751e-05 -8.773804e-01 5.979004e-01
2.148241e+08 8.696899e-01 4.603882e-01 -3.998354e-05 -1.015328e-05 6.798655e-08 1.759361e-05 -8.732910e-01 5.977173e-01
2.150428e+08 8.692627e-01 4.610596e-01 -4.341826e-06 -4.608650e-06 -1.463667e-05 5.914830e-06 -8.665161e-01 5.938721e-01
2.152616e+08 8.702393e-01 4.615479e-01 8.996576e-07 -3.130175e-05 4.089996e-05 -4.127249e-05 -8.581543e-01 5.885010e-01
2.154803e+08 8.695679e-01 4.628296e-01 -1.646578e-06 -2.021715e-05 -1.747906e-05 4.114583e-05 -8.494873e-01 5.781860e-01
2.156990e+08 8.689575e-01 4.629517e-01 -3.145263e-05 3.559515e-06 -2.931431e-05 5.966052e-06 -8.436279e-01 5.637817e-01
2.159177e+08 8.693848e-01 4.637451e-01 4.435331e-05 1.475215e-05 5.979091e-06 2.933107e-05 -8.405151e-01 5.472412e-01
2.161365e+08 8.693848e-01 4.644165e-01 -4.822761e-05 1.907349e-06 -5.894341e-06 -5.849637e-06 -8.407593e-01 5.294800e-01
2.163552e+08 8.693237e-01 4.656982e-01 3.623217e-05 -1.236796e-05 8.931383e-06 3.520399e-05 -8.459473e-01 5.105591e-01
2.165739e+08 8.687744e-01 4.658813e-01 -1.371093e-05 8.553267e-06 -8.694828e-06 2.938882e-05 -8.542480e-01 4.954834e-01
2.167927e+08 8.687134e-01 4.674683e-01 9.762123e-06 -2.659671e-05 8.830335e-06 5.844980e-06 -8.651123e-01 4.822998e-01
2.170114e+08 8.690186e-01 4.684448e-01 8.290634e-06 2.266094e-05 3.812462e-05 -2.363138e-05 -8.772583e-01 4.745483e-01
2.172301e+08 8.686523e-01 4.690552e-01 1.038611e-05 -9.771902e-06 2.627075e-05 -5.297363e-05 -8.873291e-01 4.680786e-01
2.174489e+08 8.683472e-01 4.695435e-01 3.420189e-05 -1.916476e-05 -4.098192e-05 4.716963e-05 -8.957520e-01 4.666138e-01
2.176676e+08 8.672485e-01 4.696655e-01 2.010446e-05 2.860092e-06 1.462456e-05 -1.766626e-05 -9.016113e-01 4.665527e-01
2.178863e+08 8.681641e-01 4.702759e-01 -8.828938e-07 -7.878523e-06 -5.699694e-06 4.705414e-05 -9.047241e-01 4.649048e-01
2.181051e+08 8.678589e-01 4.721069e-01 -1.635402e-06 -2.023950e-05 -2.057105e-05 5.936250e-06 -9.017334e-01 4.620361e-01
2.183238e+08 8.671265e-01 4.716797e-01 1.155026e-05 -1.086388e-05 -1.173280e-05 5.914830e-06 -9.002686e-01 4.591675e-01
2.185425e+08 8.667603e-01 4.730225e-01 2.153311e-05 -7.204711e-06 2.909452e-06 -1.176354e-05 -8.956909e-01 4.523926e-01
2.187612e+08 8.671265e-01 4.733887e-01 -1.156121e-06 1.086446e-06 1.601875e-07 5.881116e-05 -8.940430e-01 4.412231e-01
2.189800e+08 8.674927e-01 4.736328e-01 2.040062e-06 6.794930e-06 -5.862210e-06 5.903188e-06 -8.919067e-01 4.342651e-01
2.191987e+08 8.676147e-01 4.745483e-01 9.106472e-06 -4.207715e-06 -2.879649e-06 1.766812e-05 -8.919678e-01 4.241333e-01
2.194174e+08 8.672485e-01 4.743042e-01 -5.667657e-05 1.846999e-05 1.170579e-05 -1.769047e-05 -8.914185e-01 4.146729e-01
2.196362e+08 8.675537e-01 4.756470e-01 -9.313226e-06 -2.608635e-05 -2.983026e-06 -1.176354e-05 -8.909912e-01 4.040527e-01
2.198549e+08 8.672485e-01 4.755859e-01 1.406763e-05 1.725741e-05 3.529154e-05 -1.285225e-07 -8.905640e-01 3.941040e-01
2.200736e+08 8.672485e-01 4.765625e-01 -8.490868e-06 2.107304e-05 -2.056360e-05 1.183338e-05 -8.900146e-01 3.835449e-01
2.202924e+08 8.675537e-01 4.768066e-01 2.306700e-05 1.755171e-05 5.928800e-06 1.175050e-05 -8.881836e-01 3.734131e-01
2.205111e+08 8.668213e-01 4.780884e-01 -8.703675e-06 -9.258743e-06 -1.471583e-05 4.470348e-08 -8.875732e-01 3.604736e-01
2.207298e+08 8.666382e-01 4.785156e-01 7.528067e-05 -1.072884e-06 1.483038e-05 4.704297e-05 -8.867188e-01 3.471069e-01
2.209486e+08 8.670044e-01 4.785156e-01 -4.172325e-07 1.346320e-05 1.471862e-05 -5.029142e-08 -8.882446e-01 3.309326e-01
2.211673e+08 8.678589e-01 4.797974e-01 1.721829e-05 -1.183152e-05 2.358109e-05 -7.450581e-08 -8.910522e-01 3.179932e-01
2.213860e+08 8.668213e-01 4.794312e-01 1.380965e-05 6.108359e-05 -2.047792e-05 3.540888e-05 -8.969727e-01 3.052368e-01
2.216048e+08 8.666992e-01 4.804688e-01 -4.761852e-06 8.848030e-06 -8.877367e-06 -1.175143e-05 -9.022827e-01 2.933350e-01
2.218235e+08 8.672485e-01 4.812622e-01 2.143998e-05 -2.721325e-06 4.411116e-05 -3.550202e-05 -9.092407e-01 2.852783e-01
2.220422e+08 8.663330e-01 4.828491e-01 2.246536e-05 6.966293e-07 2.946891e-05 -6.891787e-08 -9.172363e-01 2.781982e-01
2.222610e+08 8.666382e-01 4.825439e-01 -2.957880e-05 -2.454221e-05 -1.466274e-05 2.362207e-05 -9.182129e-01 2.744141e-01
2.224797e+08 8.668213e-01 4.834595e-01 3.552996e-05 1.460500e-05 2.957508e-05 2.939999e-05 -9.210815e-01 2.711182e-01
2.226984e+08 8.659668e-01 4.841309e-01 -5.804002e-06 -2.941117e-05 -1.765136e-05 1.773518e-05 -9.205933e-01 2.661743e-01
2.229171e+08 8.661499e-01 4.841919e-01 1.824927e-05 -8.434057e-06 1.191720e-05 4.125386e-05 -9.166260e-01 2.606812e-01
2.231359e+08 8.658447e-01 4.851685e-01 3.654510e-06 2.710335e-05 3.540888e-05 5.802140e-06 -9.130859e-01 2.531128e-01
2.233546e+08 8.668213e-01 4.857178e-01 8.763745e-07 7.899478e-06 3.037974e-06 3.542192e-05 -9.097900e-01 2.440186e-01
2.235733e+08 8.663330e-01 4.848022e-01 3.494881e-05 -2.255663e-06 2.907589e-06 -1.181196e-05 -9.072876e-01 2.315674e-01
2.237921e+08 8.660278e-01 4.856567e-01 1.669582e-05 6.143004e-06 2.951128e-06 -8.149073e-09 -9.075317e-01 2.198486e-01
2.240108e+08 8.657227e-01 4.865112e-01 3.535300e-05 -1.578219e-05 -1.486018e-05 -4.128367e-05 -9.079590e-01 2.086182e-01
2.242295e+08 8.662720e-01 4.873657e-01 2.294220e-05 2.212077e-05 -2.361834e-05 5.958602e-06 -9.097900e-01 1.978149e-01
2.244483e+08 8.663940e-01 4.873657e-01 -1.612306e-05 -2.412684e-05 3.548339e-05 1.171604e-05 -9.113159e-01 1.882935e-01
2.246670e+08 8.659058e-01 4.882812e-01 1.827348e-05 -8.421950e-06 -2.328306e-08 -1.181755e-05 -9.125366e-01 1.817017e-01
2.248857e+08 8.657227e-01 4.887695e-01 -3.023073e-06 2.465211e-05 1.768209e-05 -2.367422e-05 -9.107056e-01 1.740112e-01
2.251045e+08 8.660889e-01 4.889526e-01 -1.757313e-05 -1.407787e-05 5.317107e-05 -1.195818e-05 -9.075928e-01 1.668091e-01
2.253232e+08 8.660278e-01 4.891968e-01 -1.814775e-05 -3.096648e-05 6.087124e-06 7.092580e-05 -9.041748e-01 1.572266e-01
2.255419e+08 8.652954e-01 4.901123e-01 3.510341e-05 -6.765127e-06 1.955777e-08 1.182128e-05 -8.986206e-01 1.465454e-01
2.257606e+08 8.658447e-01 4.906006e-01 7.264316e-06 1.937430e-05 1.476891e-05 -1.185853e-05 -8.953857e-01 1.339722e-01
2.259794e+08 8.655396e-01 4.904785e-01 -4.788861e-06 8.861069e-06 3.243983e-05 -4.146248e-05 -8.916016e-01 1.197510e-01
2.261981e+08 8.656006e-01 4.903564e-01 1.312792e-05 4.884973e-05 2.372265e-05 2.358668e-05 -8.910522e-01 1.051025e-01
2.264168e+08 8.654175e-01 4.913940e-01 1.958571e-05 -1.402199e-05 -2.665259e-05 -1.179054e-05 -8.912964e-01 9.027100e-02
2.266356e+08 8.656006e-01 4.913330e-01 4.942529e-06 2.154429e-05 -3.259815e-05 -1.765788e-05 -8.928833e-01 7.629395e-02
2.268543e+08 8.657227e-01 4.923706e-01 2.090819e-05 1.530256e-05 1.774263e-05 -1.188181e-05 -8.946533e-01 6.390381e-02
2.270730e+08 8.657227e-01 4.919434e-01 -1.061801e-05 -2.060272e-05 1.478754e-05 -5.960464e-06 -8.966675e-01 5.279541e-02
2.272918e+08 8.656616e-01 4.924927e-01 -2.461020e-06 6.679446e-06 5.900860e-06 -1.186039e-05 -8.966064e-01 4.058838e-02
2.275105e+08 8.649902e-01 4.934082e-01 3.398024e-05 -5.701557e-06 3.254972e-05 -1.782179e-05 -8.974609e-01 2.941895e-02
2.277292e+08 8.656616e-01 4.936523e-01 2.077874e-05 -1.512188e-05 -2.364069e-05 2.968125e-05 -8.947754e-01 1.721191e-02
2.279480e+08 8.649902e-01 4.934692e-01 -4.500849e-06 -1.441222e-07 4.146248e-05 -6.016344e-06 -8.951416e-01 3.479004e-03
2.281667e+08 8.649292e-01 4.938965e-01 -2.466142e-06 4.163198e-05 -2.365559e-05 2.377108e-05 -8.946533e-01 -1.202393e-02
2.283854e+08 8.643799e-01 4.948730e-01 1.608394e-06 2.034847e-05 -5.634129e-05 -1.770630e-05 -8.959961e-01 -2.874756e-02
2.286042e+08 8.645630e-01 4.945679e-01 -2.893619e-06 2.020132e-05 5.869195e-06 -2.964772e-05 -9.001465e-01 -4.479980e-02
2.288229e+08 8.638306e-01 4.957275e-01 1.091324e-05 -2.333708e-05 -2.374873e-05 -2.368540e-05 -9.064941e-01 -6.115723e-02
2.290416e+08 8.641968e-01 4.945679e-01 -4.071742e-06 2.129190e-05 -1.178309e-05 2.966635e-05 -9.157104e-01 -7.543945e-02
2.292604e+08 8.643799e-01 4.960327e-01 -4.081614e-05 7.688999e-06 -2.680346e-05 -5.930290e-05 -9.235840e-01 -8.557129e-02
2.294791e+08 8.643188e-01 4.966431e-01 2.617016e-06 2.377108e-05 2.078898e-05 5.893409e-06 -9.315186e-01 -9.448242e-02
2.296978e+08 8.643799e-01 4.965210e-01 -2.879463e-05 -1.672842e-05 -3.556348e-05 2.975017e-05 -9.380493e-01 -9.906006e-02
2.299165e+08 8.638306e-01 4.963379e-01 -1.367461e-05 4.072674e-06 -6.003305e-06 -3.559887e-05 -9.411011e-01 -1.031494e-01
2.301353e+08 8.644409e-01 4.975586e-01 1.019426e-05 -3.576651e-05 -5.984679e-06 -2.970174e-05 -9.409790e-01 -1.078491e-01
2.303540e+08 8.638916e-01 4.967651e-01 -1.760852e-05 2.087932e-05 1.487043e-05 1.184829e-05 -9.389648e-01 -1.155396e-01
2.305727e+08 8.635864e-01 4.971924e-01 -2.866425e-05 1.375936e-05 -6.034970e-06 -5.938113e-05 -9.353638e-01 -1.242676e-01
2.307915e+08 8.640747e-01 4.972534e-01 -1.557358e-05 -4.227087e-05 -8.009374e-08 -3.566593e-05 -9.323730e-01 -1.369629e-01
2.310102e+08 8.634644e-01 4.981079e-01 9.757467e-06 1.272280e-05 3.570132e-05 2.370961e-05 -9.307861e-01 -1.520386e-01
2.312289e+08 8.632202e-01 4.984131e-01 -3.786758e-06 -2.269447e-05 -1.190230e-05 -1.187902e-05 -9.313965e-01 -1.687012e-01
2.314477e+08 8.637085e-01 4.971924e-01 3.039837e-06 -2.472103e-05 -2.974086e-05 -5.872920e-06 -9.359131e-01 -1.855469e-01
2.316664e+08 8.630981e-01 4.978027e-01 -1.338031e-05 -4.951842e-06 -2.076849e-05 2.381951e-05 -9.421387e-01 -2.009277e-01
2.318851e+08 8.626099e-01 4.989014e-01 -8.448027e-06 1.666602e-05 2.378039e-05 -5.969778e-06 -9.502563e-01 -2.160034e-01
2.321039e+08 8.632812e-01 4.985962e-01 2.053380e-05 -6.113201e-06 2.374686e-05 -2.980232e-05 -9.573975e-01 -2.276611e-01
2.323226e+08 8.626709e-01 4.993896e-01 -3.538840e-05 1.127273e-05 1.788884e-05 3.569014e-05 -9.674072e-01 -2.395630e-01
2.325413e+08 8.626099e-01 4.990234e-01 3.084727e-05 -1.141615e-05 -3.043562e-06 -4.165992e-05 -9.761353e-01 -2.480469e-01
2.327600e+08 8.622437e-01 4.993896e-01 3.172830e-05 -3.494322e-06 1.191255e-05 5.936250e-06 -9.857788e-01 -2.545776e-01
2.329788e+08 8.622437e-01 4.996338e-01 -3.198907e-05 -2.247095e-05 -1.489650e-05 -5.936250e-06 -9.952393e-01 -2.611694e-01
2.331975e+08 8.616333e-01 4.994507e-01 2.702336e-10 8.924417e-12 6.008893e-06 2.976321e-05 -1.002869e+00 -2.664795e-01
2.334162e+08 8.614502e-01 4.999390e-01 3.174320e-05 -3.477558e-06 -1.192465e-05 -5.938113e-06 -1.011597e+00 -2.711182e-01
2.336350e+08 8.613281e-01 5.009766e-01 2.329005e-06 -2.183137e-06 -3.572553e-05 2.388656e-05 -1.020691e+00 -2.714233e-01
2.338537e+08 8.616333e-01 5.003662e-01 -8.922070e-07 2.709962e-05 2.086163e-05 -4.656613e-08 -1.028564e+00 -2.717285e-01
2.340724e+08 8.601074e-01 5.016479e-01 4.921108e-05 1.516938e-05 -2.681836e-05 1.862645e-08 -1.035889e+00 -2.672729e-01
2.342912e+08 8.604736e-01 5.011597e-01 3.219023e-05 1.799688e-05 -3.579818e-05 -2.379529e-05 -1.038574e+00 -2.625732e-01
2.345099e+08 8.599854e-01 5.003662e-01 -5.258247e-06 2.241507e-05 1.790188e-05 1.187902e-05 -1.037903e+00 -2.541504e-01
2.347286e+08 8.598022e-01 5.017700e-01 -3.598072e-05 -5.686656e-06 -1.787301e-05 1.791120e-05 -1.032043e+00 -2.468262e-01
2.349474e+08 8.597412e-01 5.012817e-01 -5.241483e-06 -1.260266e-05 8.955132e-06 5.949289e-06 -1.020142e+00 -2.424316e-01
2.351661e+08 8.602295e-01 5.008545e-01 2.298504e-06 3.284588e-05 -5.930662e-06 1.791026e-05 -1.006775e+00 -2.414551e-01
2.353848e+08 8.596191e-01 5.014648e-01 -2.389960e-05 4.857779e-06 1.493935e-05 1.190696e-05 -9.924316e-01 -2.443848e-01
2.356036e+08 8.588257e-01 5.023804e-01 2.564490e-05 1.100451e-05 -2.385303e-05 4.179776e-05 -9.780273e-01 -2.528076e-01
2.358223e+08 8.585815e-01 5.021973e-01 9.747222e-06 1.276098e-05 -4.097819e-08 -4.179403e-05 -9.661865e-01 -2.634888e-01
2.360410e+08 8.583984e-01 5.017700e-01 -1.544692e-05 -1.182407e-05 1.188368e-05 -3.583729e-05 -9.568481e-01 -2.766724e-01
2.362598e+08 8.579102e-01 5.015869e-01 6.718561e-06 -3.254227e-05 2.979301e-05 -3.586523e-05 -9.512939e-01 -2.911377e-01
2.364785e+08 8.575439e-01 5.020752e-01 5.837530e-06 -5.466864e-06 -5.069375e-05 4.782900e-05 -9.462891e-01 -3.046875e-01
2.366972e+08 8.573608e-01 5.018311e-01 1.469627e-05 3.442355e-05 1.196284e-05 1.192559e-05 -9.461060e-01 -3.154907e-01
2.369159e+08 8.576660e-01 5.026245e-01 5.333871e-05 -6.146729e-06 8.964445e-06 -1.350418e-08 -9.445190e-01 -3.237915e-01
2.371347e+08 8.572998e-01 5.021973e-01 -8.724630e-06 -9.336974e-06 1.796708e-05 2.387725e-05 -9.435425e-01 -3.312378e-01
2.373534e+08 8.556519e-01 5.023804e-01 6.853137e-06 -2.029818e-06 -2.687797e-05 -5.945563e-06 -9.404907e-01 -3.356934e-01
2.375721e+08 8.557129e-01 5.031128e-01 -1.852773e-05 1.294632e-05 2.988800e-05 5.953014e-06 -9.366455e-01 -3.413696e-01
2.377909e+08 8.559570e-01 5.025635e-01 2.360903e-05 4.177913e-06 2.399832e-05 5.377084e-05 -9.301147e-01 -3.463135e-01
2.380096e+08 8.553467e-01 5.031128e-01 4.215166e-06 9.187032e-06 1.196004e-05 -9.313226e-09 -9.244995e-01 -3.521729e-01
2.382283e+08 8.554688e-01 5.031738e-01 1.151953e-05 -6.406568e-06 -1.498777e-05 -1.792610e-05 -9.186401e-01 -3.588257e-01
2.384471e+08 8.539429e-01 5.029907e-01 2.681278e-05 9.918585e-06 5.965121e-06 -1.197029e-05 -9.120483e-01 -3.665771e-01
2.386658e+08 8.539429e-01 5.036011e-01 -2.483279e-05 3.198162e-05 -1.496356e-05 1.490116e-08 -9.089355e-01 -3.732910e-01
2.388845e+08 8.524780e-01 5.026855e-01 5.578622e-06 -3.150478e-05 -6.021932e-06 -2.987869e-05 -9.053955e-01 -3.795776e-01
2.391033e+08 8.533936e-01 5.032349e-01 5.231239e-06 1.263618e-05 2.695248e-05 1.193956e-05 -9.002075e-01 -3.842163e-01
2.393220e+08 8.519897e-01 5.043335e-01 -3.997795e-05 1.109019e-05 -3.590621e-05 5.993992e-06 -8.956299e-01 -3.880005e-01
2.395407e+08 8.519897e-01 5.038452e-01 2.753735e-05 2.245605e-05 1.793914e-05 -1.199823e-05 -8.865356e-01 -3.886108e-01
2.397594e+08 8.519897e-01 5.031738e-01 1.380779e-05 2.652593e-05 1.201220e-05 2.392195e-05 -8.769531e-01 -3.916626e-01
2.399782e+08 8.510742e-01 5.040283e-01 -1.326203e-05 -9.515323e-06 3.587641e-05 -3.598444e-05 -8.648071e-01 -3.952026e-01
2.401969e+08 8.507080e-01 5.038452e-01 -8.031260e-06 3.123190e-06 8.997507e-06 1.196191e-05 -8.520508e-01 -3.995361e-01
2.404156e+08 8.498535e-01 5.045166e-01 -6.400980e-06 -1.153443e-05 1.792796e-05 -2.994575e-05 -8.372803e-01 -4.080811e-01
2.406344e+08 8.500977e-01 5.042725e-01 2.817437e-05 4.343688e-06 -3.091991e-06 -6.587431e-05 -8.254395e-01 -4.188232e-01
2.408531e+08 8.494263e-01 5.043335e-01 3.040303e-06 1.030741e-05 2.398714e-05 2.391636e-05 -8.127441e-01 -4.306641e-01
2.410718e+08 8.489380e-01 5.046387e-01 4.090369e-05 6.251410e-05 -2.399273e-05 -2.393499e-05 -8.037109e-01 -4.434204e-01
2.412906e+08 8.482056e-01 5.053711e-01 2.773106e-05 1.792423e-05 -1.798663e-05 -5.977228e-06 -7.968750e-01 -4.553223e-01
2.415093e+08 8.471069e-01 5.052490e-01 -1.931563e-06 2.374500e-05 -3.010035e-06 -1.796521e-05 -7.922363e-01 -4.688110e-01
2.417280e+08 8.472290e-01 5.048218e-01 -1.577288e-05 -2.793968e-06 -5.993992e-06 8.381903e-09 -7.869873e-01 -4.784546e-01
2.419468e+08 8.469849e-01 5.046387e-01 1.397729e-05 -4.371256e-05 1.787022e-05 -5.997717e-05 -7.824707e-01 -4.869995e-01
2.421655e+08 8.464355e-01 5.060425e-01 -1.576263e-05 -2.811663e-06 -2.098083e-05 2.401136e-05 -7.771606e-01 -4.926758e-01
2.423842e+08 8.450928e-01 5.053101e-01 -1.186505e-05 1.546461e-05 2.979301e-06 -1.798011e-05 -7.695312e-01 -5.009155e-01
2.426030e+08 8.449707e-01 5.056152e-01 -4.215166e-06 -9.205192e-06 3.595091e-05 -1.803227e-05 -7.620850e-01 -5.074463e-01
2.428217e+08 8.442383e-01 5.059814e-01 -1.638103e-05 1.530815e-05 -2.793968e-09 -5.996320e-06 -7.539673e-01 -5.178833e-01
2.430404e+08 8.445435e-01 5.055542e-01 -9.056181e-06 -6.602332e-05 -2.100691e-05 2.607703e-08 -7.459106e-01 -5.289307e-01
2.432592e+08 8.435669e-01 5.055542e-01 3.123283e-05 1.469627e-05 2.699718e-05 -2.793968e-08 -7.396240e-01 -5.418701e-01
2.434779e+08 8.432617e-01 5.057373e-01 -6.553251e-06 -7.024966e-06 1.196936e-05 -3.002211e-05 -7.360229e-01 -5.544434e-01
2.436966e+08 8.413696e-01 5.063477e-01 4.426762e-05 -1.858920e-06 4.190952e-09 5.999114e-06 -7.362061e-01 -5.675049e-01
2.439153e+08 8.410034e-01 5.067139e-01 2.172031e-05 -3.777817e-05 3.300793e-05 3.601238e-05 -7.366943e-01 -5.765381e-01
2.441341e+08 8.405151e-01 5.069580e-01 -2.258457e-05 2.982281e-05 2.702139e-05 -1.801364e-05 -7.386475e-01 -5.853882e-01
2.443528e+08 8.403320e-01 5.056152e-01 1.789071e-06 -1.920573e-05 8.907169e-06 -4.803017e-05 -7.410889e-01 -5.894775e-01
2.445715e+08 8.389893e-01 5.062256e-01 4.453212e-05 2.421811e-05 -8.972362e-06 3.601238e-05 -7.429199e-01 -5.891113e-01
2.447903e+08 8.383179e-01 5.074463e-01 -1.716614e-05 -2.779998e-05 3.002211e-05 -6.003305e-06 -7.416992e-01 -5.902100e-01
2.450090e+08 8.374634e-01 5.075684e-01 -4.506484e-05 -4.124269e-05 -8.985400e-06 2.401695e-05 -7.379761e-01 -5.899658e-01
2.452277e+08 8.372192e-01 5.075073e-01 -2.150051e-05 -1.895241e-06 -5.996786e-06 1.201406e-05 -7.334595e-01 -5.890503e-01
2.454465e+08 8.368530e-01 5.083008e-01 -1.375284e-05 4.055910e-06 1.501851e-05 -1.117587e-08 -7.235107e-01 -5.894165e-01
2.456652e+08 8.362427e-01 5.088501e-01 -1.015700e-05 3.141910e-05 9.014737e-06 -4.656613e-09 -7.156372e-01 -5.916748e-01
2.458839e+08 8.353271e-01 5.075684e-01 1.055794e-05 -9.835698e-06 -1.199543e-05 1.202710e-05 -7.066040e-01 -5.957642e-01
2.461027e+08 8.346558e-01 5.088501e-01 1.612213e-05 -6.239861e-06 6.027520e-06 3.604963e-05 -6.981506e-01 -5.984497e-01
2.463214e+08 8.342285e-01 5.087280e-01 -2.150051e-05 -1.895241e-06 -1.501478e-05 3.006868e-05 -6.901550e-01 -6.032410e-01
2.465401e+08 8.330688e-01 5.096436e-01 2.517924e-05 -5.923212e-06 -2.104416e-05 -7.815659e-05 -6.822205e-01 -6.067200e-01
2.467588e+08 8.325806e-01 5.101318e-01 3.252551e-05 4.427880e-05 3.047287e-06 -6.013364e-05 -6.735535e-01 -6.116638e-01
2.469776e+08 8.318481e-01 5.092773e-01 -9.858981e-06 2.235919e-05 5.999580e-06 -2.405234e-05 -6.638794e-01 -6.161194e-01
2.471963e+08 8.313599e-01 5.092773e-01 -3.746338e-05 -1.844019e-07 -3.006682e-05 -1.201220e-05 -6.532593e-01 -6.207886e-01
2.474150e+08 8.306274e-01 5.095215e-01 -8.748844e-06 -9.397510e-06 -6.020069e-06 -1.803692e-05 -6.414185e-01 -6.284790e-01
2.476338e+08 8.298950e-01 5.093994e-01 1.767278e-05 1.425482e-05 -1.204293e-05 -1.802575e-05 -6.301575e-01 -6.376648e-01
2.478525e+08 8.289185e-01 5.104370e-01 -1.430884e-05 -1.298450e-05 -2.707168e-05 4.208833e-05 -6.187744e-01 -6.503601e-01
2.480712e+08 8.287964e-01 5.107422e-01 1.190044e-05 -1.546554e-05 -9.031966e-06 -3.009103e-05 -6.091614e-01 -6.633911e-01
2.482900e+08 8.281250e-01 5.108032e-01 3.004819e-05 -1.485087e-05 -3.009103e-05 6.029382e-06 -6.033936e-01 -6.786194e-01
2.485087e+08 8.265381e-01 5.111084e-01 2.188724e-06 2.348446e-06 -2.998859e-06 -6.015599e-05 -6.011963e-01 -6.951904e-01
2.487274e+08 8.261719e-01 5.104370e-01 5.342066e-06 -2.253801e-05 2.706051e-05 -1.205131e-05 -6.014404e-01 -7.090454e-01
2.489462e+08 8.245239e-01 5.114136e-01 3.245473e-05 1.361594e-05 -6.013550e-06 6.018672e-06 -6.035156e-01 -7.197266e-01
2.491649e+08 8.238525e-01 5.113525e-01 5.873386e-06 -5.475711e-06 3.008172e-06 1.203083e-05 -6.073608e-01 -7.283936e-01
2.493836e+08 8.234863e-01 5.118408e-01 -1.575798e-05 2.785027e-05 6.027520e-06 2.407283e-05 -6.098633e-01 -7.332764e-01
2.496024e+08 8.226929e-01 5.122681e-01 -1.680385e-05 -6.270595e-06 -2.708845e-05 1.862645e-09 -6.107788e-01 -7.355957e-01
2.498211e+08 8.219604e-01 5.126343e-01 1.480058e-05 -6.044284e-07 9.030569e-06 -3.725290e-09 -6.098633e-01 -7.361450e-01
2.500398e+08 8.217163e-01 5.123291e-01 2.301857e-05 -8.277595e-06 2.410449e-05 2.406910e-05 -6.042480e-01 -7.388306e-01
2.502586e+08 8.200073e-01 5.125732e-01 1.212955e-05 1.066178e-05 2.106093e-05 -6.020069e-06 -5.973511e-01 -7.406616e-01
2.504773e+08 8.192749e-01 5.142212e-01 -1.785159e-05 -9.741634e-06 -3.028661e-06 4.215166e-05 -5.877075e-01 -7.440186e-01
2.506960e+08 8.184204e-01 5.139771e-01 4.101545e-05 -3.091991e-06 2.410263e-05 -3.009476e-05 -5.784912e-01 -7.514038e-01
2.509147e+08 8.182373e-01 5.147705e-01 1.294632e-05 -1.204386e-05 -2.108701e-05 6.016344e-06 -5.679321e-01 -7.607422e-01
2.511335e+08 8.171997e-01 5.148926e-01 -1.653098e-07 4.543923e-06 -5.587935e-09 1.806859e-05 -5.605469e-01 -7.716675e-01
2.513522e+08 8.158569e-01 5.155029e-01 -1.075584e-05 1.439452e-05 2.107769e-05 1.117587e-08 -5.529175e-01 -7.838745e-01
2.515709e+08 8.157349e-01 5.155029e-01 1.802016e-05 5.188398e-06 -1.206622e-05 -4.819408e-05 -5.466309e-01 -7.965088e-01
2.517897e+08 8.146362e-01 5.159302e-01 3.208872e-06 5.803071e-06 -6.029382e-06 1.204759e-05 -5.422974e-01 -8.088379e-01
2.520084e+08 8.146362e-01 5.163574e-01 -3.369758e-06 -1.257285e-06 2.411194e-05 -7.450581e-09 -5.390015e-01 -8.217773e-01
2.522271e+08 8.134155e-01 5.167236e-01 3.099628e-05 -6.882474e-06 -3.014132e-05 4.219264e-05 -5.372925e-01 -8.347168e-01
2.524459e+08 8.126831e-01 5.175781e-01 3.654882e-05 -3.244728e-06 -2.713315e-05 -1.676381e-08 -5.355835e-01 -8.475952e-01
2.526646e+08 8.114624e-01 5.175171e-01 -3.364868e-05 1.813844e-05 -1.506414e-05 -6.025657e-06 -5.361938e-01 -8.613892e-01
2.528833e+08 8.104858e-01 5.182495e-01 -8.762348e-06 -9.427778e-06 1.207553e-05 -3.615953e-05 -5.383301e-01 -8.737183e-01
2.531021e+08 8.104248e-01 5.175781e-01 1.883786e-05 -1.753867e-05 1.505949e-05 -1.809373e-05 -5.422363e-01 -8.839722e-01
2.533208e+08 8.093872e-01 5.187378e-01 8.270144e-06 2.306141e-05 -1.205876e-05 -9.313226e-10 -5.480347e-01 -8.927002e-01
2.535395e+08 8.079834e-01 5.194702e-01 -1.111906e-05 -7.237308e-06 4.522130e-05 -1.806393e-05 -5.543823e-01 -8.970947e-01
2.537582e+08 8.067627e-01 5.198364e-01 -1.179345e-06 1.095410e-06 -3.617257e-05 1.805834e-05 -5.591431e-01 -8.986816e-01
2.539770e+08 8.069458e-01 5.203857e-01 6.086193e-06 2.071075e-05 -1.809560e-05 -5.587935e-09 -5.634155e-01 -8.955688e-01
2.541957e+08 8.048706e-01 5.209961e-01 1.773983e-05 4.506484e-05 -1.201592e-05 -3.619120e-05 -5.640869e-01 -8.931274e-01
2.544144e+08 8.044434e-01 5.216064e-01 -1.954008e-05 4.995614e-06 2.412871e-05 6.049871e-06 -5.588379e-01 -8.878174e-01
2.546332e+08 8.035278e-01 5.216675e-01 -2.361462e-05 -8.838251e-06 9.053852e-06 -6.022397e-06 -5.492554e-01 -8.816528e-01
2.548519e+08 8.026123e-01 5.216064e-01 8.611009e-06 1.398847e-05 -2.413429e-05 3.616326e-05 -5.385132e-01 -8.783569e-01
2.550706e+08 8.017578e-01 5.227051e-01 3.088266e-05 2.844259e-05 -1.207832e-05 1.205318e-05 -5.247192e-01 -8.808594e-01
2.552894e+08 8.012085e-01 5.231323e-01 6.220303e-06 -1.459662e-05 2.114847e-05 -4.825369e-05 -5.101318e-01 -8.859863e-01
2.555081e+08 8.001099e-01 5.228271e-01 -6.386079e-06 1.915358e-05 -6.025657e-06 -2.412312e-05 -4.973755e-01 -8.932495e-01
2.557268e+08 7.990723e-01 5.242310e-01 6.787479e-06 3.329851e-05 -9.047799e-06 -1.210719e-08 -4.859619e-01 -9.030762e-01
2.559456e+08 7.983398e-01 5.252075e-01 1.399126e-05 -8.618459e-06 -1.509488e-05 6.009825e-06 -4.798584e-01 -9.144287e-01
2.561643e+08 7.979126e-01 5.247192e-01 3.781915e-05 2.643839e-05 -1.206156e-05 -1.207180e-05 -4.729004e-01 -9.243164e-01
2.563830e+08 7.968140e-01 5.261230e-01 -8.251518e-07 2.277829e-05 9.053852e-06 1.396984e-08 -4.705811e-01 -9.320068e-01
2.566018e+08 7.958374e-01 5.256348e-01 1.532771e-05 -1.429394e-05 -3.316067e-05 -1.207553e-05 -4.696045e-01 -9.360962e-01
2.568205e+08 7.946777e-01 5.272827e-01 9.763986e-06 -1.791585e-05 -1.209788e-05 2.411567e-05 -4.683838e-01 -9.388428e-01
2.570392e+08 7.940674e-01 5.275269e-01 -2.487004e-05 -3.857911e-05 -3.011897e-05 -4.829466e-05 -4.643555e-01 -9.388428e-01
2.572580e+08 7.931519e-01 5.288086e-01 2.717413e-05 -2.525933e-05 9.313226e-09 -6.034039e-06 -4.605713e-01 -9.373779e-01
2.574767e+08 7.925415e-01 5.291138e-01 5.723909e-06 -3.175251e-05 1.809932e-05 6.051734e-06 -4.537354e-01 -9.359131e-01
2.576954e+08 7.914429e-01 5.301514e-01 -3.308803e-05 -7.636845e-08 -1.211092e-05 2.412498e-05 -4.463501e-01 -9.325562e-01
2.579141e+08 7.910156e-01 5.302124e-01 3.183261e-06 -2.498366e-05 -2.717227e-05 5.999580e-06 -4.357910e-01 -9.296875e-01
2.581329e+08 7.899780e-01 5.301514e-01 5.272776e-05 2.590567e-05 -9.059906e-06 1.206156e-05 -4.268188e-01 -9.284058e-01
2.583516e+08 7.895508e-01 5.316162e-01 3.026053e-05 1.594052e-05 -9.059440e-06 -8.847564e-09 -4.151611e-01 -9.265137e-01
2.585703e+08 7.876587e-01 5.322266e-01 2.263486e-05 5.394220e-06 3.616512e-05 2.419949e-05 -4.045410e-01 -9.236450e-01
2.587891e+08 7.872314e-01 5.333252e-01 2.331473e-05 -1.286715e-05 -1.205225e-05 -1.210067e-05 -3.914795e-01 -9.196777e-01
2.590078e+08 7.867432e-01 5.333862e-01 9.629875e-06 -1.335237e-05 -6.038696e-06 -1.024455e-08 -3.774414e-01 -9.145508e-01
2.592265e+08 7.854614e-01 5.342407e-01 -6.612390e-07 1.825579e-05 -3.019348e-06 -6.286427e-09 -3.633423e-01 -9.104004e-01
2.594453e+08 7.839355e-01 5.347900e-01 -3.173202e-05 5.599856e-05 2.117455e-05 -2.411753e-05 -3.455200e-01 -9.075317e-01
2.596640e+08 7.833252e-01 5.350952e-01 3.448501e-05 -5.617738e-06 6.061979e-06 -1.810305e-05 -3.272095e-01 -9.049072e-01
2.598827e+08 7.827148e-01 5.357056e-01 2.706796e-05 1.012348e-05 2.110377e-05 1.814030e-05 -3.082886e-01 -9.059448e-01
2.601015e+08 7.815552e-01 5.366211e-01 2.471171e-05 1.232699e-05 -9.106472e-06 2.413429e-05 -2.893066e-01 -9.067993e-01
2.603202e+08 7.810669e-01 5.379028e-01 -1.167133e-05 6.441027e-06 3.603020e-10 3.614957e-10 -2.704468e-01 -9.111938e-01
2.605389e+08 7.797852e-01 5.381470e-01 1.796056e-05 9.808689e-06 -1.199916e-05 -4.833192e-05 -2.538452e-01 -9.171753e-01
2.607576e+08 7.793579e-01 5.388184e-01 -2.251752e-05 -9.965152e-06 1.506321e-05 1.814868e-05 -2.418213e-01 -9.235229e-01
2.609764e+08 7.786255e-01 5.399170e-01 1.626834e-05 2.459623e-05 -6.105751e-06 2.415664e-05 -2.298584e-01 -9.279785e-01
2.611951e+08 7.774658e-01 5.397949e-01 1.660082e-07 -4.575821e-06 2.987683e-06 2.414174e-05 -2.185669e-01 -9.285278e-01
2.614138e+08 7.770996e-01 5.409546e-01 -4.766509e-06 -2.647936e-05 -2.418831e-05 1.203083e-05 -2.092285e-01 -9.281006e-01
2.616326e+08 7.763062e-01 5.414429e-01 -1.082756e-05 1.448207e-05 -3.010966e-06 -6.042887e-06 -1.998901e-01 -9.272461e-01
2.618513e+08 7.753296e-01 5.425415e-01 -2.196059e-06 2.855994e-05 1.807138e-05 2.419576e-05 -1.865845e-01 -9.227905e-01
2.620700e+08 7.743530e-01 5.423584e-01 2.351031e-05 -4.844740e-05 -1.808815e-05 -2.416037e-05 -1.718750e-01 -9.166870e-01
2.622888e+08 7.736206e-01 5.438843e-01 -3.879704e-05 2.724119e-05 3.036112e-06 -1.207367e-05 -1.563110e-01 -9.146729e-01
2.625075e+08 7.732544e-01 5.446167e-01 1.120940e-05 3.821589e-05 3.058463e-06 -2.415478e-05 -1.383667e-01 -9.121094e-01
2.627262e+08 7.724609e-01 5.460205e-01 -6.454065e-06 -1.170672e-05 1.816265e-05 -1.809653e-05 -1.196899e-01 -9.127197e-01
2.629450e+08 7.717896e-01 5.462036e-01 4.036166e-05 -6.543472e-06 2.113730e-05 6.081536e-06 -1.018066e-01 -9.133911e-01
2.631637e+08 7.706299e-01 5.466309e-01 -2.797320e-05 1.272000e-05 9.091571e-06 -1.810212e-05 -8.544922e-02 -9.186401e-01
2.633824e+08 7.697754e-01 5.478516e-01 -1.949817e-05 -3.052875e-05 -3.023818e-05 1.806207e-05 -6.945801e-02 -9.216919e-01
2.636012e+08 7.694092e-01 5.493774e-01 1.746416e-05 -3.832951e-05 6.056856e-06 -6.032176e-06 -5.718994e-02 -9.240112e-01
2.638199e+08 7.679443e-01 5.494995e-01 1.001125e-05 8.399598e-06 5.960464e-08 -2.416037e-05 -4.541016e-02 -9.287720e-01
2.640386e+08 7.674561e-01 5.500488e-01 4.531816e-05 1.541898e-05 -5.432591e-05 -1.823902e-05 -3.302002e-02 -9.307861e-01
2.642574e+08 7.662964e-01 5.515747e-01 -1.782551e-05 1.654308e-05 2.117269e-05 -1.203269e-05 -2.276611e-02 -9.313354e-01
2.644761e+08 7.656860e-01 5.520630e-01 1.255982e-05 1.602806e-06 -1.507811e-05 -1.211558e-05 -1.257324e-02 -9.313354e-01
2.646948e+08 7.646484e-01 5.527954e-01 4.533678e-05 4.638731e-05 -3.166497e-06 6.039441e-05 -2.929688e-03 -9.323730e-01
2.649135e+08 7.645264e-01 5.538940e-01 -6.620586e-05 -9.316951e-06 6.157905e-06 -4.835427e-05 8.056641e-03 -9.318848e-01
2.651323e+08 7.633667e-01 5.548706e-01 -3.190152e-05 2.522208e-05 1.206249e-05 1.211464e-05 1.745605e-02 -9.328613e-01
2.653510e+08 7.625122e-01 5.552368e-01 -4.417077e-05 1.444295e-05 -2.424791e-05 3.620051e-05 2.685547e-02 -9.344482e-01
2.655697e+08 7.617798e-01 5.560303e-01 3.088266e-06 4.146807e-05 -1.810584e-05 -1.212675e-05 3.356934e-02 -9.359741e-01
2.657885e+08 7.609253e-01 5.570068e-01 -3.415346e-05 -7.013977e-05 -3.312528e-05 -4.843622e-05 4.272461e-02 -9.332275e-01
2.660072e+08 7.604980e-01 5.575562e-01 3.415160e-05 8.143485e-06 1.955777e-08 -1.208764e-05 4.870605e-02 -9.310303e-01
2.662259e+08 7.589722e-01 5.588989e-01 -4.254282e-06 -9.350944e-06 1.809280e-05 1.213979e-05 5.322266e-02 -9.243774e-01
2.664447e+08 7.587280e-01 5.600586e-01 8.675270e-06 1.409464e-05 -3.629737e-05 5.930662e-06 6.341553e-02 -9.174194e-01
2.666634e+08 7.577515e-01 5.612183e-01 -1.530070e-05 9.781681e-06 1.522899e-05 -3.017858e-05 7.452393e-02 -9.107056e-01
2.668821e+08 7.576294e-01 5.618896e-01 8.337200e-06 2.329238e-05 1.198426e-05 3.632717e-05 8.764648e-02 -9.028320e-01
2.671009e+08 7.568359e-01 5.625610e-01 1.904927e-05 1.334213e-05 -9.033829e-06 -1.212396e-05 1.044922e-01 -9.000244e-01
2.673196e+08 7.558594e-01 5.633545e-01 1.904368e-05 -1.769792e-05 6.026123e-06 6.067567e-06 1.210938e-01 -8.973999e-01
2.675383e+08 7.552490e-01 5.639648e-01 1.173653e-05 -6.472692e-06 1.514517e-05 -1.205131e-05 1.390381e-01 -8.973999e-01
2.677570e+08 7.551270e-01 5.645752e-01 3.761239e-05 -2.164580e-05 1.511816e-05 3.539026e-08 1.559448e-01 -9.034424e-01
2.679758e+08 7.548828e-01 5.662231e-01 3.063492e-05 1.146272e-05 -6.067567e-06 6.035436e-06 1.696777e-01 -9.114990e-01
2.681945e+08 7.529907e-01 5.671387e-01 1.310091e-05 -1.216959e-05 -2.988614e-06 -1.210254e-05 1.790771e-01 -9.216309e-01
2.684132e+08 7.525635e-01 5.682373e-01 1.182780e-06 -3.215671e-05 -2.743304e-05 6.644428e-05 1.836548e-01 -9.291382e-01
2.686320e+08 7.518921e-01 5.691528e-01 -1.378916e-05 -5.122274e-07 3.018789e-05 1.822971e-05 1.865845e-01 -9.369507e-01
2.688507e+08 7.509766e-01 5.694580e-01 5.294383e-05 3.072247e-05 1.507718e-05 1.213327e-05 1.884766e-01 -9.410400e-01
2.690694e+08 7.504883e-01 5.708008e-01 -1.549814e-05 -1.669489e-05 1.207460e-05 6.085262e-06 1.882324e-01 -9.419556e-01
2.692882e+08 7.503662e-01 5.717163e-01 5.111098e-06 -1.363084e-05 -2.112053e-05 -1.820922e-05 1.886597e-01 -9.409790e-01
2.695069e+08 7.490234e-01 5.720825e-01 -2.213870e-06 -2.386048e-06 -2.112798e-05 -1.214631e-05 1.916504e-01 -9.383545e-01
2.697256e+08 7.485352e-01 5.736084e-01 -1.770165e-05 1.201127e-05 1.820549e-05 -1.808442e-05 1.964722e-01 -9.354858e-01
2.699444e+08 7.482300e-01 5.739746e-01 4.779547e-06 2.663396e-05 -9.044074e-06 -1.211837e-05 2.022095e-01 -9.333496e-01
2.701631e+08 7.475586e-01 5.754395e-01 -2.248958e-05 1.646578e-05 2.410263e-05 3.637932e-05 2.099609e-01 -9.309692e-01
2.703818e+08 7.465210e-01 5.767822e-01 -9.893440e-06 -1.304504e-05 -1.231208e-05 5.440414e-05 2.156372e-01 -9.320679e-01
2.706006e+08 7.456055e-01 5.770264e-01 -3.238209e-06 -5.880371e-06 2.434850e-05 -4.226342e-05 2.238159e-01 -9.343872e-01
2.708193e+08 7.442627e-01 5.783691e-01 7.842667e-06 6.054994e-06 2.423301e-05 -1.198985e-05 2.292480e-01 -9.346924e-01
2.710380e+08 7.449951e-01 5.795288e-01 -3.973953e-05 -1.645647e-05 -2.118945e-05 -7.823110e-08 2.343140e-01 -9.371338e-01
2.712568e+08 7.438965e-01 5.806274e-01 1.671910e-05 1.560617e-05 3.002118e-06 6.063841e-06 2.396240e-01 -9.379272e-01
2.714755e+08 7.436523e-01 5.814819e-01 -5.343929e-05 9.533018e-06 2.430007e-05 -2.412684e-05 2.431030e-01 -9.375610e-01
2.716942e+08 7.421875e-01 5.827637e-01 -1.330860e-05 -1.433399e-05 2.428703e-05 -1.803599e-05 2.491455e-01 -9.370117e-01
2.719129e+08 7.427368e-01 5.833740e-01 2.628192e-05 6.731600e-06 9.021722e-06 1.819525e-05 2.579956e-01 -9.377441e-01
2.721317e+08 7.416382e-01 5.841064e-01 2.165604e-05 6.555580e-06 1.214352e-05 -1.205690e-05 2.677002e-01 -9.385376e-01
2.723504e+08 7.410278e-01 5.851440e-01 7.014722e-06 2.909265e-05 2.413802e-05 1.824088e-05 2.751465e-01 -9.436035e-01
2.725691e+08 7.399902e-01 5.859375e-01 3.923662e-06 -1.254678e-05 -1.207367e-05 -6.091781e-06 2.826538e-01 -9.490356e-01
2.727879e+08 7.396851e-01 5.878296e-01 2.218061e-06 2.390007e-06 5.160272e-05 -3.608316e-05 2.877808e-01 -9.580688e-01
2.730066e+08 7.387085e-01 5.890503e-01 -5.289912e-06 1.827069e-05 3.598757e-10 3.633147e-10 2.882690e-01 -9.644775e-01
2.732253e+08 7.388306e-01 5.892334e-01 2.833642e-05 -1.742132e-05 -1.527369e-07 3.631599e-05 2.893677e-01 -9.718628e-01
2.734441e+08 7.371216e-01 5.901489e-01 8.389354e-06 -3.893860e-05 -4.236400e-05 5.844980e-06 2.869873e-01 -9.757080e-01
2.736628e+08 7.373657e-01 5.914307e-01 -1.007318e-05 2.270751e-05 2.420321e-05 1.061708e-07 2.817993e-01 -9.739380e-01
2.738815e+08 7.379150e-01 5.925293e-01 1.349580e-05 9.736046e-06 -1.217891e-05 1.812819e-05 2.823486e-01 -9.708252e-01
2.741003e+08 7.373047e-01 5.938110e-01 -1.439080e-05 4.449114e-05 -2.937391e-06 -2.423674e-05 2.839966e-01 -9.626465e-01
2.743190e+08 7.366943e-01 5.942383e-01 -2.239645e-05 1.187250e-05 3.024749e-05 6.167218e-06 2.898560e-01 -9.565430e-01
2.745377e+08 7.359619e-01 5.961914e-01 4.101545e-06 -4.837662e-05 1.522712e-05 -1.810305e-05 2.997437e-01 -9.495850e-01
2.747564e+08 7.357788e-01 5.965576e-01 5.861744e-05 7.979572e-06 2.752990e-06 6.663054e-05 3.140259e-01 -9.471436e-01
2.749752e+08 7.347412e-01 5.971680e-01 -4.768372e-06 -2.674386e-05 2.135336e-05 -4.227832e-05 3.302002e-01 -9.478149e-01
2.751939e+08 7.343750e-01 5.986328e-01 3.945082e-06 -1.256540e-05 -2.129376e-05 2.412125e-05 3.431396e-01 -9.505005e-01
2.754126e+08 7.330933e-01 6.004639e-01 1.022406e-05 3.505498e-05 -3.028428e-06 -1.490116e-08 3.586426e-01 -9.605103e-01
2.756314e+08 7.335815e-01 6.002197e-01 3.925525e-06 1.864880e-05 3.604725e-10 3.630021e-10 3.652954e-01 -9.714355e-01
2.758501e+08 7.326660e-01 6.016846e-01 4.967675e-06 -9.066891e-06 -3.022328e-05 -1.224130e-05 3.715210e-01 -9.834595e-01
2.760688e+08 7.315063e-01 6.021729e-01 -4.121102e-05 -1.077168e-05 -2.431124e-05 2.409890e-05 3.729248e-01 -9.958496e-01
2.762876e+08 7.315674e-01 6.030273e-01 8.563511e-06 -1.238752e-05 -8.955598e-06 -3.030151e-05 3.693237e-01 -1.001404e+00
2.765063e+08 7.316284e-01 6.049194e-01 1.196575e-06 -1.111126e-06 -1.828745e-05 2.414919e-05 3.627319e-01 -1.007019e+00
2.767250e+08 7.307129e-01 6.064453e-01 -1.864322e-05 3.919005e-06 1.511537e-05 6.130897e-06 3.584595e-01 -1.008850e+00
2.769438e+08 7.308350e-01 6.066895e-01 -6.165355e-06 1.017330e-05 -2.131797e-05 3.021210e-05 3.537598e-01 -1.004211e+00
2.771625e+08 7.303467e-01 6.080322e-01 1.202896e-05 -4.233234e-05 1.200475e-05 2.429076e-05 3.513184e-01 -1.000610e+00
2.773812e+08 7.296143e-01 6.090088e-01 2.275407e-05 1.010671e-05 -9.114854e-06 6.015878e-06 3.495483e-01 -9.920044e-01
2.776000e+08 7.301636e-01 6.097412e-01 4.276633e-06 9.413343e-06 6.060116e-06 2.421439e-08 3.492432e-01 -9.843750e-01
2.778187e+08 7.292480e-01 6.104126e-01 1.505762e-05 -5.858019e-07 1.218729e-05 -1.812167e-05 3.509521e-01 -9.764404e-01
2.780374e+08 7.290649e-01 6.116943e-01 -1.488999e-05 2.720766e-05 -3.343076e-05 2.409890e-05 3.512573e-01 -9.686279e-01
2.782562e+08 7.283325e-01 6.124878e-01 -1.061801e-05 5.390495e-06 2.420321e-05 6.165355e-06 3.562622e-01 -9.554443e-01
2.784749e+08 7.282715e-01 6.133423e-01 -8.039176e-06 -1.458451e-06 2.132915e-05 -3.020279e-05 3.594971e-01 -9.414673e-01
2.786936e+08 7.272339e-01 6.147461e-01 2.548099e-06 2.439693e-05 -6.172806e-06 2.419949e-05 3.657837e-01 -9.285889e-01
2.789123e+08 7.276001e-01 6.158447e-01 3.509410e-05 -1.022592e-05 -3.651716e-05 3.013201e-05 3.728027e-01 -9.147339e-01
2.791311e+08 7.262573e-01 6.168213e-01 4.926696e-07 1.737475e-05 -1.564622e-07 3.027730e-05 3.831787e-01 -8.993530e-01
2.793498e+08 7.258911e-01 6.180420e-01 -2.567843e-05 5.971640e-06 1.221523e-05 -1.810212e-05 3.963013e-01 -8.856812e-01
2.795685e+08 7.265625e-01 6.188354e-01 1.573004e-05 1.216773e-05 9.169802e-06 -1.813564e-05 4.099731e-01 -8.715210e-01
2.797873e+08 7.262573e-01 6.199341e-01 4.317425e-05 -8.763745e-06 1.815427e-05 6.140210e-06 4.265747e-01 -8.626099e-01
2.800060e+08 7.255249e-01 6.219482e-01 1.492538e-05 -2.720021e-05 -9.028241e-06 -1.217332e-05 4.432983e-01 -8.547974e-01
2.802247e+08 7.250366e-01 6.224976e-01 2.401136e-05 -2.225116e-05 -6.123446e-06 1.209043e-05 4.566650e-01 -8.492432e-01
2.804435e+08 7.256470e-01 6.227417e-01 6.895512e-06 -2.868846e-05 -1.818407e-05 -6.705523e-08 4.701538e-01 -8.455811e-01
2.806622e+08 7.239380e-01 6.244507e-01 2.306886e-05 3.215112e-05 -1.540780e-05 4.839897e-05 4.792480e-01 -8.398438e-01
2.808809e+08 7.240601e-01 6.254883e-01 2.600811e-05 1.604296e-05 -5.830079e-06 -4.852191e-05 4.862671e-01 -8.347168e-01
2.810997e+08 7.244263e-01 6.264648e-01 3.028661e-05 2.547167e-05 -1.499802e-05 -3.645383e-05 4.919434e-01 -8.274536e-01
2.813184e+08 7.234497e-01 6.275024e-01 8.532777e-06 1.886114e-05 -1.823995e-05 1.203362e-05 4.981689e-01 -8.162231e-01
2.815371e+08 7.238770e-01 6.279907e-01 5.564839e-05 2.874061e-05 3.645755e-05 -1.804344e-05 5.059204e-01 -8.010864e-01
2.817558e+08 7.234497e-01 6.289062e-01 -1.364574e-05 -3.642961e-05 -2.437644e-05 3.020838e-05 5.121460e-01 -7.866211e-01
2.819746e+08 7.230225e-01 6.305542e-01 3.552996e-07 -9.254552e-06 -2.434850e-05 1.804903e-05 5.232544e-01 -7.722778e-01
2.821933e+08 7.227783e-01 6.311646e-01 3.426569e-06 1.291046e-06 6.208196e-06 -3.027543e-05 5.355225e-01 -7.554932e-01
2.824120e+08 7.229004e-01 6.325073e-01 -5.237758e-06 4.499778e-05 6.063376e-06 3.166497e-08 5.491943e-01 -7.421875e-01
2.826308e+08 7.222290e-01 6.326904e-01 -7.208902e-06 6.666873e-06 -1.214817e-05 6.002374e-06 5.646973e-01 -7.293091e-01
2.828495e+08 7.224121e-01 6.341553e-01 5.342998e-06 -1.833029e-05 1.515727e-05 7.543713e-08 5.779419e-01 -7.174072e-01
2.830682e+08 7.221069e-01 6.356201e-01 -1.204759e-05 4.243478e-05 5.863607e-06 3.642216e-05 5.901794e-01 -7.074890e-01
2.832870e+08 7.214966e-01 6.356201e-01 -1.513585e-05 3.184751e-05 2.138689e-05 -3.625453e-05 6.019897e-01 -6.969299e-01
2.835057e+08 7.216187e-01 6.371460e-01 -1.843274e-05 -3.198907e-05 6.221235e-06 -3.028661e-05 6.135864e-01 -6.848755e-01
2.837244e+08 7.215576e-01 6.380615e-01 -2.046302e-05 -3.903173e-05 2.743490e-05 -3.018789e-05 6.242371e-01 -6.724854e-01
2.839432e+08 7.211914e-01 6.394653e-01 1.839176e-05 -2.591871e-05 -1.513399e-05 -6.143935e-06 6.368408e-01 -6.605530e-01
2.841619e+08 7.214966e-01 6.400757e-01 4.696846e-05 -1.670048e-05 -1.825672e-05 1.204759e-05 6.479187e-01 -6.479187e-01
2.843806e+08 7.214355e-01 6.407471e-01 -1.247600e-05 8.289889e-05 -3.046729e-05 3.019907e-05 6.612549e-01 -6.374207e-01
2.845994e+08 7.207031e-01 6.419678e-01 3.121793e-06 -2.074335e-05 1.218729e-05 -1.206808e-05 6.755676e-01 -6.257629e-01
2.848181e+08 7.205811e-01 6.428223e-01 -9.069219e-06 -4.982576e-06 -9.125564e-06 6.019603e-06 6.885681e-01 -6.185303e-01
2.850368e+08 7.207031e-01 6.432495e-01 1.021195e-06 3.513647e-06 -5.681068e-08 1.213048e-05 6.999207e-01 -6.102295e-01
2.852556e+08 7.205811e-01 6.448364e-01 3.865734e-05 4.904345e-05 -6.037299e-06 -6.093644e-06 7.108154e-01 -6.047974e-01
2.854743e+08 7.205811e-01 6.463013e-01 -8.956529e-06 2.166629e-05 2.156943e-05 -6.666034e-05 7.176514e-01 -5.983276e-01
2.856930e+08 7.199707e-01 6.464844e-01 -3.491342e-05 -2.569519e-05 -1.899898e-07 4.243851e-05 7.227783e-01 -5.901489e-01
2.859117e+08 7.196655e-01 6.481934e-01 1.383480e-06 -5.739741e-06 -9.331852e-06 4.243478e-05 7.259521e-01 -5.809937e-01
2.861305e+08 7.194824e-01 6.494751e-01 -1.406576e-05 4.080124e-06 -1.824740e-05 5.967915e-06 7.300415e-01 -5.688477e-01
2.863492e+08 7.192383e-01 6.492310e-01 -1.046155e-05 7.529743e-07 -1.532212e-05 3.025495e-05 7.330933e-01 -5.555420e-01
2.865679e+08 7.194824e-01 6.502686e-01 6.221235e-07 -4.517660e-05 2.139062e-05 -3.022887e-05 7.399902e-01 -5.392456e-01
2.867867e+08 7.188110e-01 6.517334e-01 -8.787960e-06 1.702923e-05 2.756715e-07 -4.855171e-05 7.481079e-01 -5.217896e-01
2.870054e+08 7.192383e-01 6.524048e-01 -3.514811e-06 3.001094e-05 3.218651e-06 -3.640726e-05 7.597656e-01 -5.056763e-01
2.872241e+08 7.182617e-01 6.537476e-01 3.490783e-05 2.570264e-05 4.261732e-05 -2.402067e-05 7.744751e-01 -4.903564e-01
2.874429e+08 7.192993e-01 6.548462e-01 2.693385e-05 -7.057562e-06 -5.867332e-06 -3.648363e-05 7.910156e-01 -4.797363e-01
2.876616e+08 7.188721e-01 6.551514e-01 6.854534e-06 2.588145e-06 1.803972e-05 3.045611e-05 8.076782e-01 -4.744263e-01
2.878803e+08 7.182617e-01 6.558838e-01 -3.979169e-05 9.998679e-06 -2.137385e-05 2.414919e-05 8.226318e-01 -4.683838e-01
2.880991e+08 7.188110e-01 6.570435e-01 -2.396852e-05 -9.080395e-06 3.951043e-05 -5.852431e-06 8.358765e-01 -4.691162e-01
2.883178e+08 7.186279e-01 6.593018e-01 7.404946e-06 -1.129787e-05 2.402440e-05 4.271045e-05 8.447876e-01 -4.706421e-01
2.885365e+08 7.187500e-01 6.595459e-01 -1.621246e-05 -2.963841e-05 5.776808e-05 -5.722046e-06 8.507690e-01 -4.713745e-01
2.887552e+08 7.186890e-01 6.600952e-01 1.094025e-05 1.667161e-05 -4.269928e-05 3.013387e-05 8.542480e-01 -4.708862e-01
2.889740e+08 7.184448e-01 6.601562e-01 1.202710e-05 -1.110602e-05 -4.858524e-05 -2.793968e-07 8.548584e-01 -4.680786e-01
2.891927e+08 7.188721e-01 6.614380e-01 2.851337e-05 -1.740083e-05 5.786121e-05 -2.399832e-05 8.550415e-01 -4.653320e-01
2.894114e+08 7.188110e-01 6.622925e-01 7.211231e-06 -6.661750e-06 2.146326e-05 -3.635138e-05 8.563232e-01 -4.580078e-01
2.896302e+08 7.180786e-01 6.634521e-01 -1.435634e-05 -1.795869e-05 -3.003981e-06 -6.092247e-06 8.568726e-01 -4.523315e-01
2.898489e+08 7.182007e-01 6.641235e-01 1.285225e-06 2.555735e-05 -1.179054e-05 -5.478412e-05 8.598022e-01 -4.451294e-01
2.900676e+08 7.183838e-01 6.646729e-01 -2.951734e-05 1.387857e-05 1.234747e-05 -3.031082e-05 8.637695e-01 -4.405518e-01
2.902864e+08 7.177124e-01 6.661987e-01 3.582612e-05 2.570450e-06 3.975257e-05 -3.618747e-05 8.670044e-01 -4.355469e-01
2.905051e+08 7.185669e-01 6.660156e-01 -1.572538e-06 1.036702e-05 -1.212116e-05 -6.148592e-06 8.698730e-01 -4.333496e-01
2.907238e+08 7.188721e-01 6.680298e-01 -4.545972e-05 6.299466e-06 2.136827e-05 -1.203269e-05 8.716431e-01 -4.289551e-01
2.909426e+08 7.186279e-01 6.682739e-01 1.545157e-05 -9.808689e-06 -5.800277e-06 -4.868954e-05 8.738403e-01 -4.265137e-01
2.911613e+08 7.182617e-01 6.690674e-01 1.385342e-06 -5.736947e-06 4.857779e-05 1.245737e-05 8.736572e-01 -4.206543e-01
2.913800e+08 7.180786e-01 6.702881e-01 -1.534913e-05 -2.148002e-05 -9.051524e-06 -1.222175e-05 8.756714e-01 -4.169922e-01
2.915988e+08 7.177124e-01 6.718140e-01 -2.334453e-05 3.697351e-06 9.292737e-06 -2.427585e-05 8.778687e-01 -4.124146e-01
2.918175e+08 7.188110e-01 6.714478e-01 8.882955e-06 9.632669e-06 -6.052200e-06 -6.118789e-06 8.817139e-01 -4.093628e-01
2.920362e+08 7.176514e-01 6.727905e-01 1.972076e-05 -3.688037e-07 2.109073e-05 3.056228e-05 8.851318e-01 -4.060059e-01
2.922550e+08 7.182617e-01 6.732178e-01 5.241111e-05 2.298504e-05 -1.220684e-05 6.011687e-06 8.888550e-01 -4.047852e-01
2.924737e+08 7.184448e-01 6.740112e-01 -8.316711e-07 -8.145813e-06 1.832843e-05 -1.206808e-05 8.939819e-01 -4.041748e-01
2.926924e+08 7.182617e-01 6.752319e-01 2.466142e-06 2.445281e-05 -2.431870e-05 -6.234273e-06 8.941650e-01 -4.049683e-01
2.929111e+08 7.183838e-01 6.761475e-01 -1.193956e-05 -2.020132e-05 -1.263618e-05 7.300451e-05 8.937988e-01 -4.056396e-01
2.931299e+08 7.179565e-01 6.768799e-01 -2.803281e-05 -2.316758e-05 -3.124587e-06 1.215655e-05 8.939209e-01 -4.052124e-01
2.933486e+08 7.185669e-01 6.769409e-01 -4.627276e-06 -1.890585e-07 2.130866e-05 1.229346e-07 8.905029e-01 -4.031982e-01
2.935673e+08 7.188110e-01 6.782227e-01 1.806673e-05 -1.665857e-05 3.038719e-05 1.236610e-05 8.886108e-01 -3.997192e-01
2.937861e+08 7.185669e-01 6.790161e-01 2.081320e-05 2.980977e-05 3.257766e-06 -3.044307e-05 8.875732e-01 -3.926392e-01
2.940048e+08 7.191772e-01 6.793213e-01 2.789311e-06 -1.147948e-05 2.136827e-05 -5.969778e-06 8.887939e-01 -3.865356e-01
2.942235e+08 7.190552e-01 6.802979e-01 -6.416813e-07 -1.277309e-05 -3.617799e-10 -3.664695e-10 8.925781e-01 -3.802490e-01
2.944423e+08 7.190552e-01 6.819458e-01 1.616962e-05 2.963841e-05 -9.066425e-06 -1.226645e-05 8.992310e-01 -3.732910e-01
2.946610e+08 7.189331e-01 6.823120e-01 -3.343448e-06 2.535619e-05 -1.228414e-05 1.211278e-05 9.066162e-01 -3.704834e-01
2.948797e+08 7.189331e-01 6.828613e-01 -6.159768e-06 3.685057e-05 -4.278123e-05 1.189858e-05 9.141846e-01 -3.681641e-01
2.950985e+08 7.188721e-01 6.834717e-01 -1.711119e-05 -6.498769e-06 -1.506880e-05 -2.450496e-05 9.218140e-01 -3.711548e-01
2.953172e+08 7.190552e-01 6.834717e-01 3.188103e-05 -4.276074e-05 -1.516286e-05 -1.229066e-05 9.247437e-01 -3.745728e-01
2.955359e+08 7.194214e-01 6.845703e-01 -1.509301e-05 5.373731e-07 -9.028241e-06 -1.836475e-05 9.283447e-01 -3.785400e-01
2.957546e+08 7.200317e-01 6.847534e-01 -1.490489e-05 -4.089437e-06 1.209136e-05 1.837872e-05 9.284058e-01 -3.839111e-01
2.959734e+08 7.189941e-01 6.860352e-01 -2.969988e-06 1.610722e-05 -6.183051e-06 1.216028e-05 9.254761e-01 -3.856201e-01
2.961921e+08 7.202759e-01 6.874390e-01 1.613796e-05 -2.673082e-05 2.804771e-05 -1.345389e-05 9.205933e-01 -3.861694e-01
2.964108e+08 7.209473e-01 6.881714e-01 -4.198961e-05 -1.655705e-05 -5.215406e-06 -3.441609e-05 9.166260e-01 -3.833618e-01
2.966296e+08 7.197876e-01 6.892090e-01 3.209524e-05 8.588657e-06 -1.941435e-05 1.286622e-05 9.114380e-01 -3.789062e-01
2.968483e+08 7.207642e-01 6.895752e-01 -4.268065e-05 2.089888e-05 6.325543e-06 -3.519095e-05 9.096680e-01 -3.729858e-01
2.970670e+08 7.207642e-01 6.895752e-01 -5.625188e-07 5.486608e-05 1.324806e-05 -1.826789e-05 9.075928e-01 -3.675537e-01
2.972858e+08 7.207031e-01 6.901855e-01 -1.917686e-05 1.493376e-05 -1.153070e-05 7.795170e-07 9.057617e-01 -3.618774e-01
2.975045e+08 7.209473e-01 6.914062e-01 2.114568e-05 1.697801e-05 3.095716e-06 4.614890e-05 9.042358e-01 -3.547974e-01
2.977232e+08 7.205811e-01 6.923218e-01 8.019619e-06 -1.679827e-05 -5.249679e-05 3.830716e-05 9.016113e-01 -3.472900e-01
2.979420e+08 7.205200e-01 6.928101e-01 -2.010539e-05 4.201382e-05 -1.308322e-05 6.464496e-05 8.975220e-01 -3.388672e-01
2.981607e+08 7.208862e-01 6.931763e-01 1.126528e-05 8.818693e-06 4.273281e-05 3.191456e-05 8.932495e-01 -3.296509e-01
2.983794e+08 7.202759e-01 6.939697e-01 1.586229e-05 -4.407018e-05 -3.117509e-05 -3.269687e-05 8.918457e-01 -3.189697e-01
2.985982e+08 7.207031e-01 6.942749e-01 2.082530e-05 -3.837049e-07 -5.174428e-06 5.253777e-05 8.899536e-01 -3.030396e-01
2.988169e+08 7.214355e-01 6.948242e-01 1.387950e-05 -2.477318e-07 -3.059208e-05 1.948141e-05 8.897095e-01 -2.866821e-01
2.990356e+08 7.202759e-01 6.962891e-01 2.958253e-05 2.447516e-05 9.809621e-06 1.675170e-05 8.940430e-01 -2.719727e-01
2.992544e+08 7.211914e-01 6.961060e-01 2.737716e-05 -2.130121e-05 2.021715e-05 -1.361594e-06 9.015503e-01 -2.571411e-01
2.994731e+08 7.214355e-01 6.962280e-01 -1.223851e-05 1.479127e-05 -2.809800e-05 1.350045e-05 9.091187e-01 -2.449951e-01
2.996918e+08 7.216187e-01 6.968994e-01 1.801457e-05 -1.701526e-06 -3.177859e-05 2.138317e-06 9.176636e-01 -2.346191e-01
2.999105e+08 7.211304e-01 6.978149e-01 7.431954e-06 2.763793e-05 3.851950e-06 -2.927333e-05 9.254761e-01 -2.287598e-01
3.001293e+08 7.212524e-01 6.978149e-01 5.247816e-05 -1.620874e-05 -1.637638e-05 -2.792291e-05 9.320068e-01 -2.274170e-01
3.003480e+08 7.216187e-01 6.993408e-01 -5.101785e-06 2.507679e-05 -1.734030e-05 1.159497e-06 9.334717e-01 -2.244263e-01
3.005667e+08 7.216187e-01 6.994629e-01 -2.204441e-05 1.009926e-05 4.123896e-05 8.825213e-06 9.308472e-01 -2.230835e-01
3.007855e+08 7.215576e-01 7.000732e-01 1.715869e-05 -5.028769e-05 -2.061576e-05 -4.427508e-06 9.239502e-01 -2.192383e-01
3.010042e+08 7.214966e-01 7.011108e-01 2.857763e-06 4.807953e-06 2.292916e-06 3.469735e-05 9.147949e-01 -2.111816e-01
3.012229e+08 7.221069e-01 7.009888e-01 6.755069e-05 -2.624840e-05 -1.162291e-06 -1.735520e-05 9.030151e-01 -1.992798e-01
3.014417e+08 7.218018e-01 7.014771e-01 6.637536e-06 -1.747068e-05 -5.576760e-06 4.684553e-05 8.919067e-01 -1.823120e-01
3.016604e+08 7.217407e-01 7.019043e-01 1.175329e-05 -4.255399e-05 1.946650e-05 -1.293048e-05 8.846436e-01 -1.624756e-01
3.018791e+08 7.222290e-01 7.029419e-01 -1.156330e-05 -2.617761e-05 -1.930445e-05 -2.777204e-05 8.784180e-01 -1.412354e-01
3.020979e+08 7.213745e-01 7.026978e-01 3.208220e-05 -7.064641e-05 4.547834e-05 -1.466274e-05 8.756714e-01 -1.186523e-01
3.023166e+08 7.221069e-01 7.031860e-01 -1.077261e-05 1.891796e-05 -3.671274e-06 -1.137611e-05 8.740845e-01 -9.613037e-02
3.025353e+08 7.222290e-01 7.036133e-01 1.846440e-05 2.256408e-05 1.235120e-05 1.079775e-05 8.757324e-01 -7.342529e-02
3.027540e+08 7.216797e-01 7.042847e-01 1.021475e-05 2.897903e-05 -9.085238e-05 -1.134723e-05 8.767090e-01 -5.456543e-02
3.029728e+08 7.224121e-01 7.044067e-01 -6.818213e-06 7.055234e-06 1.680106e-05 3.376044e-05 8.785400e-01 -3.308105e-02
3.031915e+08 7.217407e-01 7.052002e-01 -3.893860e-06 1.534075e-05 3.761984e-05 -2.512708e-06 8.800659e-01 -1.336670e-02
3.034102e+08 7.219238e-01 7.053223e-01 6.824266e-06 -7.060356e-06 -2.740137e-05 2.507679e-05 8.834839e-01 4.516602e-03
3.036290e+08 7.215576e-01 7.062378e-01 -2.043881e-05 2.117082e-05 -6.005168e-05 1.560524e-05 8.875732e-01 2.404785e-02
3.038477e+08 7.216187e-01 7.068481e-01 3.931113e-05 2.571195e-05 -3.476068e-05 2.296641e-06 8.900146e-01 4.241943e-02
3.040664e+08 7.221069e-01 7.067261e-01 -3.708340e-05 2.353452e-05 4.268065e-05 7.279962e-05 8.956909e-01 6.030273e-02
3.042852e+08 7.219238e-01 7.071533e-01 -1.000240e-06 2.362579e-05 -7.513911e-06 -6.933510e-05 8.992920e-01 7.727051e-02
3.045039e+08 7.220459e-01 7.074585e-01 -1.523178e-06 -7.612165e-06 2.413243e-05 -3.071688e-05 9.065552e-01 9.136963e-02
3.047226e+08 7.219849e-01 7.073975e-01 -4.200963e-06 -2.011657e-06 -1.680851e-05 -3.378280e-05 9.107056e-01 1.024170e-01
3.049414e+08 7.222290e-01 7.078857e-01 -2.909917e-06 -8.286443e-06 3.939494e-05 -2.011657e-05 9.135132e-01 1.137695e-01
3.051601e+08 7.219238e-01 7.084351e-01 -3.308989e-05 1.512468e-05 -1.351722e-05 -2.820790e-05 9.150391e-01 1.218872e-01
3.053788e+08 7.213745e-01 7.094116e-01 -4.561618e-06 -2.283417e-05 -1.042895e-05 1.815520e-05 9.140015e-01 1.317749e-01
3.055976e+08 7.221069e-01 7.100220e-01 1.186505e-05 4.700199e-05 -6.573275e-06 -1.121033e-05 9.094238e-01 1.412964e-01
3.058163e+08 7.228394e-01 7.097778e-01 3.084540e-06 1.869071e-05 1.333654e-06 -2.339855e-05 9.031982e-01 1.522217e-01
3.060350e+08 7.216797e-01 7.100830e-01 2.891198e-05 -1.367927e-05 2.298504e-05 -4.811212e-05 8.967285e-01 1.672363e-01
3.062538e+08 7.221680e-01 7.112427e-01 2.701953e-05 -4.558638e-05 -1.740735e-05 1.158565e-06 8.900146e-01 1.835327e-01
3.064725e+08 7.222900e-01 7.109375e-01 1.185760e-05 -3.906153e-05 -2.883002e-05 -3.885478e-05 8.853149e-01 2.009277e-01
3.066912e+08 7.221069e-01 7.109985e-01 1.048669e-06 -2.016872e-05 2.398528e-05 1.004152e-05 8.842773e-01 2.208252e-01
3.069099e+08 7.220459e-01 7.112427e-01 5.755946e-05 3.801286e-05 1.750886e-07 -4.080310e-05 8.851318e-01 2.402344e-01
3.071287e+08 7.216187e-01 7.124023e-01 1.529511e-05 4.479662e-07 -1.647323e-05 5.937740e-05 8.883667e-01 2.571411e-01
3.073474e+08 7.220459e-01 7.122192e-01 -1.455890e-06 -4.141824e-06 2.630800e-05 -4.256144e-05 8.928833e-01 2.725830e-01
3.075661e+08 7.212524e-01 7.130737e-01 -1.265574e-05 -9.511597e-06 -1.489557e-05 -4.848465e-06 8.976440e-01 2.842407e-01
3.077849e+08 7.215576e-01 7.133789e-01 9.801704e-06 4.702248e-06 3.697164e-05 -1.411140e-05 9.031982e-01 2.930298e-01
3.080036e+08 7.225342e-01 7.117310e-01 1.849607e-06 2.843700e-05 2.650544e-05 4.036352e-06 9.065552e-01 3.005371e-01
3.082223e+08 7.218018e-01 7.128906e-01 -3.552809e-05 -5.151331e-05 -3.772601e-05 2.525747e-06 9.065552e-01 3.048706e-01
3.084411e+08 7.220459e-01 7.133179e-01 -1.751631e-05 3.291108e-05 -3.677793e-06 -1.142453e-05 9.060669e-01 3.099365e-01
3.086598e+08 7.215576e-01 7.147217e-01 6.394461e-06 -3.484637e-05 1.934171e-05 2.790801e-05 9.037476e-01 3.161621e-01
3.088785e+08 7.218018e-01 7.150879e-01 2.258830e-05 2.118945e-05 8.881092e-06 4.612282e-05 8.990479e-01 3.231201e-01
3.090973e+08 7.213135e-01 7.142334e-01 2.413988e-06 -2.295710e-05 2.400391e-05 1.006201e-05 8.964233e-01 3.308105e-01
3.093160e+08 7.214966e-01 7.155151e-01 8.406583e-06 4.031230e-06 1.156703e-06 1.744181e-05 8.941650e-01 3.379517e-01
3.095347e+08 7.207031e-01 7.150879e-01 4.011951e-05 -1.178496e-05 5.848706e-07 5.249307e-05 8.913574e-01 3.475952e-01
3.097534e+08 7.205811e-01 7.154541e-01 -2.050214e-05 2.117921e-05 3.059953e-05 2.131611e-05 8.900146e-01 3.540649e-01
3.099722e+08 7.205811e-01 7.157593e-01 2.028421e-05 -3.505871e-05 -2.678484e-06 -4.069880e-05 8.884888e-01 3.616943e-01
3.101909e+08 7.203979e-01 7.176514e-01 -3.053993e-05 2.572313e-06 3.291294e-06 5.627517e-06 8.864746e-01 3.679199e-01
3.104096e+08 7.203979e-01 7.164917e-01 -1.529697e-05 -4.507601e-07 2.500601e-05 -1.917966e-05 8.851318e-01 3.746948e-01
3.106284e+08 7.202148e-01 7.173462e-01 9.862240e-06 8.182600e-06 6.940216e-05 -1.044944e-05 8.836060e-01 3.800049e-01
3.108471e+08 7.203979e-01 7.173462e-01 3.055297e-05 -2.576038e-06 1.668744e-05 -1.278892e-05 8.816528e-01 3.853760e-01
3.110658e+08 7.202148e-01 7.179565e-01 1.966208e-05 1.288950e-05 3.721565e-05 3.262423e-05 8.824463e-01 3.923950e-01
3.112846e+08 7.193604e-01 7.179565e-01 -3.581867e-06 3.618747e-05 3.174879e-05 3.881752e-05 8.823242e-01 3.975220e-01
3.115033e+08 7.193604e-01 7.181396e-01 6.339699e-05 -3.504753e-05 7.841736e-06 -5.893782e-05 8.830566e-01 4.030762e-01
3.117220e+08 7.197266e-01 7.177734e-01 -1.923647e-05 1.488999e-05 -3.258325e-05 3.722683e-05 8.874512e-01 4.068604e-01
3.119408e+08 7.194824e-01 7.185669e-01 8.347444e-06 5.653128e-07 -3.300793e-05 3.139675e-05 8.898315e-01 4.069824e-01
3.121595e+08 7.192993e-01 7.185669e-01 -2.549030e-06 1.603551e-05 -2.833642e-05 1.355261e-05 8.930664e-01 4.044800e-01
3.123782e+08 7.192993e-01 7.194824e-01 -4.472211e-06 -1.940969e-05 1.785345e-05 4.677102e-06 8.929443e-01 3.986206e-01
3.125970e+08 7.185059e-01 7.196045e-01 2.521649e-05 1.212396e-05 4.871935e-05 -1.487136e-05 8.896484e-01 3.923340e-01
3.128157e+08 7.185669e-01 7.192383e-01 3.335997e-05 -1.223758e-06 7.961877e-06 -1.221988e-05 8.826904e-01 3.862915e-01
3.130344e+08 7.183838e-01 7.197266e-01 2.371520e-05 4.498288e-06 -1.975335e-05 -3.378838e-05 8.718262e-01 3.804932e-01
3.132532e+08 7.182617e-01 7.199707e-01 4.785880e-05 -5.291030e-05 -2.696924e-05 -9.929761e-06 8.587036e-01 3.798828e-01
3.134719e+08 7.187500e-01 7.197876e-01 -1.608022e-05 4.058704e-05 2.912618e-05 -1.925975e-06 8.447266e-01 3.818970e-01
3.136906e+08 7.170410e-01 7.202759e-01 4.250184e-05 -4.170276e-05 -1.809746e-05 3.625639e-05 8.311768e-01 3.893433e-01
3.139093e+08 7.181396e-01 7.203979e-01 -9.411946e-06 2.310611e-05 -5.997717e-06 -4.641712e-05 8.199463e-01 3.988037e-01
3.141281e+08 7.175293e-01 7.205811e-01 1.661759e-05 -5.818903e-06 -5.572289e-05 -2.183020e-06 8.126221e-01 4.118652e-01
3.143468e+08 7.170410e-01 7.216187e-01 1.137052e-05 1.583342e-05 -2.584606e-05 7.523224e-06 8.067627e-01 4.246216e-01
3.145655e+08 7.166748e-01 7.216797e-01 1.100823e-05 -8.524396e-06 -1.748558e-05 1.132488e-06 8.069458e-01 4.367676e-01
3.147843e+08 7.163696e-01 7.216187e-01 2.654083e-05 5.865470e-06 3.609248e-05 1.521036e-05 8.093262e-01 4.467773e-01
3.150030e+08 7.172852e-01 7.215576e-01 5.607028e-06 2.699904e-06 6.594695e-06 1.127552e-05 8.134766e-01 4.557495e-01
3.152217e+08 7.162476e-01 7.211914e-01 -1.296401e-06 6.286893e-06 -3.279746e-05 -9.534881e-06 8.176880e-01 4.606934e-01
3.154405e+08 7.164917e-01 7.230835e-01 1.914240e-05 -2.535805e-05 -3.145076e-05 -3.308058e-05 8.217163e-01 4.631958e-01
3.156592e+08 7.150879e-01 7.233887e-01 -2.148189e-05 -3.798120e-05 1.408160e-05 -5.361438e-05 8.250122e-01 4.638672e-01
3.158779e+08 7.153931e-01 7.225342e-01 -6.663427e-05 1.635030e-05 2.353266e-05 -4.253909e-05 8.241577e-01 4.631958e-01
3.160967e+08 7.141724e-01 7.237549e-01 6.064773e-06 3.403798e-05 -5.830545e-06 3.762543e-07 8.250732e-01 4.613647e-01
3.163154e+08 7.150879e-01 7.233276e-01 -2.300367e-05 4.423037e-05 2.218038e-05 -1.902692e-05 8.217163e-01 4.621582e-01
3.165341e+08 7.150269e-01 7.237549e-01 -4.275143e-05 -6.203726e-05 8.903444e-06 4.627928e-05 8.171387e-01 4.625244e-01
3.167528e+08 7.144165e-01 7.237549e-01 1.112558e-05 -1.556240e-06 1.003966e-06 -2.935715e-05 8.124390e-01 4.632568e-01
3.169716e+08 7.137451e-01 7.239380e-01 1.010485e-07 6.965827e-06 -8.493662e-06 -4.044175e-05 8.073120e-01 4.670410e-01
3.171903e+08 7.135010e-01 7.241821e-01 5.146861e-05 -6.329268e-06 1.357682e-05 2.838671e-05 8.029175e-01 4.705811e-01
3.174090e+08 7.133789e-01 7.245483e-01 -3.513135e-05 -2.039783e-05 1.204479e-05 5.071983e-06 7.957764e-01 4.745483e-01
3.176278e+08 7.128906e-01 7.252197e-01 1.953635e-05 2.510846e-06 3.069080e-05 2.144277e-05 7.903442e-01 4.800415e-01
3.178465e+08 7.129517e-01 7.256470e-01 1.262687e-05 6.080605e-06 3.286265e-05 9.575859e-06 7.844238e-01 4.865112e-01
3.180652e+08 7.127686e-01 7.260132e-01 -3.973022e-05 4.657358e-05 1.125969e-06 1.751725e-05 7.771606e-01 4.960938e-01
3.182840e+08 7.117310e-01 7.257690e-01 -8.847564e-06 -3.195368e-05 1.383480e-05 -1.261197e-05 7.727051e-01 5.040283e-01
3.185027e+08 7.118530e-01 7.259521e-01 1.633354e-05 -2.673268e-05 3.793836e-05 -2.458692e-06 7.684937e-01 5.157471e-01
3.187214e+08 7.112427e-01 7.266846e-01 9.033829e-07 -3.418513e-05 3.210641e-05 -2.045184e-06 7.681885e-01 5.287476e-01
3.189402e+08 7.112427e-01 7.259521e-01 2.346747e-05 -1.639128e-05 6.370246e-07 -3.520027e-05 7.706909e-01 5.399780e-01
3.191589e+08 7.110596e-01 7.272949e-01 2.764724e-05 -1.784228e-05 1.130253e-05 -6.594695e-06 7.745972e-01 5.507202e-01
3.193776e+08 7.099609e-01 7.277832e-01 -2.959929e-05 -2.119504e-05 -8.136034e-06 -8.156896e-05 7.806396e-01 5.560303e-01
3.195964e+08 7.098389e-01 7.276001e-01 3.381260e-05 2.322719e-05 -1.685694e-05 -3.408641e-05 7.874756e-01 5.588989e-01
3.198151e+08 7.097168e-01 7.278442e-01 4.712492e-07 3.140047e-05 5.463138e-06 -6.216113e-06 7.914429e-01 5.543213e-01
3.200338e+08 7.091064e-01 7.274780e-01 -3.750995e-05 1.310930e-05 2.004765e-05 -7.154420e-06 7.923584e-01 5.505981e-01
3.202526e+08 7.088013e-01 7.292480e-01 2.128445e-05 2.409332e-05 3.503822e-05 -2.246350e-06 7.880249e-01 5.421143e-01
3.204713e+08 7.088013e-01 7.290649e-01 9.791460e-06 1.248904e-06 2.563186e-05 3.352202e-05 7.791138e-01 5.371094e-01
3.206900e+08 7.080688e-01 7.292480e-01 -2.741069e-05 3.530271e-05 1.827348e-05 1.054164e-05 7.673340e-01 5.309448e-01
3.209087e+08 7.082520e-01 7.291870e-01 -2.514943e-05 -1.730397e-06 -5.510822e-05 9.439886e-06 7.511597e-01 5.293579e-01
3.211275e+08 7.065430e-01 7.303467e-01 1.108926e-05 -5.055219e-06 1.274049e-05 -3.012270e-05 7.318115e-01 5.323486e-01
3.213462e+08 7.074585e-01 7.299194e-01 -2.492219e-06 1.958571e-05 -1.782551e-06 1.771096e-05 7.145996e-01 5.384521e-01
3.215649e+08 7.060547e-01 7.304077e-01 2.348609e-05 -1.640990e-05 -2.261251e-05 1.318380e-05 6.967773e-01 5.500793e-01
3.217837e+08 7.061768e-01 7.299194e-01 4.101545e-05 -5.999580e-05 2.449192e-05 1.599826e-05 6.813965e-01 5.627747e-01
3.220024e+08 7.054443e-01 7.308960e-01 1.917407e-05 -2.540834e-05 -2.628937e-05 1.685694e-06 6.694946e-01 5.779724e-01
3.222211e+08 7.048340e-01 7.306519e-01 -2.430752e-05 5.761534e-05 -1.864135e-05 -1.638569e-05 6.562500e-01 5.919189e-01
3.224399e+08 7.045288e-01 7.311401e-01 2.099946e-05 3.192574e-06 1.676194e-05 -1.281220e-05 6.492615e-01 6.073608e-01
3.226586e+08 7.044678e-01 7.312622e-01 2.921559e-06 8.339994e-06 2.868474e-07 -4.106387e-05 6.419983e-01 6.213379e-01
3.228773e+08 7.036133e-01 7.316284e-01 1.910701e-05 6.118417e-05 4.455075e-05 8.855015e-06 6.364441e-01 6.333313e-01
3.230961e+08 7.032471e-01 7.326660e-01 -6.457791e-06 3.504381e-05 4.416332e-06 2.318434e-05 6.301880e-01 6.455688e-01
3.233148e+08 7.026978e-01 7.330322e-01 6.236136e-06 4.466996e-05 1.056772e-05 -1.826882e-05 6.251831e-01 6.546936e-01
3.235335e+08 7.023926e-01 7.323608e-01 2.800114e-05 3.093854e-06 -2.269447e-05 -3.372133e-05 6.201782e-01 6.650391e-01
3.237522e+08 7.014771e-01 7.346802e-01 3.290921e-05 5.053729e-05 -1.793727e-05 -5.168840e-05 6.130981e-01 6.726990e-01
3.239710e+08 7.014771e-01 7.338257e-01 4.054978e-05 -1.283363e-06 -2.012774e-05 -3.977865e-05 6.080322e-01 6.821594e-01
3.241897e+08 7.012939e-01 7.348022e-01 8.348841e-06 -2.911780e-06 -3.245845e-05 4.316494e-05 6.018677e-01 6.869507e-01
3.244084e+08 7.000732e-01 7.346191e-01 -2.176873e-05 4.157051e-05 2.919696e-06 -1.857989e-07 5.947876e-01 6.918335e-01
3.246272e+08 7.000122e-01 7.351074e-01 6.601214e-06 -2.805516e-05 -3.108568e-05 -2.734736e-05 5.869141e-01 6.950684e-01
3.248459e+08 6.996460e-01 7.352295e-01 -1.101475e-05 1.204666e-05 2.995506e-05 9.823591e-06 5.759277e-01 6.986694e-01
3.250646e+08 6.990356e-01 7.355957e-01 9.811018e-06 1.257751e-06 -5.989894e-05 -1.960993e-05 5.645752e-01 7.022400e-01
3.252834e+08 6.986084e-01 7.363892e-01 3.128685e-05 3.592856e-05 -1.114793e-06 -1.752470e-05 5.504150e-01 7.065430e-01
3.255021e+08 6.979370e-01 7.369385e-01 2.292916e-06 -3.710389e-05 1.423340e-05 -6.764196e-06 5.332642e-01 7.116394e-01
3.257208e+08 6.975098e-01 7.374878e-01 1.798011e-05 -1.564156e-05 3.908388e-05 1.512840e-05 5.188599e-01 7.233887e-01
3.259396e+08 6.972046e-01 7.374878e-01 1.123082e-05 1.936220e-06 2.591871e-05 -7.502735e-06 5.028076e-01 7.337646e-01
3.261583e+08 6.961060e-01 7.371826e-01 8.505769e-06 7.576775e-06 8.755364e-06 -5.541369e-07 4.894409e-01 7.478027e-01
3.263770e+08 6.968994e-01 7.384644e-01 1.701526e-05 1.514051e-05 -1.201406e-05 4.183501e-05 4.788208e-01 7.622681e-01
3.265958e+08 6.962280e-01 7.389526e-01 1.807511e-05 -8.665025e-06 -9.876676e-06 -1.698080e-05 4.719849e-01 7.766724e-01
3.268145e+08 6.961060e-01 7.388306e-01 -1.522154e-05 1.352374e-05 4.269928e-05 -2.032146e-05 4.657593e-01 7.885742e-01
3.270332e+08 6.954956e-01 7.392578e-01 -2.537295e-05 -1.225621e-05 2.922025e-06 -1.864973e-07 4.646606e-01 8.004761e-01
3.272520e+08 6.945801e-01 7.402344e-01 -5.342066e-06 1.828559e-05 -1.645088e-05 -2.830289e-05 4.611206e-01 8.068237e-01
3.274707e+08 6.940918e-01 7.403564e-01 -2.915226e-05 1.722574e-05 -3.613159e-05 3.163144e-05 4.633179e-01 8.082886e-01
3.276894e+08 6.926880e-01 7.401733e-01 2.076011e-05 -1.781341e-05 5.874410e-05 2.171844e-06 4.562988e-01 8.095093e-01
3.279081e+08 6.929321e-01 7.412109e-01 2.558902e-05 2.627075e-05 1.789816e-05 4.730187e-06 4.468994e-01 8.061523e-01
3.281269e+08 6.918335e-01 7.412109e-01 -1.390371e-05 7.214956e-06 -1.606904e-05 -2.244301e-05 4.353027e-01 8.058472e-01
3.283456e+08 6.917114e-01 7.422485e-01 -2.667308e-05 -2.415851e-06 9.497628e-06 1.113303e-05 4.187012e-01 8.049927e-01
3.285643e+08 6.912842e-01 7.424316e-01 2.218410e-05 -1.714006e-05 -4.966184e-05 3.136694e-06 4.029541e-01 8.073730e-01
3.287831e+08 6.904907e-01 7.431030e-01 -1.361826e-06 2.824003e-06 -4.028901e-06 -1.734123e-05 3.861694e-01 8.153687e-01
3.290018e+08 6.903076e-01 7.431641e-01 1.806859e-05 -1.217611e-05 4.309788e-05 3.247336e-05 3.691406e-01 8.242188e-01
3.292205e+08 6.894531e-01 7.436523e-01 -3.764220e-05 1.666322e-05 2.194196e-06 -1.186132e-05 3.536377e-01 8.366089e-01
3.294393e+08 6.890869e-01 7.446899e-01 -9.632669e-06 1.275912e-05 -2.916902e-06 -4.674494e-05 3.418579e-01 8.499146e-01
3.296580e+08 6.893921e-01 7.449951e-01 5.189329e-06 -3.232993e-05 1.716521e-05 -6.943010e-06 3.299561e-01 8.652954e-01
3.298767e+08 6.879883e-01 7.456055e-01 1.663808e-05 -1.285691e-05 1.804903e-06 2.920441e-05 3.248901e-01 8.800659e-01
3.300955e+08 6.875610e-01 7.461548e-01 -2.274849e-05 -2.142042e-05 3.651716e-06 1.149811e-05 3.226318e-01 8.924561e-01
3.303142e+08 6.872559e-01 7.464600e-01 -9.745359e-06 5.746726e-06 -1.094863e-05 1.240522e-05 3.190918e-01 9.060669e-01
3.305329e+08 6.871948e-01 7.471924e-01 -2.268702e-06 3.720634e-05 -2.665631e-05 -4.192814e-06 3.181152e-01 9.164429e-01
3.307516e+08 6.855469e-01 7.482300e-01 4.041940e-06 -1.198240e-05 6.561168e-06 1.131836e-05 3.205566e-01 9.268799e-01
3.309704e+08 6.867065e-01 7.485352e-01 4.681572e-05 -6.455928e-05 -1.826324e-06 1.771655e-05 3.248901e-01 9.318237e-01
3.311891e+08 6.859131e-01 7.484741e-01 -1.463108e-06 -4.195143e-06 -3.065169e-05 2.538227e-05 3.299561e-01 9.364624e-01
3.314078e+08 6.849365e-01 7.496338e-01 -1.962949e-05 9.741634e-07 -2.373569e-05 -4.388392e-06 3.366699e-01 9.381104e-01
3.316266e+08 6.848145e-01 7.498779e-01 1.253188e-05 -7.905066e-06 -1.642946e-05 1.862645e-05 3.414307e-01 9.343872e-01
3.318453e+08 6.847534e-01 7.503662e-01 -1.697149e-05 -8.190982e-06 3.104843e-05 2.738461e-05 3.445435e-01 9.277954e-01
3.320640e+08 6.843872e-01 7.511597e-01 -2.652034e-05 1.160800e-05 2.847612e-05 3.342517e-05 3.465576e-01 9.172363e-01
3.322828e+08 6.832275e-01 7.514648e-01 -2.111029e-05 -3.232621e-06 -3.212318e-05 1.993030e-06 3.415527e-01 9.045410e-01
3.325015e+08 6.834717e-01 7.514648e-01 5.358458e-05 1.542643e-05 4.757196e-06 2.902187e-05 3.353882e-01 8.919067e-01
3.327202e+08 6.821899e-01 7.522583e-01 3.777631e-05 -9.667128e-06 1.751445e-05 -1.079403e-06 3.236084e-01 8.796997e-01
3.329390e+08 6.816406e-01 7.531738e-01 3.354624e-06 4.002824e-05 9.527430e-06 -3.575906e-05 3.078613e-01 8.685913e-01
3.331577e+08 6.817627e-01 7.539062e-01 -1.401640e-07 -1.054583e-05 -2.045184e-05 1.264736e-06 2.877197e-01 8.625488e-01
3.333764e+08 6.807251e-01 7.543335e-01 7.218681e-06 1.395587e-05 2.196990e-06 -1.186598e-05 2.661743e-01 8.610229e-01
3.335952e+08 6.814575e-01 7.539673e-01 -4.371256e-05 -7.133931e-06 2.628565e-05 -4.855916e-05 2.452393e-01 8.630981e-01
3.338139e+08 6.799927e-01 7.549438e-01 -6.885733e-06 1.063664e-05 7.675029e-06 -1.806393e-05 2.246704e-01 8.697510e-01
3.340326e+08 6.801758e-01 7.554932e-01 -2.864748e-05 6.298721e-05 7.314608e-06 -2.391264e-05 2.085571e-01 8.807373e-01
3.342514e+08 6.786499e-01 7.566528e-01 -5.085021e-07 -3.516860e-05 1.639687e-05 2.829731e-05 1.926270e-01 8.927612e-01
3.344701e+08 6.784058e-01 7.567139e-01 1.695473e-05 4.693866e-06 3.497675e-05 4.471466e-05 1.835327e-01 9.050293e-01
3.346888e+08 6.784668e-01 7.572632e-01 4.526600e-05 1.837686e-05 1.095328e-05 -1.240708e-05 1.772461e-01 9.149170e-01
3.349075e+08 6.776123e-01 7.584229e-01 -1.743622e-05 -3.985129e-05 -6.154180e-06 -5.237386e-05 1.734009e-01 9.261475e-01
3.351263e+08 6.777344e-01 7.597046e-01 3.484637e-05 -2.509356e-05 -1.021847e-05 -2.282485e-05 1.719971e-01 9.327393e-01
3.353450e+08 6.766357e-01 7.597046e-01 -6.893184e-06 1.065247e-05 1.531653e-05 1.077820e-05 1.704712e-01 9.382935e-01
3.355637e+08 6.765747e-01 7.606201e-01 2.930872e-06 8.407515e-06 2.884306e-05 -7.642433e-06 1.668701e-01 9.404297e-01
3.357825e+08 6.758423e-01 7.615356e-01 2.701767e-05 2.001598e-05 -5.364046e-05 -1.431257e-05 1.636963e-01 9.420166e-01
3.360012e+08 6.762085e-01 7.608643e-01 -1.225062e-05 3.254041e-05 2.371706e-05 4.371628e-06 1.560059e-01 9.406128e-01
3.362199e+08 6.753540e-01 7.627563e-01 -1.538917e-05 6.543472e-06 7.189810e-07 1.167972e-05 1.511230e-01 9.415283e-01
3.364387e+08 6.749878e-01 7.633057e-01 1.174398e-06 -1.691189e-05 1.859479e-05 1.644995e-05 1.427612e-01 9.423218e-01
3.366574e+08 6.745605e-01 7.642212e-01 1.321547e-06 -6.352551e-06 1.609325e-05 -2.443790e-05 1.313477e-01 9.445801e-01
3.368761e+08 6.733398e-01 7.647095e-01 -1.024082e-05 -2.945773e-05 1.459662e-05 -8.800998e-07 1.247559e-01 9.502563e-01
3.370949e+08 6.744385e-01 7.643433e-01 1.171045e-05 3.366172e-05 -1.242571e-05 3.593229e-05 1.168823e-01 9.509888e-01
3.373136e+08 6.738281e-01 7.664795e-01 -6.946269e-06 7.138588e-06 1.760200e-05 -4.800782e-05 1.082153e-01 9.542236e-01
3.375323e+08 6.738281e-01 7.656250e-01 8.416362e-06 -2.931803e-06 2.007559e-05 -7.105991e-06 9.924316e-02 9.586182e-01
3.377510e+08 6.721191e-01 7.669678e-01 1.235865e-06 -1.340546e-05 8.754432e-06 -5.327165e-07 8.953857e-02 9.628906e-01
3.379698e+08 6.720581e-01 7.674561e-01 -2.640299e-05 2.925657e-05 3.700507e-10 3.272476e-10 8.245850e-02 9.672852e-01
3.381885e+08 6.718140e-01 7.684326e-01 1.464039e-06 4.206551e-06 2.043881e-05 -1.244247e-06 7.507324e-02 9.742432e-01
3.384072e+08 6.718750e-01 7.688599e-01 -2.425909e-05 -2.224185e-05 2.670661e-05 -4.265830e-05 6.951904e-02 9.819946e-01
3.386260e+08 6.717529e-01 7.694702e-01 -1.524203e-05 2.066139e-05 -2.634525e-05 4.850700e-05 6.390381e-02 9.883423e-01
3.388447e+08 6.718140e-01 7.699585e-01 -7.977709e-06 3.820285e-05 1.896173e-05 2.227724e-05 6.079102e-02 9.946289e-01
3.390634e+08 6.703491e-01 7.711792e-01 -2.469122e-05 -5.396083e-05 2.591684e-05 -7.437542e-06 6.353760e-02 1.000977e+00
3.392822e+08 6.707764e-01 7.719116e-01 8.558854e-06 7.654540e-06 2.921373e-05 -1.788139e-06 6.390381e-02 1.002197e+00
3.395009e+08 6.703491e-01 7.718506e-01 -1.974311e-05 9.639189e-07 1.679547e-05 -1.275819e-05 6.665039e-02 9.989624e-01
3.397196e+08 6.695557e-01 7.727051e-01 1.779757e-05 -4.043058e-05 1.488999e-05 5.183741e-05 6.616211e-02 9.940186e-01
3.399384e+08 6.691895e-01 7.741699e-01 4.536286e-05 1.495704e-05 -1.450256e-05 -4.601851e-05 6.250000e-02 9.843140e-01
3.401571e+08 6.688843e-01 7.742920e-01 -3.790483e-06 3.322773e-05 -1.822319e-05 -1.060870e-05 5.816650e-02 9.761963e-01
3.403758e+08 6.683960e-01 7.757568e-01 -3.374554e-05 8.188188e-06 1.893379e-05 2.230331e-05 4.602051e-02 9.678345e-01
3.405946e+08 6.675415e-01 7.761841e-01 1.425855e-05 1.039542e-05 -2.884679e-05 7.582828e-06 3.570557e-02 9.612427e-01
3.408133e+08 6.674194e-01 7.767334e-01 -9.854324e-06 2.245419e-06 -3.975816e-06 -1.733564e-05 1.708984e-02 9.573975e-01
3.410320e+08 6.672974e-01 7.770996e-01 -4.525483e-05 -4.343688e-06 1.856964e-05 1.644716e-05 2.746582e-03 9.575806e-01
3.412508e+08 6.674194e-01 7.781372e-01 6.902218e-05 -1.569092e-05 -1.417473e-06 -2.335757e-05 -1.263428e-02 9.609375e-01
3.414695e+08 6.668091e-01 7.788696e-01 7.296912e-06 1.756009e-05 7.346272e-06 -2.388470e-05 -2.636719e-02 9.667358e-01
3.416882e+08 6.671143e-01 7.794189e-01 4.229881e-05 -4.090369e-06 1.937430e-05 -1.875777e-05 -3.308105e-02 9.739990e-01
3.419069e+08 6.665649e-01 7.798462e-01 1.568440e-05 1.109485e-05 -6.903894e-06 -1.715589e-05 -3.656006e-02 9.815063e-01
3.421257e+08 6.669312e-01 7.805786e-01 2.094731e-05 -1.793727e-05 4.486367e-05 1.483411e-05 -4.095459e-02 9.874268e-01
3.423444e+08 6.666260e-01 7.807617e-01 -1.359731e-07 -1.059845e-05 2.734177e-05 1.590326e-05 -3.845215e-02 9.888306e-01
3.425631e+08 6.665039e-01 7.825317e-01 3.122725e-05 1.161359e-05 5.135313e-06 -1.203828e-05 -3.424072e-02 9.870605e-01
3.427819e+08 6.656494e-01 7.834473e-01 -4.174886e-06 4.997710e-06 4.474819e-05 6.179139e-05 -3.210449e-02 9.802246e-01
3.430006e+08 6.661987e-01 7.835693e-01 5.045906e-05 -3.525615e-05 -7.698312e-06 1.805555e-05 -3.149414e-02 9.694214e-01
3.432193e+08 6.661987e-01 7.841187e-01 2.799556e-06 -2.153451e-06 3.576279e-07 5.840790e-06 -3.472900e-02 9.589844e-01
3.434381e+08 6.658325e-01 7.850342e-01 1.675542e-05 -1.646485e-05 3.797188e-05 -2.315268e-06 -3.790283e-02 9.462280e-01
3.436568e+08 6.659546e-01 7.858276e-01 4.007481e-06 -1.913868e-05 -1.196191e-05 -5.204976e-05 -4.705811e-02 9.315186e-01
3.438755e+08 6.647949e-01 7.867432e-01 -3.385171e-05 8.195639e-06 -9.462237e-06 -1.115724e-05 -5.657959e-02 9.205933e-01
3.440943e+08 6.653442e-01 7.871704e-01 -4.762039e-05 3.667921e-05 6.983057e-06 -2.973899e-05 -6.805420e-02 9.085083e-01
3.443130e+08 6.647949e-01 7.879028e-01 -2.759509e-06 5.691312e-06 -1.752470e-05 1.058914e-06 -7.977295e-02 8.973999e-01
3.445317e+08 6.647949e-01 7.885132e-01 3.235415e-06 3.320351e-05 -3.107823e-05 1.944974e-05 -9.558105e-02 8.884888e-01
3.447504e+08 6.646729e-01 7.896118e-01 3.081746e-05 -2.374128e-05 -1.460873e-05 8.838251e-07 -1.094360e-01 8.786621e-01
3.449692e+08 6.651001e-01 7.902222e-01 -6.437302e-06 5.311891e-05 2.992153e-05 9.907410e-06 -1.265869e-01 8.721313e-01
3.451879e+08 6.637573e-01 7.914429e-01 -2.500415e-05 3.707409e-05 1.402572e-06 2.337992e-05 -1.450195e-01 8.679810e-01
3.454066e+08 6.640015e-01 7.916260e-01 3.957003e-05 -5.459413e-06 8.053146e-06 -1.221895e-05 -1.631470e-01 8.653564e-01
3.456254e+08 6.641235e-01 7.916260e-01 -4.528090e-06 -2.331845e-05 5.049631e-06 3.487989e-05 -1.802979e-01 8.646240e-01
3.458441e+08 6.635742e-01 7.925415e-01 -6.742775e-06 2.837740e-05 -7.348135e-06 2.389587e-05 -1.964111e-01 8.667603e-01
3.460628e+08 6.637573e-01 7.933960e-01 6.991904e-06 -7.159542e-06 -7.934868e-07 3.523380e-05 -2.102661e-01 8.698120e-01
3.462816e+08 6.637573e-01 7.940674e-01 -2.523884e-07 -2.123229e-05 1.065433e-06 1.753308e-05 -2.197876e-01 8.753662e-01
3.465003e+08 6.636963e-01 7.954102e-01 4.356727e-05 -2.461672e-05 6.553717e-06 1.133792e-05 -2.272949e-01 8.814087e-01
3.467190e+08 6.636963e-01 7.955322e-01 8.830801e-06 2.890639e-05 -2.559461e-05 1.328997e-05 -2.317505e-01 8.837280e-01
3.469378e+08 6.633911e-01 7.958374e-01 -9.041280e-06 -4.659221e-05 4.851818e-05 2.636760e-05 -2.315063e-01 8.843994e-01
3.471565e+08 6.631470e-01 7.968140e-01 -2.994575e-05 -1.806207e-05 8.764677e-06 -5.285256e-07 -2.327881e-01 8.839722e-01
3.473752e+08 6.640625e-01 7.979126e-01 1.269858e-05 -4.405156e-06 -6.561168e-06 -1.134537e-05 -2.373047e-01 8.760986e-01
3.475940e+08 6.629639e-01 7.982788e-01 -5.439855e-06 1.848210e-05 -1.167879e-06 2.939999e-05 -2.426758e-01 8.669434e-01
3.478127e+08 6.633911e-01 7.991333e-01 -2.466142e-06 3.049709e-05 -3.704201e-10 -3.283560e-10 -2.507935e-01 8.574829e-01
3.480314e+08 6.632690e-01 8.007202e-01 2.731569e-06 -9.239186e-06 -4.118308e-06 2.961047e-05 -2.623291e-01 8.492432e-01
3.482502e+08 6.634521e-01 8.005981e-01 9.011477e-06 4.664809e-05 -4.129857e-05 -3.408641e-06 -2.772217e-01 8.426514e-01
3.484689e+08 6.630859e-01 8.006592e-01 1.625158e-06 1.840014e-05 2.080947e-05 4.615635e-06 -2.939453e-01 8.389893e-01
3.486876e+08 6.636353e-01 8.012695e-01 -2.665073e-05 2.579950e-05 -2.782978e-05 2.516061e-05 -3.100586e-01 8.405762e-01
3.489063e+08 6.638794e-01 8.024902e-01 1.270603e-05 -4.397705e-06 -4.903227e-05 1.471117e-05 -3.261108e-01 8.440552e-01
3.491251e+08 6.632690e-01 8.026123e-01 -5.701091e-06 -2.770685e-06 1.215190e-05 -4.182011e-05 -3.406372e-01 8.487549e-01
3.493438e+08 6.630249e-01 8.037109e-01 6.849878e-06 -2.133194e-05 -2.597831e-05 7.420778e-06 -3.524170e-01 8.577881e-01
3.495625e+08 6.632690e-01 8.038940e-01 -4.276168e-06 -2.077781e-06 5.848240e-06 -3.506429e-07 -3.604736e-01 8.659058e-01
3.497813e+08 6.636353e-01 8.058472e-01 -9.858981e-06 5.779322e-06 2.576038e-06 -6.030314e-06 -3.688965e-01 8.757935e-01
3.500000e+08 6.632690e-01 8.057251e-01 2.953038e-05 -2.089515e-05 3.544986e-05 3.742054e-06 -3.729248e-01 8.839722e-01
