# Hz S RI R 50
! RAW DATA - UNCALIBRATED
3.000000e+04 1.050598e+00 1.256104e-01 -4.210696e-05 -3.125519e-06 -2.886653e-04 5.546212e-05 1.045227e+00 1.284790e-01
2.487312e+05 1.036987e+00 -1.860840e+00 -6.553251e-06 6.891787e-07 4.097354e-06 6.780960e-06 9.791260e-01 2.685547e-03
4.674625e+05 9.763794e-01 -2.899170e-02 1.242477e-05 -5.250797e-06 5.333684e-06 -1.069624e-05 9.832153e-01 2.490234e-02
6.861938e+05 9.783325e-01 -1.013184e-02 2.539530e-05 1.607463e-06 1.821667e-05 -1.981109e-05 1.000732e+00 3.741455e-02
9.049250e+05 9.800415e-01 -5.981445e-03 -8.769799e-06 6.938353e-08 -1.582224e-05 8.843839e-06 1.002808e+00 3.894043e-02
1.123656e+06 9.796753e-01 -1.452637e-02 -2.003275e-06 -1.986977e-05 1.227204e-05 -8.835457e-06 1.005554e+00 7.281494e-02
1.342388e+06 9.780273e-01 -1.849365e-02 2.278946e-06 -5.858485e-06 -9.376090e-07 3.257534e-06 1.017395e+00 8.233643e-02
1.561119e+06 9.777832e-01 -1.959229e-02 5.620997e-06 -9.894837e-06 -2.780929e-05 4.472211e-06 1.029541e+00 8.154297e-02
1.779850e+06 9.781494e-01 -1.849365e-02 -5.038455e-06 3.858237e-06 -7.045455e-07 -6.828457e-06 1.039185e+00 7.623291e-02
1.998581e+06 9.769287e-01 -1.531982e-02 -9.434298e-06 -8.619390e-06 -1.449604e-06 7.583760e-06 1.041443e+00 7.330322e-02
2.217312e+06 9.765625e-01 -1.379395e-02 -5.209120e-06 -4.948815e-06 1.109485e-05 -9.013340e-06 1.036133e+00 6.994629e-02
2.436044e+06 9.767456e-01 -8.117676e-03 -4.579313e-06 -5.600508e-06 -1.358893e-05 -7.672235e-06 1.027466e+00 7.122803e-02
2.654775e+06 9.771118e-01 -3.234863e-03 -1.453143e-05 1.304783e-06 -2.259202e-05 6.424263e-06 1.015930e+00 7.354736e-02
2.873506e+06 9.774780e-01 -3.662109e-04 -1.234654e-05 -7.773750e-06 -1.292024e-05 1.666974e-05 1.003662e+00 8.123779e-02
3.092238e+06 9.775391e-01 4.394531e-03 -1.156703e-05 9.103678e-06 3.021210e-06 -2.207793e-05 9.916992e-01 9.228516e-02
3.310969e+06 9.803467e-01 1.190186e-02 -9.410083e-06 1.823995e-06 -5.189329e-06 1.445971e-05 9.789429e-01 1.057129e-01
3.529700e+06 9.801025e-01 1.226807e-02 -2.364442e-05 8.022413e-06 -5.156267e-06 -4.563946e-06 9.682617e-01 1.219482e-01
3.748431e+06 9.800415e-01 1.281738e-02 -1.426600e-05 -1.432374e-06 1.811981e-05 2.198108e-05 9.625244e-01 1.372070e-01
3.967162e+06 9.789429e-01 1.354980e-02 -1.606438e-05 9.420328e-06 -1.363829e-05 -4.054047e-06 9.583130e-01 1.553345e-01
4.185894e+06 9.798584e-01 1.446533e-02 -3.207941e-06 -8.630101e-06 -6.311573e-06 -2.896413e-06 9.566040e-01 1.714478e-01
4.404625e+06 9.781494e-01 1.580811e-02 4.879665e-06 -1.044665e-05 2.259389e-06 -6.586313e-06 9.588013e-01 1.883545e-01
4.623356e+06 9.786987e-01 1.690674e-02 -4.513888e-06 -4.621223e-06 2.348796e-06 -1.020543e-05 9.627686e-01 2.031860e-01
4.842088e+06 9.785767e-01 1.824951e-02 -8.973293e-06 1.275539e-05 -7.840339e-06 6.048009e-06 9.682617e-01 2.161865e-01
5.060819e+06 9.777832e-01 1.983643e-02 -1.190975e-05 1.237728e-06 -6.673858e-06 -1.074187e-05 9.743652e-01 2.259521e-01
5.279550e+06 9.788818e-01 2.136230e-02 2.523884e-06 8.848961e-06 7.748604e-07 1.406204e-05 9.801636e-01 2.330933e-01
5.498281e+06 9.789429e-01 2.246094e-02 2.907123e-06 -1.394656e-07 2.038479e-05 -6.673858e-06 9.848022e-01 2.385864e-01
5.717012e+06 9.787598e-01 2.496338e-02 -4.562084e-06 9.481795e-06 -3.343634e-05 -1.718663e-05 9.879761e-01 2.432251e-01
5.935744e+06 9.790649e-01 2.502441e-02 4.264293e-06 -1.018401e-06 1.569465e-05 2.080575e-06 9.898071e-01 2.459717e-01
6.154475e+06 9.802856e-01 2.740479e-02 5.146954e-06 1.061242e-05 2.280064e-05 -1.832843e-05 9.876099e-01 2.478027e-01
6.373206e+06 9.791870e-01 2.807617e-02 -9.659678e-06 1.407973e-05 -1.509394e-05 -1.177285e-05 9.832764e-01 2.514648e-01
6.591938e+06 9.813843e-01 3.045654e-02 1.740176e-06 5.790032e-06 -5.189329e-06 1.703855e-05 9.774170e-01 2.562256e-01
6.810669e+06 9.812622e-01 3.204346e-02 -1.234096e-05 5.539507e-06 1.009274e-05 4.451722e-07 9.705811e-01 2.635498e-01
7.029400e+06 9.833374e-01 3.302002e-02 -5.973969e-06 -6.481074e-06 -1.430698e-05 1.600385e-05 9.634399e-01 2.739258e-01
7.248131e+06 9.837036e-01 3.479004e-02 -4.152069e-06 2.223533e-07 -7.136725e-06 3.637746e-06 9.537354e-01 2.863159e-01
7.466862e+06 9.845581e-01 3.631592e-02 1.184177e-05 8.729286e-06 -8.659437e-06 -1.348648e-05 9.493408e-01 3.001099e-01
7.685594e+06 9.857788e-01 3.784180e-02 2.558809e-07 5.303649e-06 5.915761e-06 -2.899952e-05 9.441528e-01 3.174438e-01
7.904325e+06 9.866333e-01 3.759766e-02 1.108740e-05 -9.368174e-06 8.419156e-07 7.992145e-06 9.431763e-01 3.348999e-01
8.123056e+06 9.880981e-01 3.936768e-02 6.418210e-06 -8.612871e-06 -1.593959e-06 -7.886905e-06 9.453125e-01 3.505859e-01
8.341788e+06 9.895630e-01 3.991699e-02 -2.204999e-05 -1.987815e-05 1.802947e-05 -1.870841e-05 9.485474e-01 3.671265e-01
8.560519e+06 9.904175e-01 3.997803e-02 -9.527896e-06 2.704095e-06 2.155825e-05 1.963228e-06 9.560547e-01 3.813477e-01
8.779250e+06 9.910889e-01 4.174805e-02 -1.077540e-05 -1.141708e-05 1.804717e-05 2.887100e-08 9.631958e-01 3.930664e-01
8.997981e+06 9.924316e-01 4.223633e-02 -1.169834e-05 -7.575378e-06 1.247227e-05 2.077222e-05 9.730225e-01 4.001465e-01
9.216712e+06 9.936523e-01 4.272461e-02 -1.147389e-05 5.286187e-06 1.084991e-05 -2.375990e-05 9.816284e-01 4.036865e-01
9.435444e+06 9.938354e-01 4.290771e-02 -6.750226e-06 -4.933681e-06 -3.515277e-06 8.759089e-07 9.889526e-01 4.019775e-01
9.654175e+06 9.951782e-01 4.321289e-02 1.169927e-05 -1.488533e-05 2.525561e-05 -1.598522e-05 9.949341e-01 3.990479e-01
9.872906e+06 9.965210e-01 4.400635e-02 9.473879e-06 -9.219162e-06 -2.266631e-10 5.690595e-10 9.945679e-01 3.927002e-01
1.009164e+07 9.958496e-01 4.351807e-02 -1.600944e-06 3.856840e-06 -1.639128e-05 -1.608208e-05 9.918213e-01 3.862915e-01
1.031037e+07 9.980469e-01 4.400635e-02 9.254552e-06 5.245674e-06 5.269423e-06 2.234802e-05 9.833984e-01 3.802490e-01
1.052910e+07 9.985352e-01 4.418945e-02 -5.352311e-06 -8.852687e-06 3.203750e-06 -2.028421e-05 9.728394e-01 3.781128e-01
1.074783e+07 9.995728e-01 4.620361e-02 -5.515758e-06 7.534400e-06 1.301058e-05 -1.518056e-06 9.601440e-01 3.746338e-01
1.096656e+07 9.995117e-01 4.553223e-02 -2.506189e-06 -7.536728e-06 -5.136244e-06 1.543108e-05 9.445801e-01 3.782959e-01
1.118529e+07 1.000183e+00 4.492188e-02 -6.251037e-06 -2.118759e-06 -2.521649e-05 7.132068e-06 9.304199e-01 3.828735e-01
1.140402e+07 1.000977e+00 4.467773e-02 -2.239016e-06 -1.922366e-06 -9.313226e-07 2.619624e-05 9.158936e-01 3.930664e-01
1.162276e+07 1.001038e+00 4.571533e-02 -2.030283e-06 -1.976732e-05 1.622271e-05 1.342036e-06 9.025879e-01 4.031982e-01
1.184149e+07 1.002625e+00 4.479980e-02 -7.824507e-06 -1.342036e-06 9.849668e-06 -1.949910e-05 8.912354e-01 4.156494e-01
1.206022e+07 1.002014e+00 4.595947e-02 7.921364e-06 -2.623536e-06 -1.084246e-05 7.420778e-06 8.828125e-01 4.292603e-01
1.227895e+07 1.003357e+00 4.473877e-02 -6.908551e-06 1.312140e-05 2.411567e-05 -4.054978e-06 8.755493e-01 4.434814e-01
1.249768e+07 1.002502e+00 4.626465e-02 -1.402572e-06 -1.582503e-05 2.516247e-05 -1.329370e-05 8.703003e-01 4.571533e-01
1.271641e+07 1.002869e+00 4.644775e-02 6.002840e-06 7.274561e-06 1.316518e-05 1.262780e-05 8.678589e-01 4.691162e-01
1.293514e+07 1.002869e+00 4.663086e-02 -2.600718e-06 -3.268709e-06 1.098961e-06 -2.918579e-05 8.668213e-01 4.799194e-01
1.315388e+07 1.003601e+00 4.669189e-02 -1.398148e-06 -2.986519e-06 -1.478009e-05 -2.893619e-06 8.656006e-01 4.893799e-01
1.337261e+07 1.003601e+00 4.663086e-02 -1.345109e-05 -2.036802e-06 -2.436154e-05 -1.491420e-05 8.641357e-01 4.944458e-01
1.359134e+07 1.004578e+00 4.681396e-02 -4.839152e-06 -1.115259e-05 -1.241732e-05 -1.950748e-05 8.628540e-01 4.996338e-01
1.381007e+07 1.004028e+00 4.791260e-02 3.057532e-06 1.138169e-05 -2.758205e-05 9.819865e-06 8.572998e-01 5.029297e-01
1.402880e+07 1.003601e+00 4.736328e-02 -4.131114e-06 1.586275e-06 -1.288764e-05 -1.007691e-05 8.511963e-01 5.045776e-01
1.424753e+07 1.004089e+00 4.772949e-02 9.246636e-06 1.901295e-06 5.704816e-06 9.394716e-06 8.427124e-01 5.068970e-01
1.446626e+07 1.003235e+00 4.870605e-02 -1.187436e-05 6.407499e-07 2.337620e-05 -1.771189e-05 8.300171e-01 5.093994e-01
1.468499e+07 1.003784e+00 4.949951e-02 -3.444497e-06 2.779532e-06 -1.610350e-05 1.501851e-05 8.169556e-01 5.156860e-01
1.490372e+07 1.003235e+00 5.072021e-02 7.363968e-06 -7.253140e-06 9.614043e-06 -1.111161e-05 8.014526e-01 5.236206e-01
1.512246e+07 1.003296e+00 5.157471e-02 2.610534e-11 2.487752e-10 -1.025107e-05 1.813285e-06 7.870483e-01 5.325317e-01
1.534119e+07 1.004395e+00 5.126953e-02 2.171844e-06 -1.969468e-05 3.797002e-06 -1.469534e-05 7.733154e-01 5.447388e-01
1.555992e+07 1.004333e+00 5.249023e-02 1.387205e-05 -1.324341e-06 1.582783e-05 -9.451993e-06 7.583008e-01 5.592041e-01
1.577865e+07 1.004211e+00 5.255127e-02 2.780370e-05 -7.241964e-06 -1.670420e-05 1.826137e-05 7.474976e-01 5.751953e-01
1.599738e+07 1.004333e+00 5.432129e-02 -5.081063e-06 -4.230300e-06 -1.337752e-05 -9.675510e-06 7.369385e-01 5.924072e-01
1.621611e+07 1.004822e+00 5.694580e-02 1.640804e-05 3.029592e-05 -3.330968e-05 -1.814403e-05 7.291870e-01 6.098022e-01
1.643484e+07 1.003235e+00 5.627441e-02 -2.028793e-05 3.852136e-05 1.263618e-05 4.223734e-05 7.231445e-01 6.268921e-01
1.665358e+07 1.004333e+00 5.773926e-02 -2.317689e-05 4.014745e-05 2.881512e-06 -1.151580e-05 7.208252e-01 6.449585e-01
1.687231e+07 1.003784e+00 5.737305e-02 -5.576015e-05 2.238527e-05 2.307352e-06 5.470589e-06 7.187500e-01 6.607666e-01
1.709104e+07 1.003113e+00 5.883789e-02 -2.976507e-06 -4.718080e-05 -2.364628e-05 -1.324899e-05 7.176514e-01 6.747437e-01
1.730977e+07 1.004150e+00 5.938721e-02 -4.678220e-05 -1.122802e-05 2.655573e-05 -2.284348e-05 7.189331e-01 6.882324e-01
1.752850e+07 1.004333e+00 6.018066e-02 -1.382921e-05 8.141622e-06 -2.073124e-05 4.891679e-05 7.210083e-01 6.990356e-01
1.774723e+07 1.003845e+00 6.170654e-02 -1.284853e-05 -1.929794e-05 -4.281104e-05 3.361329e-05 7.225342e-01 7.058716e-01
1.796596e+07 1.004333e+00 6.207275e-02 -3.544055e-05 -1.200102e-05 -4.987791e-05 -3.207475e-05 7.211914e-01 7.131958e-01
1.818469e+07 1.005066e+00 6.292725e-02 -5.052984e-05 -2.107024e-05 -1.796894e-05 1.280382e-05 7.191772e-01 7.185669e-01
1.840342e+07 1.005249e+00 6.427002e-02 1.970679e-06 2.877414e-05 5.052239e-05 -9.670854e-06 7.160645e-01 7.233276e-01
1.862216e+07 1.006042e+00 6.518555e-02 2.949685e-05 8.102506e-06 -1.278892e-05 6.711110e-06 7.107544e-01 7.265015e-01
1.884089e+07 1.006470e+00 6.597900e-02 -6.611645e-05 7.443130e-06 -4.306808e-05 9.089708e-06 7.037354e-01 7.318115e-01
1.905962e+07 1.006348e+00 6.628418e-02 -4.041195e-05 2.816319e-06 -6.819144e-05 -1.935288e-05 6.968384e-01 7.380981e-01
1.927835e+07 1.007385e+00 6.787109e-02 1.252629e-05 -2.845563e-05 2.166629e-05 3.260747e-05 6.875610e-01 7.467041e-01
1.949708e+07 1.007812e+00 6.848145e-02 -7.477589e-06 1.795962e-05 -5.305931e-05 2.903119e-05 6.800537e-01 7.553101e-01
1.971581e+07 1.008484e+00 6.927490e-02 -5.083624e-06 1.053559e-05 5.382299e-05 2.821162e-05 6.723633e-01 7.670288e-01
1.993454e+07 1.009888e+00 6.921387e-02 -3.714859e-05 -3.088638e-05 -4.630536e-06 1.377612e-05 6.673584e-01 7.787476e-01
2.015328e+07 1.009338e+00 7.006836e-02 -2.891757e-05 3.501773e-06 -1.995079e-05 -9.877607e-06 6.641235e-01 7.904053e-01
2.037201e+07 1.010376e+00 7.092285e-02 4.405901e-05 4.168600e-06 -1.349207e-05 -8.232892e-07 6.624756e-01 8.015747e-01
2.059074e+07 1.011169e+00 7.147217e-02 2.544560e-05 2.889149e-05 -3.062561e-05 -2.247281e-05 6.644897e-01 8.128052e-01
2.080947e+07 1.012329e+00 7.122803e-02 6.448012e-06 8.320436e-06 -2.969056e-05 -5.716458e-05 6.674194e-01 8.215332e-01
2.102820e+07 1.012573e+00 7.250977e-02 -4.623830e-05 5.022809e-05 1.527369e-06 -5.207583e-05 6.713867e-01 8.272705e-01
2.124693e+07 1.013855e+00 7.342529e-02 3.638864e-05 -2.462417e-05 -1.656730e-05 -1.406204e-05 6.757812e-01 8.293457e-01
2.146566e+07 1.014160e+00 7.238770e-02 -2.184417e-06 1.043919e-05 4.708022e-05 -1.354516e-05 6.781006e-01 8.289185e-01
2.168439e+07 1.015320e+00 7.342529e-02 6.147847e-05 3.673136e-05 -3.596395e-05 8.763745e-06 6.796265e-01 8.257446e-01
2.190312e+07 1.016235e+00 7.318115e-02 -5.963258e-06 -1.038890e-06 1.280382e-05 -3.201142e-05 6.784668e-01 8.203735e-01
2.212186e+07 1.017334e+00 7.421875e-02 4.808605e-05 1.273304e-05 2.499111e-05 2.115592e-05 6.734619e-01 8.133545e-01
2.234059e+07 1.017639e+00 7.476807e-02 -2.676621e-06 -3.667176e-05 1.298450e-05 -6.891787e-06 6.644897e-01 8.088379e-01
2.255932e+07 1.018982e+00 7.409668e-02 4.742295e-05 2.477318e-06 2.200156e-05 7.843599e-06 6.557617e-01 8.044434e-01
2.277805e+07 1.020081e+00 7.434082e-02 -4.278496e-06 2.249703e-05 1.349486e-05 -2.444535e-05 6.433105e-01 8.023071e-01
2.299678e+07 1.020203e+00 7.452393e-02 -5.188957e-05 -2.135709e-05 -7.063150e-06 8.373521e-06 6.316528e-01 8.009644e-01
2.321551e+07 1.020935e+00 7.385254e-02 2.684817e-05 4.247017e-05 4.320592e-05 5.078688e-05 6.180420e-01 8.023071e-01
2.343424e+07 1.021973e+00 7.482910e-02 -1.760200e-05 4.287064e-05 -1.789443e-05 -4.328787e-06 6.051025e-01 8.063354e-01
2.365298e+07 1.022522e+00 7.519531e-02 -1.630466e-05 -1.957826e-05 -1.569092e-05 -2.400018e-05 5.933838e-01 8.102417e-01
2.387171e+07 1.023560e+00 7.440186e-02 4.051998e-05 -1.490675e-05 -2.878718e-06 1.195166e-05 5.820312e-01 8.157959e-01
2.409044e+07 1.024658e+00 7.440186e-02 5.365815e-06 -7.845927e-06 5.098060e-06 3.666990e-05 5.739136e-01 8.209839e-01
2.430917e+07 1.025635e+00 7.470703e-02 -2.248585e-05 5.828962e-05 -9.542331e-06 2.769753e-06 5.667725e-01 8.265991e-01
2.452790e+07 1.026489e+00 7.458496e-02 9.313226e-06 4.404411e-05 3.710948e-05 -1.238659e-06 5.596313e-01 8.313599e-01
2.474663e+07 1.027283e+00 7.409668e-02 2.021994e-05 -8.991919e-06 1.844764e-05 -1.336820e-05 5.534668e-01 8.353271e-01
2.496536e+07 1.028076e+00 7.409668e-02 4.823878e-05 5.278736e-06 -3.471039e-05 6.934628e-06 5.494385e-01 8.371582e-01
2.518409e+07 1.028320e+00 7.379150e-02 3.932789e-05 5.971640e-06 3.391877e-06 3.897026e-05 5.419922e-01 8.372803e-01
2.540282e+07 1.028992e+00 7.348633e-02 -6.497651e-05 -2.794340e-05 8.055940e-06 2.484024e-05 5.372314e-01 8.364258e-01
2.562156e+07 1.030212e+00 7.287598e-02 -5.085766e-05 -3.804266e-05 1.275167e-05 1.068506e-05 5.299072e-01 8.330688e-01
2.584029e+07 1.031189e+00 7.293701e-02 -2.891384e-05 -2.474338e-05 -1.810584e-05 -4.308298e-06 5.201416e-01 8.294678e-01
2.605902e+07 1.030640e+00 7.293701e-02 -4.455447e-05 -3.258884e-05 6.241724e-05 3.785267e-05 5.076904e-01 8.256836e-01
2.627775e+07 1.031494e+00 7.293701e-02 -6.433204e-05 -1.604855e-05 7.131137e-06 -8.521136e-06 4.926147e-01 8.226318e-01
2.649648e+07 1.031860e+00 7.220459e-02 2.158806e-05 -7.088110e-05 -1.278985e-05 -1.071487e-05 4.756470e-01 8.209839e-01
2.671521e+07 1.033020e+00 7.196045e-02 8.044764e-06 -1.267716e-05 1.350697e-05 1.855288e-05 4.586792e-01 8.217773e-01
2.693394e+07 1.032959e+00 7.110596e-02 -9.514391e-06 3.239140e-05 1.780502e-05 2.213195e-05 4.406738e-01 8.245239e-01
2.715268e+07 1.034180e+00 7.128906e-02 -4.878268e-06 -2.376735e-05 -1.403503e-06 -1.571607e-05 4.216919e-01 8.300171e-01
2.737141e+07 1.034180e+00 7.098389e-02 -8.651521e-06 5.208421e-06 3.894046e-05 1.434796e-05 4.039917e-01 8.378906e-01
2.759014e+07 1.034973e+00 7.061768e-02 -1.696963e-05 1.495238e-05 -4.667789e-06 1.430139e-05 3.865967e-01 8.472290e-01
2.780887e+07 1.035217e+00 6.927490e-02 1.424924e-06 1.804996e-05 -6.800517e-06 3.437139e-05 3.715210e-01 8.580322e-01
2.802760e+07 1.035034e+00 6.909180e-02 2.563372e-05 1.765601e-05 2.292171e-05 3.365241e-05 3.585815e-01 8.710938e-01
2.824633e+07 1.035950e+00 6.848145e-02 -2.216920e-05 -1.188554e-05 -1.424924e-06 2.798252e-05 3.480835e-01 8.850098e-01
2.846506e+07 1.037048e+00 6.811523e-02 -1.931563e-06 -2.414174e-05 -6.830320e-06 -9.331387e-06 3.400879e-01 8.988647e-01
2.868379e+07 1.037476e+00 6.719971e-02 4.233792e-06 1.486111e-05 -9.364448e-06 -1.509208e-05 3.356323e-01 9.108887e-01
2.890252e+07 1.037781e+00 6.726074e-02 1.474191e-05 -5.738810e-06 5.391613e-05 -6.483868e-05 3.316650e-01 9.213867e-01
2.912126e+07 1.038208e+00 6.610107e-02 3.063120e-05 2.093613e-06 -3.186986e-06 3.026612e-05 3.288574e-01 9.299316e-01
2.933999e+07 1.039185e+00 6.683350e-02 5.479902e-06 3.004447e-05 1.071021e-06 -1.009926e-05 3.279419e-01 9.360352e-01
2.955872e+07 1.039062e+00 6.518555e-02 -1.571141e-05 3.178045e-05 6.349757e-05 -5.923212e-06 3.259888e-01 9.392090e-01
2.977745e+07 1.039429e+00 6.542969e-02 7.555820e-06 1.771841e-05 -1.916848e-05 -1.224596e-05 3.223877e-01 9.418335e-01
2.999618e+07 1.039185e+00 6.530762e-02 3.037788e-05 -2.501532e-06 1.377147e-05 1.876429e-05 3.188477e-01 9.427490e-01
3.021491e+07 1.039429e+00 6.396484e-02 -2.791872e-06 3.289664e-06 -5.398691e-05 -4.107878e-05 3.118896e-01 9.412842e-01
3.043364e+07 1.040283e+00 6.433105e-02 -4.912168e-05 3.618002e-05 -6.511807e-05 3.419071e-05 3.041382e-01 9.425659e-01
3.065238e+07 1.040222e+00 6.262207e-02 -1.497567e-05 4.306436e-06 -5.412847e-06 6.545335e-06 2.946167e-01 9.425049e-01
3.087111e+07 1.040283e+00 6.213379e-02 2.109539e-05 -4.831702e-06 5.709007e-06 -2.469122e-05 2.831421e-01 9.432983e-01
3.108984e+07 1.041382e+00 6.262207e-02 6.979331e-06 -2.689846e-05 -5.280599e-06 2.742559e-05 2.716675e-01 9.464111e-01
3.130857e+07 1.041809e+00 6.158447e-02 -1.450628e-05 -5.780533e-05 -4.709885e-05 8.065253e-06 2.604370e-01 9.527588e-01
3.152730e+07 1.040955e+00 6.250000e-02 5.966052e-06 3.954396e-05 7.803552e-06 1.858920e-05 2.478027e-01 9.569702e-01
3.174603e+07 1.041138e+00 6.182861e-02 2.816319e-05 -2.615154e-05 -8.031726e-06 2.695061e-05 2.377319e-01 9.661255e-01
3.196476e+07 1.041077e+00 6.182861e-02 -2.072379e-05 2.636947e-05 2.705492e-05 2.232380e-05 2.274170e-01 9.746094e-01
3.218349e+07 1.041321e+00 6.146240e-02 -2.554618e-05 -3.982335e-06 1.312792e-05 -8.886680e-06 2.212524e-01 9.856567e-01
3.240222e+07 1.040833e+00 6.152344e-02 -2.267584e-05 -8.270144e-07 4.441943e-06 6.569084e-06 2.162476e-01 9.949951e-01
3.262096e+07 1.041138e+00 6.176758e-02 6.318092e-06 -4.818290e-05 1.545902e-05 8.706935e-06 2.147827e-01 1.004578e+00
3.283969e+07 1.041870e+00 6.140137e-02 -1.350790e-05 -3.524125e-06 -3.273040e-05 5.090237e-05 2.152100e-01 1.010437e+00
3.305842e+07 1.041016e+00 6.072998e-02 -1.822785e-05 4.176982e-05 7.648021e-06 -9.964220e-06 2.166138e-01 1.014709e+00
3.327715e+07 1.041138e+00 5.975342e-02 -2.669543e-05 -1.616590e-05 2.252311e-05 -1.284108e-05 2.184448e-01 1.014526e+00
3.349588e+07 1.041138e+00 6.018066e-02 -4.367530e-05 3.177300e-05 -1.237914e-05 4.920736e-05 2.196045e-01 1.012451e+00
3.371461e+07 1.041016e+00 6.030273e-02 -2.720021e-05 -4.062429e-06 -1.088716e-05 2.656318e-05 2.178345e-01 1.005859e+00
3.393334e+07 1.041077e+00 5.969238e-02 -1.179520e-05 -9.560026e-06 -3.043376e-05 -5.874783e-06 2.140503e-01 9.989624e-01
3.415208e+07 1.039978e+00 5.932617e-02 -6.230548e-06 -3.671832e-05 1.954660e-05 3.248826e-05 2.065430e-01 9.902344e-01
3.437081e+07 1.039246e+00 5.969238e-02 2.009794e-06 2.747215e-05 -1.168437e-05 -1.375098e-05 1.965942e-01 9.824219e-01
3.458954e+07 1.039917e+00 5.902100e-02 -8.284114e-06 1.797080e-05 9.387266e-06 -3.927387e-06 1.823730e-01 9.755249e-01
3.480827e+07 1.040649e+00 5.895996e-02 -4.249066e-05 -4.634261e-06 -1.413748e-05 4.330277e-05 1.674194e-01 9.700317e-01
3.502700e+07 1.039917e+00 5.877686e-02 4.344806e-05 -1.969375e-05 1.077075e-06 -5.548820e-06 1.509399e-01 9.671631e-01
3.524573e+07 1.039490e+00 5.871582e-02 -2.809986e-05 1.723878e-05 2.327561e-05 -1.227483e-06 1.335449e-01 9.669189e-01
3.546446e+07 1.039246e+00 5.804443e-02 1.767837e-05 -2.375431e-05 -2.051704e-05 1.775101e-06 1.162720e-01 9.673462e-01
3.568319e+07 1.039001e+00 5.804443e-02 7.830560e-06 -4.557893e-05 -1.605880e-05 8.407980e-06 9.942627e-02 9.733276e-01
3.590192e+07 1.038452e+00 5.804443e-02 2.698507e-06 9.274110e-06 2.007373e-05 1.543760e-05 8.325195e-02 9.777832e-01
3.612066e+07 1.038391e+00 5.786133e-02 1.785718e-05 -2.686493e-05 1.640990e-05 -5.455315e-05 7.171631e-02 9.849243e-01
3.633939e+07 1.038391e+00 5.761719e-02 2.385490e-05 -2.357736e-05 3.401935e-05 1.817197e-05 5.914307e-02 9.909668e-01
3.655812e+07 1.038635e+00 5.786133e-02 9.784475e-06 2.486631e-05 2.725050e-05 -6.264076e-06 4.943848e-02 9.996948e-01
3.677685e+07 1.038086e+00 5.731201e-02 -4.506484e-05 -2.316013e-05 -4.244968e-05 -1.984090e-05 4.119873e-02 1.005066e+00
3.699558e+07 1.037231e+00 5.816650e-02 1.898035e-05 -1.460500e-05 2.727099e-05 -6.234273e-06 3.601074e-02 1.010559e+00
3.721431e+07 1.036621e+00 5.682373e-02 -1.132861e-05 -6.488338e-05 3.053993e-05 -2.299808e-05 3.112793e-02 1.015015e+00
3.743304e+07 1.036255e+00 5.700684e-02 2.291054e-07 3.380142e-05 -5.582348e-06 -1.091044e-06 2.758789e-02 1.017639e+00
3.765178e+07 1.035522e+00 5.731201e-02 1.593493e-05 -1.476519e-05 3.886409e-06 -5.036127e-06 2.307129e-02 1.016235e+00
3.787051e+07 1.036438e+00 5.603027e-02 -1.773238e-06 6.079674e-06 -2.518296e-05 -4.911795e-06 1.873779e-02 1.015015e+00
3.808924e+07 1.035645e+00 5.615234e-02 -1.467299e-05 -1.902319e-05 -2.894923e-05 2.921000e-05 1.159668e-02 1.009033e+00
3.830797e+07 1.034424e+00 5.670166e-02 1.691468e-05 6.547198e-07 -2.367422e-05 -5.693361e-05 4.577637e-03 1.005981e+00
3.852670e+07 1.034912e+00 5.621338e-02 -1.170300e-05 -1.585577e-05 5.967915e-06 -4.538149e-05 -6.591797e-03 9.998169e-01
3.874543e+07 1.034180e+00 5.694580e-02 1.478661e-05 1.597963e-05 -5.265325e-05 1.318753e-06 -1.934814e-02 9.953003e-01
3.896416e+07 1.033386e+00 5.651855e-02 -1.611654e-05 1.788232e-05 -1.493469e-05 6.111339e-05 -3.411865e-02 9.913940e-01
3.918289e+07 1.033508e+00 5.541992e-02 -1.952052e-05 -5.320832e-05 1.854915e-05 9.462237e-06 -4.864502e-02 9.902954e-01
3.940162e+07 1.033020e+00 5.657959e-02 9.487383e-06 -5.805865e-06 -4.000962e-05 -4.870445e-05 -6.433105e-02 9.898682e-01
3.962036e+07 1.032104e+00 5.627441e-02 -8.866191e-06 -4.982203e-05 -8.258969e-06 5.672127e-05 -7.995605e-02 9.925537e-01
3.983909e+07 1.031189e+00 5.523682e-02 1.640804e-05 -2.410822e-05 -2.088398e-05 -2.743118e-05 -9.472656e-02 9.977417e-01
4.005782e+07 1.031372e+00 5.541992e-02 1.617614e-05 -1.791492e-05 9.035692e-06 1.345947e-05 -1.064453e-01 1.004639e+00
4.027655e+07 1.030396e+00 5.523682e-02 2.840348e-05 -1.438148e-05 -7.760152e-05 8.158386e-06 -1.163330e-01 1.010925e+00
4.049528e+07 1.029907e+00 5.535889e-02 -1.692772e-05 3.651343e-05 -2.311915e-05 -1.623668e-05 -1.227417e-01 1.018372e+00
4.071401e+07 1.029053e+00 5.590820e-02 -2.296083e-05 -7.115304e-06 -2.022460e-05 1.356751e-05 -1.277466e-01 1.023621e+00
4.093274e+07 1.029053e+00 5.505371e-02 7.498544e-06 6.509479e-06 2.809800e-05 -2.375245e-05 -1.296387e-01 1.029663e+00
4.115148e+07 1.028381e+00 5.523682e-02 -2.496876e-05 -3.514811e-05 -2.136827e-05 1.924112e-05 -1.312866e-01 1.031189e+00
4.137021e+07 1.027710e+00 5.511475e-02 -3.876723e-05 -1.553446e-06 -4.909933e-05 -3.810972e-06 -1.304321e-01 1.031067e+00
4.158894e+07 1.026917e+00 5.511475e-02 -3.858656e-05 -4.503876e-05 3.207661e-05 -2.886169e-05 -1.312256e-01 1.026611e+00
4.180767e+07 1.025879e+00 5.554199e-02 -1.744088e-05 8.624047e-06 -3.277324e-05 -1.233257e-05 -1.325684e-01 1.021301e+00
4.202640e+07 1.025879e+00 5.603027e-02 5.408190e-06 -1.844671e-05 -1.189392e-05 -1.411419e-05 -1.359253e-01 1.013245e+00
4.224513e+07 1.024902e+00 5.621338e-02 1.746509e-05 -8.643605e-06 -4.065409e-05 2.722070e-05 -1.411133e-01 1.005554e+00
4.246386e+07 1.024475e+00 5.725098e-02 3.265962e-05 1.318753e-06 1.983158e-05 3.336556e-05 -1.480713e-01 9.959717e-01
4.268259e+07 1.024597e+00 5.590820e-02 1.156703e-05 2.230145e-05 -9.749085e-06 -5.491078e-05 -1.566772e-01 9.879761e-01
4.290132e+07 1.022949e+00 5.535889e-02 -2.722070e-05 1.763180e-05 1.983158e-05 3.911555e-06 -1.683350e-01 9.801636e-01
4.312006e+07 1.022522e+00 5.639648e-02 -1.961924e-05 -1.640711e-05 1.636520e-05 -3.801286e-05 -1.788940e-01 9.729004e-01
4.333879e+07 1.022522e+00 5.718994e-02 -5.594455e-06 -1.585390e-05 1.302920e-05 -2.101436e-05 -1.911621e-01 9.685059e-01
4.355752e+07 1.022522e+00 5.651855e-02 7.169321e-06 1.592282e-05 -5.096197e-06 1.080427e-05 -2.023926e-01 9.647217e-01
4.377625e+07 1.020386e+00 5.725098e-02 5.513430e-06 5.648658e-05 1.816545e-05 -2.297573e-06 -2.140503e-01 9.612427e-01
4.399498e+07 1.020508e+00 5.700684e-02 -2.734177e-05 1.767091e-05 1.590140e-05 -2.048165e-05 -2.246704e-01 9.599609e-01
4.421371e+07 1.019592e+00 5.688477e-02 3.150292e-05 -4.254654e-05 -2.096593e-05 6.088242e-05 -2.340088e-01 9.583740e-01
4.443244e+07 1.018616e+00 5.773926e-02 -7.822644e-06 -3.292225e-07 5.462393e-05 -6.861985e-06 -2.406616e-01 9.578857e-01
4.465118e+07 1.017761e+00 5.749512e-02 2.490729e-05 -3.347918e-05 1.479127e-05 -1.483038e-05 -2.476807e-01 9.561768e-01
4.486991e+07 1.017334e+00 5.780029e-02 -1.332909e-05 -1.936965e-05 -5.135313e-06 -1.880527e-05 -2.526855e-01 9.542236e-01
4.508864e+07 1.016724e+00 5.773926e-02 -2.705120e-05 8.301809e-06 1.158565e-06 2.394989e-05 -2.571411e-01 9.487915e-01
4.530737e+07 1.017029e+00 5.755615e-02 9.153038e-06 -3.104098e-05 6.848015e-06 -4.577450e-06 -2.609253e-01 9.425659e-01
4.552610e+07 1.015198e+00 5.908203e-02 2.067350e-05 -5.419366e-06 -4.168600e-05 4.512817e-05 -2.647705e-01 9.337769e-01
4.574483e+07 1.014282e+00 5.865479e-02 1.099892e-05 3.822148e-05 3.995840e-06 -5.145557e-06 -2.705078e-01 9.250488e-01
4.596356e+07 1.012817e+00 5.920410e-02 6.565824e-07 -1.572911e-05 4.399568e-05 -2.685189e-05 -2.784424e-01 9.128418e-01
4.618229e+07 1.013062e+00 5.889893e-02 -6.575137e-07 1.573004e-05 8.003786e-06 -1.029763e-05 -2.877808e-01 9.006958e-01
4.640102e+07 1.011963e+00 5.957031e-02 -3.301352e-05 -3.922172e-05 2.861023e-06 3.033876e-05 -2.984619e-01 8.895264e-01
4.661976e+07 1.011292e+00 6.030273e-02 6.165355e-06 3.412832e-06 -3.092177e-05 -2.406538e-05 -3.121948e-01 8.786621e-01
4.683849e+07 1.011292e+00 6.060791e-02 -9.717885e-06 5.902722e-06 4.992634e-05 -2.577528e-05 -3.270264e-01 8.682861e-01
4.705722e+07 1.011230e+00 6.030273e-02 -1.695100e-05 -1.018494e-05 2.699345e-05 -3.043190e-05 -3.430176e-01 8.602905e-01
4.727595e+07 1.010071e+00 6.140137e-02 1.870096e-05 -3.080443e-05 -2.180040e-05 -4.022196e-05 -3.598633e-01 8.536987e-01
4.749468e+07 1.008301e+00 6.207275e-02 1.050718e-05 1.309253e-05 -9.765849e-06 4.007947e-06 -3.763428e-01 8.496704e-01
4.771341e+07 1.007751e+00 6.152344e-02 -2.252683e-05 8.532777e-06 -1.379661e-05 9.188429e-06 -3.927002e-01 8.445435e-01
4.793214e+07 1.007019e+00 6.170654e-02 6.592833e-06 -6.059185e-06 -5.736947e-06 -3.105029e-05 -4.071655e-01 8.447266e-01
4.815088e+07 1.006775e+00 6.243896e-02 -1.147669e-05 9.013340e-06 1.094211e-05 -9.775162e-06 -4.221191e-01 8.435669e-01
4.836961e+07 1.005676e+00 6.311035e-02 4.342757e-06 9.699259e-06 1.322851e-05 8.638017e-06 -4.336548e-01 8.433838e-01
4.858834e+07 1.005005e+00 6.390381e-02 1.475587e-05 2.600625e-05 9.229407e-06 -1.611188e-05 -4.471436e-01 8.423462e-01
4.880707e+07 1.004761e+00 6.384277e-02 2.086535e-05 -5.463138e-06 1.380965e-05 2.076849e-05 -4.564819e-01 8.432007e-01
4.902580e+07 1.003784e+00 6.518555e-02 1.818421e-10 1.981846e-10 1.092069e-05 2.020784e-05 -4.663696e-01 8.413086e-01
4.924453e+07 1.002625e+00 6.506348e-02 1.344457e-05 -5.345792e-05 -1.671165e-05 -2.137013e-05 -4.762573e-01 8.389893e-01
4.946326e+07 1.002319e+00 6.604004e-02 2.262928e-05 -8.568168e-06 -6.377697e-06 1.673121e-05 -4.852295e-01 8.357544e-01
4.968199e+07 1.001343e+00 6.622314e-02 2.720766e-05 3.296323e-05 -2.424791e-05 1.113862e-06 -4.950562e-01 8.319092e-01
4.990072e+07 1.001587e+00 6.597900e-02 2.002250e-05 -2.142601e-05 -1.854450e-05 3.236346e-05 -5.062256e-01 8.267822e-01
5.011946e+07 9.989624e-01 6.719971e-02 1.099240e-05 3.671274e-06 1.732353e-05 3.498048e-06 -5.167236e-01 8.225708e-01
5.033819e+07 9.998779e-01 6.768799e-02 -2.157595e-05 -1.687184e-05 -2.893619e-05 -5.839393e-06 -5.288086e-01 8.169556e-01
5.055692e+07 9.989624e-01 6.823730e-02 -2.360530e-05 -7.402152e-06 1.218542e-05 -1.560152e-05 -5.426025e-01 8.134766e-01
5.077565e+07 9.981079e-01 6.872559e-02 -1.011137e-05 1.232047e-05 -4.621223e-06 -6.954651e-06 -5.576782e-01 8.092041e-01
5.099438e+07 9.974976e-01 6.951904e-02 -4.153885e-05 1.370907e-06 -1.214072e-05 -1.451839e-05 -5.727539e-01 8.082886e-01
5.121311e+07 9.964600e-01 6.994629e-02 -3.183074e-05 3.376231e-05 2.676621e-05 -4.284456e-05 -5.899658e-01 8.071289e-01
5.143184e+07 9.962769e-01 7.012939e-02 -1.608208e-05 2.484769e-06 -2.203323e-05 -1.048855e-05 -6.057739e-01 8.105469e-01
5.165058e+07 9.948730e-01 7.019043e-02 -3.626943e-05 -1.117773e-05 -6.353483e-06 -1.334492e-05 -6.209717e-01 8.150635e-01
5.186931e+07 9.942627e-01 7.171631e-02 -7.138588e-06 -1.949817e-05 -3.590994e-05 -3.143400e-05 -6.339722e-01 8.238525e-01
5.208804e+07 9.928589e-01 7.238770e-02 1.684949e-05 1.671910e-05 -2.900138e-05 -5.882233e-06 -6.453857e-01 8.328857e-01
5.230677e+07 9.926758e-01 7.275391e-02 -6.487593e-06 3.810041e-05 3.310293e-05 6.537884e-07 -6.524048e-01 8.425293e-01
5.252550e+07 9.922485e-01 7.409668e-02 -1.028646e-05 1.555029e-05 5.262904e-06 -1.102686e-05 -6.521606e-01 8.544922e-01
5.274423e+07 9.909668e-01 7.464600e-02 -3.238209e-05 8.150935e-06 6.984919e-06 -4.626811e-06 -6.525879e-01 8.637695e-01
5.296296e+07 9.899902e-01 7.519531e-02 6.496906e-06 -3.816932e-05 -2.365559e-06 1.161173e-05 -6.463623e-01 8.692017e-01
5.318169e+07 9.898682e-01 7.562256e-02 -4.265457e-06 -4.827604e-05 2.389029e-05 -1.330487e-05 -6.405029e-01 8.707886e-01
5.340042e+07 9.888916e-01 7.708740e-02 -2.225675e-05 -4.215166e-06 1.636520e-05 -2.088025e-05 -6.300659e-01 8.692017e-01
5.361916e+07 9.883423e-01 7.714844e-02 -9.182375e-06 -1.002755e-05 -9.912066e-06 4.044734e-06 -6.254883e-01 8.621826e-01
5.383789e+07 9.874268e-01 7.720947e-02 -6.545335e-06 2.916902e-06 -9.171665e-06 -4.428253e-05 -6.196899e-01 8.522949e-01
5.405662e+07 9.869995e-01 7.855225e-02 2.471171e-05 -1.494400e-05 -5.700067e-05 -1.769513e-05 -6.171875e-01 8.409424e-01
5.427535e+07 9.863281e-01 7.897949e-02 -2.172124e-05 -1.702923e-05 -1.218356e-05 -1.460593e-05 -6.188965e-01 8.273315e-01
5.449408e+07 9.854126e-01 8.026123e-02 1.296308e-05 -2.622604e-06 -2.372079e-06 1.164805e-05 -6.226196e-01 8.132324e-01
5.471281e+07 9.851074e-01 8.050537e-02 -1.792051e-05 5.604699e-06 -1.229253e-05 1.571234e-05 -6.284790e-01 8.012695e-01
5.493154e+07 9.851685e-01 8.258057e-02 -6.848946e-06 9.327196e-06 1.233723e-05 -1.570303e-05 -6.374512e-01 7.913208e-01
5.515028e+07 9.843140e-01 8.294678e-02 1.210533e-05 1.662970e-05 4.134327e-05 2.061576e-05 -6.468506e-01 7.816772e-01
5.536901e+07 9.827271e-01 8.325195e-02 1.487695e-05 2.641417e-05 3.455766e-05 -3.546663e-05 -6.561279e-01 7.756958e-01
5.558774e+07 9.824219e-01 8.422852e-02 -2.620742e-06 2.239458e-05 6.640330e-07 -1.809932e-05 -6.660156e-01 7.696533e-01
5.580647e+07 9.817505e-01 8.453369e-02 1.024082e-05 -4.782528e-05 -8.089468e-06 -1.989119e-05 -6.755981e-01 7.669067e-01
5.602520e+07 9.818115e-01 8.575439e-02 3.372692e-05 -3.388897e-05 1.976639e-05 2.231076e-05 -6.820679e-01 7.659302e-01
5.624393e+07 9.799194e-01 8.685303e-02 -3.064051e-06 3.207661e-05 -1.301616e-05 3.382005e-05 -6.882324e-01 7.640381e-01
5.646266e+07 9.804077e-01 8.819580e-02 1.329649e-05 -9.055249e-06 -4.847720e-05 -1.604855e-05 -6.900024e-01 7.636719e-01
5.668139e+07 9.793091e-01 8.843994e-02 -1.259521e-05 2.844818e-05 -8.087605e-06 -1.992844e-05 -6.907959e-01 7.631226e-01
5.690012e+07 9.789429e-01 8.898926e-02 3.350340e-05 -2.746470e-05 -2.750941e-05 4.358590e-07 -6.885376e-01 7.598877e-01
5.711886e+07 9.772949e-01 8.996582e-02 3.017485e-07 -4.190393e-05 -2.698041e-05 1.273490e-05 -6.853638e-01 7.542725e-01
5.733759e+07 9.779053e-01 9.014893e-02 3.189035e-05 7.923692e-06 -4.651491e-06 -7.048715e-06 -6.810913e-01 7.455444e-01
5.755632e+07 9.771729e-01 9.167480e-02 1.693517e-05 5.239621e-05 -2.242625e-06 -1.875777e-05 -6.777344e-01 7.349854e-01
5.777505e+07 9.767456e-01 9.191895e-02 -1.186598e-05 1.235493e-05 1.290906e-05 -3.446825e-06 -6.739502e-01 7.216187e-01
5.799378e+07 9.751587e-01 9.332275e-02 -3.077462e-05 1.814216e-06 6.369315e-06 1.351256e-05 -6.733398e-01 7.053223e-01
5.821251e+07 9.751587e-01 9.448242e-02 1.117215e-05 -3.180280e-05 1.877826e-05 -2.237968e-06 -6.745605e-01 6.882019e-01
5.843124e+07 9.745483e-01 9.606934e-02 2.799928e-05 -1.162849e-05 -1.443550e-05 -3.352202e-05 -6.780396e-01 6.706543e-01
5.864998e+07 9.738159e-01 9.521484e-02 1.435447e-05 3.887340e-06 -9.667128e-06 -5.693361e-05 -6.846924e-01 6.522217e-01
5.886871e+07 9.737549e-01 9.674072e-02 5.258247e-06 2.613105e-05 -2.328120e-05 -3.537722e-05 -6.931763e-01 6.345520e-01
5.908744e+07 9.721069e-01 9.838867e-02 -9.980053e-06 6.002374e-06 -4.647300e-06 -7.074792e-06 -7.036743e-01 6.184082e-01
5.930617e+07 9.725952e-01 9.838867e-02 -3.834255e-06 1.277123e-05 1.709349e-05 -8.714385e-06 -7.161255e-01 6.040039e-01
5.952490e+07 9.721680e-01 9.881592e-02 -2.167746e-05 4.759058e-05 1.312047e-05 -3.401190e-05 -7.290649e-01 5.919800e-01
5.974363e+07 9.710083e-01 9.997559e-02 6.943941e-06 -4.507229e-05 1.710095e-05 -8.711591e-06 -7.433472e-01 5.819702e-01
5.996236e+07 9.711914e-01 1.015625e-01 -2.968870e-05 -2.412312e-05 -1.297239e-05 3.440306e-06 -7.567749e-01 5.748291e-01
6.018109e+07 9.704590e-01 1.020508e-01 -5.271286e-06 -2.621301e-05 3.476255e-05 -5.075708e-06 -7.677612e-01 5.681152e-01
6.039982e+07 9.699707e-01 1.027832e-01 1.503341e-05 -9.020790e-06 1.918525e-07 -3.062002e-05 -7.782593e-01 5.643921e-01
6.061856e+07 9.689941e-01 1.041260e-01 -1.119077e-05 -3.772788e-06 4.376471e-05 -3.388524e-05 -7.885742e-01 5.606079e-01
6.083729e+07 9.691772e-01 1.052246e-01 -2.017058e-05 -2.044532e-05 1.228042e-05 1.482200e-05 -7.954712e-01 5.576172e-01
6.105602e+07 9.679565e-01 1.066284e-01 -3.383309e-05 3.622472e-05 -4.534796e-05 3.619865e-05 -8.002930e-01 5.533447e-01
6.127475e+07 9.670410e-01 1.073608e-01 -2.578832e-05 -3.773905e-05 4.505366e-05 -5.848706e-06 -8.055420e-01 5.492554e-01
6.149348e+07 9.679565e-01 1.080322e-01 -3.701448e-05 -2.487004e-05 1.512840e-05 -5.176291e-05 -8.084717e-01 5.427856e-01
6.171221e+07 9.665527e-01 1.094360e-01 -5.724840e-06 -1.485460e-05 7.644296e-06 -3.344752e-05 -8.108521e-01 5.375977e-01
6.193094e+07 9.667358e-01 1.097412e-01 4.734844e-05 -2.177060e-05 -3.356487e-06 2.303533e-05 -8.140259e-01 5.292358e-01
6.214968e+07 9.659424e-01 1.101074e-01 -4.203990e-06 -1.497101e-05 -1.246110e-05 -1.426414e-05 -8.167725e-01 5.206909e-01
6.236841e+07 9.656982e-01 1.115112e-01 8.198433e-06 -1.285877e-05 2.519786e-05 -1.871958e-06 -8.210449e-01 5.112915e-01
6.258714e+07 9.656372e-01 1.123047e-01 -3.794394e-05 2.431683e-05 1.018867e-05 3.473461e-05 -8.256226e-01 5.020142e-01
6.280587e+07 9.649048e-01 1.131592e-01 -2.083182e-05 -3.210455e-05 1.488440e-05 -2.139620e-05 -8.319702e-01 4.917603e-01
6.302460e+07 9.650269e-01 1.140747e-01 4.744530e-05 3.927946e-05 4.938990e-05 -1.136214e-06 -8.367920e-01 4.815674e-01
6.324333e+07 9.644775e-01 1.147461e-01 -3.234856e-05 1.780689e-05 6.429479e-05 -2.255663e-05 -8.435669e-01 4.729614e-01
6.346206e+07 9.647827e-01 1.148682e-01 3.763475e-05 -9.005889e-06 3.263354e-05 -4.999340e-06 -8.511353e-01 4.658813e-01
6.368079e+07 9.639893e-01 1.168823e-01 1.867022e-05 -1.675822e-05 -2.525561e-05 1.870096e-06 -8.597412e-01 4.592896e-01
6.389952e+07 9.641113e-01 1.176147e-01 3.697723e-05 -1.818314e-05 -2.096780e-05 -8.605421e-06 -8.663940e-01 4.542847e-01
6.411826e+07 9.644165e-01 1.181030e-01 5.722046e-06 5.484372e-05 -3.458560e-05 -2.029538e-05 -8.729858e-01 4.499512e-01
6.433699e+07 9.637451e-01 1.198120e-01 -3.203005e-05 -3.750622e-05 8.340459e-06 9.556301e-06 -8.782959e-01 4.474487e-01
6.455572e+07 9.632568e-01 1.200562e-01 6.712042e-06 -1.280382e-05 -7.401221e-06 3.095716e-06 -8.811035e-01 4.455566e-01
6.477445e+07 9.622192e-01 1.215820e-01 9.147450e-06 3.928132e-05 5.488843e-05 -1.425296e-05 -8.820801e-01 4.414062e-01
6.499318e+07 9.630737e-01 1.224365e-01 -1.868233e-05 -2.317689e-05 -1.482107e-05 6.197020e-06 -8.822021e-01 4.385376e-01
6.521191e+07 9.621582e-01 1.231689e-01 -1.199357e-05 -3.600493e-05 -2.666004e-05 3.507920e-05 -8.805542e-01 4.325562e-01
6.543064e+07 9.625854e-01 1.242676e-01 -4.788116e-05 -2.454966e-06 2.965704e-05 -1.240335e-05 -8.772583e-01 4.262695e-01
6.564938e+07 9.624023e-01 1.251831e-01 -8.353498e-06 -8.604955e-06 6.094947e-05 3.115088e-05 -8.752441e-01 4.171753e-01
6.586811e+07 9.628906e-01 1.262207e-01 -2.212636e-05 3.249571e-05 -2.917275e-05 -4.886836e-05 -8.732910e-01 4.060669e-01
6.608684e+07 9.617310e-01 1.268311e-01 1.308601e-05 -1.025107e-05 1.996756e-05 1.126528e-05 -8.714600e-01 3.944702e-01
6.630557e+07 9.613037e-01 1.282959e-01 -1.626089e-05 -1.107436e-05 -3.048591e-05 -1.560152e-05 -8.709106e-01 3.809814e-01
6.652430e+07 9.615479e-01 1.289062e-01 -2.345443e-05 -4.369766e-06 -3.026426e-05 -4.624203e-05 -8.731689e-01 3.673096e-01
6.674303e+07 9.614868e-01 1.298828e-01 5.311333e-06 8.845236e-06 1.174863e-05 -1.365133e-05 -8.765259e-01 3.548584e-01
6.696176e+07 9.613037e-01 1.304932e-01 3.650784e-06 -1.262873e-05 1.797825e-05 1.212582e-06 -8.807983e-01 3.413086e-01
6.718049e+07 9.607544e-01 1.315918e-01 -5.232915e-05 2.255291e-05 4.770234e-05 -1.123920e-05 -8.845215e-01 3.295288e-01
6.739922e+07 9.614868e-01 1.329346e-01 -3.672764e-05 2.438948e-05 -3.924780e-05 5.476177e-06 -8.906860e-01 3.188477e-01
6.761796e+07 9.613647e-01 1.336670e-01 -6.021932e-06 2.208352e-05 5.277339e-06 2.165791e-06 -8.967285e-01 3.086548e-01
6.783669e+07 9.606323e-01 1.338501e-01 1.168437e-05 -2.873875e-05 2.098270e-05 2.400018e-05 -9.010620e-01 3.003540e-01
6.805542e+07 9.615479e-01 1.351929e-01 4.707836e-07 6.150454e-06 1.094863e-05 -4.179776e-05 -9.049683e-01 2.913818e-01
6.827415e+07 9.609375e-01 1.361084e-01 -1.726300e-05 1.679268e-05 -6.880984e-05 -1.280010e-05 -9.088745e-01 2.832642e-01
6.849288e+07 9.610596e-01 1.376343e-01 -4.491769e-06 -1.822598e-05 1.365319e-06 -3.341772e-05 -9.107666e-01 2.746582e-01
6.871161e+07 9.619141e-01 1.378784e-01 -1.006946e-05 -3.016554e-05 1.275726e-05 -9.583309e-07 -9.118042e-01 2.655640e-01
6.893034e+07 9.609375e-01 1.386108e-01 2.603047e-05 -2.369471e-05 5.170703e-06 1.755916e-05 -9.129028e-01 2.559204e-01
6.914908e+07 9.608154e-01 1.397705e-01 2.486631e-06 -2.807751e-05 8.548610e-06 -5.767681e-06 -9.128418e-01 2.455444e-01
6.936781e+07 9.604492e-01 1.411743e-01 -2.167653e-05 2.026279e-05 9.773299e-06 -2.381392e-05 -9.128418e-01 2.332764e-01
6.958654e+07 9.619751e-01 1.425171e-01 2.524070e-05 -1.433864e-05 -2.039410e-05 1.950376e-05 -9.133301e-01 2.195435e-01
6.980527e+07 9.616699e-01 1.423340e-01 -1.397729e-05 1.968537e-05 -8.940697e-06 5.207956e-05 -9.147339e-01 2.050171e-01
7.002400e+07 9.616089e-01 1.436157e-01 2.465583e-05 -1.903623e-06 -2.692267e-05 3.542565e-05 -9.177246e-01 1.892090e-01
7.024273e+07 9.617310e-01 1.448364e-01 4.259869e-06 -2.515316e-05 -2.763048e-05 -8.232892e-06 -9.211426e-01 1.730957e-01
7.046146e+07 9.617920e-01 1.456909e-01 3.465824e-05 6.653368e-06 6.385148e-05 1.067668e-05 -9.267578e-01 1.560669e-01
7.068019e+07 9.609375e-01 1.461792e-01 5.461276e-06 -9.738375e-06 -4.163757e-05 1.082942e-05 -9.348755e-01 1.395264e-01
7.089892e+07 9.615479e-01 1.475220e-01 -3.006496e-05 -7.003546e-06 2.584793e-05 -3.284030e-05 -9.439087e-01 1.231079e-01
7.111766e+07 9.615479e-01 1.485596e-01 -1.937523e-05 1.081266e-05 -3.105029e-05 1.521222e-05 -9.549561e-01 1.085815e-01
7.133639e+07 9.614868e-01 1.499634e-01 2.983585e-05 -3.647804e-05 -4.579127e-05 -9.462237e-06 -9.687500e-01 9.558105e-02
7.155512e+07 9.616699e-01 1.505127e-01 -1.665764e-05 2.617575e-05 1.486111e-05 9.192154e-06 -9.828491e-01 8.477783e-02
7.177385e+07 9.619141e-01 1.515503e-01 5.362555e-06 -3.153831e-05 1.119450e-05 6.360561e-05 -9.971924e-01 7.843018e-02
7.199258e+07 9.611206e-01 1.512451e-01 -3.070012e-05 -3.503636e-05 2.005324e-05 2.683699e-05 -1.011902e+00 7.214355e-02
7.221131e+07 9.616699e-01 1.521606e-01 -2.655946e-05 -1.067296e-06 -1.206994e-06 1.814310e-05 -1.023743e+00 7.061768e-02
7.243004e+07 9.625244e-01 1.531372e-01 2.416782e-05 1.057237e-05 1.694262e-05 1.937710e-05 -1.035339e+00 7.135010e-02
7.264878e+07 9.620972e-01 1.541748e-01 6.310642e-06 -1.918152e-05 8.363277e-07 2.833083e-05 -1.041077e+00 7.238770e-02
7.286751e+07 9.620361e-01 1.552124e-01 4.326925e-05 1.536682e-05 -1.538545e-06 -7.218495e-05 -1.045715e+00 7.379150e-02
7.308624e+07 9.621582e-01 1.561890e-01 1.692772e-05 -2.311729e-05 2.651662e-05 2.643093e-05 -1.047791e+00 7.537842e-02
7.330497e+07 9.622803e-01 1.567993e-01 8.705072e-06 1.181103e-05 -5.998835e-05 9.663403e-06 -1.047119e+00 7.415771e-02
7.352370e+07 9.624634e-01 1.581421e-01 -2.708659e-05 -4.783273e-05 -9.574927e-06 -7.040799e-06 -1.044739e+00 7.159424e-02
7.374243e+07 9.633179e-01 1.587524e-01 -5.083904e-05 2.892315e-05 2.307817e-06 -2.087466e-05 -1.042419e+00 6.738281e-02
7.396116e+07 9.635620e-01 1.593018e-01 4.731119e-05 5.740672e-06 3.861636e-05 -2.905726e-06 -1.040222e+00 5.987549e-02
7.417989e+07 9.631348e-01 1.601562e-01 6.798655e-06 -1.302361e-05 2.451800e-05 1.628138e-05 -1.038452e+00 5.236816e-02
7.439862e+07 9.635010e-01 1.610107e-01 2.630427e-05 1.672469e-05 3.958866e-05 9.968877e-06 -1.039368e+00 4.302979e-02
7.461736e+07 9.633789e-01 1.621094e-01 -1.794472e-05 5.142391e-05 9.593554e-06 7.051509e-06 -1.040527e+00 3.442383e-02
7.483609e+07 9.638062e-01 1.630859e-01 1.530629e-05 -4.316680e-06 -6.053597e-06 -4.618242e-05 -1.042419e+00 2.441406e-02
7.505482e+07 9.633179e-01 1.637573e-01 1.938269e-05 7.884577e-06 -8.625910e-06 5.830545e-06 -1.047180e+00 1.715088e-02
7.527355e+07 9.644165e-01 1.651611e-01 -2.394058e-05 -2.632663e-05 5.221926e-06 1.776777e-05 -1.052368e+00 1.098633e-02
7.549228e+07 9.635620e-01 1.655273e-01 -1.162011e-05 -8.499250e-06 -3.156718e-06 -7.539522e-06 -1.057068e+00 7.934570e-03
7.571101e+07 9.650269e-01 1.669312e-01 -2.469309e-05 -3.563985e-05 -2.265349e-05 9.475276e-06 -1.062134e+00 6.530762e-03
7.592974e+07 9.650269e-01 1.668091e-01 -3.510900e-05 -2.860092e-05 4.502013e-06 -2.629869e-05 -1.065369e+00 6.713867e-03
7.614848e+07 9.652100e-01 1.680298e-01 -3.076717e-05 2.746470e-05 1.219101e-06 -1.826510e-05 -1.065918e+00 9.155273e-03
7.636721e+07 9.654541e-01 1.692505e-01 -8.163974e-06 -2.443977e-05 -5.231239e-06 -1.779012e-05 -1.062927e+00 1.281738e-02
7.658594e+07 9.658813e-01 1.700439e-01 2.046116e-05 -3.922731e-05 2.199318e-06 -5.361158e-06 -1.057007e+00 1.721191e-02
7.680467e+07 9.662476e-01 1.699829e-01 -2.486631e-05 -5.767494e-05 -3.892742e-05 1.852214e-05 -1.047302e+00 1.818848e-02
7.702340e+07 9.664307e-01 1.702881e-01 1.768023e-05 4.571304e-05 2.366304e-05 3.417954e-06 -1.035339e+00 1.873779e-02
7.724213e+07 9.658203e-01 1.713867e-01 2.734736e-05 -1.153350e-05 -1.377426e-05 -2.756342e-05 -1.020569e+00 1.617432e-02
7.746086e+07 9.665527e-01 1.730957e-01 4.346296e-05 -6.506220e-06 -3.428198e-05 -2.346560e-05 -1.006348e+00 9.277344e-03
7.767959e+07 9.667969e-01 1.730957e-01 1.464691e-05 -1.372118e-05 -3.418513e-05 -3.905781e-05 -9.913940e-01 -1.220703e-04
7.789832e+07 9.664307e-01 1.741943e-01 1.156144e-05 2.737530e-05 8.666888e-06 -5.852431e-06 -9.769897e-01 -1.208496e-02
7.811706e+07 9.676514e-01 1.746826e-01 -3.615767e-05 -3.464520e-07 4.765764e-05 -2.443790e-05 -9.649658e-01 -2.777100e-02
7.833579e+07 9.685669e-01 1.760864e-01 2.848171e-05 -1.794659e-05 2.704747e-05 -4.639849e-06 -9.550171e-01 -4.370117e-02
7.855452e+07 9.682007e-01 1.764526e-01 -1.870841e-05 -5.828217e-05 -1.679361e-05 7.168949e-05 -9.464722e-01 -6.060791e-02
7.877325e+07 9.678345e-01 1.764526e-01 2.477691e-05 -5.064532e-06 -6.604940e-06 1.614168e-05 -9.403687e-01 -7.849121e-02
7.899198e+07 9.683228e-01 1.785278e-01 -6.049871e-06 -3.729202e-05 -6.044284e-05 -5.938113e-06 -9.381104e-01 -9.564209e-02
7.921071e+07 9.686890e-01 1.782837e-01 -4.539266e-06 2.239645e-05 1.187157e-05 1.714565e-06 -9.357910e-01 -1.126709e-01
7.942944e+07 9.690552e-01 1.791992e-01 2.177432e-06 2.818368e-05 -1.396053e-05 -1.200009e-05 -9.357300e-01 -1.274414e-01
7.964818e+07 9.704590e-01 1.797485e-01 -3.960915e-06 9.763520e-06 1.873448e-05 -4.585460e-05 -9.372559e-01 -1.408691e-01
7.986691e+07 9.703369e-01 1.804810e-01 2.447050e-07 3.131106e-06 -3.885478e-05 -1.272745e-05 -9.374390e-01 -1.528931e-01
8.008564e+07 9.708862e-01 1.810913e-01 5.532987e-06 -9.889249e-06 -1.827721e-05 -1.691468e-05 -9.398804e-01 -1.630859e-01
8.030437e+07 9.708862e-01 1.819458e-01 2.403744e-06 -9.655021e-06 -5.408749e-05 -6.359071e-06 -9.397583e-01 -1.718750e-01
8.052310e+07 9.713135e-01 1.823730e-01 1.424737e-05 2.095569e-05 -3.315881e-05 -5.764887e-05 -9.383545e-01 -1.792603e-01
8.074183e+07 9.713745e-01 1.825562e-01 2.533756e-05 1.192093e-06 2.159923e-05 8.821487e-06 -9.376831e-01 -1.858521e-01
8.096056e+07 9.720459e-01 1.838379e-01 -1.510605e-05 -1.145341e-05 5.856529e-05 -4.425645e-06 -9.342651e-01 -1.925659e-01
8.117929e+07 9.721069e-01 1.843262e-01 -9.902753e-06 -5.550683e-06 3.194902e-06 7.611699e-06 -9.294434e-01 -1.987915e-01
8.139802e+07 9.735107e-01 1.854248e-01 -7.264316e-06 -1.206435e-05 6.516930e-06 -4.936010e-07 -9.242554e-01 -2.062988e-01
8.161676e+07 9.723511e-01 1.849365e-01 8.210540e-06 -1.644716e-05 3.243797e-05 1.326017e-05 -9.172974e-01 -2.140503e-01
8.183549e+07 9.730225e-01 1.862793e-01 1.148134e-05 5.415641e-06 3.036670e-05 2.956018e-06 -9.104004e-01 -2.243652e-01
8.205422e+07 9.735718e-01 1.867065e-01 1.179427e-05 -5.155802e-05 1.303758e-05 -9.853393e-07 -9.042969e-01 -2.357178e-01
8.227295e+07 9.737549e-01 1.876221e-01 3.448687e-05 -2.484582e-05 -3.197696e-06 -7.630326e-06 -8.981934e-01 -2.475586e-01
8.249168e+07 9.740601e-01 1.884155e-01 1.092721e-05 1.814868e-05 3.580004e-06 -3.963709e-05 -8.931274e-01 -2.601929e-01
8.271041e+07 9.751587e-01 1.887817e-01 -1.714751e-05 -3.663823e-05 -4.781410e-05 -6.895512e-06 -8.889160e-01 -2.749023e-01
8.292914e+07 9.747925e-01 1.888428e-01 7.450581e-09 -6.019697e-05 4.196540e-06 2.068840e-05 -8.865967e-01 -2.871094e-01
8.314788e+07 9.754028e-01 1.901855e-01 -1.499429e-06 4.135817e-05 1.860876e-05 -1.454726e-05 -8.864746e-01 -3.008423e-01
8.336661e+07 9.755859e-01 1.903076e-01 -3.889389e-05 9.389594e-06 6.275252e-06 3.106706e-05 -8.859253e-01 -3.133545e-01
8.358534e+07 9.757080e-01 1.906738e-01 1.717359e-05 -2.356619e-05 -1.051277e-05 -5.178154e-05 -8.876343e-01 -3.254395e-01
8.380407e+07 9.768066e-01 1.912842e-01 1.519546e-05 1.149625e-05 1.184829e-05 1.751725e-05 -8.897095e-01 -3.360596e-01
8.402280e+07 9.779053e-01 1.916504e-01 -1.168251e-05 -2.766214e-05 1.530629e-05 -6.432645e-06 -8.917847e-01 -3.442383e-01
8.424153e+07 9.776611e-01 1.923828e-01 -3.004447e-06 -3.784336e-05 3.026985e-05 3.455393e-05 -8.936157e-01 -3.519287e-01
8.446026e+07 9.786987e-01 1.927490e-01 4.236773e-05 -6.513670e-06 2.730824e-05 -4.725531e-06 -8.939209e-01 -3.572388e-01
8.467899e+07 9.785156e-01 1.929321e-01 2.602115e-05 -5.291030e-05 1.220033e-05 -2.991594e-05 -8.942261e-01 -3.612671e-01
8.489772e+07 9.791870e-01 1.949463e-01 1.506880e-06 -4.144572e-05 -9.955838e-07 -1.311023e-05 -8.917847e-01 -3.662720e-01
8.511646e+07 9.785156e-01 1.944580e-01 -1.556054e-05 4.401430e-06 4.262850e-05 -1.113117e-05 -8.884888e-01 -3.698730e-01
8.533519e+07 9.794922e-01 1.949463e-01 -7.315539e-06 -1.215469e-05 -6.670132e-06 1.633167e-05 -8.842163e-01 -3.756104e-01
8.555392e+07 9.788208e-01 1.948853e-01 -5.258620e-05 -2.127141e-05 5.440321e-06 2.219807e-06 -8.785400e-01 -3.814697e-01
8.577265e+07 9.807129e-01 1.958618e-01 -2.746284e-05 -4.560500e-05 1.857802e-05 1.221895e-06 -8.728027e-01 -3.886108e-01
8.599138e+07 9.808960e-01 1.967773e-01 6.082468e-06 -3.665220e-06 -2.538785e-05 3.098510e-05 -8.675537e-01 -3.969116e-01
8.621011e+07 9.810181e-01 1.965942e-01 -3.842078e-05 3.808737e-05 1.101661e-05 -1.140684e-05 -8.617554e-01 -4.057007e-01
8.642884e+07 9.813843e-01 1.965942e-01 -4.852191e-05 -8.925796e-06 -4.385039e-05 1.392141e-05 -8.583984e-01 -4.156494e-01
8.664758e+07 9.810791e-01 1.968384e-01 5.005160e-06 2.797693e-06 1.959503e-05 1.435634e-05 -8.557129e-01 -4.265747e-01
8.686631e+07 9.827881e-01 1.979980e-01 -5.742535e-05 2.046674e-05 1.438987e-05 -1.961924e-05 -8.529663e-01 -4.353638e-01
8.708504e+07 9.821777e-01 1.983032e-01 -6.595161e-06 -2.676155e-06 3.064051e-05 2.967194e-06 -8.515625e-01 -4.452515e-01
8.730377e+07 9.820557e-01 1.987915e-01 -8.346513e-06 -2.487935e-05 9.803567e-06 7.190742e-06 -8.513794e-01 -4.532471e-01
8.752250e+07 9.833984e-01 1.990967e-01 1.294911e-05 2.161600e-06 2.510287e-05 1.663901e-05 -8.507690e-01 -4.601440e-01
8.774123e+07 9.844360e-01 1.997070e-01 -3.148057e-05 5.681068e-06 -4.467554e-06 1.094118e-05 -8.500366e-01 -4.663696e-01
8.795996e+07 9.849854e-01 2.001343e-01 -1.187436e-05 -8.645467e-06 3.073923e-05 2.959743e-06 -8.486938e-01 -4.703369e-01
8.817869e+07 9.846802e-01 2.000732e-01 1.447834e-05 -3.950670e-05 4.584342e-05 4.423782e-05 -8.455811e-01 -4.739380e-01
8.839742e+07 9.853516e-01 2.000732e-01 -2.015661e-05 7.996336e-06 -3.084913e-05 1.299009e-05 -8.406982e-01 -4.769287e-01
8.861616e+07 9.851685e-01 2.009888e-01 -1.656823e-05 3.331713e-05 -1.441687e-05 1.967698e-05 -8.355713e-01 -4.799805e-01
8.883489e+07 9.856567e-01 2.010498e-01 2.998859e-06 -2.266094e-05 -4.259869e-06 -2.091564e-05 -8.274536e-01 -4.837646e-01
8.905362e+07 9.862671e-01 2.020264e-01 -2.220273e-05 -1.747347e-05 -1.768675e-05 1.198146e-05 -8.179932e-01 -4.880981e-01
8.927235e+07 9.865112e-01 2.016602e-01 -1.892634e-05 -3.697537e-05 9.854324e-06 7.217750e-06 -8.071899e-01 -4.949951e-01
8.949108e+07 9.871216e-01 2.018433e-01 -6.034970e-06 4.535913e-05 4.271045e-06 2.094917e-05 -7.961426e-01 -5.030518e-01
8.970981e+07 9.869995e-01 2.023926e-01 -2.164580e-05 -3.035925e-05 1.882110e-05 -1.474097e-05 -7.843628e-01 -5.137939e-01
8.992854e+07 9.873047e-01 2.031860e-01 -1.782551e-05 1.744274e-05 -5.438924e-05 5.469099e-05 -7.738037e-01 -5.250244e-01
9.014728e+07 9.873657e-01 2.031860e-01 -6.256625e-06 -3.802031e-05 -9.979121e-06 8.746050e-06 -7.630615e-01 -5.386963e-01
9.036601e+07 9.887085e-01 2.030640e-01 -1.671817e-05 -8.297153e-06 -2.098829e-05 4.278496e-06 -7.553101e-01 -5.543823e-01
9.058474e+07 9.895630e-01 2.030640e-01 -5.029887e-05 1.367182e-05 -4.294515e-05 -2.069026e-05 -7.478638e-01 -5.714722e-01
9.080347e+07 9.895020e-01 2.041016e-01 1.859572e-05 1.138728e-05 1.673959e-05 -2.527982e-05 -7.431030e-01 -5.882568e-01
9.102220e+07 9.890137e-01 2.044067e-01 9.336509e-06 -3.956258e-06 2.875179e-05 -7.521361e-06 -7.399902e-01 -6.047363e-01
9.124093e+07 9.893188e-01 2.044678e-01 -1.438800e-05 1.141801e-06 -2.752990e-05 -1.123175e-05 -7.401733e-01 -6.213379e-01
9.145966e+07 9.900513e-01 2.043457e-01 1.320988e-05 2.468377e-05 2.204068e-05 8.992851e-06 -7.410278e-01 -6.363525e-01
9.167839e+07 9.901733e-01 2.052612e-01 -1.893938e-05 4.730187e-06 -5.512498e-06 -2.251472e-06 -7.440796e-01 -6.501465e-01
9.189712e+07 9.902954e-01 2.046509e-01 -1.843460e-05 1.112837e-05 2.991036e-05 -1.030602e-05 -7.472534e-01 -6.622314e-01
9.211586e+07 9.906006e-01 2.049561e-01 4.291534e-06 -6.784219e-06 -3.206730e-05 -2.160668e-07 -7.506104e-01 -6.699219e-01
9.233459e+07 9.918213e-01 2.048950e-01 -8.831266e-06 1.037214e-05 3.322773e-05 -2.566725e-06 -7.535400e-01 -6.775513e-01
9.255332e+07 9.914551e-01 2.052002e-01 2.011284e-05 4.995987e-05 7.870607e-06 -1.932122e-05 -7.556152e-01 -6.824951e-01
9.277205e+07 9.918213e-01 2.057495e-01 1.763552e-05 -1.401640e-06 -1.019798e-06 -1.329742e-05 -7.553101e-01 -6.864014e-01
9.299078e+07 9.918213e-01 2.057495e-01 -2.378598e-05 5.116686e-06 5.420297e-06 1.830794e-05 -7.543335e-01 -6.898193e-01
9.320951e+07 9.923096e-01 2.065430e-01 6.672461e-06 2.690125e-06 1.093931e-05 2.058595e-05 -7.498779e-01 -6.931152e-01
9.342824e+07 9.927979e-01 2.058716e-01 -1.796894e-05 1.757313e-05 -4.855171e-05 -3.911555e-05 -7.451172e-01 -6.978149e-01
9.364698e+07 9.930420e-01 2.072754e-01 -3.539957e-06 1.643226e-05 -4.290417e-05 -5.301088e-05 -7.385864e-01 -7.031250e-01
9.386571e+07 9.932861e-01 2.064819e-01 3.266148e-06 -1.965463e-05 1.230277e-06 -1.886021e-05 -7.330933e-01 -7.106934e-01
9.408444e+07 9.931030e-01 2.067261e-01 -2.113730e-05 -1.549721e-06 1.885928e-05 1.230277e-06 -7.236328e-01 -7.153931e-01
9.430317e+07 9.939575e-01 2.071533e-01 -3.470574e-06 -2.956484e-06 -2.656877e-05 -1.407415e-05 -7.208252e-01 -7.273560e-01
9.452190e+07 9.943848e-01 2.076416e-01 1.295283e-05 6.044656e-05 1.006480e-05 -8.827075e-06 -7.152710e-01 -7.381592e-01
9.474063e+07 9.948120e-01 2.073364e-01 1.030043e-06 1.285691e-05 2.783909e-05 -4.837289e-06 -7.120972e-01 -7.482910e-01
9.495936e+07 9.946899e-01 2.076416e-01 -3.478955e-06 -2.962304e-06 8.939300e-06 -6.060582e-06 -7.094116e-01 -7.586670e-01
9.517809e+07 9.944458e-01 2.077026e-01 -1.196377e-05 -2.819858e-05 1.337379e-06 -3.502704e-05 -7.105713e-01 -7.683716e-01
9.539682e+07 9.948120e-01 2.069092e-01 2.661906e-05 -1.184456e-05 -1.128996e-06 2.775807e-06 -7.130127e-01 -7.769165e-01
9.561556e+07 9.960938e-01 2.081909e-01 -5.669426e-06 1.018029e-05 -1.430325e-05 -2.851337e-05 -7.161865e-01 -7.831421e-01
9.583429e+07 9.955444e-01 2.076416e-01 -4.321337e-07 5.518273e-05 2.137758e-05 -3.662892e-05 -7.196045e-01 -7.874756e-01
9.605302e+07 9.959106e-01 2.085571e-01 1.881551e-05 -7.995404e-06 -6.690156e-06 5.117618e-07 -7.223511e-01 -7.872314e-01
9.627175e+07 9.954834e-01 2.083130e-01 2.140924e-05 2.425350e-05 1.688115e-05 -2.553314e-05 -7.243042e-01 -7.850952e-01
9.649048e+07 9.962158e-01 2.083740e-01 -1.431629e-05 -5.728379e-05 -1.772307e-05 -2.018921e-05 -7.225952e-01 -7.796021e-01
9.670921e+07 9.957886e-01 2.080078e-01 2.737902e-05 1.729093e-05 1.782272e-05 4.013069e-06 -7.181396e-01 -7.751465e-01
9.692794e+07 9.965820e-01 2.083740e-01 -2.085976e-05 -3.731437e-05 -1.076236e-05 -6.928295e-05 -7.107544e-01 -7.694092e-01
9.714668e+07 9.958496e-01 2.083740e-01 -1.260359e-05 -1.524575e-05 2.009422e-05 -1.551583e-06 -7.007446e-01 -7.647095e-01
9.736541e+07 9.966431e-01 2.085571e-01 1.025945e-05 -1.383014e-05 6.354228e-05 1.934171e-05 -6.876221e-01 -7.615967e-01
9.758414e+07 9.971313e-01 2.083130e-01 -4.388019e-05 2.905726e-07 6.616116e-06 1.568627e-05 -6.753540e-01 -7.599487e-01
9.780287e+07 9.962158e-01 2.084961e-01 -6.063655e-05 1.465902e-05 1.333654e-06 -3.520213e-05 -6.597900e-01 -7.611084e-01
9.802160e+07 9.957886e-01 2.086792e-01 1.370162e-05 8.665957e-06 2.868474e-07 -4.861131e-05 -6.469116e-01 -7.650146e-01
9.824033e+07 9.971924e-01 2.090454e-01 -3.361329e-05 -1.353398e-05 5.381182e-06 3.473647e-05 -6.323853e-01 -7.697144e-01
9.845906e+07 9.973755e-01 2.094727e-01 -2.563372e-05 5.312264e-06 -2.689473e-05 2.071261e-06 -6.197510e-01 -7.768555e-01
9.867779e+07 9.973145e-01 2.089844e-01 -5.234033e-07 -6.472226e-06 2.130307e-05 -4.358590e-06 -6.086426e-01 -7.829590e-01
9.889652e+07 9.972534e-01 2.090454e-01 -3.898330e-05 4.228391e-05 3.024936e-06 5.658716e-05 -5.989990e-01 -7.908936e-01
9.911526e+07 9.975586e-01 2.092285e-01 -1.563318e-05 -1.177751e-05 4.545785e-06 -1.118146e-05 -5.908813e-01 -7.997437e-01
9.933399e+07 9.968872e-01 2.094727e-01 -2.439879e-05 4.113652e-05 -4.452653e-06 -5.067326e-06 -5.838623e-01 -8.061523e-01
9.955272e+07 9.970703e-01 2.092896e-01 1.752563e-05 1.489930e-05 2.568029e-05 1.696311e-05 -5.791016e-01 -8.103638e-01
9.977145e+07 9.970703e-01 2.105103e-01 -1.966581e-05 -2.126116e-05 3.024749e-05 5.802140e-06 -5.728760e-01 -8.140259e-01
9.999018e+07 9.974976e-01 2.098999e-01 -3.536791e-05 -1.348928e-05 1.346692e-06 -3.533624e-05 -5.676270e-01 -8.167114e-01
1.002089e+08 9.983521e-01 2.096558e-01 -7.583294e-06 7.146504e-06 -4.658476e-06 2.748333e-05 -5.611572e-01 -8.168335e-01
1.004276e+08 9.985352e-01 2.103271e-01 5.700160e-06 -1.026504e-05 3.268011e-05 -1.608953e-05 -5.537720e-01 -8.159790e-01
1.006464e+08 9.983521e-01 2.102661e-01 -4.340895e-06 6.891787e-06 3.516674e-06 -2.470240e-05 -5.458374e-01 -8.141479e-01
1.008651e+08 9.984741e-01 2.098999e-01 6.497372e-06 -5.252659e-07 -5.699694e-06 1.402013e-05 -5.357056e-01 -8.114624e-01
1.010838e+08 9.979858e-01 2.093506e-01 -8.382834e-06 -2.584886e-06 1.341477e-05 1.524203e-05 -5.228882e-01 -8.108521e-01
1.013026e+08 9.982300e-01 2.098999e-01 1.703948e-05 8.421019e-06 -7.890165e-06 3.330875e-06 -5.097656e-01 -8.095093e-01
1.015213e+08 9.973755e-01 2.092285e-01 -8.386094e-06 -2.581161e-06 2.804771e-05 1.138076e-05 -4.931641e-01 -8.097534e-01
1.017400e+08 9.974976e-01 2.100830e-01 7.032417e-06 5.977228e-06 -1.446716e-05 -2.876669e-05 -4.783936e-01 -8.116455e-01
1.019588e+08 9.977417e-01 2.097778e-01 6.502029e-06 -5.294569e-07 -2.026930e-05 1.586974e-06 -4.630127e-01 -8.156738e-01
1.021775e+08 9.976196e-01 2.098999e-01 1.737103e-05 -7.960014e-06 8.868054e-06 2.650172e-05 -4.462280e-01 -8.213501e-01
1.023962e+08 9.973145e-01 2.099609e-01 1.928024e-05 -4.841946e-06 -9.036157e-06 6.142538e-06 -4.296875e-01 -8.281860e-01
1.026150e+08 9.973755e-01 2.106934e-01 3.168546e-05 2.696179e-05 -1.790747e-05 -2.038479e-05 -4.161377e-01 -8.365479e-01
1.028337e+08 9.972534e-01 2.114258e-01 3.881566e-05 -6.418675e-06 -2.686121e-05 -3.059767e-05 -4.044189e-01 -8.462524e-01
1.030524e+08 9.967041e-01 2.103882e-01 -1.953915e-05 1.594424e-06 4.741549e-05 -2.003834e-05 -3.934937e-01 -8.560791e-01
1.032712e+08 9.977417e-01 2.114258e-01 2.365559e-07 2.293475e-05 -1.708232e-05 2.584234e-05 -3.842163e-01 -8.666382e-01
1.034899e+08 9.965210e-01 2.106323e-01 -1.629582e-06 1.320150e-07 -3.048964e-05 1.054443e-05 -3.756104e-01 -8.758545e-01
1.037086e+08 9.962158e-01 2.103882e-01 -1.955964e-05 1.587905e-06 5.070493e-05 4.190952e-06 -3.696289e-01 -8.840942e-01
1.039273e+08 9.972534e-01 2.108765e-01 2.712943e-05 1.091510e-05 1.240335e-05 1.760200e-06 -3.644409e-01 -8.909302e-01
1.041461e+08 9.969482e-01 2.104492e-01 1.597591e-05 3.481284e-05 -4.403293e-06 -2.146699e-05 -3.598022e-01 -8.964233e-01
1.043648e+08 9.963379e-01 2.112427e-01 3.437698e-05 -4.221871e-05 -4.575588e-06 1.125969e-05 -3.551025e-01 -9.013672e-01
1.045835e+08 9.957886e-01 2.105103e-01 -1.138356e-05 -1.877174e-05 -8.475035e-08 1.635961e-05 -3.487549e-01 -9.036255e-01
1.048023e+08 9.963989e-01 2.120361e-01 -3.561378e-05 6.206334e-06 -4.411861e-05 1.161546e-05 -3.425903e-01 -9.047852e-01
1.050210e+08 9.954224e-01 2.109985e-01 -3.798399e-06 -6.263144e-06 -2.147071e-05 4.416332e-06 -3.342285e-01 -9.049072e-01
1.052397e+08 9.950562e-01 2.111816e-01 -4.580244e-06 -3.576651e-05 3.502890e-05 -5.470589e-06 -3.256226e-01 -9.055786e-01
1.054585e+08 9.959106e-01 2.115479e-01 1.139380e-05 1.880340e-05 -1.562759e-05 -4.247203e-05 -3.142700e-01 -9.077148e-01
1.056772e+08 9.953613e-01 2.119751e-01 -4.578009e-05 2.349913e-05 -2.706796e-05 -1.427531e-05 -3.028564e-01 -9.094238e-01
1.058959e+08 9.951782e-01 2.119141e-01 -2.405420e-05 4.805624e-05 -1.120754e-05 -2.097711e-05 -2.906494e-01 -9.138794e-01
1.061147e+08 9.953613e-01 2.117310e-01 -4.610047e-06 -1.607835e-05 9.246171e-06 -3.900565e-05 -2.790527e-01 -9.193115e-01
1.063334e+08 9.942627e-01 2.120361e-01 -5.661696e-05 -2.835318e-05 -4.499219e-06 -5.113892e-06 -2.658081e-01 -9.252319e-01
1.065521e+08 9.949951e-01 2.120361e-01 -2.120994e-05 -3.779307e-05 2.129376e-05 4.483014e-05 -2.554932e-01 -9.351196e-01
1.067708e+08 9.943848e-01 2.119141e-01 -1.525413e-05 -5.337410e-06 -3.284030e-05 -1.583248e-07 -2.465820e-01 -9.449463e-01
1.069896e+08 9.944458e-01 2.122192e-01 1.472235e-05 -1.209788e-06 -3.949180e-05 -3.248826e-05 -2.390747e-01 -9.542236e-01
1.072083e+08 9.939575e-01 2.126465e-01 -2.225861e-06 3.313459e-05 -7.703900e-06 -4.592538e-05 -2.332764e-01 -9.642334e-01
1.074270e+08 9.937744e-01 2.120361e-01 -1.553074e-05 -8.608215e-06 -1.919549e-05 -1.765788e-05 -2.314453e-01 -9.718628e-01
1.076458e+08 9.934692e-01 2.131348e-01 2.709217e-06 1.296308e-05 -3.280677e-05 -1.661293e-05 -2.293701e-01 -9.786987e-01
1.078645e+08 9.931641e-01 2.134399e-01 2.174638e-06 6.417744e-06 3.413111e-05 -1.910515e-05 -2.293701e-01 -9.826050e-01
1.080832e+08 9.932251e-01 2.133789e-01 -2.236664e-05 -1.136959e-05 9.022653e-06 1.025666e-05 -2.296143e-01 -9.846191e-01
1.083020e+08 9.928589e-01 2.131348e-01 1.475122e-05 -1.221895e-06 -1.025386e-05 9.028241e-06 -2.283325e-01 -9.825439e-01
1.085207e+08 9.929810e-01 2.137451e-01 1.395121e-06 -2.322905e-05 1.124293e-05 2.106465e-05 -2.255859e-01 -9.798584e-01
1.087394e+08 9.922485e-01 2.136841e-01 -3.331341e-05 -2.367049e-05 3.423542e-05 -3.559329e-05 -2.197266e-01 -9.747314e-01
1.089582e+08 9.918213e-01 2.138672e-01 -7.399358e-06 1.051836e-05 -1.008995e-05 -2.389774e-05 -2.125244e-01 -9.694214e-01
1.091769e+08 9.914551e-01 2.138672e-01 1.884997e-05 8.353032e-06 4.082546e-05 1.323968e-05 -2.020264e-01 -9.645996e-01
1.093956e+08 9.912109e-01 2.144775e-01 -3.034621e-05 -7.409602e-06 -3.450084e-06 8.503441e-06 -1.907959e-01 -9.613037e-01
1.096144e+08 9.913940e-01 2.139282e-01 -3.824569e-05 -4.315190e-05 -3.755093e-05 1.120754e-05 -1.752930e-01 -9.587402e-01
1.098331e+08 9.907227e-01 2.147217e-01 2.410822e-05 -2.843514e-05 1.824088e-05 -1.242477e-05 -1.611328e-01 -9.588013e-01
1.100518e+08 9.901733e-01 2.149658e-01 3.835745e-05 -3.620982e-05 1.257192e-05 -1.471583e-05 -1.448364e-01 -9.613647e-01
1.102706e+08 9.903564e-01 2.156372e-01 -3.556954e-06 -3.013993e-06 1.480710e-05 -3.910623e-06 -1.317749e-01 -9.651489e-01
1.104893e+08 9.895630e-01 2.158813e-01 2.189167e-05 4.827976e-06 5.783886e-05 3.667548e-05 -1.177979e-01 -9.689331e-01
1.107080e+08 9.891968e-01 2.155151e-01 7.664785e-06 -7.250812e-06 -2.230518e-06 -1.081638e-05 -1.063232e-01 -9.763184e-01
1.109267e+08 9.882202e-01 2.153931e-01 -2.491474e-05 -2.111122e-05 2.515130e-05 -2.946146e-05 -9.375000e-02 -9.828491e-01
1.111455e+08 9.884033e-01 2.160034e-01 2.274476e-05 -5.176291e-06 1.311302e-06 -3.584847e-05 -8.459473e-02 -9.898682e-01
1.113642e+08 9.876709e-01 2.164917e-01 2.184883e-06 6.437302e-06 4.768310e-10 -2.017373e-10 -7.611084e-02 -9.973145e-01
1.115829e+08 9.876709e-01 2.174683e-01 -1.507066e-05 -2.194010e-05 3.862567e-05 1.898222e-05 -7.092285e-02 -1.004211e+00
1.118017e+08 9.874878e-01 2.174072e-01 1.973193e-05 -1.628883e-06 -3.518164e-05 -2.751499e-05 -6.518555e-02 -1.009399e+00
1.120204e+08 9.867554e-01 2.172241e-01 3.293157e-05 -2.260879e-05 -2.833270e-05 -2.803281e-05 -6.127930e-02 -1.013000e+00
1.122391e+08 9.873657e-01 2.174072e-01 1.261383e-05 -7.672235e-06 1.930166e-05 1.775194e-05 -5.853271e-02 -1.014160e+00
1.124579e+08 9.868164e-01 2.173462e-01 -8.787960e-06 1.397356e-05 3.383961e-06 7.993076e-06 -5.407715e-02 -1.012939e+00
1.126766e+08 9.866943e-01 2.175903e-01 -2.796948e-05 2.307817e-06 3.387220e-06 7.995404e-06 -4.986572e-02 -1.012329e+00
1.128953e+08 9.859009e-01 2.185059e-01 -1.155026e-05 2.084859e-05 3.083982e-05 -1.068600e-05 -4.278564e-02 -1.008240e+00
1.131141e+08 9.854736e-01 2.187500e-01 -2.882071e-05 1.235493e-05 -2.392009e-05 -6.385148e-06 -3.424072e-02 -1.003784e+00
1.133328e+08 9.849854e-01 2.191162e-01 -2.749264e-06 6.860122e-06 -2.054125e-05 1.626089e-06 -2.380371e-02 -1.001465e+00
1.135515e+08 9.849243e-01 2.195435e-01 -1.290347e-05 4.390255e-06 -4.544854e-06 -5.153939e-06 -1.159668e-02 -9.970703e-01
1.137702e+08 9.846191e-01 2.197876e-01 -3.250316e-06 -3.955886e-05 -8.005183e-06 3.392808e-06 1.647949e-03 -9.962158e-01
1.139890e+08 9.839478e-01 2.201538e-01 1.151767e-05 1.895428e-05 6.780960e-06 1.600850e-05 1.507568e-02 -9.960327e-01
1.142077e+08 9.843140e-01 2.201538e-01 4.339218e-05 3.034249e-06 1.814589e-05 3.719330e-05 2.984619e-02 -9.978638e-01
1.144264e+08 9.835205e-01 2.212524e-01 6.362796e-06 -4.370883e-05 1.371559e-05 -1.087785e-06 4.376221e-02 -1.002197e+00
1.146452e+08 9.826660e-01 2.213135e-01 -1.072511e-05 3.078394e-05 3.088266e-05 -1.071952e-05 5.590820e-02 -1.005920e+00
1.148639e+08 9.819946e-01 2.219238e-01 -3.957748e-05 3.291294e-06 4.452467e-05 4.753470e-06 6.671143e-02 -1.011841e+00
1.150826e+08 9.810791e-01 2.216797e-01 -5.338341e-05 3.768504e-05 8.070841e-06 -1.995452e-05 7.666016e-02 -1.018921e+00
1.153014e+08 9.802856e-01 2.227783e-01 1.623109e-05 -4.454702e-05 -7.935800e-06 -1.316518e-05 8.398438e-02 -1.024109e+00
1.155201e+08 9.812622e-01 2.233887e-01 -2.749730e-07 -3.303401e-06 -5.849451e-05 4.607439e-05 8.947754e-02 -1.030884e+00
1.157388e+08 9.806519e-01 2.230835e-01 -3.686361e-05 -4.347414e-05 -3.772043e-05 -5.299225e-06 9.332275e-02 -1.034668e+00
1.159576e+08 9.798584e-01 2.232666e-01 9.641983e-06 1.582596e-05 1.141708e-05 4.615635e-06 9.576416e-02 -1.038269e+00
1.161763e+08 9.793091e-01 2.243652e-01 2.035871e-05 4.488230e-05 8.009374e-08 -1.657847e-05 9.759521e-02 -1.040283e+00
1.163950e+08 9.798584e-01 2.244873e-01 -7.167459e-06 -2.604350e-05 2.618693e-05 3.387406e-05 1.014404e-01 -1.039307e+00
1.166138e+08 9.795532e-01 2.249146e-01 9.921845e-06 -8.284114e-07 -3.545545e-05 -1.102313e-05 1.031494e-01 -1.038940e+00
1.168325e+08 9.789429e-01 2.252197e-01 -3.445894e-05 2.617389e-05 5.157664e-05 -1.239404e-05 1.060181e-01 -1.037537e+00
1.170512e+08 9.778442e-01 2.259521e-01 3.854278e-06 6.338581e-06 -4.699454e-06 2.803653e-05 1.083374e-01 -1.033081e+00
1.172700e+08 9.788818e-01 2.262573e-01 1.654867e-05 -2.137851e-05 -3.313087e-05 -3.338419e-05 1.132202e-01 -1.029297e+00
1.174887e+08 9.782715e-01 2.269287e-01 3.639795e-05 1.699105e-05 -4.471838e-05 -4.764646e-06 1.176147e-01 -1.022705e+00
1.177074e+08 9.779053e-01 2.270508e-01 9.655952e-06 1.584925e-05 -1.608487e-05 6.831251e-06 1.226807e-01 -1.018005e+00
1.179261e+08 9.769287e-01 2.285156e-01 2.674013e-05 6.109476e-05 -1.936406e-05 -3.448129e-05 1.290894e-01 -1.012085e+00
1.181449e+08 9.772949e-01 2.285767e-01 1.244061e-05 2.896227e-05 -1.250580e-05 -3.506429e-05 1.353760e-01 -1.008789e+00
1.183636e+08 9.765625e-01 2.288818e-01 -1.297891e-05 4.423782e-06 -8.963048e-06 -6.031245e-05 1.431274e-01 -1.003723e+00
1.185823e+08 9.759521e-01 2.299194e-01 8.237548e-07 -1.007691e-05 2.396107e-05 3.971159e-05 1.518555e-01 -9.993286e-01
1.188011e+08 9.755249e-01 2.302856e-01 6.875023e-06 -3.728643e-05 -1.488626e-05 -1.267903e-05 1.594849e-01 -9.949341e-01
1.190198e+08 9.753418e-01 2.307739e-01 -2.347678e-05 -1.372769e-06 4.716590e-05 -1.765415e-05 1.661377e-01 -9.924927e-01
1.192385e+08 9.739380e-01 2.313232e-01 2.294220e-05 1.478009e-05 2.287142e-05 2.591312e-05 1.727905e-01 -9.891968e-01
1.194573e+08 9.740601e-01 2.319336e-01 -3.343448e-06 -3.981963e-05 -1.501478e-05 2.063252e-05 1.776123e-01 -9.870605e-01
1.196760e+08 9.746704e-01 2.327881e-01 -2.760906e-06 6.915070e-06 -2.993457e-05 7.940456e-06 1.821899e-01 -9.804077e-01
1.198947e+08 9.741821e-01 2.328491e-01 -2.683885e-05 -2.116710e-05 3.341585e-05 -1.657382e-05 1.865845e-01 -9.758911e-01
1.201135e+08 9.734497e-01 2.332764e-01 3.046729e-05 2.418645e-05 -2.644956e-05 -6.631017e-07 1.894531e-01 -9.682007e-01
1.203322e+08 9.736328e-01 2.343750e-01 2.297759e-05 -2.534129e-05 2.763234e-05 -2.203509e-06 1.937256e-01 -9.586792e-01
1.205509e+08 9.731445e-01 2.355957e-01 1.274329e-05 1.231302e-05 1.272745e-05 -1.491606e-05 2.005615e-01 -9.490967e-01
1.207696e+08 9.727173e-01 2.349854e-01 -3.037974e-06 2.369657e-05 8.018687e-06 1.326669e-05 2.079468e-01 -9.397583e-01
1.209884e+08 9.728394e-01 2.354126e-01 1.774170e-05 1.190137e-05 9.285286e-06 -2.302043e-05 2.164917e-01 -9.288940e-01
1.212071e+08 9.702759e-01 2.366943e-01 -3.999658e-05 2.437830e-05 1.466274e-05 -1.141336e-05 2.290039e-01 -9.195557e-01
1.214258e+08 9.689331e-01 2.371826e-01 6.832182e-06 -5.599577e-06 3.474951e-05 2.918765e-05 2.427979e-01 -9.118042e-01
1.216446e+08 9.688110e-01 2.371216e-01 -8.384231e-06 -1.027435e-05 -1.449510e-05 -3.923289e-05 2.548218e-01 -9.051514e-01
1.218633e+08 9.691772e-01 2.385864e-01 -3.743544e-05 -2.164394e-06 -1.153536e-05 -2.664700e-05 2.690430e-01 -8.997192e-01
1.220820e+08 9.681396e-01 2.393799e-01 2.760999e-05 -2.384931e-05 -3.025681e-05 1.704320e-06 2.807007e-01 -8.970947e-01
1.223008e+08 9.678345e-01 2.397461e-01 -2.970546e-05 4.566088e-05 9.264797e-06 1.116376e-05 2.926025e-01 -8.948364e-01
1.225195e+08 9.667358e-01 2.414551e-01 -2.493616e-06 -6.530900e-06 -2.098456e-05 1.286902e-05 3.038330e-01 -8.937378e-01
1.227382e+08 9.670410e-01 2.409058e-01 -1.040846e-05 4.133768e-05 3.369525e-06 -1.412071e-05 3.130493e-01 -8.927002e-01
1.229570e+08 9.668579e-01 2.422485e-01 2.442300e-05 7.161871e-06 4.377216e-07 -2.676994e-05 3.209839e-01 -8.912354e-01
1.231757e+08 9.664917e-01 2.428589e-01 -2.691895e-05 -1.369789e-05 7.238239e-06 1.965277e-05 3.279419e-01 -8.885498e-01
1.233944e+08 9.662476e-01 2.437134e-01 2.195872e-05 3.205985e-05 -1.492724e-05 -1.253188e-05 3.328247e-01 -8.870850e-01
1.236132e+08 9.662476e-01 2.446899e-01 -2.039224e-05 1.525320e-05 -2.193265e-05 -8.255243e-06 3.383179e-01 -8.831787e-01
1.238319e+08 9.654541e-01 2.449341e-01 -1.089182e-06 1.088902e-05 2.919137e-05 2.791174e-05 3.440552e-01 -8.778076e-01
1.240506e+08 9.655151e-01 2.456665e-01 1.883227e-05 3.194436e-07 2.557784e-05 1.808628e-05 3.502197e-01 -8.717041e-01
1.242694e+08 9.650269e-01 2.465820e-01 2.351031e-05 -1.493096e-05 6.575137e-06 2.251007e-05 3.557739e-01 -8.638306e-01
1.244881e+08 9.642944e-01 2.474365e-01 -1.198705e-05 -5.926937e-06 2.373755e-05 -2.422370e-05 3.612061e-01 -8.554077e-01
1.247068e+08 9.649048e-01 2.485352e-01 -7.933006e-06 -1.496077e-05 3.598817e-05 -3.445894e-07 3.686523e-01 -8.461914e-01
1.249255e+08 9.644165e-01 2.492676e-01 -1.496170e-05 -7.795170e-06 -2.104603e-05 1.290813e-05 3.773193e-01 -8.363037e-01
1.251443e+08 9.636230e-01 2.500000e-01 -4.212372e-06 1.059799e-05 2.761558e-05 9.611249e-06 3.878784e-01 -8.245239e-01
1.253630e+08 9.631958e-01 2.501221e-01 -3.331527e-05 -4.424900e-05 2.330914e-05 2.585351e-06 4.000244e-01 -8.146362e-01
1.255817e+08 9.629517e-01 2.517700e-01 5.295500e-06 9.974465e-06 6.791204e-06 -2.831221e-05 4.140625e-01 -8.051147e-01
1.258005e+08 9.620972e-01 2.518921e-01 -4.991889e-06 1.838617e-05 -1.113862e-06 2.965331e-05 4.307251e-01 -7.957153e-01
1.260192e+08 9.625244e-01 2.536621e-01 2.260320e-05 2.586097e-05 -1.743436e-05 -5.210936e-05 4.479370e-01 -7.886353e-01
1.262379e+08 9.619751e-01 2.548218e-01 2.540275e-05 -2.173707e-06 4.195422e-05 -4.981458e-05 4.664307e-01 -7.852783e-01
1.264567e+08 9.617310e-01 2.549438e-01 -1.120754e-05 -1.373515e-05 -3.647991e-05 2.717599e-05 4.846802e-01 -7.829590e-01
1.266754e+08 9.615479e-01 2.562256e-01 3.748108e-06 -5.926006e-06 -1.201034e-05 1.117587e-07 5.026855e-01 -7.835693e-01
1.268941e+08 9.619751e-01 2.567749e-01 3.746524e-05 -2.774596e-05 -3.538281e-05 -2.495944e-06 5.203857e-01 -7.860107e-01
1.271129e+08 9.610596e-01 2.569580e-01 -2.330542e-05 4.336983e-05 -3.197044e-05 -1.663715e-05 5.340576e-01 -7.910767e-01
1.273316e+08 9.609375e-01 2.583008e-01 -3.779866e-05 3.084540e-05 3.897958e-05 1.234934e-05 5.460205e-01 -7.974243e-01
1.275503e+08 9.602661e-01 2.590942e-01 -3.013760e-06 2.964586e-05 -1.836196e-05 1.582317e-06 5.537109e-01 -8.023682e-01
1.277690e+08 9.600830e-01 2.603760e-01 -9.637326e-06 -2.934597e-05 -6.811693e-06 2.833642e-05 5.587769e-01 -8.075562e-01
1.279878e+08 9.598389e-01 2.608032e-01 -9.846408e-06 3.736001e-06 -2.267770e-05 -5.444512e-06 5.626221e-01 -8.091431e-01
1.282065e+08 9.606323e-01 2.616577e-01 1.531094e-05 4.702248e-06 2.996624e-05 2.519786e-05 5.651855e-01 -8.102417e-01
1.284252e+08 9.597168e-01 2.629395e-01 2.019107e-06 1.125131e-05 -1.680106e-05 1.996197e-05 5.682983e-01 -8.093262e-01
1.286440e+08 9.594727e-01 2.637329e-01 5.025417e-06 -1.843832e-05 -4.039705e-05 -6.720424e-06 5.703735e-01 -8.051147e-01
1.288627e+08 9.601440e-01 2.637329e-01 7.688999e-06 -1.342501e-05 3.838167e-05 1.521036e-05 5.744019e-01 -8.009033e-01
1.290814e+08 9.597778e-01 2.653809e-01 1.546741e-05 3.149733e-06 -3.159977e-05 3.144704e-05 5.798950e-01 -7.937622e-01
1.293002e+08 9.597778e-01 2.665405e-01 -3.552064e-06 -2.721325e-05 3.113784e-05 -4.533678e-06 5.869141e-01 -7.875366e-01
1.295189e+08 9.594116e-01 2.670288e-01 -2.283603e-05 7.158145e-06 -2.341345e-05 -2.611428e-06 5.932007e-01 -7.820435e-01
1.297376e+08 9.590454e-01 2.684326e-01 2.453662e-05 7.232651e-06 2.024695e-05 -3.418140e-05 6.012573e-01 -7.755127e-01
1.299564e+08 9.589844e-01 2.692871e-01 1.104549e-05 -4.626811e-05 3.418885e-06 -1.420267e-05 6.093750e-01 -7.672119e-01
1.301751e+08 9.588013e-01 2.701416e-01 2.684817e-05 4.695356e-05 2.429634e-05 2.388470e-05 6.191406e-01 -7.600098e-01
1.303938e+08 9.586182e-01 2.716675e-01 4.913658e-06 -4.850700e-05 -1.179054e-06 2.978183e-05 6.283569e-01 -7.540894e-01
1.306126e+08 9.583130e-01 2.716675e-01 2.830289e-05 1.303852e-06 1.367182e-06 -5.681999e-06 6.394043e-01 -7.480469e-01
1.308313e+08 9.581909e-01 2.728882e-01 2.678297e-05 -1.464970e-05 -8.847564e-07 -2.126209e-05 6.505127e-01 -7.434082e-01
1.310500e+08 9.579468e-01 2.736816e-01 1.592562e-07 -1.564506e-06 4.593283e-06 -4.400313e-05 6.610718e-01 -7.405396e-01
1.312688e+08 9.578857e-01 2.739868e-01 -9.709969e-06 2.175104e-06 -3.500655e-05 -2.947636e-05 6.710205e-01 -7.374878e-01
1.314875e+08 9.580078e-01 2.747803e-01 -1.099333e-05 1.468137e-05 -8.635223e-06 -1.411512e-05 6.803589e-01 -7.373047e-01
1.317062e+08 9.581909e-01 2.761230e-01 -2.738833e-05 -1.070648e-05 2.962351e-05 -2.295896e-05 6.880493e-01 -7.356567e-01
1.319249e+08 9.579468e-01 2.771606e-01 -5.497038e-05 -1.987442e-05 1.657568e-05 3.109500e-05 6.928101e-01 -7.345581e-01
1.321437e+08 9.574585e-01 2.778931e-01 -2.754852e-06 -3.507920e-05 -3.820285e-06 -3.404170e-05 6.977539e-01 -7.313232e-01
1.323624e+08 9.578247e-01 2.793579e-01 2.241507e-05 -2.456829e-06 3.638677e-05 2.384931e-05 7.003784e-01 -7.272949e-01
1.325811e+08 9.582520e-01 2.802734e-01 -1.107901e-05 4.635751e-05 -1.295842e-05 -2.120249e-05 7.028198e-01 -7.213135e-01
1.327999e+08 9.581909e-01 2.810669e-01 2.771243e-05 7.579103e-06 4.630536e-06 -4.407018e-05 7.078247e-01 -7.132874e-01
1.330186e+08 9.573364e-01 2.821655e-01 2.613105e-05 2.327189e-05 3.070198e-05 2.246909e-05 7.125854e-01 -7.050476e-01
1.332373e+08 9.580078e-01 2.830200e-01 -6.175414e-05 4.592538e-05 -9.129755e-06 1.286529e-05 7.205811e-01 -6.946411e-01
1.334561e+08 9.580078e-01 2.843018e-01 -2.099387e-05 -1.164805e-05 1.777709e-05 1.284294e-06 7.296143e-01 -6.857910e-01
1.336748e+08 9.578857e-01 2.849121e-01 2.532080e-05 -3.068894e-05 2.986006e-05 1.186505e-06 7.404175e-01 -6.776733e-01
1.338935e+08 9.573975e-01 2.854004e-01 -1.101010e-05 1.472048e-05 -4.006550e-05 -3.378093e-05 7.508545e-01 -6.720581e-01
1.341123e+08 9.578857e-01 2.871094e-01 1.407601e-05 1.729373e-05 -2.261996e-05 1.864322e-05 7.626343e-01 -6.680908e-01
1.343310e+08 9.586182e-01 2.875366e-01 -4.506111e-05 6.470829e-06 -2.753921e-06 1.140311e-05 7.720947e-01 -6.667480e-01
1.345497e+08 9.584961e-01 2.888184e-01 -3.946479e-06 7.524621e-06 2.038293e-05 -3.430992e-05 7.808228e-01 -6.657715e-01
1.347684e+08 9.575806e-01 2.898560e-01 7.561408e-06 -1.191255e-05 -1.382083e-06 5.701557e-06 7.871704e-01 -6.666870e-01
1.349872e+08 9.583740e-01 2.905884e-01 -1.762155e-05 1.721084e-05 -1.278613e-05 2.942048e-06 7.899780e-01 -6.669312e-01
1.352059e+08 9.578247e-01 2.915039e-01 1.305155e-05 -3.427267e-06 1.347065e-05 -5.790964e-06 7.910156e-01 -6.656494e-01
1.354246e+08 9.584961e-01 2.922363e-01 -1.987256e-05 -2.266467e-05 1.227669e-05 2.410635e-05 7.901001e-01 -6.628418e-01
1.356434e+08 9.580078e-01 2.932129e-01 -3.022514e-05 1.590699e-05 3.766455e-05 -5.971640e-06 7.892456e-01 -6.596069e-01
1.358621e+08 9.589233e-01 2.938232e-01 -4.263967e-05 1.307018e-05 -6.791204e-06 -4.693866e-05 7.874146e-01 -6.539307e-01
1.360808e+08 9.595337e-01 2.942505e-01 5.910918e-05 4.261360e-05 3.357045e-05 1.114048e-05 7.864380e-01 -6.459961e-01
1.362996e+08 9.594116e-01 2.959595e-01 -4.905835e-05 -4.799291e-05 1.211185e-05 -8.288771e-08 7.871704e-01 -6.380615e-01
1.365183e+08 9.591064e-01 2.968140e-01 -1.588929e-05 -5.401671e-08 -4.488975e-06 -3.132038e-05 7.855225e-01 -6.271362e-01
1.367370e+08 9.583130e-01 2.976074e-01 -2.120622e-06 2.043415e-05 -1.418404e-05 8.638017e-06 7.862549e-01 -6.174927e-01
1.369558e+08 9.598999e-01 2.988892e-01 -1.041126e-05 8.448958e-06 3.861263e-05 1.544133e-05 7.870483e-01 -6.060181e-01
1.371745e+08 9.589233e-01 2.997437e-01 -5.090609e-06 1.855660e-05 9.869225e-06 -1.574121e-05 7.895508e-01 -5.941772e-01
1.373932e+08 9.598389e-01 3.006592e-01 -2.082437e-05 1.692120e-05 2.161972e-05 3.550388e-05 7.915649e-01 -5.824585e-01
1.376120e+08 9.592285e-01 3.011475e-01 -3.743172e-05 -7.051975e-06 1.312047e-05 4.551187e-05 7.969360e-01 -5.701294e-01
1.378307e+08 9.600220e-01 3.027954e-01 4.503876e-06 1.795404e-05 2.932735e-06 1.281593e-05 8.023071e-01 -5.598145e-01
1.380494e+08 9.606934e-01 3.027954e-01 -6.185845e-06 -3.246218e-05 1.420733e-05 -8.657575e-06 8.092041e-01 -5.485229e-01
1.382682e+08 9.608154e-01 3.037109e-01 -3.141910e-05 2.694689e-05 -3.551878e-05 2.165325e-05 8.165283e-01 -5.397339e-01
1.384869e+08 9.607544e-01 3.041382e-01 2.554804e-05 2.968311e-05 3.707781e-05 -3.119931e-06 8.218994e-01 -5.331421e-01
1.387056e+08 9.608154e-01 3.055420e-01 1.589954e-05 7.171184e-08 -3.153458e-05 -1.977012e-05 8.284912e-01 -5.280762e-01
1.389243e+08 9.612427e-01 3.071289e-01 -2.105627e-05 -1.172256e-05 -4.059449e-05 1.736358e-05 8.334961e-01 -5.248413e-01
1.391431e+08 9.607544e-01 3.074951e-01 -1.454726e-05 1.758244e-05 -4.247624e-10 2.581544e-10 8.359375e-01 -5.220337e-01
1.393618e+08 9.623413e-01 3.082275e-01 9.324402e-06 3.281236e-05 2.498925e-05 -3.011897e-06 8.339233e-01 -5.194702e-01
1.395805e+08 9.625854e-01 3.084717e-01 2.618879e-05 -6.822869e-06 4.493818e-05 -1.031905e-05 8.318481e-01 -5.154419e-01
1.397993e+08 9.632568e-01 3.114014e-01 -7.285737e-06 8.794479e-06 1.131743e-05 -2.151914e-05 8.267212e-01 -5.091553e-01
1.400180e+08 9.632568e-01 3.117065e-01 3.999099e-06 2.271123e-05 -5.516410e-05 -2.253428e-05 8.200684e-01 -4.988403e-01
1.402367e+08 9.631348e-01 3.118286e-01 -1.277495e-05 2.617016e-07 1.941808e-05 1.988001e-05 8.145752e-01 -4.868774e-01
1.404555e+08 9.639893e-01 3.116455e-01 -4.744902e-05 -3.371388e-06 -3.488734e-05 1.884811e-05 8.104248e-01 -4.724731e-01
1.406742e+08 9.633179e-01 3.144531e-01 -1.808628e-06 1.733471e-05 -3.295206e-05 -1.410395e-05 8.098145e-01 -4.558105e-01
1.408929e+08 9.642944e-01 3.142700e-01 1.208857e-05 -2.424419e-05 -1.354516e-05 5.806796e-06 8.099365e-01 -4.384766e-01
1.411117e+08 9.644165e-01 3.150635e-01 -2.207048e-05 -2.305955e-06 1.006294e-05 8.519739e-06 8.130493e-01 -4.209595e-01
1.413304e+08 9.645996e-01 3.162842e-01 1.063105e-05 2.025161e-05 -2.500974e-05 2.996996e-06 8.195801e-01 -4.053955e-01
1.415491e+08 9.653320e-01 3.167114e-01 -2.144556e-05 -8.617528e-06 1.719221e-05 4.186295e-06 8.262939e-01 -3.905640e-01
1.417678e+08 9.661255e-01 3.177490e-01 -4.910398e-07 4.733913e-06 1.412071e-05 -3.301352e-05 8.350830e-01 -3.782959e-01
1.419866e+08 9.659424e-01 3.187256e-01 1.710095e-05 -1.097471e-05 2.950244e-05 2.846867e-05 8.432617e-01 -3.679810e-01
1.422053e+08 9.664307e-01 3.190308e-01 -1.945533e-05 -2.755783e-05 -5.426630e-05 2.322719e-05 8.518066e-01 -3.593750e-01
1.424240e+08 9.664307e-01 3.198853e-01 -1.676381e-08 -3.030896e-05 4.477799e-06 3.146939e-05 8.596802e-01 -3.523560e-01
1.426428e+08 9.673462e-01 3.208618e-01 7.295515e-06 -8.814037e-06 2.854317e-05 -1.735426e-05 8.660278e-01 -3.467407e-01
1.428615e+08 9.673462e-01 3.217773e-01 -4.617870e-05 1.428649e-05 -2.727285e-05 -1.273677e-05 8.717041e-01 -3.425903e-01
1.430802e+08 9.680176e-01 3.223267e-01 -3.007241e-05 1.281127e-05 2.855249e-05 -1.735240e-05 8.751831e-01 -3.393555e-01
1.432990e+08 9.688721e-01 3.233643e-01 1.810864e-05 -2.046395e-05 2.168491e-05 3.571995e-05 8.776245e-01 -3.342896e-01
1.435177e+08 9.685669e-01 3.233032e-01 -4.687533e-05 2.066419e-05 -1.835451e-05 5.022809e-05 8.774414e-01 -3.322144e-01
1.437364e+08 9.690552e-01 3.243408e-01 1.843460e-05 -2.362020e-05 -1.370721e-05 -1.856685e-05 8.752441e-01 -3.280029e-01
1.439552e+08 9.696655e-01 3.248901e-01 -4.486181e-06 1.231022e-05 -2.369285e-06 -4.012510e-05 8.723755e-01 -3.223877e-01
1.441739e+08 9.700928e-01 3.256836e-01 -3.226101e-05 2.989545e-06 3.769994e-06 3.438443e-05 8.674316e-01 -3.139038e-01
1.443926e+08 9.708862e-01 3.263550e-01 -1.497846e-05 -9.585172e-06 -1.877546e-05 -2.285466e-05 8.623047e-01 -3.051147e-01
1.446114e+08 9.713745e-01 3.275757e-01 1.383200e-05 -9.744428e-06 6.461516e-05 9.726733e-06 8.573608e-01 -2.921143e-01
1.448301e+08 9.718628e-01 3.280640e-01 -1.248159e-05 -2.919696e-06 -4.445389e-05 7.398427e-06 8.526611e-01 -2.767944e-01
1.450488e+08 9.722290e-01 3.283081e-01 -1.365133e-05 8.163974e-06 1.640804e-05 -1.729559e-05 8.504639e-01 -2.598267e-01
1.452676e+08 9.726562e-01 3.291016e-01 -3.095530e-05 -9.672716e-06 -2.230518e-06 -1.577288e-05 8.519287e-01 -2.400513e-01
1.454863e+08 9.730225e-01 3.299561e-01 1.032930e-05 -6.898772e-06 2.368540e-05 2.751127e-06 8.554688e-01 -2.202148e-01
1.457050e+08 9.738159e-01 3.302612e-01 -1.848955e-05 -6.753020e-06 1.654774e-05 7.088296e-06 8.621826e-01 -2.017822e-01
1.459237e+08 9.740601e-01 3.306274e-01 2.749637e-05 1.252070e-05 -1.278333e-05 2.733245e-05 8.704834e-01 -1.847534e-01
1.461425e+08 9.746704e-01 3.325806e-01 2.114475e-05 4.223175e-05 -7.965602e-06 -1.720339e-05 8.817749e-01 -1.690063e-01
1.463612e+08 9.752808e-01 3.327637e-01 1.883321e-05 3.583729e-06 9.277835e-06 -1.297053e-05 8.949585e-01 -1.556396e-01
1.465799e+08 9.764404e-01 3.333740e-01 9.669922e-06 -5.774200e-07 -1.574121e-05 1.444854e-05 9.068604e-01 -1.462402e-01
1.467987e+08 9.760742e-01 3.333130e-01 3.502332e-05 2.093613e-06 2.277642e-05 -4.318729e-05 9.193115e-01 -1.389160e-01
1.470174e+08 9.767456e-01 3.348389e-01 -2.816319e-06 -3.392063e-05 2.008677e-05 -7.275492e-06 9.296265e-01 -1.342163e-01
1.472361e+08 9.780884e-01 3.342896e-01 -5.103648e-05 -2.231449e-06 -2.303161e-05 -5.638227e-06 9.384155e-01 -1.304321e-01
1.474549e+08 9.772949e-01 3.358154e-01 -3.410690e-05 -4.045852e-05 2.937205e-05 -2.025254e-05 9.443970e-01 -1.273193e-01
1.476736e+08 9.774780e-01 3.362427e-01 7.842667e-06 -1.358427e-05 2.805144e-05 9.937212e-06 9.503174e-01 -1.243286e-01
1.478923e+08 9.782715e-01 3.365479e-01 -9.499490e-06 -3.147125e-05 3.310665e-05 1.422875e-05 9.528198e-01 -1.206055e-01
1.481111e+08 9.793091e-01 3.372192e-01 -3.120676e-05 2.231263e-05 3.160723e-05 -4.436821e-06 9.562988e-01 -1.165771e-01
1.483298e+08 9.806519e-01 3.380127e-01 -4.176050e-06 9.178184e-06 -1.024455e-07 -2.446212e-05 9.571533e-01 -1.108398e-01
1.485485e+08 9.814453e-01 3.377075e-01 2.276897e-05 -3.283843e-05 1.244247e-05 4.887208e-05 9.586792e-01 -1.043701e-01
1.487672e+08 9.817505e-01 3.378906e-01 1.800898e-05 1.155399e-05 2.233498e-05 8.534640e-06 9.586792e-01 -9.887695e-02
1.489860e+08 9.819336e-01 3.387451e-01 3.845431e-06 -6.003771e-06 7.275492e-05 2.703816e-05 9.578857e-01 -9.039307e-02
1.492047e+08 9.825439e-01 3.395996e-01 2.506375e-05 5.876645e-06 1.232885e-05 2.442859e-05 9.580688e-01 -8.209229e-02
1.494234e+08 9.827271e-01 3.394775e-01 -1.480803e-06 -1.620874e-05 2.810359e-05 9.950250e-06 9.574585e-01 -7.214355e-02
1.496422e+08 9.834595e-01 3.405762e-01 -1.586881e-05 -1.679175e-06 -5.865470e-06 -2.589449e-05 9.572144e-01 -6.005859e-02
1.498609e+08 9.843140e-01 3.406982e-01 -1.504645e-05 2.085790e-05 5.261227e-05 9.890646e-06 9.577637e-01 -4.785156e-02
1.500796e+08 9.855347e-01 3.408813e-01 -7.866882e-06 1.362152e-05 1.811236e-05 2.585165e-05 9.598999e-01 -3.295898e-02
1.502984e+08 9.846191e-01 3.413086e-01 -2.493337e-05 2.300926e-05 -4.093722e-05 1.742318e-05 9.645996e-01 -1.904297e-02
1.505171e+08 9.868774e-01 3.414917e-01 -1.502503e-05 -9.631738e-06 -7.713586e-05 -9.741634e-06 9.688110e-01 -5.493164e-03
1.507358e+08 9.865112e-01 3.422241e-01 -2.143532e-05 2.019014e-05 2.218038e-05 -4.040822e-05 9.769897e-01 8.056641e-03
1.509546e+08 9.877930e-01 3.417969e-01 2.115965e-06 4.039146e-05 -6.377697e-06 2.596341e-05 9.863892e-01 1.855469e-02
1.511733e+08 9.875488e-01 3.430176e-01 6.752089e-07 -6.349757e-06 -2.741627e-05 -1.288019e-05 9.954224e-01 2.752686e-02
1.513920e+08 9.879761e-01 3.430176e-01 -2.910569e-05 1.726672e-06 -9.497628e-06 -3.598817e-05 1.004211e+00 3.411865e-02
1.516108e+08 9.890137e-01 3.437500e-01 -1.650304e-06 -1.462642e-05 -5.060341e-06 -4.310161e-06 1.010559e+00 3.826904e-02
1.518295e+08 9.899902e-01 3.434448e-01 -1.028925e-05 -5.412474e-05 1.225621e-05 -4.097819e-08 1.015137e+00 4.156494e-02
1.520482e+08 9.899902e-01 3.435059e-01 -1.928955e-05 3.008544e-05 4.258007e-06 -1.731701e-05 1.016724e+00 4.473877e-02
1.522670e+08 9.906006e-01 3.445435e-01 2.262928e-05 -3.133714e-05 -1.225993e-05 3.539026e-08 1.017944e+00 4.992676e-02
1.524857e+08 9.916382e-01 3.444214e-01 7.661991e-06 1.850724e-05 -1.297612e-05 2.925284e-06 1.016174e+00 5.712891e-02
1.527044e+08 9.924927e-01 3.437500e-01 -1.656078e-05 4.651025e-06 2.835877e-06 -1.155119e-05 1.016541e+00 6.567383e-02
1.529231e+08 9.918823e-01 3.448486e-01 1.170672e-05 1.089834e-05 -1.944974e-05 4.390255e-06 1.016846e+00 7.495117e-02
1.531419e+08 9.926147e-01 3.449707e-01 1.141895e-05 -1.647975e-05 -1.803599e-05 -1.387671e-06 1.019897e+00 8.587646e-02
1.533606e+08 9.942627e-01 3.455200e-01 2.495199e-05 7.506460e-06 -1.600571e-05 -3.458560e-05 1.024353e+00 9.613037e-02
1.535793e+08 9.947510e-01 3.455200e-01 -3.431924e-07 3.178371e-06 4.987791e-05 2.147630e-05 1.029053e+00 1.050415e-01
1.537981e+08 9.943237e-01 3.460693e-01 1.494959e-05 -1.930725e-05 -2.080575e-06 3.319047e-05 1.034729e+00 1.129761e-01
1.540168e+08 9.959106e-01 3.458252e-01 -1.814216e-06 -1.307018e-05 8.627772e-06 -1.013838e-05 1.039917e+00 1.177368e-01
1.542355e+08 9.963989e-01 3.460693e-01 3.216229e-05 2.440065e-07 -1.941249e-05 2.893806e-05 1.044739e+00 1.212769e-01
1.544543e+08 9.974365e-01 3.474121e-01 -1.314096e-05 3.241003e-05 1.378357e-06 -3.035180e-05 1.047363e+00 1.238403e-01
1.546730e+08 9.972534e-01 3.466797e-01 2.765097e-05 1.261383e-05 -4.484504e-05 -1.721829e-05 1.048096e+00 1.249390e-01
1.548917e+08 9.984741e-01 3.465576e-01 -7.574912e-06 1.045642e-05 -6.580725e-06 -2.311543e-05 1.047363e+00 1.263428e-01
1.551105e+08 9.983521e-01 3.468628e-01 -2.236106e-05 2.818927e-05 -1.434982e-05 3.328174e-05 1.046204e+00 1.293945e-01
1.553292e+08 9.995117e-01 3.465576e-01 -1.936592e-05 -2.946705e-05 -1.427252e-06 5.785841e-06 1.044128e+00 1.321411e-01
1.555479e+08 9.996948e-01 3.469238e-01 -1.325551e-05 3.394671e-06 -2.814084e-05 1.452118e-05 1.039612e+00 1.353760e-01
1.557666e+08 1.000671e+00 3.463135e-01 2.478808e-05 9.104609e-06 -2.457574e-05 7.078052e-08 1.035522e+00 1.391602e-01
1.559854e+08 9.997559e-01 3.463745e-01 -1.317263e-05 3.241748e-05 5.833805e-06 2.598390e-05 1.031982e+00 1.433105e-01
1.562041e+08 1.001587e+00 3.470459e-01 4.449114e-05 -2.423301e-05 6.505288e-06 -1.459848e-06 1.026428e+00 1.472168e-01
1.564228e+08 1.002197e+00 3.468628e-01 -3.100559e-05 -1.140684e-05 -3.038161e-05 -1.370907e-06 1.020813e+00 1.514282e-01
1.566416e+08 1.002136e+00 3.473511e-01 -3.506243e-05 -3.777444e-06 -3.110431e-05 1.512468e-06 1.014954e+00 1.567993e-01
1.568603e+08 1.002380e+00 3.472290e-01 2.315640e-05 -5.550683e-06 -6.148592e-05 1.043081e-07 1.006592e+00 1.643677e-01
1.570790e+08 1.003113e+00 3.460693e-01 2.789684e-05 -1.956895e-05 7.933471e-06 -7.257797e-06 1.000305e+00 1.721191e-01
1.572978e+08 1.003967e+00 3.464966e-01 2.214499e-05 4.008412e-06 -3.111362e-05 1.523644e-06 9.932251e-01 1.810913e-01
1.575165e+08 1.004700e+00 3.463745e-01 -2.162158e-05 -8.800067e-06 -4.343316e-05 1.564622e-06 9.891357e-01 1.925049e-01
1.577352e+08 1.005371e+00 3.460083e-01 -4.816428e-05 -1.978129e-06 5.649030e-05 2.010167e-05 9.862671e-01 2.032471e-01
1.579540e+08 1.005798e+00 3.459473e-01 -3.060326e-05 1.444481e-05 -1.009088e-05 1.594890e-05 9.856567e-01 2.128296e-01
1.581727e+08 1.005920e+00 3.464355e-01 5.863607e-06 5.479436e-06 2.460554e-05 -5.774200e-08 9.862671e-01 2.206421e-01
1.583914e+08 1.005859e+00 3.463135e-01 -4.994497e-05 1.396611e-05 2.465397e-05 2.457015e-05 9.876099e-01 2.247925e-01
1.586102e+08 1.006409e+00 3.462524e-01 -2.956763e-05 4.839152e-06 2.158340e-06 -8.692034e-06 9.880371e-01 2.257080e-01
1.588289e+08 1.007690e+00 3.458862e-01 9.857118e-06 -3.121980e-05 -2.104230e-05 -1.445040e-05 9.868774e-01 2.244873e-01
1.590476e+08 1.008911e+00 3.459473e-01 5.517621e-06 8.676667e-06 2.537481e-05 -2.950430e-06 9.797363e-01 2.208252e-01
1.592664e+08 1.008240e+00 3.453369e-01 -1.654401e-05 -2.603419e-05 -4.361849e-06 -7.237308e-06 9.698486e-01 2.165527e-01
1.594851e+08 1.008728e+00 3.454590e-01 1.179241e-05 4.004128e-05 -1.879781e-05 2.612360e-05 9.558105e-01 2.158203e-01
1.597038e+08 1.008728e+00 3.445435e-01 -2.503954e-05 -7.566065e-06 3.540888e-06 -3.912300e-05 9.400024e-01 2.174683e-01
1.599225e+08 1.009460e+00 3.442383e-01 -1.363549e-05 6.597489e-06 3.773533e-05 2.166070e-05 9.216309e-01 2.222900e-01
1.601413e+08 1.008728e+00 3.452759e-01 -1.897477e-05 -3.677793e-06 1.811422e-05 1.417473e-06 9.046631e-01 2.319336e-01
1.603600e+08 1.009705e+00 3.455200e-01 5.371869e-06 -4.949421e-05 -2.248026e-05 -8.668751e-06 8.889160e-01 2.439575e-01
1.605787e+08 1.010681e+00 3.446655e-01 1.984928e-05 -4.310161e-06 2.392940e-05 2.859160e-06 8.739624e-01 2.584839e-01
1.607975e+08 1.011230e+00 3.439941e-01 -6.214250e-06 -2.298038e-06 1.520012e-05 -1.163501e-05 8.620605e-01 2.745361e-01
1.610162e+08 1.011963e+00 3.433838e-01 -3.637187e-05 7.355586e-06 -1.598243e-05 -1.011975e-05 8.531494e-01 2.900391e-01
1.612349e+08 1.011597e+00 3.436890e-01 -1.010671e-05 3.747176e-06 1.308322e-05 2.173148e-05 8.461304e-01 3.060913e-01
1.614537e+08 1.012634e+00 3.435059e-01 2.289377e-05 -2.352521e-06 -2.683885e-05 8.746982e-06 8.408203e-01 3.222046e-01
1.616724e+08 1.012878e+00 3.431396e-01 6.938353e-07 -6.398652e-06 7.217750e-07 -2.903864e-06 8.356323e-01 3.366699e-01
1.618911e+08 1.013733e+00 3.433228e-01 -2.153683e-06 -9.946525e-06 1.887977e-05 -1.474284e-06 8.325806e-01 3.513794e-01
1.621099e+08 1.013000e+00 3.420410e-01 -2.150983e-05 -1.044851e-05 1.732633e-05 -4.503503e-05 8.302002e-01 3.643799e-01
1.623286e+08 1.013611e+00 3.430176e-01 3.817491e-05 5.770475e-06 3.559142e-05 5.766749e-06 8.277588e-01 3.766479e-01
1.625473e+08 1.013672e+00 3.417969e-01 1.226552e-05 6.192364e-06 -4.279986e-05 2.331659e-05 8.278198e-01 3.880005e-01
1.627660e+08 1.014954e+00 3.414917e-01 -2.773106e-05 -1.275353e-05 -1.889560e-05 1.492910e-06 8.280029e-01 3.988037e-01
1.629848e+08 1.014404e+00 3.412476e-01 -6.970018e-06 -2.504513e-05 -1.960155e-05 4.381873e-06 8.300781e-01 4.079590e-01
1.632035e+08 1.014587e+00 3.406372e-01 2.327375e-05 -5.537644e-06 -5.812850e-06 -1.442153e-06 8.315430e-01 4.146118e-01
1.634222e+08 1.015259e+00 3.413696e-01 -5.697366e-06 -7.104594e-06 1.235399e-05 -3.725290e-09 8.314209e-01 4.182129e-01
1.636410e+08 1.016113e+00 3.402100e-01 -1.472514e-05 1.619291e-05 5.667284e-05 -2.913922e-05 8.293457e-01 4.185181e-01
1.638597e+08 1.014099e+00 3.399658e-01 2.856925e-05 -2.441369e-05 1.524296e-05 -1.162849e-05 8.244629e-01 4.192505e-01
1.640784e+08 1.015320e+00 3.385010e-01 1.100451e-05 -1.173932e-05 2.755411e-05 -3.637932e-05 8.170776e-01 4.202271e-01
1.642972e+08 1.015198e+00 3.385010e-01 1.017936e-05 2.540462e-05 7.227063e-07 -2.907822e-06 8.049316e-01 4.224854e-01
1.645159e+08 1.015320e+00 3.376465e-01 1.973845e-05 -2.701767e-06 -3.561378e-05 -5.749986e-06 7.917480e-01 4.275513e-01
1.647346e+08 1.015747e+00 3.387451e-01 -1.971610e-06 -1.156051e-05 -7.994939e-06 7.275958e-06 7.778931e-01 4.363403e-01
1.649534e+08 1.016052e+00 3.369141e-01 -1.009554e-06 3.878772e-05 1.236144e-05 -2.235174e-08 7.642822e-01 4.489136e-01
1.651721e+08 1.016479e+00 3.369141e-01 -2.136640e-05 -1.206249e-05 8.713454e-06 -1.019984e-05 7.507935e-01 4.641724e-01
1.653908e+08 1.016052e+00 3.369141e-01 -1.199916e-05 -3.861077e-05 -2.839044e-05 -3.486127e-05 7.410278e-01 4.818726e-01
1.656096e+08 1.016113e+00 3.363647e-01 -7.320195e-06 -2.187677e-05 7.241033e-07 -2.910616e-06 7.352905e-01 5.003052e-01
1.658283e+08 1.017273e+00 3.363037e-01 -2.206676e-05 -5.682930e-06 5.028769e-05 4.655123e-05 7.315674e-01 5.187988e-01
1.660470e+08 1.016174e+00 3.360596e-01 -1.834985e-05 -1.012255e-05 2.836622e-05 -1.456030e-05 7.316895e-01 5.360718e-01
1.662658e+08 1.016724e+00 3.353882e-01 5.589798e-06 3.791973e-05 -1.528207e-05 1.165271e-05 7.335205e-01 5.515747e-01
1.664845e+08 1.016357e+00 3.341675e-01 -5.127490e-05 -5.617738e-06 -1.968816e-05 -4.509464e-05 7.367554e-01 5.654907e-01
1.667032e+08 1.016541e+00 3.341675e-01 -3.912020e-06 6.063376e-06 -1.892727e-05 1.469627e-06 7.395020e-01 5.761108e-01
1.669219e+08 1.016418e+00 3.341064e-01 1.471490e-07 -3.078580e-05 6.549060e-06 -1.462176e-06 7.429199e-01 5.850830e-01
1.671407e+08 1.016663e+00 3.337402e-01 2.047326e-05 -9.112991e-06 -2.048910e-08 -2.476014e-05 7.427368e-01 5.908813e-01
1.673594e+08 1.017029e+00 3.338623e-01 5.527865e-06 8.713920e-06 -2.985448e-05 4.520267e-05 7.434692e-01 5.983276e-01
1.675781e+08 1.017029e+00 3.333740e-01 -8.575618e-06 -3.987364e-05 -1.749955e-05 -4.366972e-06 7.418823e-01 6.036987e-01
1.677969e+08 1.016113e+00 3.330078e-01 1.393072e-05 2.101623e-05 -2.695620e-05 8.748844e-06 7.410278e-01 6.098022e-01
1.680156e+08 1.016541e+00 3.319702e-01 2.778135e-05 -1.644157e-05 -2.697669e-05 -1.600757e-05 7.391357e-01 6.161499e-01
1.682343e+08 1.015625e+00 3.308105e-01 -4.101545e-05 -1.099706e-05 1.385994e-05 1.890678e-05 7.363281e-01 6.215820e-01
1.684531e+08 1.015381e+00 3.306885e-01 -1.459569e-05 1.461990e-05 4.513934e-05 -7.305294e-06 7.312622e-01 6.272583e-01
1.686718e+08 1.015991e+00 3.308716e-01 1.052395e-05 -3.618188e-05 6.558374e-06 -1.457054e-06 7.260132e-01 6.326904e-01
1.688905e+08 1.015320e+00 3.301392e-01 -2.622046e-05 1.983717e-06 2.905726e-06 -3.642589e-05 7.196045e-01 6.390991e-01
1.691093e+08 1.015503e+00 3.303223e-01 -2.676621e-05 -2.244860e-05 1.895521e-05 -1.447275e-06 7.105408e-01 6.465454e-01
1.693280e+08 1.014587e+00 3.295288e-01 -3.405102e-05 1.414120e-05 -1.467764e-06 -4.372373e-05 7.019958e-01 6.561279e-01
1.695467e+08 1.014954e+00 3.287964e-01 -2.230518e-05 -4.095957e-06 2.187863e-05 1.165271e-05 6.941223e-01 6.684265e-01
1.697654e+08 1.014343e+00 3.287354e-01 2.857996e-06 3.565336e-06 2.915040e-06 -1.166761e-05 6.866760e-01 6.830750e-01
1.699842e+08 1.015259e+00 3.284912e-01 5.899463e-06 5.526468e-06 -3.357977e-05 -1.459941e-05 6.798096e-01 6.998291e-01
1.702029e+08 1.014954e+00 3.283081e-01 7.130671e-06 -5.706213e-06 7.208437e-07 2.190284e-05 6.776123e-01 7.168579e-01
1.704216e+08 1.014404e+00 3.263550e-01 -5.000271e-06 -1.354888e-05 1.971051e-05 2.040155e-05 6.781006e-01 7.349243e-01
1.706404e+08 1.013977e+00 3.264771e-01 3.605336e-05 -2.495944e-06 1.531653e-05 -1.167413e-05 6.828003e-01 7.495117e-01
1.708591e+08 1.014404e+00 3.257446e-01 -2.839975e-05 2.124906e-05 -8.758157e-06 -1.459755e-05 6.900024e-01 7.616577e-01
1.710778e+08 1.012512e+00 3.255615e-01 1.070090e-06 -9.640120e-06 -3.865175e-05 -1.898035e-05 6.970825e-01 7.693481e-01
1.712966e+08 1.012512e+00 3.249512e-01 4.283153e-06 2.001133e-05 3.210083e-05 2.043694e-05 7.034912e-01 7.731934e-01
1.715153e+08 1.012878e+00 3.251343e-01 -1.410767e-05 9.828247e-06 2.927147e-06 -1.168251e-05 7.072754e-01 7.723999e-01
1.717340e+08 1.012329e+00 3.239136e-01 3.035925e-05 -9.620562e-06 -1.314469e-05 -2.190284e-05 7.074585e-01 7.691650e-01
1.719528e+08 1.011963e+00 3.233032e-01 3.551692e-05 2.313405e-06 2.701208e-05 -8.773059e-06 7.026978e-01 7.689819e-01
1.721715e+08 1.010559e+00 3.229370e-01 5.361624e-06 1.036469e-05 -2.919696e-06 1.167413e-05 6.964722e-01 7.677612e-01
1.723902e+08 1.012573e+00 3.224487e-01 6.794464e-06 -2.501998e-06 7.316470e-06 2.047233e-05 6.863403e-01 7.702637e-01
1.726090e+08 1.010559e+00 3.226929e-01 -4.113279e-05 1.822598e-05 -1.313165e-05 -2.192520e-05 6.752930e-01 7.761841e-01
1.728277e+08 1.010376e+00 3.225098e-01 -1.447741e-05 -1.626555e-05 -9.498559e-06 -1.170300e-05 6.658325e-01 7.830200e-01
1.730464e+08 1.010132e+00 3.215942e-01 4.993752e-06 4.291162e-05 1.972727e-05 2.045557e-05 6.575317e-01 7.932129e-01
1.732652e+08 1.009338e+00 3.215332e-01 1.895521e-05 5.364418e-06 -6.577931e-06 1.457054e-06 6.506348e-01 8.033447e-01
1.734839e+08 1.008972e+00 3.208008e-01 3.574789e-05 7.227063e-07 -1.171231e-05 2.191216e-05 6.464844e-01 8.154907e-01
1.737026e+08 1.009644e+00 3.205566e-01 1.197122e-05 -1.983996e-05 4.386529e-06 7.316004e-06 6.440430e-01 8.235474e-01
1.739213e+08 1.008728e+00 3.202515e-01 1.717173e-05 -7.860363e-06 -5.863607e-06 2.339669e-05 6.415405e-01 8.310547e-01
1.741401e+08 1.007568e+00 3.192749e-01 2.486818e-05 -1.843832e-05 -2.630800e-05 -1.901202e-05 6.406860e-01 8.373413e-01
1.743588e+08 1.008423e+00 3.192139e-01 2.825260e-05 3.899261e-05 3.655441e-06 1.024827e-05 6.369019e-01 8.450317e-01
1.745775e+08 1.007263e+00 3.189697e-01 1.219008e-05 -2.148096e-05 2.189539e-06 1.609325e-05 6.343994e-01 8.475342e-01
1.747963e+08 1.006104e+00 3.194580e-01 3.555790e-06 2.649240e-05 -8.763745e-06 -1.464691e-05 6.307983e-01 8.545532e-01
1.750150e+08 1.005859e+00 3.186035e-01 -8.068047e-06 1.376867e-05 3.440492e-05 -1.315214e-05 6.273193e-01 8.545532e-01
1.752337e+08 1.005859e+00 3.184814e-01 -1.915917e-05 -3.768131e-06 1.978129e-05 -4.379079e-06 6.258545e-01 8.560181e-01
1.754525e+08 1.004272e+00 3.170166e-01 2.758577e-05 -1.324899e-05 -2.049096e-05 -1.756288e-05 6.227417e-01 8.623657e-01
1.756712e+08 1.004517e+00 3.179321e-01 -2.059713e-05 9.115785e-06 3.073923e-05 2.638809e-05 6.192627e-01 8.621826e-01
1.758899e+08 1.003723e+00 3.176270e-01 3.312156e-05 -4.477799e-06 5.926564e-05 3.670156e-05 6.163330e-01 8.654175e-01
1.761087e+08 1.003723e+00 3.167725e-01 1.360755e-05 -5.000271e-06 1.319032e-05 -2.917834e-06 6.119385e-01 8.641968e-01
1.763274e+08 1.003235e+00 3.166504e-01 -1.881178e-05 -6.995164e-06 7.366762e-07 -2.930639e-06 6.067505e-01 8.645630e-01
1.765461e+08 1.001099e+00 3.157959e-01 1.486577e-05 1.308694e-05 5.052611e-05 -2.890825e-06 5.992432e-01 8.621826e-01
1.767648e+08 1.000916e+00 3.159790e-01 -1.020916e-05 -2.563931e-05 1.318939e-05 -2.915040e-06 5.894775e-01 8.626099e-01
1.769836e+08 1.000061e+00 3.158569e-01 -3.585592e-07 3.225869e-06 -2.635643e-05 -1.907535e-05 5.800171e-01 8.640747e-01
1.772023e+08 1.000366e+00 3.148804e-01 2.080481e-05 -1.074187e-05 3.666617e-05 2.952293e-06 5.711060e-01 8.668213e-01
1.774210e+08 9.996338e-01 3.151855e-01 -4.664995e-06 1.254119e-05 -2.946705e-06 1.173187e-05 5.643921e-01 8.721313e-01
1.776398e+08 9.998779e-01 3.151855e-01 2.335757e-06 3.786199e-05 7.316470e-06 2.056733e-05 5.584717e-01 8.769531e-01
1.778585e+08 9.990845e-01 3.141479e-01 1.614355e-05 1.802109e-06 -5.120412e-06 -2.936274e-05 5.550537e-01 8.808594e-01
1.780772e+08 9.979248e-01 3.139038e-01 -2.989359e-05 -1.117028e-05 4.427508e-06 3.191642e-05 5.551147e-01 8.817139e-01
1.782960e+08 9.968872e-01 3.136597e-01 2.972782e-05 -8.698553e-07 -1.357868e-05 -2.282672e-05 5.555420e-01 8.803101e-01
1.785147e+08 9.955444e-01 3.135986e-01 3.186055e-06 1.367880e-06 3.544241e-05 1.562946e-05 5.548096e-01 8.748779e-01
1.787334e+08 9.953003e-01 3.134766e-01 -6.037951e-05 -1.367554e-05 2.924912e-05 -2.173893e-05 5.502930e-01 8.665161e-01
1.789522e+08 9.946899e-01 3.134766e-01 -1.271814e-05 -5.479902e-06 -8.174218e-06 -6.416813e-06 5.439453e-01 8.551636e-01
1.791709e+08 9.938965e-01 3.127441e-01 1.597963e-05 -3.386848e-05 4.650280e-05 -6.180257e-06 5.316772e-01 8.429565e-01
1.793896e+08 9.928589e-01 3.136597e-01 -9.315088e-06 -2.054870e-05 -3.995001e-05 -2.937764e-05 5.167236e-01 8.325195e-01
1.796084e+08 9.934082e-01 3.130493e-01 -2.633408e-05 -1.424178e-05 5.761534e-05 -2.801791e-05 4.980469e-01 8.258667e-01
1.798271e+08 9.920654e-01 3.131104e-01 1.451001e-05 2.426654e-05 -2.102554e-05 9.929761e-06 4.785156e-01 8.229980e-01
1.800458e+08 9.906616e-01 3.125610e-01 -2.833083e-06 -5.727168e-06 -2.723001e-05 -2.747588e-05 4.576416e-01 8.216553e-01
1.802646e+08 9.907837e-01 3.121948e-01 -1.561269e-05 2.950616e-05 1.751259e-05 -3.915094e-05 4.403687e-01 8.247681e-01
1.804833e+08 9.901733e-01 3.125610e-01 -1.992285e-05 -5.222857e-05 -2.615154e-06 -2.649426e-05 4.234009e-01 8.308105e-01
1.807020e+08 9.882202e-01 3.123169e-01 2.599321e-05 -2.208725e-05 4.027039e-05 -2.533942e-05 4.096680e-01 8.358765e-01
1.809207e+08 9.884644e-01 3.120728e-01 2.706610e-05 -3.521517e-05 -2.276525e-05 -1.380965e-05 3.964844e-01 8.392334e-01
1.811395e+08 9.873047e-01 3.119507e-01 -1.241826e-05 3.089756e-05 -3.921986e-05 -8.409843e-06 3.852539e-01 8.444824e-01
1.813582e+08 9.867554e-01 3.122559e-01 -3.522821e-05 1.364760e-05 -1.656823e-05 2.365932e-05 3.751831e-01 8.474121e-01
1.815769e+08 9.862671e-01 3.117065e-01 -1.223013e-05 5.516037e-05 -3.516674e-06 -2.924539e-05 3.634644e-01 8.494873e-01
1.817957e+08 9.846191e-01 3.120728e-01 7.618219e-06 5.460903e-05 -8.013099e-06 -4.294887e-05 3.527832e-01 8.510742e-01
1.820144e+08 9.837036e-01 3.123169e-01 -2.152380e-05 -6.183051e-06 1.556799e-05 -8.126721e-06 3.419189e-01 8.538208e-01
1.822331e+08 9.837036e-01 3.126221e-01 -2.379902e-05 7.962808e-06 -8.990988e-06 -2.746843e-05 3.305054e-01 8.562622e-01
1.824519e+08 9.820557e-01 3.120117e-01 -3.064796e-05 -2.527609e-06 -4.499219e-06 -1.372118e-05 3.200684e-01 8.593140e-01
1.826706e+08 9.816284e-01 3.120117e-01 -1.362339e-05 -6.173551e-05 4.932657e-05 2.089888e-06 3.098755e-01 8.616333e-01
1.828893e+08 9.812622e-01 3.117065e-01 -1.373515e-05 1.980830e-05 -1.540966e-05 -2.839975e-05 3.020020e-01 8.649902e-01
1.831081e+08 9.801636e-01 3.109741e-01 -1.030555e-05 4.662666e-06 2.383813e-05 -1.999736e-05 2.936401e-01 8.645020e-01
1.833268e+08 9.800415e-01 3.118286e-01 -1.925789e-05 -2.031773e-05 -2.280064e-05 -1.381896e-05 2.855225e-01 8.638306e-01
1.835455e+08 9.786987e-01 3.123169e-01 -1.386832e-05 7.677823e-06 -4.598405e-06 4.547182e-06 2.769775e-01 8.638306e-01
1.837642e+08 9.780273e-01 3.129272e-01 1.349207e-05 -3.299676e-06 1.448393e-05 2.568960e-05 2.639160e-01 8.601074e-01
1.839830e+08 9.769897e-01 3.120728e-01 -7.381663e-06 2.255663e-05 -2.585351e-05 5.107373e-05 2.508545e-01 8.588867e-01
1.842017e+08 9.762573e-01 3.125610e-01 -3.598444e-05 -1.839176e-05 -1.537986e-05 -2.845004e-05 2.334595e-01 8.563843e-01
1.844204e+08 9.759521e-01 3.120117e-01 -3.340282e-05 3.874302e-06 1.261383e-05 3.849529e-05 2.152710e-01 8.577881e-01
1.846392e+08 9.752808e-01 3.123169e-01 -2.784096e-05 3.224239e-06 2.731942e-05 2.759509e-05 1.965332e-01 8.605957e-01
1.848579e+08 9.744263e-01 3.129272e-01 -3.279373e-05 -7.001311e-05 -2.719462e-05 -4.594028e-05 1.791382e-01 8.681641e-01
1.850766e+08 9.735718e-01 3.129883e-01 -2.572313e-05 1.771003e-05 1.572073e-05 -2.645887e-05 1.621704e-01 8.770142e-01
1.852954e+08 9.721680e-01 3.127441e-01 2.356805e-05 8.568168e-06 -4.412979e-05 3.268570e-05 1.470947e-01 8.900146e-01
1.855141e+08 9.712524e-01 3.128662e-01 -9.588432e-06 -4.103873e-06 4.130974e-05 -2.264604e-05 1.380005e-01 9.016113e-01
1.857328e+08 9.708862e-01 3.128052e-01 2.108514e-05 -1.572073e-06 -1.632981e-05 -3.123283e-05 1.299438e-01 9.151611e-01
1.859516e+08 9.694824e-01 3.128662e-01 1.131929e-05 2.298877e-05 -1.921505e-05 -2.854504e-06 1.250000e-01 9.248657e-01
1.861703e+08 9.686890e-01 3.126831e-01 -1.974218e-05 -2.811849e-05 -4.509464e-06 -1.375936e-05 1.212158e-01 9.321899e-01
1.863890e+08 9.674683e-01 3.132324e-01 -1.846626e-05 -1.697056e-05 -1.470651e-05 1.090951e-05 1.191406e-01 9.387817e-01
1.866078e+08 9.670410e-01 3.135376e-01 1.388695e-05 -7.689930e-06 4.926696e-05 3.872812e-05 1.140747e-01 9.400024e-01
1.868265e+08 9.665527e-01 3.137207e-01 4.930422e-06 2.029911e-05 2.463907e-05 1.938082e-05 1.094971e-01 9.416504e-01
1.870452e+08 9.653320e-01 3.137817e-01 2.166908e-05 1.834240e-05 1.001265e-05 1.196470e-05 1.022949e-01 9.417725e-01
1.872640e+08 9.647217e-01 3.145142e-01 -2.266653e-05 6.943941e-06 3.114343e-05 2.015382e-06 9.118652e-02 9.443970e-01
1.874827e+08 9.639893e-01 3.150635e-01 -1.298636e-05 2.322719e-05 -4.608184e-06 4.558824e-06 8.062744e-02 9.461060e-01
1.877014e+08 9.633789e-01 3.153076e-01 -8.689240e-06 1.144223e-05 -1.804903e-06 -5.511567e-06 7.128906e-02 9.481812e-01
1.879201e+08 9.617310e-01 3.153687e-01 -1.006108e-05 -1.187809e-05 -9.212643e-06 9.115320e-06 5.987549e-02 9.525146e-01
1.881389e+08 9.606934e-01 3.154297e-01 -2.678856e-05 -9.976327e-06 -4.697964e-05 4.278868e-05 4.901123e-02 9.563599e-01
1.883576e+08 9.605713e-01 3.161011e-01 2.542697e-05 -1.336448e-05 3.128126e-05 -1.630001e-05 3.820801e-02 9.619751e-01
1.885763e+08 9.595337e-01 3.165283e-01 -1.480896e-05 -7.851049e-06 1.912750e-05 2.121367e-05 2.770996e-02 9.667358e-01
1.887951e+08 9.585571e-01 3.161011e-01 -2.964400e-05 -1.572631e-05 -1.001451e-05 -1.197588e-05 1.489258e-02 9.718018e-01
1.890138e+08 9.578857e-01 3.164673e-01 4.418194e-06 5.345419e-05 -3.365055e-05 -4.697591e-05 2.929688e-03 9.765015e-01
1.892325e+08 9.567871e-01 3.170166e-01 1.107156e-05 -1.345016e-05 2.385117e-05 -1.691282e-06 -1.019287e-02 9.857178e-01
1.894513e+08 9.563599e-01 3.182373e-01 9.791926e-06 2.847053e-05 2.221725e-10 -4.371827e-10 -2.154541e-02 9.965820e-01
1.896700e+08 9.559326e-01 3.184204e-01 -1.483411e-05 -6.099418e-05 -1.295935e-05 1.643971e-05 -3.302002e-02 1.009827e+00
1.898887e+08 9.545898e-01 3.181763e-01 -5.489215e-06 1.281593e-05 3.781915e-05 -3.371015e-05 -3.948975e-02 1.023987e+00
1.901075e+08 9.545288e-01 3.183594e-01 3.129616e-05 2.248958e-05 -1.092907e-05 -1.475587e-05 -4.345703e-02 1.038147e+00
1.903262e+08 9.527588e-01 3.187866e-01 5.311333e-06 1.592468e-05 6.415881e-06 9.573996e-07 -4.296875e-02 1.053650e+00
1.905449e+08 9.522705e-01 3.188477e-01 1.950562e-05 -8.324161e-06 1.925696e-05 2.865680e-06 -3.723145e-02 1.065430e+00
1.907636e+08 9.514160e-01 3.195801e-01 4.230253e-05 -3.097579e-06 3.478862e-05 1.306646e-05 -3.015137e-02 1.070618e+00
1.909824e+08 9.501953e-01 3.197632e-01 -2.726540e-05 -1.775101e-05 -3.470667e-05 -3.140606e-05 -2.209473e-02 1.074890e+00
1.912011e+08 9.497070e-01 3.208008e-01 -4.686415e-06 -3.687665e-05 5.757809e-05 4.535541e-05 -1.617432e-02 1.069641e+00
1.914198e+08 9.488525e-01 3.203735e-01 2.316572e-05 8.270144e-07 -6.422400e-06 -9.527430e-07 -1.184082e-02 1.060608e+00
1.916386e+08 9.484253e-01 3.211670e-01 -7.798895e-06 -2.610683e-05 1.805369e-06 5.521346e-06 -1.287842e-02 1.053467e+00
1.918573e+08 9.472046e-01 3.220215e-01 -8.704141e-06 -4.170276e-05 -3.043003e-05 1.909398e-05 -1.971436e-02 1.041687e+00
1.920760e+08 9.472656e-01 3.222656e-01 7.141382e-06 -6.045215e-06 -5.527399e-06 1.800712e-06 -2.935791e-02 1.032593e+00
1.922948e+08 9.462280e-01 3.217773e-01 1.537800e-05 -2.528168e-05 -3.483519e-05 -1.305901e-05 -4.205322e-02 1.026001e+00
1.925135e+08 9.453125e-01 3.230591e-01 1.199543e-06 -5.415082e-05 -2.853200e-05 6.256625e-06 -5.596924e-02 1.022644e+00
1.927322e+08 9.443359e-01 3.236084e-01 9.182841e-07 1.557637e-05 -6.183982e-06 -3.771856e-05 -6.884766e-02 1.023132e+00
1.929510e+08 9.436646e-01 3.244019e-01 -7.237773e-06 -6.139744e-06 -1.928490e-05 -2.887100e-06 -8.148193e-02 1.025269e+00
1.931697e+08 9.425659e-01 3.240356e-01 -4.870072e-05 1.255050e-05 4.880875e-05 -1.899898e-05 -9.216309e-02 1.023132e+00
1.933884e+08 9.420166e-01 3.258667e-01 -2.990477e-05 -4.016981e-05 -1.105573e-05 3.602356e-06 -1.032104e-01 1.027893e+00
1.936072e+08 9.413452e-01 3.264160e-01 2.007745e-05 1.163594e-05 3.394298e-05 1.034886e-05 -1.091919e-01 1.027405e+00
1.938259e+08 9.402466e-01 3.266602e-01 -4.931912e-05 -1.964346e-05 -1.645274e-05 -1.298171e-05 -1.181030e-01 1.026245e+00
1.940446e+08 9.403687e-01 3.267822e-01 -1.838431e-06 2.200902e-05 1.136214e-06 -3.402494e-05 -1.287842e-01 1.026550e+00
1.942634e+08 9.389038e-01 3.272705e-01 -1.760665e-05 -1.489185e-06 -2.481230e-05 -1.076609e-06 -1.358032e-01 1.024658e+00
1.944821e+08 9.391479e-01 3.280029e-01 4.690140e-06 -1.623016e-05 -1.693144e-06 -2.393499e-05 -1.461792e-01 1.023499e+00
1.947008e+08 9.370728e-01 3.295288e-01 -7.420778e-06 -3.052503e-05 -3.318116e-05 1.077354e-05 -1.535645e-01 1.024780e+00
1.949195e+08 9.368286e-01 3.298340e-01 -6.505288e-06 -1.497753e-05 8.095056e-06 2.489239e-05 -1.626587e-01 1.025085e+00
1.951383e+08 9.357910e-01 3.297729e-01 1.008715e-05 1.193583e-05 1.953915e-05 -3.389269e-05 -1.691895e-01 1.025269e+00
1.953570e+08 9.354248e-01 3.306885e-01 -3.490597e-06 1.522433e-05 -4.142523e-05 4.313886e-06 -1.738281e-01 1.024475e+00
1.955757e+08 9.340820e-01 3.306274e-01 3.063865e-05 -2.179854e-05 5.527865e-06 -1.803506e-06 -1.795044e-01 1.023560e+00
1.957945e+08 9.345093e-01 3.316650e-01 -3.970228e-05 -1.554750e-05 -2.688542e-05 3.019162e-05 -1.844482e-01 1.018372e+00
1.960132e+08 9.332275e-01 3.324585e-01 -4.158542e-05 6.476417e-06 -5.254522e-06 -3.499910e-05 -1.902466e-01 1.012939e+00
1.962319e+08 9.324951e-01 3.323364e-01 9.343028e-06 2.074055e-05 7.577240e-06 -3.307685e-05 -1.974487e-01 1.005920e+00
1.964507e+08 9.311523e-01 3.341064e-01 -9.997748e-06 2.710149e-07 -2.828613e-05 -3.057159e-05 -2.061157e-01 9.983521e-01
1.966694e+08 9.313354e-01 3.342285e-01 -3.291294e-06 -1.358427e-05 2.831221e-06 -1.010951e-05 -2.159424e-01 9.908447e-01
1.968881e+08 9.295044e-01 3.341675e-01 3.366359e-05 8.368865e-06 -4.244596e-05 1.993775e-05 -2.301636e-01 9.877319e-01
1.971069e+08 9.295044e-01 3.353271e-01 6.789807e-06 -1.645181e-06 -9.266660e-06 9.138137e-06 -2.443848e-01 9.849854e-01
1.973256e+08 9.290771e-01 3.359985e-01 3.659632e-06 9.171199e-06 -1.017656e-05 6.368384e-06 -2.566528e-01 9.847412e-01
1.975443e+08 9.280396e-01 3.370972e-01 -1.892541e-05 -1.269486e-05 2.125092e-05 -9.959564e-06 -2.633057e-01 9.866333e-01
1.977630e+08 9.278564e-01 3.372192e-01 2.493523e-05 1.985580e-05 -8.111820e-06 -2.492219e-05 -2.723389e-01 9.880371e-01
1.979818e+08 9.267578e-01 3.386841e-01 -6.400049e-06 6.271526e-05 -2.548099e-06 -2.672710e-05 -2.755127e-01 9.880981e-01
1.982005e+08 9.260864e-01 3.383179e-01 -3.351830e-05 1.602434e-05 -3.103167e-06 4.692748e-05 -2.753906e-01 9.871216e-01
1.984192e+08 9.255981e-01 3.397217e-01 -6.877817e-06 -1.057563e-05 2.411008e-05 -2.007373e-05 -2.762451e-01 9.814453e-01
1.986380e+08 9.254761e-01 3.402710e-01 9.559095e-06 -8.072238e-06 2.860650e-05 -6.232411e-06 -2.773438e-01 9.732056e-01
1.988567e+08 9.245605e-01 3.401489e-01 6.801914e-06 -1.647510e-06 2.098456e-05 2.685003e-05 -2.803345e-01 9.607544e-01
1.990754e+08 9.232788e-01 3.416138e-01 -6.263144e-06 2.168771e-05 -2.048165e-05 3.112480e-05 -2.845459e-01 9.487305e-01
1.992942e+08 9.231567e-01 3.428345e-01 -3.671274e-05 -3.868900e-05 -1.107343e-05 3.598630e-06 -2.935791e-01 9.354248e-01
1.995129e+08 9.220581e-01 3.432007e-01 1.195236e-06 -1.009670e-06 -3.710017e-05 3.652461e-05 -3.039551e-01 9.224854e-01
1.997316e+08 9.219360e-01 3.432617e-01 -8.819625e-06 -7.497147e-07 -3.334880e-05 2.921373e-05 -3.168335e-01 9.136963e-01
1.999504e+08 9.223633e-01 3.444824e-01 -5.509704e-05 -3.133714e-05 -1.801644e-06 -5.544629e-06 -3.270264e-01 9.060669e-01
2.001691e+08 9.205933e-01 3.449097e-01 -1.688860e-05 -1.030602e-05 1.168437e-05 3.599003e-05 -3.400269e-01 8.976440e-01
2.003878e+08 9.208984e-01 3.459473e-01 -1.715496e-06 -1.902319e-05 -3.070012e-05 3.754720e-05 -3.513184e-01 8.912354e-01
2.006066e+08 9.201050e-01 3.464966e-01 7.078052e-08 1.221895e-05 -6.585382e-06 1.745299e-05 -3.632812e-01 8.843994e-01
2.008253e+08 9.184570e-01 3.472290e-01 -2.879463e-05 1.199171e-05 6.289221e-06 1.938082e-05 -3.709717e-01 8.787842e-01
2.010440e+08 9.191895e-01 3.486938e-01 -4.419126e-07 -7.813796e-06 -2.741814e-05 -2.788752e-05 -3.803711e-01 8.731079e-01
2.012628e+08 9.180908e-01 3.485107e-01 -7.250346e-06 -6.166287e-06 -3.082678e-05 5.594268e-05 -3.901978e-01 8.641357e-01
2.014815e+08 9.179077e-01 3.492432e-01 6.612390e-08 1.222175e-05 3.609434e-05 -2.092309e-05 -3.992310e-01 8.574219e-01
2.017002e+08 9.169312e-01 3.496704e-01 3.604032e-05 -5.796552e-06 -9.413809e-06 2.757274e-05 -4.093628e-01 8.526611e-01
2.019189e+08 9.164429e-01 3.505859e-01 -1.062267e-05 -3.201701e-05 1.274422e-05 2.036802e-05 -4.194946e-01 8.482056e-01
2.021377e+08 9.159546e-01 3.522949e-01 3.790483e-06 3.365800e-05 3.672391e-05 1.874194e-05 -4.281616e-01 8.434448e-01
2.023564e+08 9.149170e-01 3.526611e-01 -5.008653e-06 -3.264658e-05 2.486259e-05 1.128763e-06 -4.353638e-01 8.401489e-01
2.025751e+08 9.140015e-01 3.539429e-01 -8.305535e-06 1.929048e-05 1.956709e-06 -1.288299e-05 -4.408569e-01 8.344727e-01
2.027939e+08 9.146118e-01 3.543091e-01 1.413003e-05 1.677964e-05 -4.618987e-05 8.840114e-06 -4.451294e-01 8.307495e-01
2.030126e+08 9.138794e-01 3.556519e-01 2.386048e-05 -3.241561e-05 -1.541898e-05 -2.871640e-05 -4.484863e-01 8.223267e-01
2.032313e+08 9.127808e-01 3.548584e-01 1.102686e-06 5.230680e-05 -5.231053e-05 -2.896041e-05 -4.531250e-01 8.132324e-01
2.034501e+08 9.130859e-01 3.561401e-01 3.460795e-06 -2.749823e-05 -9.002164e-06 -2.773479e-05 -4.577026e-01 8.018799e-01
2.036688e+08 9.125977e-01 3.566895e-01 -3.187917e-05 -3.053807e-05 1.440570e-05 4.437193e-05 -4.635010e-01 7.886353e-01
2.038875e+08 9.124756e-01 3.576660e-01 -8.204952e-06 -3.404729e-05 -1.665112e-05 5.393289e-06 -4.728394e-01 7.758179e-01
2.041063e+08 9.115601e-01 3.586426e-01 1.407042e-05 4.530884e-06 -1.215935e-05 1.926254e-05 -4.852295e-01 7.631836e-01
2.043250e+08 9.103394e-01 3.594360e-01 5.487353e-06 -2.510846e-05 -3.670529e-05 -1.875870e-05 -4.990845e-01 7.531738e-01
2.045437e+08 9.103394e-01 3.597412e-01 7.135794e-06 -1.830142e-05 -6.565452e-05 2.434105e-05 -5.129395e-01 7.456665e-01
2.047624e+08 9.099121e-01 3.617554e-01 -3.157184e-07 1.665950e-05 1.985952e-05 -5.238131e-05 -5.255127e-01 7.404785e-01
2.049812e+08 9.100342e-01 3.619995e-01 -2.820231e-05 -2.132356e-05 -5.624816e-05 -3.259629e-06 -5.379028e-01 7.359619e-01
2.051999e+08 9.102783e-01 3.630371e-01 -2.261065e-05 -2.198108e-05 -3.391318e-05 -2.891570e-05 -5.489502e-01 7.338257e-01
2.054186e+08 9.097290e-01 3.634644e-01 1.566298e-05 -8.819625e-07 1.740269e-05 1.583435e-05 -5.552368e-01 7.313843e-01
2.056374e+08 9.086914e-01 3.642578e-01 -6.251037e-06 3.393926e-05 1.770817e-05 -2.106652e-05 -5.623169e-01 7.271118e-01
2.058561e+08 9.089966e-01 3.645630e-01 2.209656e-05 1.898035e-06 -1.655892e-06 -2.401322e-05 -5.661011e-01 7.200928e-01
2.060748e+08 9.083252e-01 3.662109e-01 -2.367049e-05 3.527850e-06 -1.346320e-05 -4.165992e-05 -5.703735e-01 7.128296e-01
2.062936e+08 9.074097e-01 3.671265e-01 -1.495238e-05 -2.019666e-05 4.829839e-06 -2.302416e-05 -5.774536e-01 7.027588e-01
2.065123e+08 9.081421e-01 3.673096e-01 2.050772e-05 7.310882e-06 1.967326e-05 -3.400631e-05 -5.857544e-01 6.931763e-01
2.067310e+08 9.071655e-01 3.679199e-01 1.527462e-05 3.544614e-06 1.470931e-05 7.506460e-06 -5.950317e-01 6.820068e-01
2.069498e+08 9.063110e-01 3.696289e-01 1.968443e-05 3.918074e-06 3.749132e-05 4.005432e-05 -6.064453e-01 6.724548e-01
2.071685e+08 9.055176e-01 3.698730e-01 -3.923476e-05 4.116818e-05 -2.099387e-05 -2.695806e-05 -6.195984e-01 6.632080e-01
2.073872e+08 9.064941e-01 3.703613e-01 -2.007093e-05 4.963949e-07 -2.975203e-05 2.192706e-05 -6.325378e-01 6.566467e-01
2.076060e+08 9.053955e-01 3.717041e-01 1.342967e-05 3.790669e-05 2.726912e-05 4.644692e-05 -6.466980e-01 6.504211e-01
2.078247e+08 9.048462e-01 3.728027e-01 -1.895055e-05 -1.276564e-05 1.631491e-05 3.155693e-05 -6.594238e-01 6.466370e-01
2.080434e+08 9.058838e-01 3.729248e-01 -2.045743e-05 4.905276e-06 -7.364433e-06 -3.762543e-06 -6.720276e-01 6.416931e-01
2.082622e+08 9.048462e-01 3.739624e-01 1.749024e-06 3.132224e-05 -1.471210e-05 -7.532537e-06 -6.842651e-01 6.372986e-01
2.084809e+08 9.045410e-01 3.737183e-01 2.078712e-06 1.465622e-05 1.937244e-05 2.936460e-06 -6.957092e-01 6.328735e-01
2.086996e+08 9.040527e-01 3.757324e-01 1.554377e-05 -2.541952e-05 3.965944e-05 8.694828e-06 -7.091980e-01 6.307373e-01
2.089183e+08 9.042969e-01 3.757935e-01 -3.721751e-05 3.132597e-05 1.528114e-05 4.728138e-05 -7.219849e-01 6.273193e-01
2.091371e+08 9.041138e-01 3.764038e-01 -1.806766e-06 4.662573e-05 3.305450e-05 2.617016e-05 -7.360840e-01 6.271362e-01
2.093558e+08 9.035645e-01 3.783569e-01 -1.419336e-05 -2.908334e-05 -9.154901e-06 -9.336974e-06 -7.476807e-01 6.287842e-01
2.095745e+08 9.038696e-01 3.782349e-01 -2.933852e-05 4.149973e-06 1.670141e-05 -5.393289e-06 -7.606812e-01 6.322632e-01
2.097933e+08 9.030151e-01 3.790894e-01 2.788380e-06 -6.444752e-06 -2.871826e-05 6.200746e-06 -7.670898e-01 6.366577e-01
2.100120e+08 9.024048e-01 3.798218e-01 2.332591e-05 8.996576e-07 3.463402e-05 -4.497543e-05 -7.727051e-01 6.411743e-01
2.102307e+08 9.021606e-01 3.804932e-01 -4.315749e-05 -2.938509e-05 -7.359311e-06 -3.767200e-06 -7.754517e-01 6.445312e-01
2.104495e+08 9.019775e-01 3.816528e-01 -3.144331e-05 -2.281740e-05 -1.041777e-05 2.485327e-05 -7.748413e-01 6.459961e-01
2.106682e+08 9.020996e-01 3.827515e-01 -1.149997e-05 4.249066e-05 1.806766e-07 -1.849607e-05 -7.727661e-01 6.435547e-01
2.108869e+08 9.018555e-01 3.826904e-01 -2.452917e-05 9.685755e-08 -1.966022e-06 1.292676e-05 -7.706299e-01 6.367188e-01
2.111057e+08 9.017944e-01 3.837891e-01 1.129974e-05 1.101848e-05 -3.767200e-06 7.365830e-06 -7.717896e-01 6.271362e-01
2.113244e+08 9.017944e-01 3.847046e-01 1.518615e-05 -2.096966e-05 -9.689480e-06 4.617125e-05 -7.774048e-01 6.168213e-01
2.115431e+08 9.013062e-01 3.856812e-01 3.621355e-05 -5.763024e-06 -1.150370e-05 4.058704e-05 -7.858276e-01 6.052246e-01
2.117618e+08 9.011841e-01 3.868408e-01 -4.516169e-05 -1.955405e-05 1.274236e-05 2.049282e-05 -7.956543e-01 5.958862e-01
2.119806e+08 9.015503e-01 3.875122e-01 -2.021901e-06 -2.407469e-06 2.479926e-05 1.970492e-05 -8.086548e-01 5.885010e-01
2.121993e+08 9.001465e-01 3.874512e-01 2.839137e-06 5.825888e-06 -1.544505e-05 -2.883933e-05 -8.204346e-01 5.842285e-01
2.124180e+08 9.006348e-01 3.881226e-01 -4.721060e-05 -2.198666e-05 -5.393848e-05 2.353638e-05 -8.351440e-01 5.819702e-01
2.126368e+08 8.994141e-01 3.893433e-01 -4.656613e-06 5.315617e-05 -3.233552e-05 -4.962087e-06 -8.459473e-01 5.833740e-01
2.128555e+08 8.991699e-01 3.895264e-01 2.144836e-05 2.306886e-05 1.293048e-05 1.977198e-06 -8.558350e-01 5.836792e-01
2.130742e+08 9.007568e-01 3.903809e-01 -9.736046e-06 -1.647510e-05 -3.051013e-06 2.869405e-05 -8.627930e-01 5.860596e-01
2.132930e+08 8.997803e-01 3.912354e-01 -3.905036e-05 -3.911555e-08 -2.948567e-05 -1.511723e-05 -8.690796e-01 5.878906e-01
2.135117e+08 8.997803e-01 3.921509e-01 1.115724e-06 -2.557784e-05 -1.762807e-05 2.602115e-06 -8.726196e-01 5.902100e-01
2.137304e+08 8.996582e-01 3.923950e-01 1.783669e-05 2.609380e-05 1.294911e-05 1.978129e-06 -8.770142e-01 5.918579e-01
2.139492e+08 9.000854e-01 3.930054e-01 -3.145821e-05 -1.055188e-05 2.876855e-06 -1.016818e-05 -8.792725e-01 5.931396e-01
2.141679e+08 8.991699e-01 3.945312e-01 -5.600974e-06 1.292489e-05 -6.283633e-06 -1.952332e-05 -8.795166e-01 5.946655e-01
2.143866e+08 8.996582e-01 3.941040e-01 1.663528e-05 2.712570e-05 2.376176e-05 3.544427e-05 -8.814087e-01 5.967407e-01
2.146054e+08 8.991699e-01 3.958740e-01 -2.952293e-06 -4.272349e-05 -6.669201e-06 1.754053e-05 -8.773804e-01 5.979004e-01
2.148241e+08 8.994141e-01 3.963013e-01 -1.330115e-05 -1.155771e-06 -1.944322e-05 -2.975576e-06 -8.732910e-01 5.977173e-01
2.150428e+08 8.997803e-01 3.967896e-01 -5.302019e-06 -1.609977e-05 6.304123e-06 1.954101e-05 -8.665161e-01 5.938721e-01
2.152616e+08 8.991089e-01 3.972778e-01 1.933239e-05 -3.901310e-06 -2.698973e-06 -8.372124e-06 -8.581543e-01 5.885010e-01
2.154803e+08 8.992920e-01 3.983765e-01 6.560236e-06 2.738647e-05 -1.226738e-05 1.935661e-05 -8.494873e-01 5.781860e-01
2.156990e+08 8.996582e-01 3.986206e-01 1.484808e-05 -1.659058e-05 1.964532e-05 -1.557730e-05 -8.436279e-01 5.637817e-01
2.159177e+08 8.985596e-01 3.988647e-01 3.288686e-05 4.646182e-05 4.375726e-05 -1.716986e-05 -8.405151e-01 5.472412e-01
2.161365e+08 8.990479e-01 3.999023e-01 -5.299225e-06 -1.612306e-05 7.059425e-07 2.134591e-05 -8.407593e-01 5.294800e-01
2.163552e+08 8.988037e-01 4.013672e-01 -2.543069e-05 -3.356487e-06 1.895241e-05 -3.691576e-05 -8.459473e-01 5.105591e-01
2.165739e+08 8.990479e-01 4.017944e-01 2.462044e-05 -7.823110e-08 -1.785159e-05 2.116151e-05 -8.542480e-01 4.954834e-01
2.167927e+08 8.987427e-01 4.017944e-01 2.818368e-05 -2.772920e-05 -3.785826e-06 7.386319e-06 -8.651123e-01 4.822998e-01
2.170114e+08 8.996582e-01 4.027710e-01 -5.586073e-06 2.525188e-05 -1.786463e-05 2.118945e-05 -8.772583e-01 4.745483e-01
2.172301e+08 8.987427e-01 4.035034e-01 6.856397e-06 -1.639128e-06 -1.367927e-05 -2.335943e-05 -8.873291e-01 4.680786e-01
2.174489e+08 8.984985e-01 4.045410e-01 -3.877655e-05 -4.542992e-06 -1.747627e-05 -1.597498e-05 -8.957520e-01 4.666138e-01
2.176676e+08 8.988647e-01 4.049072e-01 -2.947636e-05 -8.190051e-06 -5.792826e-06 2.038106e-05 -9.016113e-01 4.665527e-01
2.178863e+08 8.978882e-01 4.053345e-01 1.987256e-05 2.861209e-05 -4.325062e-05 -3.853068e-05 -9.047241e-01 4.649048e-01
2.181051e+08 8.986816e-01 4.058228e-01 -3.196672e-05 -1.847558e-05 -2.219155e-05 -1.137517e-05 -9.017334e-01 4.620361e-01
2.183238e+08 8.983765e-01 4.071045e-01 1.771003e-05 -2.306886e-05 2.328120e-05 -4.401430e-06 -9.002686e-01 4.591675e-01
2.185425e+08 8.988647e-01 4.078369e-01 -2.298504e-06 3.899261e-05 1.680106e-05 -5.397946e-06 -8.956909e-01 4.523926e-01
2.187612e+08 8.980713e-01 4.080811e-01 -1.953915e-06 2.222881e-05 -7.184222e-06 -2.239086e-05 -8.940430e-01 4.412231e-01
2.189800e+08 8.991089e-01 4.083862e-01 -1.483224e-05 4.124083e-05 5.796552e-06 -2.040714e-05 -8.919067e-01 4.342651e-01
2.191987e+08 8.980103e-01 4.087524e-01 -3.505126e-05 4.174560e-05 -1.099892e-06 1.579057e-05 -8.919678e-01 4.241333e-01
2.194174e+08 8.980713e-01 4.089966e-01 6.388873e-06 -2.184696e-05 -6.007031e-06 3.898330e-05 -8.914185e-01 4.146729e-01
2.196362e+08 8.986816e-01 4.100342e-01 1.295563e-05 5.624257e-06 1.659803e-05 1.320802e-05 -8.909912e-01 4.040527e-01
2.198549e+08 8.988647e-01 4.098511e-01 -1.164526e-05 3.037229e-05 -3.488734e-05 4.522130e-05 -8.905640e-01 3.941040e-01
2.200736e+08 8.984375e-01 4.107666e-01 2.988987e-05 -2.093241e-05 -8.702278e-06 3.059953e-05 -8.900146e-01 3.835449e-01
2.202924e+08 8.981934e-01 4.117432e-01 6.511807e-06 1.515541e-05 -8.977950e-06 -2.800487e-05 -8.881836e-01 3.734131e-01
2.205111e+08 8.986206e-01 4.116821e-01 -1.257192e-05 -1.007691e-05 -4.160404e-05 6.281957e-05 -8.875732e-01 3.604736e-01
2.207298e+08 8.987427e-01 4.116821e-01 2.488866e-05 -5.388632e-05 2.330542e-05 -4.416332e-06 -8.867188e-01 3.471069e-01
2.209486e+08 8.984985e-01 4.130249e-01 2.630800e-05 -5.539507e-06 2.332032e-05 -4.388392e-06 -8.882446e-01 3.309326e-01
2.211673e+08 8.981323e-01 4.129639e-01 -2.992898e-05 8.584931e-06 1.881272e-05 -1.840014e-05 -8.910522e-01 3.179932e-01
2.213860e+08 8.988647e-01 4.134521e-01 2.701767e-05 -3.916211e-05 -5.676225e-05 -3.386289e-06 -8.969727e-01 3.052368e-01
2.216048e+08 8.988037e-01 4.141846e-01 1.902785e-05 5.587935e-07 1.772121e-05 -2.599321e-06 -9.022827e-01 2.933350e-01
2.218235e+08 8.988647e-01 4.146729e-01 8.874573e-06 -1.156051e-05 -1.104549e-06 1.582317e-05 -9.092407e-01 2.852783e-01
2.220422e+08 8.987427e-01 4.161987e-01 1.144409e-05 3.584102e-05 1.460500e-05 2.625212e-05 -9.172363e-01 2.781982e-01
2.222610e+08 8.985596e-01 4.159546e-01 1.335144e-05 -1.117121e-05 -7.070601e-05 -8.236617e-06 -9.182129e-01 2.744141e-01
2.224797e+08 8.995972e-01 4.160767e-01 -9.708572e-06 8.128583e-06 -1.794100e-05 2.125837e-05 -9.210815e-01 2.711182e-01
2.226984e+08 8.990479e-01 4.166260e-01 -1.096167e-05 -3.218651e-06 1.664367e-05 1.323037e-05 -9.205933e-01 2.661743e-01
2.229171e+08 8.984985e-01 4.174194e-01 -1.856498e-05 3.206730e-05 7.206574e-06 2.244860e-05 -9.166260e-01 2.606812e-01
2.231359e+08 8.985596e-01 4.175415e-01 1.823716e-05 -2.887100e-06 1.813844e-05 -3.990531e-05 -9.130859e-01 2.531128e-01
2.233546e+08 8.991699e-01 4.180298e-01 -3.618561e-05 -3.580377e-05 2.337992e-05 -4.410744e-06 -9.097900e-01 2.440186e-01
2.235733e+08 8.988037e-01 4.185791e-01 -2.351776e-05 -9.573996e-07 2.089702e-05 -3.148802e-05 -9.072876e-01 2.315674e-01
2.237921e+08 8.983765e-01 4.191284e-01 -4.550442e-05 -1.974404e-05 -2.989732e-05 3.378838e-06 -9.075317e-01 2.198486e-01
2.240108e+08 8.984375e-01 4.197388e-01 -1.821946e-05 1.525227e-05 5.823374e-05 -3.103912e-05 -9.079590e-01 2.086182e-01
2.242295e+08 8.992920e-01 4.199219e-01 -1.943018e-05 1.627859e-05 1.125038e-05 -3.606081e-06 -9.097900e-01 1.978149e-01
2.244483e+08 8.985596e-01 4.205322e-01 -8.236617e-06 -4.683807e-05 2.768263e-05 2.833828e-05 -9.113159e-01 1.882935e-01
2.246670e+08 8.990479e-01 4.204712e-01 3.853999e-05 -3.350899e-06 1.125038e-05 -3.611669e-06 -9.125366e-01 1.817017e-01
2.248857e+08 8.982544e-01 4.212036e-01 9.757001e-06 4.246365e-06 2.697576e-06 8.435920e-06 -9.107056e-01 1.740112e-01
2.251045e+08 8.987427e-01 4.208984e-01 -1.875684e-05 -2.982281e-05 4.097074e-05 1.166016e-05 -9.075928e-01 1.668091e-01
2.253232e+08 8.990479e-01 4.213257e-01 -2.892688e-06 -1.827534e-05 3.014877e-05 -2.209097e-05 -9.041748e-01 1.572266e-01
2.255419e+08 8.986816e-01 4.216919e-01 2.491474e-05 6.191060e-05 -4.321709e-05 2.007186e-05 -8.986206e-01 1.465454e-01
2.257606e+08 8.988647e-01 4.219971e-01 2.404675e-06 -1.443550e-05 -3.123656e-06 2.893992e-05 -8.953857e-01 1.339722e-01
2.259794e+08 8.980713e-01 4.218140e-01 -1.669861e-06 -1.931563e-05 2.653338e-05 -3.333390e-05 -8.916016e-01 1.197510e-01
2.261981e+08 8.992310e-01 4.227905e-01 -2.151635e-05 1.387671e-05 -5.207956e-06 -3.560260e-05 -8.910522e-01 1.051025e-01
2.264168e+08 8.992310e-01 4.227905e-01 3.632158e-07 -1.687184e-05 3.539957e-05 1.349859e-05 -8.912964e-01 9.027100e-02
2.266356e+08 8.987427e-01 4.232788e-01 1.965091e-06 -3.476255e-05 7.219613e-06 2.253614e-05 -8.928833e-01 7.629395e-02
2.268543e+08 8.991089e-01 4.232788e-01 1.222733e-05 1.463294e-05 -3.520213e-05 -3.221817e-05 -8.946533e-01 6.390381e-02
2.270730e+08 8.989868e-01 4.236450e-01 5.692244e-06 -6.239861e-07 -4.940853e-05 -1.833960e-05 -8.966675e-01 5.279541e-02
2.272918e+08 8.993530e-01 4.237671e-01 3.249384e-05 -2.304837e-05 5.009770e-05 3.991276e-05 -8.966064e-01 4.058838e-02
2.275105e+08 8.983154e-01 4.244385e-01 2.731942e-05 2.270751e-05 2.935529e-06 -1.026131e-05 -8.974609e-01 2.941895e-02
2.277292e+08 8.994751e-01 4.255371e-01 -2.846494e-05 1.550093e-05 2.979115e-05 1.536682e-05 -8.947754e-01 1.721191e-02
2.279480e+08 8.986816e-01 4.251099e-01 -2.198294e-05 -6.476417e-06 -2.911873e-05 6.217510e-06 -8.951416e-01 3.479004e-03
2.281667e+08 8.988037e-01 4.259033e-01 -3.892928e-07 1.690723e-05 2.477318e-06 2.721697e-05 -8.946533e-01 -1.202393e-02
2.283854e+08 8.972168e-01 4.261475e-01 4.863366e-06 -1.650490e-05 -1.895521e-05 1.849420e-05 -8.959961e-01 -2.874756e-02
2.286042e+08 8.981323e-01 4.261475e-01 -1.182128e-05 -6.695278e-06 -1.219474e-05 7.925555e-07 -9.001465e-01 -4.479980e-02
2.288229e+08 8.983154e-01 4.259644e-01 -3.214367e-05 4.346482e-05 -1.150556e-05 2.236664e-05 -9.064941e-01 -6.115723e-02
2.290416e+08 8.980713e-01 4.265747e-01 2.863351e-06 5.903654e-06 3.116578e-05 -1.932122e-05 -9.157104e-01 -7.543945e-02
2.292604e+08 8.977661e-01 4.273682e-01 -7.297844e-06 3.098883e-05 -2.734363e-05 1.184829e-05 -9.235840e-01 -8.557129e-02
2.294791e+08 8.983154e-01 4.267578e-01 -4.023314e-06 3.242679e-05 -5.425885e-06 -1.695380e-05 -9.315186e-01 -9.448242e-02
2.296978e+08 8.978882e-01 4.277344e-01 1.876894e-05 5.075708e-06 3.030896e-05 -2.214126e-05 -9.380493e-01 -9.906006e-02
2.299165e+08 8.989258e-01 4.269409e-01 -6.554648e-06 -1.529232e-05 -6.359071e-06 -1.979433e-05 -9.411011e-01 -1.031494e-01
2.301353e+08 8.978882e-01 4.273071e-01 4.087109e-06 4.890841e-06 1.695938e-05 -5.434267e-06 -9.409790e-01 -1.078491e-01
2.303540e+08 8.979492e-01 4.271851e-01 2.045534e-06 2.446352e-06 -4.320219e-05 1.385808e-06 -9.389648e-01 -1.155396e-01
2.305727e+08 8.981934e-01 4.277954e-01 -4.083291e-05 -1.157634e-05 1.469254e-05 -5.148724e-05 -9.353638e-01 -1.242676e-01
2.307915e+08 8.976440e-01 4.282837e-01 1.275539e-05 4.750490e-05 -2.512150e-05 -2.002902e-05 -9.323730e-01 -1.369629e-01
2.310102e+08 8.979492e-01 4.275513e-01 -9.382144e-06 3.688969e-06 -2.263300e-05 7.260591e-06 -9.307861e-01 -1.520386e-01
2.312289e+08 8.978882e-01 4.288940e-01 2.330914e-05 1.794100e-05 -3.194250e-05 -2.291054e-06 -9.313965e-01 -1.687012e-01
2.314477e+08 8.967285e-01 4.285889e-01 -2.867077e-06 -5.923212e-06 1.825392e-07 5.918369e-05 -9.359131e-01 -1.855469e-01
2.316664e+08 8.973389e-01 4.288330e-01 -2.254732e-05 -3.939867e-05 1.313630e-05 2.042390e-06 -9.421387e-01 -2.009277e-01
2.318851e+08 8.970337e-01 4.291992e-01 -1.508091e-05 1.676194e-05 -4.098192e-05 -3.061444e-05 -9.502563e-01 -2.160034e-01
2.321039e+08 8.975220e-01 4.290771e-01 -8.534640e-06 3.208779e-05 5.463138e-05 -4.980713e-06 -9.573975e-01 -2.276611e-01
2.323226e+08 8.961182e-01 4.285889e-01 2.286583e-05 -1.495704e-05 -3.895909e-05 3.429316e-05 -9.674072e-01 -2.395630e-01
2.325413e+08 8.964233e-01 4.288940e-01 -2.821349e-05 -1.395121e-06 -3.579818e-05 5.204231e-06 -9.761353e-01 -2.480469e-01
2.327600e+08 8.969116e-01 4.288330e-01 1.919921e-05 -1.188181e-05 -1.129694e-06 1.598429e-05 -9.857788e-01 -2.545776e-01
2.329788e+08 8.964233e-01 4.293213e-01 5.282462e-06 -2.107304e-05 -7.707626e-06 1.496449e-05 -9.952393e-01 -2.611694e-01
2.331975e+08 8.950806e-01 4.297485e-01 -2.494641e-05 1.251139e-05 -2.062507e-05 -5.910173e-06 -1.002869e+00 -2.664795e-01
2.334162e+08 8.964844e-01 4.296875e-01 -1.229905e-05 -2.720021e-05 -2.197921e-07 1.883972e-05 -1.011597e+00 -2.711182e-01
2.336350e+08 8.955078e-01 4.293823e-01 2.248585e-05 -1.046807e-05 -5.373731e-05 7.849187e-06 -1.020691e+00 -2.714233e-01
2.338537e+08 8.955078e-01 4.308472e-01 -3.670342e-06 1.555029e-05 1.588836e-05 1.056492e-05 -1.028564e+00 -2.717285e-01
2.340724e+08 8.950806e-01 4.303589e-01 1.227541e-06 -1.025561e-06 4.079193e-06 -2.633594e-05 -1.035889e+00 -2.672729e-01
2.342912e+08 8.955688e-01 4.304199e-01 4.284084e-07 2.046581e-05 2.726447e-06 8.516945e-06 -1.038574e+00 -2.625732e-01
2.345099e+08 8.948975e-01 4.311523e-01 6.571412e-06 2.784282e-05 2.499670e-05 -3.928319e-05 -1.037903e+00 -2.541504e-01
2.347286e+08 8.939209e-01 4.302368e-01 1.641363e-05 1.964532e-05 1.225341e-05 -7.990748e-07 -1.032043e+00 -2.468262e-01
2.349474e+08 8.942261e-01 4.302368e-01 -2.581999e-05 -3.432855e-06 1.633167e-05 -2.713874e-05 -1.020142e+00 -2.424316e-01
2.351661e+08 8.941040e-01 4.307251e-01 -4.105968e-06 -4.910398e-06 -6.111711e-05 -1.489371e-05 -1.006775e+00 -2.414551e-01
2.353848e+08 8.940430e-01 4.309692e-01 1.969934e-05 4.611164e-05 1.068041e-05 -2.534688e-05 -9.924316e-01 -2.443848e-01
2.356036e+08 8.933716e-01 4.311523e-01 2.456456e-05 -2.054125e-05 -2.158992e-05 -8.761883e-06 -9.780273e-01 -2.528076e-01
2.358223e+08 8.934937e-01 4.315186e-01 8.223578e-07 3.486406e-06 -6.413832e-05 -4.582107e-06 -9.661865e-01 -2.634888e-01
2.360410e+08 8.930664e-01 4.311523e-01 -1.565181e-05 -4.120544e-05 -5.139038e-05 3.524497e-05 -9.568481e-01 -2.766724e-01
2.362598e+08 8.926392e-01 4.318848e-01 -2.253428e-05 1.048669e-05 -2.572313e-05 1.760200e-05 -9.512939e-01 -2.911377e-01
2.364785e+08 8.921509e-01 4.311523e-01 -2.218783e-05 -1.905859e-05 1.409743e-05 4.886650e-06 -9.462891e-01 -3.046875e-01
2.366972e+08 8.918457e-01 4.313965e-01 1.030415e-05 3.734604e-05 -5.686656e-06 1.816079e-06 -9.461060e-01 -3.154907e-01
2.369159e+08 8.918457e-01 4.315186e-01 -1.516659e-05 4.321337e-06 -1.228787e-05 7.934868e-07 -9.445190e-01 -3.237915e-01
2.371347e+08 8.911743e-01 4.320068e-01 -9.833369e-06 8.217990e-06 1.120195e-05 -6.313249e-05 -9.435425e-01 -3.312378e-01
2.373534e+08 8.911743e-01 4.314575e-01 1.850724e-05 2.214313e-05 -1.889188e-05 -2.291054e-07 -9.404907e-01 -3.356934e-01
2.375721e+08 8.905640e-01 4.319458e-01 1.515634e-05 -1.683459e-05 -2.094731e-05 1.295656e-05 -9.366455e-01 -3.413696e-01
2.377909e+08 8.909912e-01 4.319458e-01 -2.257526e-05 -2.030283e-06 3.620982e-05 5.433708e-05 -9.301147e-01 -3.463135e-01
2.380096e+08 8.898926e-01 4.321289e-01 3.529899e-05 -1.278520e-05 1.586974e-06 2.459623e-05 -9.244995e-01 -3.521729e-01
2.382283e+08 8.897705e-01 4.323730e-01 -3.118068e-05 3.023259e-05 1.072139e-05 -2.539158e-05 -9.186401e-01 -3.588257e-01
2.384471e+08 8.893433e-01 4.323730e-01 7.428229e-06 3.141351e-05 1.504365e-05 7.743947e-06 -9.120483e-01 -3.665771e-01
2.386658e+08 8.894653e-01 4.317627e-01 -2.481043e-06 -1.047505e-05 5.929545e-05 2.812222e-05 -9.089355e-01 -3.732910e-01
2.388845e+08 8.883057e-01 4.321899e-01 -1.399033e-05 -9.221025e-06 3.897958e-05 -1.561083e-05 -9.053955e-01 -3.795776e-01
2.391033e+08 8.878174e-01 4.329224e-01 -1.235399e-05 -1.478568e-05 1.503900e-05 7.768162e-06 -9.002075e-01 -3.842163e-01
2.393220e+08 8.873901e-01 4.327393e-01 1.155213e-05 3.634766e-05 1.933798e-05 4.091486e-05 -8.956299e-01 -3.880005e-01
2.395407e+08 8.871460e-01 4.333496e-01 -1.355633e-05 1.131836e-05 -2.075173e-05 -5.939975e-06 -8.865356e-01 -3.886108e-01
2.397594e+08 8.864136e-01 4.336548e-01 -2.466142e-05 8.050352e-06 1.166016e-05 -2.256595e-05 -8.769531e-01 -3.916626e-01
2.399782e+08 8.864136e-01 4.342041e-01 -2.384558e-05 3.663264e-05 -3.086030e-05 4.126504e-05 -8.648071e-01 -3.952026e-01
2.401969e+08 8.856812e-01 4.340210e-01 1.687184e-05 2.650544e-06 -9.343959e-06 -9.595882e-06 -8.520508e-01 -3.995361e-01
2.404156e+08 8.843994e-01 4.334106e-01 -1.644529e-05 1.792703e-05 -6.187707e-06 3.964081e-05 -8.372803e-01 -4.080811e-01
2.406344e+08 8.844604e-01 4.332886e-01 -2.874061e-06 6.584451e-06 -5.459413e-06 -1.710374e-05 -8.254395e-01 -4.188232e-01
2.408531e+08 8.842773e-01 4.334717e-01 -1.518801e-05 2.944656e-05 -3.422424e-05 1.092628e-05 -8.127441e-01 -4.306641e-01
2.410718e+08 8.839111e-01 4.337158e-01 -1.192186e-05 1.832750e-05 -2.734363e-06 -8.557457e-06 -8.037109e-01 -4.434204e-01
2.412906e+08 8.833618e-01 4.343262e-01 -2.514198e-05 -2.510473e-05 -1.620874e-05 8.315779e-06 -7.968750e-01 -4.553223e-01
2.415093e+08 8.830566e-01 4.345093e-01 1.568161e-05 2.884306e-05 3.222376e-06 -2.933107e-05 -7.922363e-01 -4.688110e-01
2.417280e+08 8.818970e-01 4.338379e-01 -2.061948e-05 -2.471358e-05 3.240071e-05 -1.664646e-05 -7.869873e-01 -4.784546e-01
2.419468e+08 8.824463e-01 4.341431e-01 -4.151836e-06 -3.005378e-05 -1.118984e-05 -1.530629e-05 -7.824707e-01 -4.869995e-01
2.421655e+08 8.812256e-01 4.346924e-01 4.121568e-06 4.939036e-06 -1.828000e-05 2.156571e-05 -7.771606e-01 -4.926758e-01
2.423842e+08 8.806152e-01 4.345093e-01 -2.018642e-05 8.456409e-06 -9.115320e-07 -2.854737e-06 -7.695312e-01 -5.009155e-01
2.426030e+08 8.807983e-01 4.345703e-01 1.317170e-05 -1.936778e-05 -4.354864e-06 4.545227e-05 -7.620850e-01 -5.074463e-01
2.428217e+08 8.801880e-01 4.353638e-01 -2.885051e-05 -9.458512e-06 -1.391955e-05 -2.390146e-05 -7.539673e-01 -5.178833e-01
2.430404e+08 8.800659e-01 4.353638e-01 2.793968e-08 2.512895e-05 2.859533e-05 -9.110197e-06 -7.459106e-01 -5.289307e-01
2.432592e+08 8.790283e-01 4.356689e-01 -2.267398e-05 -1.460500e-05 1.532957e-05 -1.118425e-05 -7.396240e-01 -5.418701e-01
2.434779e+08 8.785400e-01 4.353027e-01 -4.533678e-06 -4.116446e-07 -5.049631e-06 2.365373e-05 -7.360229e-01 -5.544434e-01
2.436966e+08 8.767700e-01 4.350586e-01 -1.277216e-05 -2.288260e-05 1.142081e-05 -3.650784e-06 -7.362061e-01 -5.675049e-01
2.439153e+08 8.764648e-01 4.358521e-01 -1.978688e-05 -8.648261e-06 8.701347e-06 -1.221988e-05 -7.366943e-01 -5.765381e-01
2.441341e+08 8.764038e-01 4.360962e-01 -3.051199e-05 -2.904423e-05 7.059425e-06 4.186481e-05 -7.386475e-01 -5.853882e-01
2.443528e+08 8.760986e-01 4.357300e-01 -1.774542e-05 -6.166287e-06 6.396323e-06 2.002344e-05 -7.410889e-01 -5.894775e-01
2.445715e+08 8.745728e-01 4.360352e-01 -1.657754e-06 -7.008668e-06 3.357232e-05 4.597753e-05 -7.429199e-01 -5.891113e-01
2.447903e+08 8.739624e-01 4.362793e-01 -2.103113e-05 3.012829e-05 -9.612646e-06 9.364914e-06 -7.416992e-01 -5.902100e-01
2.450090e+08 8.732300e-01 4.371338e-01 -1.979433e-05 2.911501e-05 4.558824e-06 1.429953e-05 -7.379761e-01 -5.899658e-01
2.452277e+08 8.729248e-01 4.370728e-01 7.430092e-06 3.158301e-05 -7.780269e-06 1.509394e-05 -7.334595e-01 -5.890503e-01
2.454465e+08 8.724365e-01 4.374390e-01 -3.302470e-06 -1.442851e-06 -1.326762e-05 -2.072193e-06 -7.235107e-01 -5.894165e-01
2.456652e+08 8.712158e-01 4.375000e-01 5.784445e-06 1.198705e-05 6.631482e-06 1.036096e-06 -7.156372e-01 -5.916748e-01
2.458839e+08 8.710327e-01 4.384766e-01 7.010996e-06 -5.204231e-05 4.298985e-06 3.331155e-05 -7.066040e-01 -5.957642e-01
2.461027e+08 8.708496e-01 4.381104e-01 -2.065022e-05 1.300685e-05 -8.035451e-06 3.410876e-05 -6.981506e-01 -5.984497e-01
2.463214e+08 8.707886e-01 4.383545e-01 -1.899712e-05 -5.164184e-06 3.894605e-05 3.349036e-06 -6.901550e-01 -6.032410e-01
2.465401e+08 8.695068e-01 4.386597e-01 4.002079e-05 -2.502091e-05 -3.162399e-05 1.954287e-05 -6.822205e-01 -6.067200e-01
2.467588e+08 8.672485e-01 4.383545e-01 -2.065673e-06 -1.507904e-05 2.729706e-06 8.579344e-06 -6.735535e-01 -6.116638e-01
2.469776e+08 8.674927e-01 4.390259e-01 1.487602e-05 2.058223e-07 -2.626330e-07 1.899619e-05 -6.638794e-01 -6.161194e-01
2.471963e+08 8.670044e-01 4.397583e-01 1.245178e-06 1.156423e-05 -2.474152e-05 1.551583e-06 -6.532593e-01 -6.207886e-01
2.474150e+08 8.660889e-01 4.390869e-01 2.602674e-05 1.611747e-05 1.352746e-05 -1.692213e-05 -6.414185e-01 -6.284790e-01
2.476338e+08 8.652954e-01 4.396362e-01 2.024788e-05 -8.457340e-06 -1.418684e-05 -4.944392e-06 -6.301575e-01 -6.376648e-01
2.478525e+08 8.646851e-01 4.396973e-01 -1.404807e-05 1.589861e-05 1.261197e-05 -1.979433e-05 -6.187744e-01 -6.503601e-01
2.480712e+08 8.638306e-01 4.404297e-01 -2.563000e-05 -8.059666e-06 1.744926e-05 -2.446771e-05 -6.091614e-01 -6.633911e-01
2.482900e+08 8.632812e-01 4.403076e-01 -2.231449e-05 5.971640e-06 -1.028739e-05 -1.249649e-05 -6.033936e-01 -6.786194e-01
2.485087e+08 8.631592e-01 4.406738e-01 2.474524e-06 1.053000e-05 7.811934e-06 -1.511257e-05 -6.011963e-01 -6.951904e-01
2.487274e+08 8.621826e-01 4.410400e-01 -4.132278e-06 -4.960690e-06 2.991408e-06 -1.042150e-05 -6.014404e-01 -7.090454e-01
2.489462e+08 8.612671e-01 4.424438e-01 2.645701e-05 -1.361221e-05 3.559515e-05 -2.709404e-05 -6.035156e-01 -7.197266e-01
2.491649e+08 8.611450e-01 4.418945e-01 1.363177e-05 1.237728e-06 1.238473e-05 -7.869676e-07 -6.073608e-01 -7.283936e-01
2.493836e+08 8.594360e-01 4.423218e-01 1.695007e-05 1.529790e-05 1.354795e-05 -1.693517e-05 -6.098633e-01 -7.332764e-01
2.496024e+08 8.587036e-01 4.428101e-01 2.067070e-05 -1.303107e-05 2.658181e-05 4.166737e-06 -6.107788e-01 -7.355957e-01
2.498211e+08 8.580322e-01 4.428711e-01 2.076849e-06 1.510046e-05 9.119976e-07 2.865912e-06 -6.098633e-01 -7.361450e-01
2.500398e+08 8.576050e-01 4.428101e-01 -9.091571e-06 -2.606586e-05 -3.738888e-05 2.139620e-05 -6.042480e-01 -7.388306e-01
2.502586e+08 8.564453e-01 4.439087e-01 2.893619e-06 1.861621e-05 3.596395e-05 1.383014e-05 -5.973511e-01 -7.406616e-01
2.504773e+08 8.565063e-01 4.445190e-01 2.357364e-05 1.817569e-05 -1.168810e-06 1.617614e-05 -5.877075e-01 -7.440186e-01
2.506960e+08 8.555908e-01 4.444580e-01 -7.445458e-06 6.202608e-06 1.029391e-05 1.252256e-05 -5.784912e-01 -7.514038e-01
2.509147e+08 8.551636e-01 4.459839e-01 -8.263625e-06 1.532305e-05 8.190051e-06 2.583861e-05 -5.679321e-01 -7.607422e-01
2.511335e+08 8.537598e-01 4.456177e-01 -2.355501e-05 -5.612150e-05 -4.824717e-06 4.690373e-06 -5.605469e-01 -7.716675e-01
2.513522e+08 8.530884e-01 4.459839e-01 4.344061e-05 -1.092628e-05 4.563481e-05 4.462898e-06 -5.529175e-01 -7.838745e-01
2.515709e+08 8.530273e-01 4.459839e-01 -1.492165e-05 2.502836e-05 -1.487322e-05 -2.687052e-05 -5.466309e-01 -7.965088e-01
2.517897e+08 8.522949e-01 4.470825e-01 5.133450e-05 4.148483e-05 1.486763e-05 2.688542e-05 -5.422974e-01 -8.088379e-01
2.520084e+08 8.507690e-01 4.465942e-01 4.562549e-06 -1.221057e-05 4.822621e-06 -4.693866e-06 -5.390015e-01 -8.217773e-01
2.522271e+08 8.498535e-01 4.476929e-01 1.158379e-05 2.399646e-05 2.091751e-06 -1.329929e-05 -5.372925e-01 -8.347168e-01
2.524459e+08 8.493652e-01 4.487305e-01 -1.661479e-06 1.821853e-05 2.729706e-06 8.612871e-06 -5.355835e-01 -8.475952e-01
2.526646e+08 8.480835e-01 4.487305e-01 -3.227219e-05 1.616776e-06 2.121925e-05 4.695356e-05 -5.361938e-01 -8.613892e-01
2.528833e+08 8.483276e-01 4.489136e-01 -2.443045e-05 1.612864e-05 3.691576e-05 1.670420e-05 -5.383301e-01 -8.737183e-01
2.531021e+08 8.475342e-01 4.501343e-01 -1.944788e-05 -1.326483e-05 -1.787487e-05 -1.646113e-05 -5.422363e-01 -8.839722e-01
2.533208e+08 8.474731e-01 4.498901e-01 -6.623566e-06 -2.815947e-05 1.815613e-05 -2.607703e-06 -5.480347e-01 -8.927002e-01
2.535395e+08 8.457031e-01 4.504395e-01 -3.971532e-05 -3.003515e-05 -9.662006e-06 9.387732e-06 -5.543823e-01 -8.970947e-01
2.537582e+08 8.447876e-01 4.509277e-01 -4.637241e-05 1.754612e-05 1.445413e-06 -3.523566e-05 -5.591431e-01 -8.986816e-01
2.539770e+08 8.439941e-01 4.517822e-01 -2.896227e-05 -2.217479e-05 -3.565289e-05 2.712011e-05 -5.634155e-01 -8.955688e-01
2.541957e+08 8.425293e-01 4.523926e-01 2.566911e-05 -4.528090e-06 -7.564668e-06 -3.922731e-06 -5.640869e-01 -8.931274e-01
2.544144e+08 8.417358e-01 4.523315e-01 1.074933e-05 3.315695e-05 -5.470589e-06 -1.722481e-05 -5.588379e-01 -8.878174e-01
2.546332e+08 8.411865e-01 4.531250e-01 -7.047318e-06 1.647044e-06 -4.258007e-05 4.513562e-05 -5.492554e-01 -8.816528e-01
2.548519e+08 8.403320e-01 4.539185e-01 7.043127e-06 -1.650769e-06 -1.996756e-05 -3.160909e-06 -5.385132e-01 -8.783569e-01
2.550706e+08 8.398438e-01 4.545288e-01 4.300103e-05 6.939471e-05 3.111735e-05 -4.148111e-05 -5.247192e-01 -8.808594e-01
2.552894e+08 8.392944e-01 4.550171e-01 9.500422e-06 2.154149e-05 1.906417e-05 2.812594e-07 -5.101318e-01 -8.859863e-01
2.555081e+08 8.382568e-01 4.556885e-01 -4.353933e-05 3.617443e-05 -9.101350e-07 -2.874061e-06 -4.973755e-01 -8.932495e-01
2.557268e+08 8.376465e-01 4.557495e-01 2.240203e-05 -1.862086e-05 -4.555099e-06 -1.437031e-05 -4.859619e-01 -9.030762e-01
2.559456e+08 8.364868e-01 4.559326e-01 -2.149120e-05 -5.366281e-05 3.089756e-05 3.761612e-05 -4.798584e-01 -9.144287e-01
2.561643e+08 8.362427e-01 4.569702e-01 -1.243898e-06 1.035049e-06 9.103678e-07 2.874527e-06 -4.729004e-01 -9.243164e-01
2.563830e+08 8.352661e-01 4.574585e-01 1.656543e-05 7.257797e-06 2.732035e-06 8.618925e-06 -4.705811e-01 -9.320068e-01
2.566018e+08 8.345947e-01 4.589233e-01 -3.314950e-05 1.072884e-05 -3.785267e-05 -1.963228e-05 -4.696045e-01 -9.360962e-01
2.568205e+08 8.336792e-01 4.596558e-01 -3.232248e-05 1.627952e-06 8.480158e-06 6.801914e-06 -4.683838e-01 -9.388428e-01
2.570392e+08 8.330078e-01 4.608154e-01 -8.318573e-06 2.796948e-05 -4.361197e-05 -1.784414e-05 -4.643555e-01 -9.388428e-01
2.572580e+08 8.316040e-01 4.602051e-01 1.993775e-05 -4.182570e-05 -1.820270e-06 -5.745795e-06 -4.605713e-01 -9.373779e-01
2.574767e+08 8.322754e-01 4.617310e-01 -3.482401e-05 1.631491e-05 3.999099e-05 6.321818e-06 -4.537354e-01 -9.359131e-01
2.576954e+08 8.311157e-01 4.621582e-01 3.760681e-06 -1.573842e-05 1.452304e-05 -1.408905e-05 -4.463501e-01 -9.325562e-01
2.579141e+08 8.304443e-01 4.622192e-01 -2.188236e-05 -4.915893e-05 3.647991e-06 1.150090e-05 -4.357910e-01 -9.296875e-01
2.581329e+08 8.295288e-01 4.634399e-01 1.277775e-06 -2.630800e-05 -3.637746e-06 -1.150556e-05 -4.268188e-01 -9.284058e-01
2.583516e+08 8.287354e-01 4.641113e-01 -2.067536e-05 -5.019084e-05 -2.785958e-05 1.197867e-05 -4.151611e-01 -9.265137e-01
2.585703e+08 8.272095e-01 4.647827e-01 2.361834e-05 5.645677e-06 -5.902350e-05 -6.642193e-06 -4.045410e-01 -9.236450e-01
2.587891e+08 8.264771e-01 4.649658e-01 -1.739245e-05 -1.080055e-05 1.965836e-05 -3.782846e-05 -3.914795e-01 -9.196777e-01
2.590078e+08 8.259888e-01 4.664307e-01 -7.865950e-06 -1.875684e-06 -1.876429e-05 -1.938082e-05 -3.774414e-01 -9.145508e-01
2.592265e+08 8.263550e-01 4.670410e-01 3.156811e-05 -3.041700e-05 2.000481e-05 3.168359e-06 -3.633423e-01 -9.104004e-01
2.594453e+08 8.247681e-01 4.677124e-01 -4.223548e-07 4.558824e-06 -3.423728e-05 -8.175150e-06 -3.455200e-01 -9.075317e-01
2.596640e+08 8.240967e-01 4.675293e-01 -3.267080e-06 -3.939122e-05 5.393848e-05 3.038347e-05 -3.272095e-01 -9.049072e-01
2.598827e+08 8.229980e-01 4.687500e-01 -1.292676e-06 2.631731e-05 -2.269074e-05 4.830956e-05 -3.082886e-01 -9.059448e-01
2.601015e+08 8.226318e-01 4.691772e-01 1.865998e-05 -2.887100e-06 -3.543496e-05 8.048490e-06 -2.893066e-01 -9.067993e-01
2.603202e+08 8.217773e-01 4.702148e-01 6.229617e-06 -5.175360e-06 2.968498e-05 -6.223097e-06 -2.704468e-01 -9.111938e-01
2.605389e+08 8.205566e-01 4.711914e-01 -8.705538e-06 -5.415175e-06 -1.523644e-06 -2.483465e-05 -2.538452e-01 -9.171753e-01
2.607576e+08 8.198853e-01 4.719238e-01 1.162011e-05 -1.232140e-06 1.059938e-05 -6.512739e-06 -2.418213e-01 -9.235229e-01
2.609764e+08 8.191528e-01 4.725952e-01 3.688969e-05 1.147576e-05 5.300716e-05 2.754107e-05 -2.298584e-01 -9.279785e-01
2.611951e+08 8.185425e-01 4.730835e-01 -2.986379e-05 -4.675239e-07 -1.180358e-05 2.270564e-05 -2.185669e-01 -9.285278e-01
2.614138e+08 8.181152e-01 4.737549e-01 -7.037073e-06 -1.100544e-05 2.511963e-05 -2.060272e-05 -2.092285e-01 -9.281006e-01
2.616326e+08 8.178711e-01 4.756470e-01 1.573563e-05 1.641549e-05 -2.606958e-05 1.771748e-05 -1.998901e-01 -9.272461e-01
2.618513e+08 8.173218e-01 4.751587e-01 7.458963e-06 6.445218e-06 5.662814e-05 -2.110004e-05 -1.865845e-01 -9.227905e-01
2.620700e+08 8.162842e-01 4.765015e-01 -2.094079e-06 1.016632e-05 9.089708e-07 2.877787e-06 -1.718750e-01 -9.166870e-01
2.622888e+08 8.154907e-01 4.771729e-01 4.106015e-05 1.646020e-05 -1.725927e-05 5.454756e-06 -1.563110e-01 -9.146729e-01
2.625075e+08 8.146973e-01 4.790039e-01 -2.819858e-05 -6.074086e-06 1.120102e-05 1.545344e-05 -1.383667e-01 -9.121094e-01
2.627262e+08 8.145752e-01 4.799194e-01 -7.481314e-06 6.205868e-06 9.110197e-06 -3.137067e-05 -1.196899e-01 -9.127197e-01
2.629450e+08 8.137207e-01 4.797363e-01 -8.264091e-06 -9.983778e-06 3.967807e-05 2.544746e-05 -1.018066e-01 -9.133911e-01
2.631637e+08 8.136597e-01 4.811401e-01 1.323316e-05 1.849700e-05 3.578141e-05 -2.712756e-05 -8.544922e-02 -9.186401e-01
2.633824e+08 8.120117e-01 4.819336e-01 1.650490e-05 3.262609e-05 6.028637e-05 -9.514391e-06 -6.945801e-02 -9.216919e-01
2.636012e+08 8.119507e-01 4.827881e-01 3.902055e-05 1.352280e-06 -2.122112e-05 1.302734e-05 -5.718994e-02 -9.240112e-01
2.638199e+08 8.115845e-01 4.833984e-01 1.986232e-05 2.143811e-05 -4.092976e-05 -9.242445e-06 -4.541016e-02 -9.287720e-01
2.640386e+08 8.113403e-01 4.843140e-01 2.202392e-05 -1.406483e-05 -6.970949e-06 1.804903e-05 -3.302002e-02 -9.307861e-01
2.642574e+08 8.105469e-01 4.854736e-01 3.673136e-06 2.221391e-05 -2.881698e-05 9.100884e-06 -2.276611e-02 -9.313354e-01
2.644761e+08 8.096313e-01 4.857178e-01 1.198333e-05 1.954567e-05 -2.353318e-10 4.527578e-10 -1.257324e-02 -9.313354e-01
2.646948e+08 8.088379e-01 4.868774e-01 -4.606321e-05 -1.236051e-05 3.639609e-06 -4.866347e-05 -2.929688e-03 -9.323730e-01
2.649135e+08 8.075562e-01 4.877930e-01 5.025044e-05 4.708767e-06 -2.091378e-05 -6.075948e-06 8.056641e-03 -9.318848e-01
2.651323e+08 8.066406e-01 4.884644e-01 1.412444e-05 -3.289431e-06 4.538335e-06 1.439452e-05 1.745605e-02 -9.328613e-01
2.653510e+08 8.071899e-01 4.891968e-01 9.991229e-06 -8.264557e-06 -2.031587e-05 1.592934e-05 2.685547e-02 -9.344482e-01
2.655697e+08 8.046265e-01 4.902344e-01 2.648681e-06 -6.538630e-05 -3.027730e-05 -1.577102e-05 3.356934e-02 -9.359741e-01
2.657885e+08 8.053589e-01 4.909668e-01 4.138798e-06 4.990725e-06 -1.273863e-05 1.985580e-05 4.272461e-02 -9.332275e-01
2.660072e+08 8.049316e-01 4.918213e-01 2.367422e-05 -6.994233e-06 3.153086e-05 -4.470348e-07 4.870605e-02 -9.310303e-01
2.662259e+08 8.047485e-01 4.924316e-01 4.139496e-06 4.992355e-06 -2.061576e-05 3.503822e-05 5.322266e-02 -9.243774e-01
2.664447e+08 8.038330e-01 4.938354e-01 -2.533384e-05 -6.519258e-08 4.247576e-05 -2.605468e-05 6.341553e-02 -9.174194e-01
2.666634e+08 8.028564e-01 4.949951e-01 3.696792e-05 -1.128763e-06 -2.215058e-05 1.012906e-05 7.452393e-02 -9.107056e-01
2.668821e+08 8.027954e-01 4.956665e-01 1.080753e-05 -4.740432e-06 2.972782e-05 -6.191432e-06 8.764648e-02 -9.028320e-01
2.671009e+08 8.024902e-01 4.968872e-01 -1.738220e-05 -2.352893e-05 6.083399e-06 -2.093613e-05 1.044922e-01 -9.000244e-01
2.673196e+08 8.013916e-01 4.968872e-01 1.327973e-05 5.854294e-06 2.639368e-05 -3.683567e-05 1.210938e-01 -8.973999e-01
2.675383e+08 8.002319e-01 4.983521e-01 -1.480244e-05 -3.823824e-05 1.399778e-05 -3.606081e-05 1.390381e-01 -8.973999e-01
2.677570e+08 7.998657e-01 4.998169e-01 2.577342e-05 -4.502013e-06 3.539771e-05 5.222112e-05 1.559448e-01 -9.034424e-01
2.679758e+08 8.002930e-01 5.011597e-01 -1.863390e-05 -2.247281e-05 1.392700e-05 2.414919e-05 1.696777e-01 -9.114990e-01
2.681945e+08 7.992554e-01 5.017090e-01 3.645942e-05 2.877042e-05 2.940744e-05 1.292489e-05 1.790771e-01 -9.216309e-01
2.684132e+08 7.985840e-01 5.032959e-01 -3.671274e-06 -2.223440e-05 1.697149e-05 1.368485e-05 1.836548e-01 -9.291382e-01
2.686320e+08 7.985840e-01 5.041504e-01 -7.156283e-06 2.695248e-05 -1.607276e-05 -1.079682e-05 1.865845e-01 -9.369507e-01
2.688507e+08 7.973022e-01 5.045776e-01 -4.320405e-05 -6.372109e-06 4.305318e-05 -4.030764e-06 1.884766e-01 -9.410400e-01
2.690694e+08 7.963867e-01 5.056763e-01 8.755829e-06 -7.242896e-06 -6.669201e-06 -1.073815e-06 1.882324e-01 -9.419556e-01
2.692882e+08 7.965088e-01 5.057983e-01 -1.457427e-05 7.840805e-06 4.854519e-06 -4.698057e-06 1.886597e-01 -9.409790e-01
2.695069e+08 7.962036e-01 5.080566e-01 -6.247312e-06 5.164649e-06 -1.516007e-05 -7.918105e-06 1.916504e-01 -9.383545e-01
2.697256e+08 7.958984e-01 5.080566e-01 -3.911555e-05 1.129135e-05 7.901341e-06 -1.515821e-05 1.964722e-01 -9.354858e-01
2.699444e+08 7.953491e-01 5.097046e-01 1.681503e-06 -5.605165e-06 -7.911585e-06 1.516007e-05 2.022095e-01 -9.333496e-01
2.701631e+08 7.939453e-01 5.104980e-01 4.337635e-07 -4.567672e-06 -6.338581e-06 -2.017803e-05 2.099609e-01 -9.309692e-01
2.703818e+08 7.945557e-01 5.111084e-01 3.268942e-06 1.414493e-05 -2.069026e-05 3.503263e-05 2.156372e-01 -9.320679e-01
2.706006e+08 7.945557e-01 5.121460e-01 9.890646e-06 1.707301e-05 -1.186319e-05 2.275966e-05 2.238159e-01 -9.343872e-01
2.708193e+08 7.934570e-01 5.133057e-01 2.840534e-06 1.871586e-05 1.006201e-05 -2.851523e-05 2.292480e-01 -9.346924e-01
2.710380e+08 7.924194e-01 5.148926e-01 1.289044e-05 -2.239831e-06 -9.177253e-06 3.138930e-05 2.343140e-01 -9.371338e-01
2.712568e+08 7.913208e-01 5.150146e-01 -7.208437e-06 -5.717576e-05 4.637986e-06 -4.578009e-05 2.396240e-01 -9.379272e-01
2.714755e+08 7.918091e-01 5.162964e-01 -7.120892e-06 1.431443e-05 1.188740e-05 -2.273731e-05 2.431030e-01 -9.375610e-01
2.716942e+08 7.914429e-01 5.181274e-01 1.202058e-05 6.893650e-06 5.142763e-05 -3.828481e-05 2.491455e-01 -9.370117e-01
2.719129e+08 7.911377e-01 5.181274e-01 -1.821481e-05 -1.440756e-05 2.498552e-05 -6.172433e-05 2.579956e-01 -9.377441e-01
2.721317e+08 7.902222e-01 5.193481e-01 1.707580e-05 -9.925105e-06 -1.786184e-05 -1.657940e-05 2.677002e-01 -9.385376e-01
2.723504e+08 7.904663e-01 5.195923e-01 -8.512288e-06 5.334988e-05 2.365373e-05 1.474284e-05 2.751465e-01 -9.436035e-01
2.725691e+08 7.901001e-01 5.216064e-01 -1.711585e-05 2.259202e-05 1.176260e-05 3.752485e-05 2.826538e-01 -9.490356e-01
2.727879e+08 7.899170e-01 5.220947e-01 -2.659857e-06 4.013442e-05 2.909638e-05 3.207475e-05 2.877808e-01 -9.580688e-01
2.730066e+08 7.894897e-01 5.232544e-01 2.151355e-06 -2.284534e-05 4.527718e-05 -1.737103e-05 2.882690e-01 -9.644775e-01
2.732253e+08 7.885742e-01 5.240479e-01 8.670613e-07 -9.140931e-06 1.119636e-05 1.550000e-05 2.893677e-01 -9.718628e-01
2.734441e+08 7.884521e-01 5.242920e-01 -2.442114e-05 -2.190471e-05 -9.723473e-06 9.395182e-06 2.869873e-01 -9.757080e-01
2.736628e+08 7.888184e-01 5.257568e-01 -2.021156e-05 -4.226714e-05 1.232140e-06 -1.624413e-05 2.817993e-01 -9.739380e-01
2.738815e+08 7.880859e-01 5.275269e-01 -2.404861e-05 -1.380406e-05 7.245690e-06 2.308562e-05 2.823486e-01 -9.708252e-01
2.741003e+08 7.879639e-01 5.291138e-01 -2.781488e-05 -1.071393e-05 9.746291e-06 -9.393785e-06 2.839966e-01 -9.626465e-01
2.743190e+08 7.874756e-01 5.294800e-01 -4.287250e-05 1.436099e-05 9.050127e-07 2.887100e-06 2.898560e-01 -9.565430e-01
2.745377e+08 7.870483e-01 5.301514e-01 -1.991913e-05 -8.816831e-06 -6.678049e-06 -1.076143e-06 2.997437e-01 -9.495850e-01
2.747564e+08 7.871704e-01 5.314941e-01 -4.570698e-06 -4.372559e-07 1.064409e-05 -6.510876e-06 3.140259e-01 -9.471436e-01
2.749752e+08 7.858887e-01 5.326538e-01 9.572599e-06 -3.696419e-06 1.406670e-05 -3.607944e-05 3.302002e-01 -9.478149e-01
2.751939e+08 7.867432e-01 5.338745e-01 2.416410e-05 -1.152791e-05 -1.642946e-05 8.320436e-06 3.431396e-01 -9.505005e-01
2.754126e+08 7.859497e-01 5.349731e-01 6.705523e-07 -5.530566e-05 3.884733e-05 2.272800e-05 3.586426e-01 -9.605103e-01
2.756314e+08 7.849121e-01 5.347900e-01 -1.822878e-05 -1.442432e-05 -3.585406e-05 2.710149e-05 3.652954e-01 -9.714355e-01
2.758501e+08 7.847290e-01 5.373535e-01 2.823584e-05 6.163493e-06 2.707820e-06 8.665957e-06 3.715210e-01 -9.834595e-01
2.760688e+08 7.843018e-01 5.375977e-01 9.148847e-06 8.759089e-07 7.221475e-06 2.310053e-05 3.729248e-01 -9.958496e-01
2.762876e+08 7.847290e-01 5.381470e-01 -2.156757e-05 -1.589954e-05 -2.706982e-05 1.482666e-05 3.693237e-01 -1.001404e+00
2.765063e+08 7.839355e-01 5.400391e-01 1.220778e-05 -3.114343e-05 -8.665025e-06 -4.803017e-05 3.627319e-01 -1.007019e+00
2.767250e+08 7.839966e-01 5.407104e-01 -5.156174e-05 -3.784895e-06 -2.150610e-05 -2.815574e-05 3.584595e-01 -1.008850e+00
2.769438e+08 7.836914e-01 5.418091e-01 -4.519708e-06 -1.312792e-05 3.431551e-05 8.292496e-06 3.537598e-01 -1.004211e+00
2.771625e+08 7.838135e-01 5.426025e-01 -6.644521e-06 -2.940185e-06 -2.763048e-05 -7.206574e-06 3.513184e-01 -1.000610e+00
2.773812e+08 7.836304e-01 5.430298e-01 -4.138565e-06 -5.012145e-06 -3.034808e-05 -1.585111e-05 3.495483e-01 -9.920044e-01
2.776000e+08 7.836304e-01 5.449829e-01 -1.043081e-06 4.722551e-05 2.422929e-05 3.684498e-05 3.492432e-01 -9.843750e-01
2.778187e+08 7.828369e-01 5.454712e-01 -1.422130e-05 1.594145e-05 9.394716e-06 9.746756e-06 3.509521e-01 -9.764404e-01
2.780374e+08 7.835083e-01 5.459595e-01 -3.273413e-05 -3.196113e-05 2.154149e-06 -1.336914e-05 3.512573e-01 -9.686279e-01
2.782562e+08 7.825928e-01 5.477295e-01 1.192093e-06 1.165178e-05 -5.474314e-05 7.566065e-06 3.562622e-01 -9.554443e-01
2.784749e+08 7.824707e-01 5.479736e-01 -2.190843e-05 -2.401136e-05 2.038851e-05 -1.590140e-05 3.594971e-01 -9.414673e-01
2.786936e+08 7.816162e-01 5.500488e-01 -1.629815e-06 -7.075258e-06 3.595464e-05 -2.706051e-05 3.657837e-01 -9.285889e-01
2.789123e+08 7.827759e-01 5.508423e-01 -1.658406e-05 -7.349998e-06 7.044524e-06 -1.807511e-05 3.728027e-01 -9.147339e-01
2.791311e+08 7.821655e-01 5.515747e-01 8.173287e-06 3.539398e-05 -1.482107e-05 -2.710149e-05 3.831787e-01 -8.993530e-01
2.793498e+08 7.828369e-01 5.523682e-01 -1.246948e-05 -2.345070e-06 -3.002957e-05 -3.504753e-05 3.963013e-01 -8.856812e-01
2.795685e+08 7.821045e-01 5.548096e-01 2.762303e-06 3.142655e-05 2.659112e-05 -3.688037e-05 4.099731e-01 -8.715210e-01
2.797873e+08 7.815552e-01 5.549316e-01 1.527742e-05 2.108142e-05 -3.576092e-05 -3.324449e-05 4.265747e-01 -8.626099e-01
2.800060e+08 7.819824e-01 5.555420e-01 2.543814e-05 -1.257099e-05 1.845323e-05 3.865920e-05 4.432983e-01 -8.547974e-01
2.802247e+08 7.814941e-01 5.568848e-01 -4.718080e-06 2.493896e-05 2.713874e-06 8.672941e-06 4.566650e-01 -8.492432e-01
2.804435e+08 7.804565e-01 5.577393e-01 -2.353080e-05 -3.110245e-05 2.888776e-05 -9.018928e-06 4.701538e-01 -8.455811e-01
2.806622e+08 7.816772e-01 5.593872e-01 5.692244e-06 2.477504e-05 -1.443550e-06 -2.496131e-05 4.792480e-01 -8.398438e-01
2.808809e+08 7.802124e-01 5.598755e-01 8.775853e-06 -7.241033e-06 -1.269393e-06 1.625810e-05 4.862671e-01 -8.347168e-01
2.810997e+08 7.803345e-01 5.605469e-01 2.952106e-05 5.165115e-06 3.865734e-05 -1.842342e-05 4.919434e-01 -8.274536e-01
2.813184e+08 7.810669e-01 5.616455e-01 4.135771e-06 5.017268e-06 9.045471e-07 2.892455e-06 4.981689e-01 -8.162231e-01
2.815371e+08 7.815552e-01 5.630493e-01 -1.926161e-05 2.007838e-05 -1.646299e-05 8.329749e-06 5.059204e-01 -8.010864e-01
2.817558e+08 7.811890e-01 5.639648e-01 -4.070066e-05 -2.124161e-05 -1.917500e-05 -3.576279e-07 5.121460e-01 -7.866211e-01
2.819746e+08 7.803345e-01 5.648804e-01 -2.626702e-05 9.026378e-06 -2.378613e-10 4.531273e-10 5.232544e-01 -7.722778e-01
2.821933e+08 7.805176e-01 5.650635e-01 -2.318062e-05 -2.302416e-05 -3.017858e-05 2.529286e-05 5.355225e-01 -7.554932e-01
2.824120e+08 7.805786e-01 5.659790e-01 5.520880e-06 -2.141856e-05 4.679710e-05 7.592142e-06 5.491943e-01 -7.421875e-01
2.826308e+08 7.803345e-01 5.673218e-01 -1.347438e-05 -5.210564e-05 -3.610738e-06 -1.156796e-05 5.646973e-01 -7.293091e-01
2.828495e+08 7.807007e-01 5.681763e-01 -1.393445e-05 3.680959e-05 -1.879688e-05 -1.952332e-05 5.779419e-01 -7.174072e-01
2.830682e+08 7.806396e-01 5.690918e-01 2.452731e-05 9.290874e-06 1.952704e-05 -1.880247e-05 5.901794e-01 -7.074890e-01
2.832870e+08 7.811890e-01 5.703125e-01 -5.898997e-06 1.329370e-05 -3.220327e-05 -2.171472e-05 6.019897e-01 -6.969299e-01
2.835057e+08 7.805786e-01 5.711670e-01 1.385808e-05 -2.410077e-05 4.412234e-05 -1.061708e-06 6.135864e-01 -6.848755e-01
2.837244e+08 7.806396e-01 5.715942e-01 -1.969934e-05 2.465583e-05 -2.368912e-05 -1.481920e-05 6.242371e-01 -6.724854e-01
2.839432e+08 7.805786e-01 5.723267e-01 -5.973503e-06 2.598949e-05 8.892268e-05 -4.048645e-05 6.368408e-01 -6.605530e-01
2.841619e+08 7.813721e-01 5.736084e-01 -1.623854e-05 7.431954e-07 7.954426e-06 -1.520198e-05 6.479187e-01 -6.479187e-01
2.843806e+08 7.807617e-01 5.747070e-01 -1.860783e-06 3.100000e-05 -2.188422e-05 -9.052455e-06 6.612549e-01 -6.374207e-01
2.845994e+08 7.809448e-01 5.753784e-01 2.437271e-05 3.467500e-05 -2.351962e-05 2.640113e-05 6.755676e-01 -6.257629e-01
2.848181e+08 7.805176e-01 5.761719e-01 -6.587245e-06 -1.567323e-05 -2.241507e-05 -3.110431e-05 6.885681e-01 -6.185303e-01
2.850368e+08 7.811279e-01 5.773315e-01 2.955273e-05 5.161390e-06 -1.031160e-05 -1.266506e-05 6.999207e-01 -6.102295e-01
2.852556e+08 7.810669e-01 5.785522e-01 -2.424419e-05 1.153536e-05 3.202260e-05 -1.953542e-05 7.108154e-01 -6.047974e-01
2.854743e+08 7.805176e-01 5.798340e-01 -1.677126e-05 1.803227e-05 -1.391582e-05 -2.424978e-05 7.176514e-01 -5.983276e-01
2.856930e+08 7.813721e-01 5.804443e-01 -1.840480e-05 1.093838e-05 -3.492460e-05 -3.040954e-05 7.227783e-01 -5.901489e-01
2.859117e+08 7.799683e-01 5.814819e-01 2.667122e-05 -8.959323e-07 2.084300e-05 -3.506988e-05 7.259521e-01 -5.809937e-01
2.861305e+08 7.803955e-01 5.816650e-01 5.027046e-06 -4.138099e-06 -1.969934e-05 -2.244674e-05 7.300415e-01 -5.688477e-01
2.863492e+08 7.805176e-01 5.831909e-01 2.796017e-05 -1.935288e-06 -3.076717e-05 3.216788e-06 7.330933e-01 -5.555420e-01
2.865679e+08 7.812500e-01 5.841064e-01 -7.543713e-06 6.206334e-06 -2.062693e-05 -2.536736e-05 7.399902e-01 -5.392456e-01
2.867867e+08 7.807617e-01 5.843506e-01 -2.189726e-05 -3.682077e-05 -3.565662e-05 7.940456e-06 7.481079e-01 -5.217896e-01
2.870054e+08 7.808228e-01 5.848389e-01 1.623761e-06 7.098075e-06 5.254522e-06 -2.388470e-05 7.597656e-01 -5.056763e-01
2.872241e+08 7.817383e-01 5.865479e-01 -2.048817e-05 8.437783e-06 2.733432e-05 2.646074e-05 7.744751e-01 -4.903564e-01
2.874429e+08 7.819824e-01 5.873413e-01 -8.957461e-06 -3.904104e-05 2.989732e-05 -6.146729e-06 7.910156e-01 -4.797363e-01
2.876616e+08 7.815552e-01 5.879517e-01 4.956499e-06 8.584466e-06 -1.558382e-05 1.122057e-05 8.076782e-01 -4.744263e-01
2.878803e+08 7.814941e-01 5.885010e-01 3.485009e-06 -2.395920e-05 3.748387e-05 -2.156943e-06 8.226318e-01 -4.683838e-01
2.880991e+08 7.822266e-01 5.894165e-01 -5.317852e-06 -1.671631e-05 -3.478304e-05 1.086295e-05 8.358765e-01 -4.691162e-01
2.883178e+08 7.810669e-01 5.900879e-01 3.697351e-07 8.135568e-06 1.415610e-06 2.498180e-05 8.447876e-01 -4.706421e-01
2.885365e+08 7.817383e-01 5.910034e-01 -1.405180e-05 -2.219714e-05 -3.458932e-06 2.970546e-05 8.507690e-01 -4.713745e-01
2.887552e+08 7.822876e-01 5.919189e-01 6.134622e-06 2.027676e-05 -5.799811e-06 1.807231e-06 8.542480e-01 -4.708862e-01
2.889740e+08 7.825928e-01 5.924683e-01 2.788194e-05 1.079589e-05 -6.169081e-06 2.101436e-05 8.548584e-01 -4.680786e-01
2.891927e+08 7.821655e-01 5.930786e-01 -1.635030e-05 -5.830079e-05 -9.411480e-06 -9.790994e-06 8.550415e-01 -4.653320e-01
2.894114e+08 7.821655e-01 5.942383e-01 2.670474e-05 -8.828938e-07 3.091991e-06 -1.050439e-05 8.563232e-01 -4.580078e-01
2.896302e+08 7.832031e-01 5.946655e-01 1.338311e-06 -1.376215e-05 -1.921505e-05 -3.706664e-07 8.568726e-01 -4.523315e-01
2.898489e+08 7.833862e-01 5.958862e-01 1.952518e-05 1.346134e-05 -1.806300e-06 -5.804002e-06 8.598022e-01 -4.451294e-01
2.900676e+08 7.827759e-01 5.964355e-01 -1.799501e-05 6.350689e-06 2.553128e-05 2.069585e-05 8.637695e-01 -4.405518e-01
2.902864e+08 7.838135e-01 5.974121e-01 -9.620562e-06 3.695954e-06 -2.324581e-06 -2.794527e-05 8.670044e-01 -4.355469e-01
2.905051e+08 7.840576e-01 5.983276e-01 -1.474470e-05 2.057571e-05 2.233125e-05 -1.013838e-05 8.698730e-01 -4.333496e-01
2.907238e+08 7.838745e-01 5.986328e-01 4.226342e-06 -7.702969e-06 9.940937e-06 3.193878e-05 8.716431e-01 -4.289551e-01
2.909426e+08 7.842407e-01 5.996094e-01 1.880247e-05 -2.809800e-06 -1.423061e-06 -2.504699e-05 8.738403e-01 -4.265137e-01
2.911613e+08 7.838135e-01 6.006470e-01 4.145782e-06 5.033333e-06 -1.809560e-06 -5.808193e-06 8.736572e-01 -4.206543e-01
2.913800e+08 7.839355e-01 6.015625e-01 -1.992006e-05 -2.162345e-05 2.582371e-05 -3.989786e-05 8.756714e-01 -4.169922e-01
2.915988e+08 7.835693e-01 6.016846e-01 -6.740913e-06 9.776559e-06 3.832951e-05 -4.059449e-05 8.778687e-01 -4.124146e-01
2.918175e+08 7.838135e-01 6.031494e-01 -5.058944e-05 7.804483e-06 4.786998e-06 -4.609674e-05 8.817139e-01 -4.093628e-01
2.920362e+08 7.846069e-01 6.032715e-01 -1.495238e-05 -1.305901e-05 -5.450845e-05 2.971664e-05 8.851318e-01 -4.060059e-01
2.922550e+08 7.842407e-01 6.030884e-01 -3.525987e-06 2.401881e-05 8.898787e-06 -1.232792e-05 8.888550e-01 -4.047852e-01
2.924737e+08 7.847900e-01 6.047363e-01 2.902932e-05 3.528967e-05 6.716698e-06 1.098029e-06 8.939819e-01 -4.041748e-01
2.926924e+08 7.849121e-01 6.051025e-01 2.399459e-05 3.946200e-05 1.214538e-05 1.853425e-05 8.941650e-01 -4.049683e-01
2.929111e+08 7.850342e-01 6.061401e-01 -8.831732e-06 7.262919e-06 -1.072697e-05 6.524846e-06 8.937988e-01 -4.056396e-01
2.931299e+08 7.863159e-01 6.069336e-01 7.478055e-06 6.527640e-06 -1.616962e-05 -1.092721e-05 8.939209e-01 -4.052124e-01
2.933486e+08 7.853394e-01 6.076660e-01 5.323440e-06 1.677684e-05 2.055615e-05 -1.595356e-05 8.905029e-01 -4.031982e-01
2.935673e+08 7.853394e-01 6.082153e-01 -1.147203e-05 -3.709644e-05 3.178418e-05 -3.110617e-07 8.886108e-01 -3.997192e-01
2.937861e+08 7.853394e-01 6.082153e-01 5.748495e-05 -3.038347e-05 -3.369898e-05 -4.690886e-05 8.875732e-01 -3.926392e-01
2.940048e+08 7.865601e-01 6.087646e-01 -7.485505e-06 -6.529503e-06 -5.186349e-05 3.847107e-05 8.887939e-01 -3.865356e-01
2.942235e+08 7.868042e-01 6.102905e-01 2.668612e-05 1.189299e-05 1.114234e-05 -2.580695e-05 8.925781e-01 -3.802490e-01
2.944423e+08 7.870483e-01 6.101074e-01 -2.652593e-05 -3.742799e-05 3.052875e-05 1.603737e-05 8.992310e-01 -3.732910e-01
2.946610e+08 7.872925e-01 6.108398e-01 1.254212e-05 2.373010e-06 -9.835698e-06 9.440817e-06 9.066162e-01 -3.704834e-01
2.948797e+08 7.868652e-01 6.107178e-01 1.759455e-05 -1.769513e-06 -3.488734e-06 2.980046e-05 9.141846e-01 -3.681641e-01
2.950985e+08 7.874756e-01 6.122437e-01 -4.063360e-06 -1.780875e-05 3.930181e-07 -1.928210e-05 9.218140e-01 -3.711548e-01
2.953172e+08 7.871094e-01 6.128540e-01 1.011044e-05 -8.306932e-06 3.222935e-05 -1.958199e-05 9.247437e-01 -3.745728e-01
2.955359e+08 7.884521e-01 6.128540e-01 1.759455e-05 -1.769513e-06 -2.860278e-05 3.127381e-05 9.283447e-01 -3.785400e-01
2.957546e+08 7.881470e-01 6.135254e-01 2.733991e-05 -1.824461e-05 1.656823e-05 -8.348376e-06 9.284058e-01 -3.839111e-01
2.959734e+08 7.885742e-01 6.140137e-01 3.012270e-05 6.370246e-07 4.660338e-06 5.606189e-05 9.254761e-01 -3.856201e-01
2.961921e+08 7.897339e-01 6.156006e-01 3.464520e-05 1.298264e-06 -9.049661e-06 -9.221025e-06 9.205933e-01 -3.861694e-01
2.964108e+08 7.894897e-01 6.163330e-01 -1.967419e-05 -4.358590e-06 2.909079e-05 1.488812e-05 9.166260e-01 -3.833618e-01
2.966296e+08 7.905273e-01 6.174927e-01 -3.937632e-05 2.606027e-05 -1.917500e-05 -2.925284e-06 9.114380e-01 -3.789062e-01
2.968483e+08 7.899170e-01 6.176147e-01 8.083880e-07 3.197603e-05 -1.775101e-06 -5.501322e-06 9.096680e-01 -3.729858e-01
2.970670e+08 7.894897e-01 6.174316e-01 2.544001e-05 -6.971881e-06 1.099147e-05 -3.546476e-06 9.075928e-01 -3.675537e-01
2.972858e+08 7.901001e-01 6.187744e-01 2.279878e-05 6.863102e-05 -8.683652e-06 -4.579127e-05 9.057617e-01 -3.618774e-01
2.975045e+08 7.911377e-01 6.195679e-01 3.414974e-05 1.078472e-05 2.007373e-05 5.681068e-06 9.042358e-01 -3.547974e-01
2.977232e+08 7.897949e-01 6.188354e-01 9.603798e-06 4.979596e-05 3.033318e-05 -1.889281e-05 9.016113e-01 -3.472900e-01
2.979420e+08 7.901611e-01 6.201782e-01 2.540089e-05 -7.059425e-06 8.873176e-07 2.751360e-06 8.975220e-01 -3.388672e-01
2.981607e+08 7.907104e-01 6.200562e-01 -3.992207e-05 6.705523e-07 1.934823e-05 -1.536123e-05 8.932495e-01 -3.296509e-01
2.983794e+08 7.908325e-01 6.207886e-01 5.688146e-05 -1.276657e-05 -1.012068e-05 6.306916e-06 8.918457e-01 -3.189697e-01
2.985982e+08 7.922363e-01 6.217041e-01 -1.667067e-05 -3.716908e-06 -3.840216e-05 -5.844980e-06 8.899536e-01 -3.030396e-01
2.988169e+08 7.917480e-01 6.219482e-01 -1.620501e-07 -6.400980e-06 -2.486818e-05 1.715682e-05 8.897095e-01 -2.866821e-01
2.990356e+08 7.913818e-01 6.221313e-01 1.717545e-05 -5.721115e-06 -1.155771e-05 -3.579073e-05 8.940430e-01 -2.719727e-01
2.992544e+08 7.913818e-01 6.225586e-01 8.212402e-06 2.728775e-05 -3.145076e-05 3.444590e-05 9.015503e-01 -2.571411e-01
2.994731e+08 7.915649e-01 6.236572e-01 8.041970e-06 2.089702e-05 1.031719e-05 -2.461113e-05 9.091187e-01 -2.449951e-01
2.996918e+08 7.915039e-01 6.234131e-01 1.341105e-05 5.390123e-05 9.234063e-06 -9.057578e-06 9.176636e-01 -2.346191e-01
2.999105e+08 7.924194e-01 6.240845e-01 -2.761558e-05 -1.891330e-05 5.511101e-06 -1.775566e-06 9.254761e-01 -2.287598e-01
3.001293e+08 7.924194e-01 6.247559e-01 -3.068522e-05 9.080395e-06 2.363883e-05 1.672283e-05 9.320068e-01 -2.274170e-01
3.003480e+08 7.929077e-01 6.253662e-01 -8.420087e-06 -5.059876e-06 4.410744e-05 -1.421571e-05 9.334717e-01 -2.244263e-01
3.005667e+08 7.931519e-01 6.246948e-01 -1.148134e-05 2.291985e-05 1.084991e-05 1.474842e-05 9.308472e-01 -2.230835e-01
3.007855e+08 7.935791e-01 6.259766e-01 -2.207235e-06 3.135577e-05 -2.046861e-05 3.096834e-05 9.239502e-01 -2.192383e-01
3.010042e+08 7.932129e-01 6.263428e-01 9.942334e-06 5.403999e-06 2.845190e-06 -1.004804e-05 9.147949e-01 -2.111816e-01
3.012229e+08 7.936401e-01 6.259766e-01 1.041219e-06 -1.888908e-05 -1.030415e-05 2.463348e-05 9.030151e-01 -1.992798e-01
3.014417e+08 7.930298e-01 6.267700e-01 5.247071e-06 -3.067404e-05 1.261383e-05 2.027489e-05 8.919067e-01 -1.823120e-01
3.016604e+08 7.936401e-01 6.270142e-01 -1.097471e-05 4.214235e-05 2.147630e-06 -3.112480e-05 8.846436e-01 -1.624756e-01
3.018791e+08 7.940674e-01 6.274414e-01 7.430557e-06 -4.717615e-06 -2.740882e-05 -9.423122e-06 8.784180e-01 -1.412354e-01
3.020979e+08 7.940674e-01 6.281128e-01 -9.784475e-06 9.988435e-07 -2.918951e-05 -1.495518e-05 8.756714e-01 -1.186523e-01
3.023166e+08 7.940674e-01 6.289062e-01 2.902932e-05 -1.584552e-05 1.459755e-05 7.482246e-06 8.740845e-01 -9.613037e-02
3.025353e+08 7.946167e-01 6.289062e-01 -8.786097e-06 3.949553e-05 -1.246110e-05 -3.863685e-05 8.757324e-01 -7.342529e-02
3.027540e+08 7.947998e-01 6.284180e-01 1.205131e-06 -4.116446e-05 1.192652e-05 -8.111820e-07 8.767090e-01 -5.456543e-02
3.029728e+08 7.951660e-01 6.296387e-01 1.346692e-05 5.400553e-05 -1.461245e-05 -7.482246e-06 8.785400e-01 -3.308105e-02
3.031915e+08 7.943726e-01 6.298828e-01 -8.465722e-06 2.361275e-05 1.174212e-05 1.754425e-05 8.800659e-01 -1.336670e-02
3.034102e+08 7.958984e-01 6.303711e-01 2.902746e-05 1.284108e-05 -4.452653e-06 -1.381710e-05 8.834839e-01 4.516602e-03
3.036290e+08 7.941895e-01 6.306763e-01 5.563721e-06 1.081219e-05 4.063547e-05 -2.527237e-05 8.875732e-01 2.404785e-02
3.038477e+08 7.945557e-01 6.299438e-01 -6.632879e-06 3.682822e-05 1.335517e-05 -5.307794e-05 8.900146e-01 4.241943e-02
3.040664e+08 7.946777e-01 6.310425e-01 -3.790483e-05 2.666749e-05 1.460779e-05 7.493421e-06 8.956909e-01 6.030273e-02
3.042852e+08 7.960815e-01 6.314697e-01 -3.189221e-05 -3.584102e-05 2.130866e-06 -3.123097e-05 8.992920e-01 7.727051e-02
3.045039e+08 7.954712e-01 6.311646e-01 1.155771e-06 1.621619e-05 4.689023e-05 -5.956739e-06 9.065552e-01 9.136963e-02
3.047226e+08 7.942505e-01 6.312256e-01 -3.843009e-05 3.611669e-05 -6.714836e-05 1.857430e-05 9.107056e-01 1.024170e-01
3.049414e+08 7.958984e-01 6.321411e-01 2.120063e-05 -5.913526e-05 -2.835877e-05 -1.222454e-05 9.135132e-01 1.137695e-01
3.051601e+08 7.952881e-01 6.323242e-01 1.394749e-05 -7.671863e-05 2.961047e-05 -2.173893e-05 9.150391e-01 1.218872e-01
3.053788e+08 7.955933e-01 6.336060e-01 -3.848597e-05 -5.647913e-05 -5.158037e-05 1.049787e-05 9.140015e-01 1.317749e-01
3.055976e+08 7.950439e-01 6.333008e-01 3.365055e-05 -1.483969e-05 1.372583e-05 4.735775e-06 9.094238e-01 1.412964e-01
3.058163e+08 7.958374e-01 6.339111e-01 2.676249e-05 -4.830956e-05 -1.945719e-05 1.543481e-05 9.031982e-01 1.522217e-01
3.060350e+08 7.949829e-01 6.336670e-01 1.705438e-05 1.657661e-05 -5.528331e-06 1.779757e-06 8.967285e-01 1.672363e-01
3.062538e+08 7.954712e-01 6.336060e-01 -5.718321e-06 -4.599616e-05 1.320243e-05 -3.478304e-05 8.900146e-01 1.835327e-01
3.064725e+08 7.955322e-01 6.344604e-01 1.931190e-05 -1.484808e-05 -4.407018e-05 -4.149973e-06 8.853149e-01 2.009277e-01
3.066912e+08 7.958984e-01 6.351318e-01 -7.509068e-05 -7.234514e-06 3.678724e-05 3.930181e-07 8.842773e-01 2.208252e-01
3.069099e+08 7.951050e-01 6.347046e-01 3.350340e-05 -2.128072e-05 -2.874434e-05 2.450868e-05 8.851318e-01 2.402344e-01
3.071287e+08 7.957764e-01 6.342773e-01 -2.567656e-06 1.860969e-05 -5.720183e-06 2.016500e-05 8.883667e-01 2.571411e-01
3.073474e+08 7.962036e-01 6.347046e-01 -3.941357e-05 -2.434477e-06 2.697110e-05 -3.007986e-05 8.928833e-01 2.725830e-01
3.075661e+08 7.965698e-01 6.358032e-01 1.033954e-05 -1.047272e-05 -4.450791e-06 -1.385249e-05 8.976440e-01 2.842407e-01
3.077849e+08 7.950439e-01 6.348877e-01 1.170114e-05 -1.658779e-05 -3.948808e-06 2.568401e-05 9.031982e-01 2.930298e-01
3.080036e+08 7.963867e-01 6.353149e-01 2.017617e-05 -4.026666e-05 2.374686e-05 1.680665e-05 9.065552e-01 3.005371e-01
3.082223e+08 7.962646e-01 6.362305e-01 1.015235e-05 1.186039e-05 2.573058e-05 3.956258e-06 9.065552e-01 3.048706e-01
3.084411e+08 7.966919e-01 6.364136e-01 -2.762489e-05 1.622550e-05 1.974404e-06 -1.286808e-05 9.060669e-01 3.099365e-01
3.086598e+08 7.962036e-01 6.366577e-01 -1.806766e-05 6.636232e-05 2.465025e-05 1.959689e-05 9.037476e-01 3.161621e-01
3.088785e+08 7.958984e-01 6.362305e-01 1.409650e-05 -1.284853e-05 1.018960e-05 -6.332994e-06 8.990479e-01 3.231201e-01
3.090973e+08 7.958984e-01 6.363525e-01 -1.893379e-05 -2.983958e-05 -2.057850e-05 3.106706e-05 8.964233e-01 3.308105e-01
3.093160e+08 7.973633e-01 6.371460e-01 6.824266e-07 -3.049150e-06 2.021715e-05 5.742535e-06 8.941650e-01 3.379517e-01
3.095347e+08 7.952881e-01 6.365967e-01 2.324209e-05 -1.079403e-05 3.502145e-05 -5.168840e-06 8.913574e-01 3.475952e-01
3.097534e+08 7.955933e-01 6.369629e-01 1.356844e-05 -3.361143e-06 -1.179054e-05 -1.761783e-05 8.900146e-01 3.540649e-01
3.099722e+08 7.960815e-01 6.376953e-01 4.018471e-05 -6.258488e-07 -6.657466e-05 2.140552e-05 8.884888e-01 3.616943e-01
3.101909e+08 7.954712e-01 6.383667e-01 -3.494322e-06 -4.881993e-05 4.001707e-05 4.833564e-05 8.864746e-01 3.679199e-01
3.104096e+08 7.951050e-01 6.381836e-01 -3.575347e-06 8.813571e-06 2.918765e-05 -6.139651e-05 8.851318e-01 3.746948e-01
3.106284e+08 7.949829e-01 6.388550e-01 -2.248213e-06 3.152527e-05 1.792982e-05 -3.942475e-05 8.836060e-01 3.800049e-01
3.108471e+08 7.951050e-01 6.386108e-01 -4.382804e-06 -2.341159e-05 2.506934e-05 -1.723319e-05 8.816528e-01 3.853760e-01
3.110658e+08 7.953491e-01 6.392822e-01 -5.993992e-06 3.391877e-05 -1.623668e-05 -3.153086e-05 8.824463e-01 3.923950e-01
3.112846e+08 7.947998e-01 6.390381e-01 1.645368e-05 -9.119511e-06 1.579523e-06 2.397597e-05 8.823242e-01 3.975220e-01
3.115033e+08 7.951660e-01 6.389771e-01 2.788939e-05 -3.858842e-05 -3.617443e-05 2.080575e-05 8.830566e-01 4.030762e-01
3.117220e+08 7.954712e-01 6.393433e-01 -3.051013e-06 -6.833579e-07 1.150370e-05 -4.045665e-05 8.874512e-01 4.068604e-01
3.119408e+08 7.950439e-01 6.392822e-01 3.450736e-05 4.620850e-05 3.310479e-05 7.731840e-06 8.898315e-01 4.069824e-01
3.121595e+08 7.947388e-01 6.400757e-01 -3.294460e-05 1.825020e-05 1.516193e-06 -5.255640e-05 8.930664e-01 4.044800e-01
3.123782e+08 7.943726e-01 6.394043e-01 5.316734e-05 -2.973527e-05 -4.480779e-05 5.112216e-05 8.929443e-01 3.986206e-01
3.125970e+08 7.941895e-01 6.404419e-01 -3.441423e-05 -1.095049e-05 2.798066e-05 -2.734736e-05 8.896484e-01 3.923340e-01
3.128157e+08 7.940674e-01 6.405640e-01 6.553158e-05 -2.059713e-05 -1.692399e-05 -5.277619e-05 8.826904e-01 3.862915e-01
3.130344e+08 7.942505e-01 6.403809e-01 6.314367e-07 2.579950e-05 -4.313514e-05 -1.984835e-05 8.718262e-01 3.804932e-01
3.132532e+08 7.940674e-01 6.400757e-01 -9.845477e-06 9.932555e-07 6.574020e-05 -2.418086e-05 8.587036e-01 3.798828e-01
3.134719e+08 7.937012e-01 6.406860e-01 -3.136508e-05 -1.028553e-05 4.224852e-05 1.706183e-05 8.447266e-01 3.818970e-01
3.136906e+08 7.940674e-01 6.409302e-01 -1.733750e-05 5.746260e-06 -3.978610e-06 2.579577e-05 8.311768e-01 3.893433e-01
3.139093e+08 7.944336e-01 6.410522e-01 1.359358e-05 -3.360212e-06 -6.759167e-05 1.870468e-05 8.199463e-01 3.988037e-01
3.141281e+08 7.942505e-01 6.409912e-01 3.592577e-06 -8.825678e-06 5.751848e-06 -2.025068e-05 8.126221e-01 4.118652e-01
3.143468e+08 7.925415e-01 6.417236e-01 5.641952e-06 -1.799688e-05 6.556138e-05 -5.692244e-06 8.067627e-01 4.246216e-01
3.145655e+08 7.932739e-01 6.411743e-01 1.978874e-05 -3.087521e-05 -1.131929e-05 2.202764e-05 8.069458e-01 4.367676e-01
3.147843e+08 7.926025e-01 6.412964e-01 -8.488074e-06 -5.114824e-06 -3.776047e-06 7.336494e-06 8.093262e-01 4.467773e-01
3.150030e+08 7.933960e-01 6.422729e-01 1.620315e-05 -2.204254e-05 3.048219e-05 -5.662441e-07 8.134766e-01 4.557495e-01
3.152217e+08 7.922363e-01 6.428223e-01 -1.971330e-05 1.988374e-06 -1.556892e-05 -1.034047e-05 8.176880e-01 4.606934e-01
3.154405e+08 7.922974e-01 6.428833e-01 3.608130e-05 -1.756847e-05 -3.403611e-05 -1.056492e-05 8.217163e-01 4.631958e-01
3.156592e+08 7.916870e-01 6.428833e-01 1.512934e-05 -3.014691e-06 2.580509e-05 3.999099e-06 8.250122e-01 4.638672e-01
3.158779e+08 7.915649e-01 6.432495e-01 1.552701e-05 4.528463e-05 -3.358535e-05 2.915971e-05 8.241577e-01 4.631958e-01
3.160967e+08 7.912598e-01 6.437378e-01 1.123827e-05 -7.111579e-06 3.326684e-06 -4.706532e-05 8.250732e-01 4.613647e-01
3.163154e+08 7.911987e-01 6.437378e-01 -1.154840e-05 -5.817972e-06 -1.108274e-06 1.569092e-05 8.217163e-01 4.621582e-01
3.165341e+08 7.910156e-01 6.435547e-01 -9.784475e-06 -2.790242e-05 -2.738833e-05 -2.802536e-05 8.171387e-01 4.625244e-01
3.167528e+08 7.908936e-01 6.441650e-01 -2.517551e-05 -2.454966e-06 2.493523e-05 1.214445e-06 8.124390e-01 4.632568e-01
3.169716e+08 7.907715e-01 6.437378e-01 1.942553e-05 -1.492258e-05 -3.316440e-05 -7.770956e-06 8.073120e-01 4.670410e-01
3.171903e+08 7.903442e-01 6.449585e-01 1.454726e-06 -3.505312e-05 2.337061e-05 -2.282672e-05 8.029175e-01 4.705811e-01
3.174090e+08 7.891846e-01 6.447144e-01 3.520399e-05 -5.630031e-05 8.005649e-06 2.502836e-05 7.957764e-01 4.745483e-01
3.176278e+08 7.902222e-01 6.447754e-01 -2.874807e-05 6.373972e-06 2.204813e-05 1.135468e-05 7.903442e-01 4.800415e-01
3.178465e+08 7.893066e-01 6.450806e-01 3.211759e-05 7.243827e-06 1.847371e-05 2.188608e-07 7.844238e-01 4.865112e-01
3.180652e+08 7.890015e-01 6.452637e-01 -4.494563e-06 -2.992339e-05 -2.871267e-05 6.098300e-06 7.771606e-01 4.960938e-01
3.182840e+08 7.894897e-01 6.461182e-01 9.802170e-07 9.865034e-06 -3.091991e-06 -4.814193e-05 7.727051e-01 5.040283e-01
3.185027e+08 7.888794e-01 6.462402e-01 -9.473413e-06 -1.499709e-05 1.783296e-05 -2.104603e-05 7.684937e-01 5.157471e-01
3.187214e+08 7.886963e-01 6.461182e-01 -1.850631e-05 -1.061335e-05 1.778826e-06 5.568378e-06 7.681885e-01 5.287476e-01
3.189402e+08 7.872314e-01 6.464233e-01 -1.140125e-05 6.426126e-07 -3.985688e-05 9.637326e-06 7.706909e-01 5.399780e-01
3.191589e+08 7.888794e-01 6.468506e-01 -6.768852e-06 3.704987e-05 5.906448e-05 1.180917e-05 7.745972e-01 5.507202e-01
3.193776e+08 7.874756e-01 6.469727e-01 2.984889e-05 -2.542138e-05 3.788620e-06 -7.347669e-06 7.806396e-01 5.560303e-01
3.195964e+08 7.872314e-01 6.467285e-01 2.365792e-06 3.752997e-06 9.350944e-06 -9.131618e-06 7.874756e-01 5.588989e-01
3.198151e+08 7.879028e-01 6.471558e-01 -8.136034e-06 -5.653501e-05 4.033744e-05 3.007799e-05 7.914429e-01 5.543213e-01
3.200338e+08 7.867432e-01 6.480103e-01 -1.629256e-05 -1.332257e-05 -1.025666e-05 6.340444e-06 7.923584e-01 5.505981e-01
3.202526e+08 7.871704e-01 6.486206e-01 3.958121e-07 -1.600385e-05 1.828093e-05 1.872797e-05 7.880249e-01 5.421143e-01
3.204713e+08 7.856445e-01 6.488647e-01 2.710149e-05 -1.319684e-05 2.540834e-05 -3.573857e-05 7.791138e-01 5.371094e-01
3.206900e+08 7.865601e-01 6.491089e-01 -2.360158e-05 3.328733e-05 -1.783669e-05 2.105907e-05 7.673340e-01 5.309448e-01
3.209087e+08 7.854004e-01 6.490479e-01 -9.298325e-06 2.685376e-05 -5.232170e-05 -2.933666e-05 7.511597e-01 5.293579e-01
3.211275e+08 7.850342e-01 6.491699e-01 -3.601052e-05 2.402999e-05 -1.670700e-05 5.337410e-06 7.318115e-01 5.323486e-01
3.213462e+08 7.855225e-01 6.493530e-01 -3.560260e-05 8.050352e-06 -3.116205e-06 2.863817e-05 7.145996e-01 5.384521e-01
3.215649e+08 7.844238e-01 6.497192e-01 -5.934387e-06 -5.926192e-05 -1.269951e-05 -2.050214e-05 6.967773e-01 5.500793e-01
3.217837e+08 7.837524e-01 6.504517e-01 -1.611188e-06 2.859160e-05 1.227763e-05 -1.926534e-05 6.813965e-01 5.627747e-01
3.220024e+08 7.828979e-01 6.499634e-01 -1.393165e-05 -9.570271e-06 -6.876513e-05 -4.248321e-05 6.694946e-01 5.779724e-01
3.222211e+08 7.830811e-01 6.508179e-01 -3.390014e-05 -4.948303e-05 -2.268329e-05 -3.265962e-05 6.562500e-01 5.919189e-01
3.224399e+08 7.828369e-01 6.511841e-01 -4.892237e-06 -1.398288e-05 -1.713634e-07 -5.828217e-05 6.492615e-01 6.073608e-01
3.226586e+08 7.822876e-01 6.513672e-01 -4.448229e-06 5.434034e-06 -2.447143e-05 -3.823638e-05 6.419983e-01 6.213379e-01
3.228773e+08 7.822266e-01 6.517334e-01 -1.426786e-06 -2.928078e-05 2.833456e-05 -4.588813e-05 6.364441e-01 6.333313e-01
3.230961e+08 7.818604e-01 6.515503e-01 -1.392327e-05 -9.585172e-06 -4.231930e-05 -1.718849e-05 6.301880e-01 6.455688e-01
3.233148e+08 7.816772e-01 6.522827e-01 -3.314950e-05 -1.717173e-05 -2.988055e-05 2.181530e-05 6.251831e-01 6.546936e-01
3.235335e+08 7.809448e-01 6.531372e-01 -4.064851e-05 -1.242571e-05 9.624287e-06 -2.762675e-05 6.201782e-01 6.650391e-01
3.237522e+08 7.807007e-01 6.528931e-01 -2.376363e-05 2.680160e-05 -1.801737e-05 -3.723428e-05 6.130981e-01 6.726990e-01
3.239710e+08 7.800293e-01 6.536255e-01 4.358590e-05 4.206039e-05 2.141297e-05 -9.879470e-06 6.080322e-01 6.821594e-01
3.241897e+08 7.795410e-01 6.535034e-01 -5.546026e-07 9.536278e-06 -3.584661e-05 -1.618452e-05 6.018677e-01 6.869507e-01
3.244084e+08 7.796021e-01 6.536865e-01 -2.072379e-05 2.746657e-05 -1.268461e-05 -2.051704e-05 5.947876e-01 6.918335e-01
3.246272e+08 7.791748e-01 6.539307e-01 -2.977066e-05 -3.540888e-06 -1.203269e-05 7.664785e-07 5.869141e-01 6.950684e-01
3.248459e+08 7.785034e-01 6.545410e-01 2.197921e-05 -4.682690e-06 3.382377e-05 2.910383e-05 5.759277e-01 6.986694e-01
3.250646e+08 7.780151e-01 6.551514e-01 -3.617723e-06 8.835923e-06 -2.417713e-06 -2.684444e-05 5.645752e-01 7.022400e-01
3.252834e+08 7.783813e-01 6.557617e-01 8.312985e-06 -3.673322e-05 -1.962390e-05 1.547206e-05 5.504150e-01 7.065430e-01
3.255021e+08 7.780762e-01 6.565552e-01 4.448229e-06 -5.428446e-06 3.168359e-05 -1.621060e-05 5.332642e-01 7.116394e-01
3.257208e+08 7.773438e-01 6.562500e-01 -3.382191e-05 2.131052e-05 -2.444349e-05 -3.824197e-05 5.188599e-01 7.233887e-01
3.259396e+08 7.772827e-01 6.572266e-01 3.487803e-06 2.010632e-05 8.238945e-06 6.586313e-06 5.028076e-01 7.337646e-01
3.261583e+08 7.763672e-01 6.584473e-01 1.168437e-05 -2.309494e-05 -2.735481e-05 -2.815947e-05 4.894409e-01 7.478027e-01
3.263770e+08 7.767944e-01 6.579590e-01 2.311356e-05 1.168065e-05 -3.079884e-05 1.901016e-05 4.788208e-01 7.622681e-01
3.265958e+08 7.764893e-01 6.576538e-01 3.345311e-06 1.364201e-05 3.052503e-05 -5.289912e-07 4.719849e-01 7.766724e-01
3.268145e+08 7.758789e-01 6.583862e-01 -1.432560e-05 6.400049e-06 -1.785345e-05 2.103671e-05 4.657593e-01 7.885742e-01
3.270332e+08 7.753906e-01 6.586304e-01 7.074326e-06 -2.412498e-05 1.671165e-05 -5.329028e-06 4.646606e-01 8.004761e-01
3.272520e+08 7.751465e-01 6.599731e-01 6.984919e-07 3.235042e-05 -1.026969e-05 6.331131e-06 4.611206e-01 8.068237e-01
3.274707e+08 7.734375e-01 6.602783e-01 1.209415e-05 3.172271e-05 2.495199e-05 1.281500e-06 4.633179e-01 8.082886e-01
3.276894e+08 7.750244e-01 6.602783e-01 6.835908e-06 3.374927e-05 5.170703e-06 -4.158914e-05 4.562988e-01 8.095093e-01
3.279081e+08 7.731323e-01 6.608887e-01 -1.669675e-05 3.806315e-05 -6.988645e-06 3.596768e-05 4.468994e-01 8.061523e-01
3.281269e+08 7.734985e-01 6.616211e-01 -2.423301e-05 4.277751e-05 2.408400e-05 -1.514331e-06 4.353027e-01 8.058472e-01
3.283456e+08 7.725220e-01 6.618042e-01 -1.337007e-05 1.628883e-05 2.901815e-05 -2.455525e-05 4.187012e-01 8.049927e-01
3.285643e+08 7.723999e-01 6.614990e-01 2.364628e-06 3.758352e-06 3.166497e-06 -2.861954e-05 4.029541e-01 8.073730e-01
3.287831e+08 7.725830e-01 6.621704e-01 -1.559313e-05 1.901295e-05 3.876910e-05 6.068498e-06 3.861694e-01 8.153687e-01
3.290018e+08 7.717285e-01 6.632690e-01 1.475215e-05 -2.240762e-05 1.877081e-05 -1.822319e-05 3.691406e-01 8.242188e-01
3.292205e+08 7.719727e-01 6.638794e-01 1.768395e-05 -2.816506e-05 -4.525110e-05 -7.133931e-06 3.536377e-01 8.366089e-01
3.294393e+08 7.713623e-01 6.640015e-01 1.892634e-05 3.008544e-05 -9.655952e-06 2.760813e-05 3.418579e-01 8.499146e-01
3.296580e+08 7.703857e-01 6.644897e-01 -2.226676e-06 2.712011e-06 1.122802e-05 5.473942e-05 3.299561e-01 8.652954e-01
3.298767e+08 7.700806e-01 6.651001e-01 -2.204999e-05 -7.259846e-05 -2.379715e-05 -1.699850e-05 3.248901e-01 8.800659e-01
3.300955e+08 7.695923e-01 6.655884e-01 -1.110137e-06 -1.634005e-05 8.838251e-07 2.786284e-06 3.226318e-01 8.924561e-01
3.303142e+08 7.702637e-01 6.658936e-01 8.901581e-06 2.454035e-05 9.378884e-06 -9.119045e-06 3.190918e-01 9.060669e-01
3.305329e+08 7.693481e-01 6.669922e-01 -2.356991e-05 3.967620e-05 8.502975e-06 -1.190137e-05 3.181152e-01 9.164429e-01
3.307516e+08 7.694702e-01 6.674194e-01 1.419429e-05 -1.285598e-05 4.867464e-05 -4.001707e-05 3.205566e-01 9.268799e-01
3.309704e+08 7.691650e-01 6.681519e-01 -1.542829e-05 -9.955838e-06 -4.691770e-06 4.558591e-06 3.248901e-01 9.318237e-01
3.311891e+08 7.683105e-01 6.677856e-01 -2.463721e-05 2.335384e-05 4.280731e-05 -1.972169e-05 3.299561e-01 9.364624e-01
3.314078e+08 7.678833e-01 6.683960e-01 1.168437e-05 1.231674e-05 4.899502e-05 -2.235174e-07 3.366699e-01 9.381104e-01
3.316266e+08 7.675171e-01 6.692505e-01 4.589558e-06 1.048669e-06 3.556535e-05 3.472529e-05 3.414307e-01 9.343872e-01
3.318453e+08 7.676392e-01 6.698608e-01 -5.421462e-06 -4.454050e-06 1.706928e-05 3.446080e-05 3.445435e-01 9.277954e-01
3.320640e+08 7.676392e-01 6.702271e-01 1.936033e-05 -2.133381e-05 2.052635e-05 -1.265667e-05 3.465576e-01 9.172363e-01
3.322828e+08 7.671509e-01 6.707764e-01 3.045797e-05 4.973263e-07 -6.017834e-05 3.758818e-06 3.415527e-01 9.045410e-01
3.325015e+08 7.665405e-01 6.719971e-01 5.967915e-06 3.032386e-05 -2.727658e-05 3.011338e-05 3.353882e-01 8.919067e-01
3.327202e+08 7.661133e-01 6.721191e-01 3.345311e-06 -2.174918e-05 9.670854e-06 -2.759881e-05 3.236084e-01 8.796997e-01
3.329390e+08 7.653198e-01 6.721191e-01 1.956336e-05 2.701767e-05 3.872626e-05 6.126240e-06 3.078613e-01 8.685913e-01
3.331577e+08 7.659912e-01 6.727295e-01 2.627261e-06 1.669209e-05 -6.865710e-05 1.563504e-05 2.877197e-01 8.625488e-01
3.333764e+08 7.647705e-01 6.738281e-01 -3.189780e-06 -7.175375e-06 3.814697e-05 -1.512654e-05 2.661743e-01 8.610229e-01
3.335952e+08 7.650146e-01 6.739502e-01 -1.311116e-05 2.920069e-05 2.766028e-07 -1.849234e-05 2.452393e-01 8.630981e-01
3.338139e+08 7.640991e-01 6.742554e-01 -6.693881e-06 8.134637e-06 -1.406949e-05 1.365226e-05 2.246704e-01 8.697510e-01
3.340326e+08 7.636719e-01 6.757202e-01 -1.696683e-05 -1.031067e-05 1.086202e-05 1.496449e-05 2.085571e-01 8.807373e-01
3.342514e+08 7.637939e-01 6.764526e-01 -3.647245e-05 4.557893e-06 -8.795410e-06 3.038719e-05 1.926270e-01 8.927612e-01
3.344701e+08 7.637939e-01 6.763916e-01 5.960464e-07 -4.492700e-05 1.264364e-05 2.052635e-05 1.835327e-01 9.050293e-01
3.346888e+08 7.629395e-01 6.769409e-01 2.345070e-05 -4.616007e-05 4.458055e-05 -1.411140e-05 1.772461e-01 9.149170e-01
3.349075e+08 7.627563e-01 6.782227e-01 -3.323890e-05 1.171231e-05 -1.234189e-05 -3.901683e-05 1.734009e-01 9.261475e-01
3.351263e+08 7.630615e-01 6.786499e-01 1.333654e-06 -4.798546e-05 -7.012859e-06 3.595836e-05 1.719971e-01 9.327393e-01
3.353450e+08 7.623291e-01 6.798706e-01 -2.294034e-05 -5.258247e-06 -2.993457e-05 2.172403e-05 1.704712e-01 9.382935e-01
3.355637e+08 7.628174e-01 6.798706e-01 3.239140e-06 -2.823211e-05 1.882389e-05 4.004315e-05 1.668701e-01 9.404297e-01
3.357825e+08 7.621460e-01 6.804810e-01 5.672686e-06 1.738407e-05 3.492646e-05 1.346879e-05 1.636963e-01 9.420166e-01
3.360012e+08 7.615356e-01 6.812134e-01 -3.089942e-05 1.546927e-05 3.551319e-05 3.475510e-05 1.560059e-01 9.406128e-01
3.362199e+08 7.615356e-01 6.822510e-01 -1.402572e-05 6.118789e-05 5.575363e-06 -1.763459e-06 1.511230e-01 9.415283e-01
3.364387e+08 7.617798e-01 6.825562e-01 -1.541618e-05 -9.973533e-06 -4.374236e-05 1.687929e-05 1.427612e-01 9.423218e-01
3.366574e+08 7.611694e-01 6.828613e-01 -8.909032e-06 1.083035e-05 -1.202803e-05 7.366762e-07 1.313477e-01 9.445801e-01
3.368761e+08 7.604980e-01 6.839600e-01 2.186745e-06 3.267825e-05 -1.173280e-05 -1.775473e-05 1.247559e-01 9.502563e-01
3.370949e+08 7.607422e-01 6.842041e-01 2.256781e-05 -4.953146e-05 -5.486980e-05 2.037734e-05 1.168823e-01 9.509888e-01
3.373136e+08 7.608032e-01 6.853638e-01 -2.918392e-05 -1.311488e-05 3.111921e-05 -3.742799e-05 1.082153e-01 9.542236e-01
3.375323e+08 7.604370e-01 6.853027e-01 -3.536791e-05 -5.632639e-05 8.502975e-06 -1.188833e-05 9.924316e-02 9.586182e-01
3.377510e+08 7.601929e-01 6.854858e-01 1.554191e-05 1.643691e-05 -9.976327e-06 -1.216866e-05 8.953857e-02 9.628906e-01
3.379698e+08 7.595215e-01 6.863403e-01 1.892447e-05 -5.319715e-06 -1.730211e-05 -1.597591e-05 8.245850e-02 9.672852e-01
3.381885e+08 7.601318e-01 6.869507e-01 7.715076e-06 4.358031e-05 -2.025068e-05 -5.858019e-06 7.507324e-02 9.742432e-01
3.384072e+08 7.592163e-01 6.882324e-01 1.516566e-05 -2.954155e-06 6.749295e-06 -1.745299e-05 6.951904e-02 9.819946e-01
3.386260e+08 7.592773e-01 6.884155e-01 -2.363697e-05 -2.201647e-06 9.096693e-06 9.384938e-06 6.390381e-02 9.883423e-01
3.388447e+08 7.598877e-01 6.889648e-01 -9.478070e-06 2.035126e-05 -1.612119e-05 2.655946e-05 6.079102e-02 9.946289e-01
3.390634e+08 7.593384e-01 6.895142e-01 2.594106e-05 4.137494e-05 -5.983561e-05 4.343316e-05 6.353760e-02 1.000977e+00
3.392822e+08 7.586060e-01 6.905518e-01 -1.432374e-05 6.375834e-06 -5.574897e-06 1.760200e-06 6.390381e-02 1.002197e+00
3.395009e+08 7.592163e-01 6.911011e-01 2.077594e-05 -2.744235e-05 -2.495013e-05 -1.309440e-06 6.665039e-02 9.989624e-01
3.397196e+08 7.588501e-01 6.917725e-01 1.158565e-06 -1.905020e-05 1.232047e-05 -1.922436e-05 6.616211e-02 9.940186e-01
3.399384e+08 7.579346e-01 6.932373e-01 2.581812e-05 3.485195e-05 -3.230944e-05 5.307049e-05 6.250000e-02 9.843140e-01
3.401571e+08 7.581177e-01 6.935425e-01 -7.722527e-06 3.363937e-05 1.790561e-05 -2.096966e-05 5.816650e-02 9.761963e-01
3.403758e+08 7.581787e-01 6.940308e-01 -9.880401e-06 9.508803e-07 -4.108250e-05 2.521649e-05 4.602051e-02 9.678345e-01
3.405946e+08 7.573853e-01 6.949463e-01 -2.593175e-05 -4.133582e-05 -3.665313e-05 -1.909398e-05 3.570557e-02 9.612427e-01
3.408133e+08 7.581177e-01 6.949463e-01 1.833122e-05 4.203059e-06 3.021583e-05 1.803786e-05 1.708984e-02 9.573975e-01
3.410320e+08 7.579346e-01 6.955566e-01 -6.816350e-06 1.654960e-06 -3.812835e-06 7.333234e-06 2.746582e-03 9.575806e-01
3.412508e+08 7.570190e-01 6.965942e-01 1.273863e-05 2.867170e-05 -4.633889e-05 8.475035e-06 -1.263428e-02 9.609375e-01
3.414695e+08 7.570801e-01 6.976318e-01 7.768162e-06 8.223578e-06 1.140870e-05 3.625266e-05 -2.636719e-02 9.667358e-01
3.416882e+08 7.576904e-01 6.973267e-01 -6.563962e-06 1.458172e-05 -2.083182e-05 -2.712756e-05 -3.308105e-02 9.739990e-01
3.419069e+08 7.581177e-01 6.981201e-01 -3.241003e-07 2.245419e-05 -6.455928e-06 -1.028180e-06 -3.656006e-02 9.815063e-01
3.421257e+08 7.575073e-01 6.996460e-01 -5.774200e-06 -2.385676e-05 1.821667e-05 -3.945455e-05 -4.095459e-02 9.874268e-01
3.423444e+08 7.575684e-01 7.000122e-01 6.303191e-06 -2.752431e-05 -2.730638e-05 3.007054e-05 -3.845215e-02 9.888306e-01
3.425631e+08 7.581787e-01 7.000732e-01 -1.715496e-05 1.859851e-05 2.993830e-05 -2.173148e-05 -3.424072e-02 9.870605e-01
3.427819e+08 7.576904e-01 7.011719e-01 3.056834e-06 7.012859e-07 1.055747e-05 3.346801e-05 -3.210449e-02 9.802246e-01
3.430006e+08 7.572632e-01 7.015381e-01 -1.779757e-06 -1.328532e-05 1.584459e-05 -8.062460e-06 -3.149414e-02 9.694214e-01
3.432193e+08 7.574463e-01 7.025146e-01 1.134351e-05 -4.247762e-05 6.400049e-05 -1.097471e-05 -3.472900e-02 9.589844e-01
3.434381e+08 7.587891e-01 7.032471e-01 8.347910e-06 -1.303386e-06 3.408641e-05 1.069717e-05 -3.790283e-02 9.462280e-01
3.436568e+08 7.573242e-01 7.037354e-01 -9.799376e-06 -3.444217e-05 -4.391186e-06 -1.394842e-05 -4.705811e-02 9.315186e-01
3.438755e+08 7.570801e-01 7.044067e-01 4.358962e-05 -2.859905e-05 -7.901341e-06 -2.510473e-05 -5.657959e-02 9.205933e-01
3.440943e+08 7.575684e-01 7.044067e-01 1.784973e-05 -2.166443e-05 2.876297e-05 -6.010756e-06 -6.805420e-02 9.085083e-01
3.443130e+08 7.579956e-01 7.050171e-01 1.797266e-05 -1.517870e-05 2.524443e-05 -1.716614e-05 -7.977295e-02 8.973999e-01
3.445317e+08 7.577515e-01 7.053223e-01 -2.517737e-05 -2.549961e-06 -3.931113e-05 -2.744235e-05 -9.558105e-02 8.884888e-01
3.447504e+08 7.578735e-01 7.069702e-01 -2.356479e-06 -3.763475e-06 -5.269423e-06 -1.673773e-05 -1.094360e-01 8.786621e-01
3.449692e+08 7.581787e-01 7.076416e-01 1.562387e-05 -1.895148e-05 -2.468750e-05 3.846176e-05 -1.265869e-01 8.721313e-01
3.451879e+08 7.574463e-01 7.088013e-01 -4.658476e-05 3.435835e-05 1.907349e-05 2.160855e-05 -1.450195e-01 8.679810e-01
3.454066e+08 7.575073e-01 7.081909e-01 -3.316440e-05 1.814403e-05 -4.973263e-06 -3.522635e-05 -1.631470e-01 8.653564e-01
3.456254e+08 7.578125e-01 7.104492e-01 -1.211464e-05 3.655441e-06 -2.705120e-05 1.157634e-05 -1.802979e-01 8.646240e-01
3.458441e+08 7.573853e-01 7.097168e-01 -6.484799e-06 -2.083648e-05 1.295283e-05 -5.620718e-05 -1.964111e-01 8.667603e-01
3.460628e+08 7.583008e-01 7.108154e-01 4.516914e-05 -2.827123e-05 -3.437884e-05 7.769093e-06 -2.102661e-01 8.698120e-01
3.462816e+08 7.578125e-01 7.112427e-01 -4.614145e-05 -2.352521e-05 2.879091e-05 -6.014481e-06 -2.197876e-01 8.753662e-01
3.465003e+08 7.583008e-01 7.121582e-01 -3.570691e-06 -2.659298e-05 -3.733113e-05 1.789257e-05 -2.272949e-01 8.814087e-01
3.467190e+08 7.581177e-01 7.123413e-01 -1.624692e-05 -1.340639e-05 -1.525879e-05 -2.894923e-05 -2.317505e-01 8.837280e-01
3.469378e+08 7.582397e-01 7.130737e-01 7.643830e-06 1.756940e-06 -5.841255e-06 -3.805757e-05 -2.315063e-01 8.843994e-01
3.471565e+08 7.580566e-01 7.135010e-01 1.981854e-06 -1.565460e-05 5.494431e-05 -2.036989e-05 -2.327881e-01 8.839722e-01
3.473752e+08 7.584839e-01 7.141724e-01 1.672003e-05 -2.590939e-06 -1.111627e-05 -5.482137e-05 -2.373047e-01 8.760986e-01
3.475940e+08 7.589722e-01 7.141113e-01 -5.545095e-06 -1.094677e-05 -2.682209e-07 -3.980845e-05 -2.426758e-01 8.669434e-01
3.478127e+08 7.586060e-01 7.144165e-01 1.320243e-05 1.270045e-05 -4.702713e-06 4.548812e-06 -2.507935e-01 8.574829e-01
3.480314e+08 7.595215e-01 7.155762e-01 3.953837e-05 -3.762543e-06 -7.040799e-06 -2.235360e-05 -2.623291e-01 8.492432e-01
3.482502e+08 7.598877e-01 7.153931e-01 -3.082678e-05 2.191402e-05 1.234096e-05 -1.924951e-05 -2.772217e-01 8.426514e-01
3.484689e+08 7.600098e-01 7.167969e-01 4.942529e-06 2.047792e-05 -1.412537e-05 1.366623e-05 -2.939453e-01 8.389893e-01
3.486876e+08 7.594604e-01 7.174072e-01 -3.132224e-05 -3.991649e-06 1.029577e-05 -6.310642e-06 -3.100586e-01 8.405762e-01
3.489063e+08 7.597046e-01 7.182617e-01 1.022033e-05 -2.344139e-05 1.237262e-05 -1.924764e-05 -3.261108e-01 8.440552e-01
3.491251e+08 7.597656e-01 7.184448e-01 3.969483e-05 -3.919378e-05 -1.237821e-05 1.924019e-05 -3.406372e-01 8.487549e-01
3.493438e+08 7.603149e-01 7.181396e-01 -2.944656e-05 -2.612546e-05 3.821589e-05 -1.511909e-05 -3.524170e-01 8.577881e-01
3.495625e+08 7.598877e-01 7.199707e-01 -2.426468e-05 7.327646e-06 5.844980e-05 4.919246e-05 -3.604736e-01 8.659058e-01
3.497813e+08 7.597656e-01 7.206421e-01 -2.507865e-05 4.582852e-05 -5.589798e-06 1.754146e-06 -3.688965e-01 8.757935e-01
3.500000e+08 7.606201e-01 7.210083e-01 -4.136935e-06 -1.707394e-05 -3.090873e-05 1.893751e-05 -3.729248e-01 8.839722e-01
