# Hz S RI R 50
! RAW DATA - UNCALIBRATED
3.000000e+04 -9.528198e-01 1.406860e-01 -6.391481e-05 4.529953e-06 -8.034706e-05 3.492534e-04 1.045227e+00 1.284790e-01
2.487312e+05 -1.097778e+00 1.946289e+00 9.221956e-06 -2.858974e-05 -1.957454e-05 2.117455e-05 9.791260e-01 2.685547e-03
4.674625e+05 -1.020569e+00 4.321289e-02 -7.725786e-06 6.211922e-07 3.337860e-06 6.628223e-06 9.832153e-01 2.490234e-02
6.861938e+05 -1.016602e+00 2.575684e-02 4.721805e-07 -6.151851e-06 2.756715e-07 3.734790e-05 1.000732e+00 3.741455e-02
9.049250e+05 -1.011353e+00 2.136230e-02 -1.559779e-05 5.995855e-06 6.143004e-06 -2.272986e-05 1.002808e+00 3.894043e-02
1.123656e+06 -1.009338e+00 2.691650e-02 -9.131152e-06 4.237518e-06 -2.658181e-05 -8.542091e-06 1.005554e+00 7.281494e-02
1.342388e+06 -1.006897e+00 2.740479e-02 -1.300126e-05 -7.864088e-06 6.288756e-06 -4.236586e-06 1.017395e+00 8.233643e-02
1.561119e+06 -1.005127e+00 2.752686e-02 -4.086178e-06 -4.817033e-06 2.196059e-06 6.472226e-06 1.029541e+00 8.154297e-02
1.779850e+06 -1.006470e+00 2.581787e-02 -1.024269e-05 1.507346e-06 9.750947e-07 -1.232512e-05 1.039185e+00 7.623291e-02
1.998581e+06 -1.006836e+00 2.148438e-02 -4.875939e-06 -7.044058e-06 -3.446825e-06 -1.505669e-05 1.041443e+00 7.330322e-02
2.217312e+06 -1.005737e+00 1.873779e-02 -1.322012e-05 7.823110e-07 2.287142e-05 1.071580e-05 1.036133e+00 6.994629e-02
2.436044e+06 -1.008667e+00 1.550293e-02 -1.032650e-05 -1.510698e-05 1.179241e-05 7.465482e-06 1.027466e+00 7.122803e-02
2.654775e+06 -1.009094e+00 1.007080e-02 -6.230548e-06 -6.754417e-06 -1.565553e-05 7.236376e-07 1.015930e+00 7.354736e-02
2.873506e+06 -1.011414e+00 7.629395e-03 -4.641945e-06 4.588859e-06 -8.810312e-07 3.244914e-05 1.003662e+00 8.123779e-02
3.092238e+06 -1.012146e+00 3.906250e-03 -7.485040e-06 -1.121499e-05 6.511807e-06 1.436099e-05 9.916992e-01 9.228516e-02
3.310969e+06 -1.016174e+00 -3.173828e-03 -1.672097e-05 2.160668e-07 7.573981e-06 -1.336448e-06 9.789429e-01 1.057129e-01
3.529700e+06 -1.015686e+00 -2.868652e-03 -1.325272e-05 5.404465e-06 3.961846e-06 1.490209e-05 9.682617e-01 1.219482e-01
3.748431e+06 -1.016479e+00 -2.136230e-03 -7.064547e-06 -1.201406e-06 1.822226e-05 2.301298e-05 9.625244e-01 1.372070e-01
3.967162e+06 -1.015686e+00 -1.708984e-03 1.824390e-10 -1.607248e-10 -7.157214e-06 1.369603e-05 9.583130e-01 1.553345e-01
4.185894e+06 -1.016418e+00 -1.464844e-03 -5.535781e-06 5.972106e-06 -1.931749e-05 1.906417e-05 9.566040e-01 1.714478e-01
4.404625e+06 -1.016663e+00 -6.713867e-04 -6.948132e-06 -7.735100e-06 1.287088e-06 6.851740e-06 9.588013e-01 1.883545e-01
4.623356e+06 -1.015564e+00 -1.831055e-04 -1.611840e-05 9.313226e-07 -4.683156e-06 8.707866e-06 9.627686e-01 2.031860e-01
4.842088e+06 -1.016235e+00 -1.586914e-03 -3.266148e-06 1.658034e-05 -1.565088e-05 -1.049601e-06 9.682617e-01 2.161865e-01
5.060819e+06 -1.015564e+00 -1.403809e-03 1.370162e-05 2.245046e-05 9.483658e-06 2.963003e-06 9.743652e-01 2.259521e-01
5.279550e+06 -1.015137e+00 -2.014160e-03 -7.956754e-06 -2.099667e-06 -5.911104e-06 3.838446e-06 9.801636e-01 2.330933e-01
5.498281e+06 -1.014709e+00 -9.155273e-04 -2.099201e-05 7.282943e-07 -3.347639e-06 7.151626e-06 9.848022e-01 2.385864e-01
5.717012e+06 -1.015381e+00 -1.098633e-03 1.098961e-05 5.891547e-06 1.775194e-05 -1.214631e-05 9.879761e-01 2.432251e-01
5.935744e+06 -1.015503e+00 -9.765625e-04 1.835078e-05 -1.077261e-05 1.982786e-06 -7.675961e-06 9.898071e-01 2.459717e-01
6.154475e+06 -1.015381e+00 -6.713867e-04 -4.337169e-06 1.514982e-05 -2.231449e-05 1.903065e-05 9.876099e-01 2.478027e-01
6.373206e+06 -1.015259e+00 -4.882812e-04 -6.658956e-07 6.518792e-06 -2.034567e-05 2.112612e-05 9.832764e-01 2.514648e-01
6.591938e+06 -1.015686e+00 -7.934570e-04 1.978129e-06 9.174924e-06 1.592748e-05 -7.813796e-07 9.774170e-01 2.562256e-01
6.810669e+06 -1.015259e+00 -1.159668e-03 8.787494e-06 1.633540e-06 -3.400259e-06 -1.093838e-06 9.705811e-01 2.635498e-01
7.029400e+06 -1.015381e+00 -2.014160e-03 -2.120389e-06 -3.577443e-06 -2.295151e-05 -1.226179e-05 9.634399e-01 2.739258e-01
7.248131e+06 -1.014893e+00 -1.281738e-03 -7.607043e-06 -8.632429e-06 -1.227017e-05 1.304597e-05 9.537354e-01 2.863159e-01
7.466862e+06 -1.014404e+00 -2.197266e-03 3.035646e-06 -1.287088e-06 -4.360174e-10 4.214371e-10 9.493408e-01 3.001099e-01
7.685594e+06 -1.014465e+00 -1.770020e-03 -5.723909e-06 4.629605e-06 -1.238845e-05 -2.066419e-05 9.441528e-01 3.174438e-01
7.904325e+06 -1.014648e+00 -1.647949e-03 -1.243968e-05 -4.375353e-06 -9.438023e-06 -1.302548e-05 9.431763e-01 3.348999e-01
8.123056e+06 -1.015137e+00 -1.708984e-03 6.393995e-06 1.603737e-06 5.297828e-06 6.068498e-06 9.453125e-01 3.505859e-01
8.341788e+06 -1.014954e+00 -1.892090e-03 -1.472654e-06 5.111098e-06 1.506880e-05 9.904616e-06 9.485474e-01 3.671265e-01
8.560519e+06 -1.015198e+00 -1.647949e-03 -1.117587e-07 -7.960014e-06 2.570823e-05 4.177913e-06 9.560547e-01 3.813477e-01
8.779250e+06 -1.013245e+00 -1.892090e-03 -3.305031e-06 4.819594e-08 -1.974776e-05 -5.392358e-06 9.631958e-01 3.930664e-01
8.997981e+06 -1.014343e+00 -1.708984e-03 -5.413778e-06 -1.406390e-05 1.194887e-05 -8.163042e-06 9.730225e-01 4.001465e-01
9.216712e+06 -1.014343e+00 -1.953125e-03 -5.708076e-06 -1.236517e-05 -1.865346e-05 5.766749e-06 9.816284e-01 4.036865e-01
9.435444e+06 -1.013550e+00 -2.136230e-03 1.481269e-06 -7.253140e-06 -5.486421e-06 1.526531e-05 9.889526e-01 4.019775e-01
9.654175e+06 -1.013428e+00 -2.197266e-03 -2.261717e-06 -6.211922e-06 4.820060e-06 -5.423557e-06 9.949341e-01 3.990479e-01
9.872906e+06 -1.013428e+00 -1.281738e-03 -3.430992e-06 -2.815621e-06 -2.034381e-05 2.767891e-06 9.945679e-01 3.927002e-01
1.009164e+07 -1.012817e+00 -1.403809e-03 -2.149958e-06 5.703885e-06 2.205372e-05 -7.329509e-06 9.918213e-01 3.862915e-01
1.031037e+07 -1.012634e+00 -7.934570e-04 2.174638e-07 -3.299909e-06 7.602386e-06 1.649559e-05 9.833984e-01 3.802490e-01
1.052910e+07 -1.012634e+00 -9.765625e-04 -1.193490e-05 -2.468005e-06 -2.801791e-05 -8.611009e-06 9.728394e-01 3.781128e-01
1.074783e+07 -1.012634e+00 -2.075195e-03 9.338837e-06 4.777685e-07 -8.063391e-06 9.979121e-07 9.601440e-01 3.746338e-01
1.096656e+07 -1.011719e+00 -1.770020e-03 4.550442e-06 -4.790025e-06 2.840534e-06 -1.053885e-05 9.445801e-01 3.782959e-01
1.118529e+07 -1.011108e+00 -1.770020e-03 -6.608665e-06 -4.434492e-06 -5.140901e-07 -3.711879e-05 9.304199e-01 3.828735e-01
1.140402e+07 -1.010437e+00 -9.155273e-04 2.253335e-06 -5.656388e-06 -1.022965e-05 2.819858e-05 9.158936e-01 3.930664e-01
1.162276e+07 -1.009399e+00 -2.502441e-03 -1.654960e-05 5.017966e-06 -9.662472e-08 3.641006e-06 9.025879e-01 4.031982e-01
1.184149e+07 -1.009766e+00 -2.685547e-03 2.601184e-06 -1.189113e-05 7.476192e-06 3.239140e-06 8.912354e-01 4.156494e-01
1.206022e+07 -1.009277e+00 -1.892090e-03 1.749489e-05 9.870157e-06 9.238720e-06 1.343712e-05 8.828125e-01 4.292603e-01
1.227895e+07 -1.008179e+00 -1.770020e-03 -1.592003e-05 -1.189299e-05 -2.053007e-05 8.391216e-06 8.755493e-01 4.434814e-01
1.249768e+07 -1.008484e+00 -2.319336e-03 6.343238e-06 -2.031494e-05 6.942544e-06 -2.251472e-06 8.703003e-01 4.571533e-01
1.271641e+07 -1.007751e+00 -3.417969e-03 9.614974e-06 -3.771856e-06 -2.974458e-05 4.757196e-06 8.678589e-01 4.691162e-01
1.293514e+07 -1.006714e+00 -2.197266e-03 -3.917608e-06 -7.930212e-06 1.332257e-05 9.488314e-06 8.668213e-01 4.799194e-01
1.315388e+07 -1.005066e+00 -4.272461e-03 -7.235911e-06 7.936265e-06 1.025479e-05 -1.103804e-05 8.656006e-01 4.893799e-01
1.337261e+07 -1.005432e+00 -3.112793e-03 5.309470e-06 -3.261957e-07 -1.360662e-05 -1.720246e-05 8.641357e-01 4.944458e-01
1.359134e+07 -1.005188e+00 -3.723145e-03 1.997338e-06 2.172892e-06 -5.505979e-06 1.541991e-05 8.628540e-01 4.996338e-01
1.381007e+07 -1.004211e+00 -4.333496e-03 1.365663e-11 2.496279e-10 -1.507998e-05 6.351620e-06 8.572998e-01 5.029297e-01
1.402880e+07 -1.003601e+00 -4.455566e-03 8.237083e-06 -1.307111e-06 -7.203780e-06 3.907364e-06 8.511963e-01 5.045776e-01
1.424753e+07 -1.002991e+00 -4.760742e-03 -1.827488e-06 -2.745306e-06 2.601556e-05 5.958602e-06 8.427124e-01 5.068970e-01
1.446626e+07 -1.001953e+00 -5.615234e-03 1.023430e-05 -8.342788e-06 -4.435889e-06 -1.780130e-05 8.300171e-01 5.093994e-01
1.468499e+07 -1.001587e+00 -4.638672e-03 -1.902692e-06 -1.307577e-05 -1.053791e-05 -3.209338e-06 8.169556e-01 5.156860e-01
1.490372e+07 -1.000793e+00 -7.019043e-03 1.982693e-05 -7.818453e-06 -3.609806e-06 -7.068738e-07 8.014526e-01 5.236206e-01
1.512246e+07 -1.000122e+00 -7.080078e-03 -1.144502e-05 -4.175119e-06 4.765752e-10 -3.998082e-10 7.870483e-01 5.325317e-01
1.534119e+07 -1.000427e+00 -8.666992e-03 -1.181476e-05 1.507811e-06 -1.841225e-05 3.464520e-07 7.733154e-01 5.447388e-01
1.555992e+07 -9.993896e-01 -7.507324e-03 -3.109686e-06 -1.121080e-06 -1.199543e-06 -3.704987e-05 7.583008e-01 5.592041e-01
1.577865e+07 -9.992676e-01 -9.155273e-03 -1.032650e-05 -5.176757e-06 5.359761e-06 6.273855e-06 7.474976e-01 5.751953e-01
1.599738e+07 -9.979858e-01 -8.483887e-03 -9.592157e-06 -9.130687e-06 -1.037400e-05 3.892928e-06 7.369385e-01 5.924072e-01
1.621611e+07 -9.981079e-01 -1.177979e-02 -1.886766e-05 -1.883227e-05 -1.446903e-05 -4.196912e-05 7.291870e-01 6.098022e-01
1.643484e+07 -9.966431e-01 -1.098633e-02 -1.612678e-05 3.530830e-05 6.208196e-06 2.177432e-05 7.231445e-01 6.268921e-01
1.665358e+07 -9.964600e-01 -1.208496e-02 -5.302206e-05 1.660734e-05 2.292544e-05 6.227195e-05 7.208252e-01 6.449585e-01
1.687231e+07 -9.953613e-01 -1.226807e-02 1.143664e-06 4.861131e-05 4.039705e-05 -3.449619e-06 7.187500e-01 6.607666e-01
1.709104e+07 -9.945068e-01 -1.293945e-02 1.193210e-05 -1.978409e-05 -7.359311e-06 -1.440756e-05 7.176514e-01 6.747437e-01
1.730977e+07 -9.940796e-01 -1.324463e-02 2.484769e-06 -2.775341e-05 -2.980977e-05 -4.442409e-06 7.189331e-01 6.882324e-01
1.752850e+07 -9.932251e-01 -1.434326e-02 -1.624227e-06 7.019937e-05 2.903864e-05 -4.141405e-05 7.210083e-01 6.990356e-01
1.774723e+07 -9.921875e-01 -1.391602e-02 1.033675e-05 7.683411e-07 -1.383480e-05 -9.679236e-06 7.225342e-01 7.058716e-01
1.796596e+07 -9.913940e-01 -1.574707e-02 -5.258247e-06 -2.680533e-05 -1.591258e-05 -2.145581e-05 7.211914e-01 7.131958e-01
1.818469e+07 -9.910889e-01 -1.586914e-02 4.308484e-05 3.521331e-05 -7.338822e-06 -2.786331e-05 7.191772e-01 7.185669e-01
1.840342e+07 -9.913330e-01 -1.684570e-02 -2.489612e-05 4.390627e-05 -6.584451e-06 3.159232e-05 7.160645e-01 7.233276e-01
1.862216e+07 -9.906006e-01 -1.782227e-02 1.187623e-05 2.977066e-05 7.581897e-06 -1.229998e-05 7.107544e-01 7.265015e-01
1.884089e+07 -9.901123e-01 -1.818848e-02 7.453375e-06 1.903251e-05 9.713694e-07 1.933426e-05 7.037354e-01 7.318115e-01
1.905962e+07 -9.888306e-01 -1.867676e-02 -2.534688e-05 1.102872e-05 1.972541e-06 3.869645e-05 6.968384e-01 7.380981e-01
1.927835e+07 -9.874878e-01 -2.001953e-02 -7.221475e-05 7.621944e-06 -3.108568e-05 -2.378784e-05 6.875610e-01 7.467041e-01
1.949708e+07 -9.871826e-01 -2.093506e-02 3.705733e-05 3.896654e-05 -3.006309e-05 -1.788512e-05 6.800537e-01 7.553101e-01
1.971581e+07 -9.869385e-01 -2.093506e-02 -3.522635e-05 -2.673827e-05 -2.698973e-05 1.337007e-05 6.723633e-01 7.670288e-01
1.993454e+07 -9.869385e-01 -2.227783e-02 -1.242012e-05 6.055087e-05 5.385838e-06 2.718531e-06 6.673584e-01 7.787476e-01
2.015328e+07 -9.859009e-01 -2.313232e-02 -3.271364e-05 2.194755e-05 -3.456697e-05 -1.192093e-06 6.641235e-01 7.904053e-01
2.037201e+07 -9.851074e-01 -2.325439e-02 -1.986511e-05 -5.463138e-06 4.424900e-05 2.769008e-05 6.624756e-01 8.015747e-01
2.059074e+07 -9.849243e-01 -2.374268e-02 -2.133660e-06 -1.556892e-05 -4.001334e-05 -1.740828e-05 6.644897e-01 8.128052e-01
2.080947e+07 -9.849854e-01 -2.508545e-02 3.782101e-06 2.137572e-05 -2.919510e-05 -3.910437e-05 6.674194e-01 8.215332e-01
2.102820e+07 -9.848633e-01 -2.545166e-02 -3.067404e-05 1.411512e-05 4.375353e-06 -1.682993e-05 6.713867e-01 8.272705e-01
2.124693e+07 -9.835815e-01 -2.630615e-02 1.412816e-05 1.889747e-05 -1.950935e-05 -2.611242e-05 6.757812e-01 8.293457e-01
2.146566e+07 -9.834595e-01 -2.679443e-02 7.422641e-07 -1.054816e-05 -1.632236e-05 5.417503e-06 6.781006e-01 8.289185e-01
2.168439e+07 -9.829712e-01 -2.844238e-02 -1.451001e-05 -4.915148e-05 7.641502e-06 -1.251232e-05 6.796265e-01 8.257446e-01
2.190312e+07 -9.824219e-01 -2.825928e-02 2.096593e-05 -2.549961e-05 -9.377301e-05 1.571327e-05 6.784668e-01 8.203735e-01
2.212186e+07 -9.819336e-01 -3.009033e-02 2.481416e-05 1.970492e-05 -2.074800e-05 8.700415e-06 6.734619e-01 8.133545e-01
2.234059e+07 -9.816895e-01 -3.057861e-02 -2.683885e-05 -3.213808e-05 1.856405e-05 6.563030e-06 6.644897e-01 8.088379e-01
2.255932e+07 -9.810181e-01 -3.137207e-02 -1.773890e-05 -1.023803e-05 -1.750141e-05 6.776303e-05 6.557617e-01 8.044434e-01
2.277805e+07 -9.805298e-01 -3.173828e-02 1.060776e-05 2.450868e-05 3.501028e-05 2.844818e-05 6.433105e-01 8.023071e-01
2.299678e+07 -9.804688e-01 -3.314209e-02 3.425404e-05 -2.605841e-06 -5.463138e-06 3.834069e-05 6.316528e-01 8.009644e-01
2.321551e+07 -9.799194e-01 -3.320312e-02 -2.862327e-05 -1.426041e-05 3.297813e-06 1.808535e-05 6.180420e-01 8.023071e-01
2.343424e+07 -9.807129e-01 -3.485107e-02 2.272427e-05 -1.985766e-05 -1.098961e-05 -5.482696e-06 6.051025e-01 8.063354e-01
2.365298e+07 -9.796143e-01 -3.479004e-02 3.993511e-05 7.274374e-05 1.645554e-05 -1.925230e-05 5.933838e-01 8.102417e-01
2.387171e+07 -9.796143e-01 -3.625488e-02 -6.813090e-06 -2.933200e-06 7.593632e-05 1.864135e-05 5.820312e-01 8.157959e-01
2.409044e+07 -9.798584e-01 -3.668213e-02 -3.037229e-05 3.740191e-06 -5.558133e-06 -3.028102e-05 5.739136e-01 8.209839e-01
2.430917e+07 -9.794922e-01 -3.741455e-02 -6.369129e-05 -4.224107e-05 7.718801e-06 1.086388e-06 5.667725e-01 8.265991e-01
2.452790e+07 -9.791870e-01 -3.808594e-02 -6.198883e-06 3.102235e-05 2.991036e-05 5.348027e-05 5.596313e-01 8.313599e-01
2.474663e+07 -9.785767e-01 -3.912354e-02 3.537536e-05 3.462285e-05 -4.542246e-05 -4.184619e-05 5.534668e-01 8.353271e-01
2.496536e+07 -9.791870e-01 -4.003906e-02 1.415797e-05 3.655255e-05 -2.986751e-05 1.728535e-06 5.494385e-01 8.371582e-01
2.518409e+07 -9.788818e-01 -4.022217e-02 3.232062e-05 -1.861341e-05 1.771469e-05 4.908070e-07 5.419922e-01 8.372803e-01
2.540282e+07 -9.780273e-01 -4.156494e-02 -3.241375e-05 -5.429611e-06 3.317930e-05 -1.118146e-05 5.372314e-01 8.364258e-01
2.562156e+07 -9.774170e-01 -4.217529e-02 -3.315881e-05 5.323440e-06 -5.092844e-05 1.070276e-05 5.299072e-01 8.330688e-01
2.584029e+07 -9.774780e-01 -4.339600e-02 -2.410263e-05 -4.481524e-05 2.106652e-06 -2.939440e-05 5.201416e-01 8.294678e-01
2.605902e+07 -9.773560e-01 -4.357910e-02 -1.765601e-05 -3.634952e-06 -1.987070e-05 2.893992e-05 5.076904e-01 8.256836e-01
2.627775e+07 -9.773560e-01 -4.510498e-02 5.889684e-06 -1.378171e-05 1.670327e-05 8.263625e-06 4.926147e-01 8.226318e-01
2.649648e+07 -9.767456e-01 -4.528809e-02 4.556775e-05 -2.071261e-06 -1.876242e-05 3.510900e-05 4.756470e-01 8.209839e-01
2.671521e+07 -9.770508e-01 -4.602051e-02 -2.264977e-06 2.905540e-05 -8.937903e-06 -7.194467e-06 4.586792e-01 8.217773e-01
2.693394e+07 -9.771118e-01 -4.644775e-02 3.365800e-05 -4.379451e-05 9.808689e-06 -4.241243e-05 4.406738e-01 8.245239e-01
2.715268e+07 -9.765015e-01 -4.821777e-02 4.789606e-05 5.574524e-05 -1.785066e-05 -4.675239e-07 4.216919e-01 8.300171e-01
2.737141e+07 -9.763794e-01 -4.772949e-02 2.876855e-06 -1.907162e-05 -1.750886e-07 -2.791733e-05 4.039917e-01 8.378906e-01
2.759014e+07 -9.772949e-01 -4.876709e-02 8.714385e-06 -1.201499e-05 3.232062e-05 -1.752749e-05 3.865967e-01 8.472290e-01
2.780887e+07 -9.760742e-01 -4.962158e-02 -1.456682e-05 4.954636e-06 1.798477e-05 1.443084e-05 3.715210e-01 8.580322e-01
2.802760e+07 -9.772339e-01 -5.078125e-02 -1.307670e-05 7.581897e-06 2.828240e-05 4.184246e-05 3.585815e-01 8.710938e-01
2.824633e+07 -9.765625e-01 -5.102539e-02 2.773479e-06 2.286397e-05 3.831647e-05 2.720952e-05 3.480835e-01 8.850098e-01
2.846506e+07 -9.763794e-01 -5.242920e-02 2.792664e-05 -9.227544e-06 -1.911912e-05 -6.597489e-06 3.400879e-01 8.988647e-01
2.868379e+07 -9.766846e-01 -5.212402e-02 -2.223440e-05 -8.100644e-06 -2.128072e-05 9.147450e-06 3.356323e-01 9.108887e-01
2.890252e+07 -9.765625e-01 -5.352783e-02 -7.225201e-06 1.473352e-05 2.343394e-05 -2.491102e-05 3.316650e-01 9.213867e-01
2.912126e+07 -9.763794e-01 -5.383301e-02 9.190291e-06 -5.342066e-06 -7.543713e-06 4.114583e-05 3.288574e-01 9.299316e-01
2.933999e+07 -9.765625e-01 -5.444336e-02 -7.230788e-06 1.477078e-05 -2.934039e-05 -5.949289e-06 3.279419e-01 9.360352e-01
2.955872e+07 -9.769287e-01 -5.609131e-02 -3.415160e-05 -1.238659e-06 -1.154281e-05 -3.375858e-05 3.259888e-01 9.392090e-01
2.977745e+07 -9.766235e-01 -5.639648e-02 -3.859401e-05 -5.705282e-06 -1.898780e-05 2.161786e-05 3.223877e-01 9.418335e-01
2.999618e+07 -9.763794e-01 -5.700684e-02 -1.118425e-05 -4.063360e-06 -1.345668e-05 1.028832e-05 3.188477e-01 9.427490e-01
3.021491e+07 -9.768677e-01 -5.755615e-02 -1.100590e-06 4.172791e-06 1.080707e-05 -5.099550e-05 3.118896e-01 9.412842e-01
3.043364e+07 -9.760742e-01 -5.865479e-02 2.203509e-06 1.285784e-05 2.616271e-05 1.558289e-05 3.041382e-01 9.425659e-01
3.065238e+07 -9.765625e-01 -5.871582e-02 -2.510659e-05 -2.779253e-05 -2.351590e-05 2.515689e-05 2.946167e-01 9.425049e-01
3.087111e+07 -9.767456e-01 -6.042480e-02 3.993884e-05 6.525591e-05 1.814403e-05 3.855675e-07 2.831421e-01 9.432983e-01
3.108984e+07 -9.772949e-01 -6.176758e-02 -1.741853e-05 2.267770e-06 -2.525933e-05 1.192465e-05 2.716675e-01 9.464111e-01
3.130857e+07 -9.761963e-01 -6.188965e-02 -3.904104e-06 1.639035e-05 -1.529790e-05 -8.828938e-06 2.604370e-01 9.527588e-01
3.152730e+07 -9.772339e-01 -6.469727e-02 -1.462176e-06 2.576225e-05 5.479902e-06 1.127832e-06 2.478027e-01 9.569702e-01
3.174603e+07 -9.771118e-01 -6.433105e-02 -7.762574e-06 -1.988932e-05 -4.861504e-06 -1.813844e-05 2.377319e-01 9.661255e-01
3.196476e+07 -9.770508e-01 -6.610107e-02 -2.760626e-05 2.630055e-06 1.728162e-05 5.501136e-05 2.274170e-01 9.746094e-01
3.218349e+07 -9.776611e-01 -6.658936e-02 2.606027e-05 -6.698072e-06 -5.493406e-06 -1.128297e-06 2.212524e-01 9.856567e-01
3.240222e+07 -9.765015e-01 -6.835938e-02 8.759089e-07 -9.537209e-06 1.520663e-05 -5.985796e-05 2.162476e-01 9.949951e-01
3.262096e+07 -9.768066e-01 -6.848145e-02 1.656264e-05 -7.615425e-06 1.050346e-05 -9.302050e-06 2.147827e-01 1.004578e+00
3.283969e+07 -9.780884e-01 -6.939697e-02 -7.314608e-06 1.665112e-05 2.427772e-05 -6.495044e-06 2.152100e-01 1.010437e+00
3.305842e+07 -9.773560e-01 -7.104492e-02 9.270851e-06 9.042211e-06 2.817623e-05 -1.140684e-05 2.166138e-01 1.014709e+00
3.327715e+07 -9.782715e-01 -7.214355e-02 -2.221763e-05 -9.778887e-06 1.719687e-05 -1.370534e-05 2.184448e-01 1.014526e+00
3.349588e+07 -9.768677e-01 -7.354736e-02 -3.145449e-05 -3.859401e-06 1.293793e-05 4.863366e-05 2.196045e-01 1.012451e+00
3.371461e+07 -9.774780e-01 -7.415771e-02 1.187436e-05 3.341958e-05 -4.070625e-05 -2.563372e-05 2.178345e-01 1.005859e+00
3.393334e+07 -9.776611e-01 -7.501221e-02 -1.473073e-05 1.840945e-05 -1.152139e-05 -1.388323e-05 2.140503e-01 9.989624e-01
3.415208e+07 -9.773560e-01 -7.611084e-02 3.216974e-05 1.746789e-05 -1.884717e-05 7.619150e-06 2.065430e-01 9.902344e-01
3.437081e+07 -9.778442e-01 -7.733154e-02 -8.421019e-06 -1.867209e-05 -2.715550e-05 5.902722e-06 1.965942e-01 9.824219e-01
3.458954e+07 -9.783936e-01 -7.824707e-02 -2.040155e-05 1.009554e-06 -1.678616e-05 2.537481e-05 1.823730e-01 9.755249e-01
3.480827e+07 -9.779663e-01 -7.910156e-02 -7.653609e-06 2.493523e-05 7.431954e-06 4.767627e-05 1.674194e-01 9.700317e-01
3.502700e+07 -9.782715e-01 -8.013916e-02 2.936274e-05 -1.373328e-05 -6.012619e-06 -1.278892e-05 1.509399e-01 9.671631e-01
3.524573e+07 -9.782715e-01 -8.117676e-02 1.127273e-05 3.494509e-05 -3.666990e-05 9.726733e-06 1.335449e-01 9.669189e-01
3.546446e+07 -9.783325e-01 -8.306885e-02 -4.718080e-05 -1.407415e-05 1.431722e-05 1.453701e-05 1.162720e-01 9.673462e-01
3.568319e+07 -9.793091e-01 -8.331299e-02 1.152139e-05 1.176354e-05 7.368624e-06 -2.161786e-05 9.942627e-02 9.733276e-01
3.590192e+07 -9.779663e-01 -8.453369e-02 -6.785616e-06 1.537986e-05 -2.623608e-10 -3.997513e-10 8.325195e-02 9.777832e-01
3.612066e+07 -9.792480e-01 -8.544922e-02 1.267344e-05 -2.114195e-05 2.014637e-05 5.630404e-05 7.171631e-02 9.849243e-01
3.633939e+07 -9.797363e-01 -8.642578e-02 -3.047474e-05 -6.742775e-06 -1.151860e-05 5.554780e-05 5.914307e-02 9.909668e-01
3.655812e+07 -9.801025e-01 -8.770752e-02 7.169321e-06 6.504357e-06 -2.203137e-05 -3.357232e-05 4.943848e-02 9.996948e-01
3.677685e+07 -9.793701e-01 -8.898926e-02 -3.116950e-05 -2.042763e-05 4.332513e-05 1.480803e-05 4.119873e-02 1.005066e+00
3.699558e+07 -9.804077e-01 -8.886719e-02 2.152193e-05 1.953822e-05 -2.247468e-05 2.435409e-05 3.601074e-02 1.010559e+00
3.721431e+07 -9.799194e-01 -9.039307e-02 2.264231e-05 -4.370138e-05 -4.127994e-05 3.032386e-06 3.112793e-02 1.015015e+00
3.743304e+07 -9.807129e-01 -9.155273e-02 1.594238e-05 1.709163e-05 -2.437271e-05 -2.251565e-05 2.758789e-02 1.017639e+00
3.765178e+07 -9.807129e-01 -9.277344e-02 -2.147630e-06 1.248717e-05 -9.033829e-06 -5.424395e-05 2.307129e-02 1.016235e+00
3.787051e+07 -9.812012e-01 -9.252930e-02 5.334616e-06 1.074793e-05 5.321577e-05 -1.804531e-05 1.873779e-02 1.015015e+00
3.808924e+07 -9.818726e-01 -9.411621e-02 -3.390014e-06 1.531746e-05 6.502494e-06 2.466142e-05 1.159668e-02 1.009033e+00
3.830797e+07 -9.817505e-01 -9.570312e-02 1.613051e-06 1.920946e-05 -5.582813e-06 -1.167879e-06 4.577637e-03 1.005981e+00
3.852670e+07 -9.816895e-01 -9.625244e-02 -4.567578e-05 -3.330410e-06 -1.163501e-05 -1.408905e-05 -6.591797e-03 9.998169e-01
3.874543e+07 -9.814453e-01 -9.729004e-02 -1.434702e-05 1.722481e-05 -1.722109e-05 -1.526345e-05 -1.934814e-02 9.953003e-01
3.896416e+07 -9.829102e-01 -9.790039e-02 2.372637e-05 -2.321042e-05 -3.512949e-06 1.678616e-05 -3.411865e-02 9.913940e-01
3.918289e+07 -9.831543e-01 -9.857178e-02 1.034187e-05 -5.019829e-07 -3.267266e-05 1.654029e-05 -4.864502e-02 9.902954e-01
3.940162e+07 -9.835815e-01 -9.936523e-02 1.538545e-06 -1.113582e-05 -1.027994e-05 2.123974e-05 -6.433105e-02 9.898682e-01
3.962036e+07 -9.835205e-01 -9.960938e-02 -4.950911e-06 2.648868e-05 8.631498e-06 -2.743118e-05 -7.995605e-02 9.925537e-01
3.983909e+07 -9.834595e-01 -1.013794e-01 -1.321174e-05 -1.597870e-05 1.283642e-05 8.536503e-06 -9.472656e-02 9.977417e-01
4.005782e+07 -9.840698e-01 -1.019897e-01 -4.169345e-05 2.551079e-05 2.641417e-05 -3.203750e-07 -1.064453e-01 1.004639e+00
4.027655e+07 -9.842529e-01 -1.035156e-01 1.010671e-05 2.306886e-05 -3.973395e-05 -2.007559e-05 -1.163330e-01 1.010925e+00
4.049528e+07 -9.848633e-01 -1.028442e-01 9.397976e-06 -2.123602e-05 2.655440e-10 4.053220e-10 -1.227417e-01 1.018372e+00
4.071401e+07 -9.853516e-01 -1.042480e-01 2.236664e-05 1.836196e-05 2.607703e-06 -4.050136e-05 -1.277466e-01 1.023621e+00
4.093274e+07 -9.857178e-01 -1.053467e-01 2.861582e-05 -1.106411e-05 1.079310e-05 -9.472482e-06 -1.296387e-01 1.029663e+00
4.115148e+07 -9.859009e-01 -1.062622e-01 -1.607370e-05 -2.022833e-06 4.766881e-05 -3.109500e-05 -1.312866e-01 1.031189e+00
4.137021e+07 -9.867554e-01 -1.071167e-01 -2.718158e-05 -3.067590e-05 -4.070252e-05 6.789342e-05 -1.304321e-01 1.031067e+00
4.158894e+07 -9.857178e-01 -1.077271e-01 1.831632e-05 1.999736e-05 -1.687557e-05 -3.548339e-06 -1.312256e-01 1.026611e+00
4.180767e+07 -9.871216e-01 -1.086426e-01 -3.535673e-05 3.021210e-06 -1.216494e-05 -2.609380e-05 -1.325684e-01 1.021301e+00
4.202640e+07 -9.876099e-01 -1.099854e-01 7.543713e-06 -3.236532e-05 1.528859e-05 -2.661720e-06 -1.359253e-01 1.013245e+00
4.224513e+07 -9.887085e-01 -1.116943e-01 6.817281e-07 4.456937e-05 4.579872e-05 -4.928187e-05 -1.411133e-01 1.005554e+00
4.246386e+07 -9.884644e-01 -1.121216e-01 9.485520e-07 -9.802170e-06 4.016329e-06 -5.048234e-06 -1.480713e-01 9.959717e-01
4.268259e+07 -9.890747e-01 -1.121216e-01 6.692484e-06 3.873743e-05 -7.890165e-06 5.141646e-05 -1.566772e-01 9.879761e-01
4.290132e+07 -9.892578e-01 -1.130981e-01 -2.222136e-06 -1.803692e-05 8.034520e-06 -1.010764e-05 -1.683350e-01 9.801636e-01
4.312006e+07 -9.897461e-01 -1.134033e-01 4.058704e-05 4.697591e-05 1.191162e-06 -5.655456e-06 -1.788940e-01 9.729004e-01
4.333879e+07 -9.904175e-01 -1.142578e-01 -6.375834e-06 -3.184006e-05 2.069399e-05 2.800860e-05 -1.911621e-01 9.685059e-01
4.355752e+07 -9.912720e-01 -1.151733e-01 -5.405396e-06 -2.630800e-05 -2.416968e-05 3.040209e-05 -2.023926e-01 9.647217e-01
4.377625e+07 -9.909668e-01 -1.160278e-01 1.583248e-06 -1.126435e-05 1.384132e-05 3.250875e-05 -2.140503e-01 9.612427e-01
4.399498e+07 -9.913940e-01 -1.164551e-01 -1.491793e-05 1.048762e-05 9.370968e-06 2.566911e-05 -2.246704e-01 9.599609e-01
4.421371e+07 -9.917603e-01 -1.170044e-01 -1.844019e-05 -4.757196e-06 -5.461276e-06 8.178502e-05 -2.340088e-01 9.583740e-01
4.443244e+07 -9.921875e-01 -1.181030e-01 -1.299381e-05 5.244836e-05 2.019666e-05 -2.536178e-05 -2.406616e-01 9.578857e-01
4.465118e+07 -9.931641e-01 -1.196899e-01 -8.381903e-09 -1.544505e-05 -6.953254e-06 -3.711134e-05 -2.476807e-01 9.561768e-01
4.486991e+07 -9.937744e-01 -1.198730e-01 7.330440e-06 -8.758623e-06 -4.425272e-05 -1.535192e-05 -2.526855e-01 9.542236e-01
4.508864e+07 -9.945068e-01 -1.198120e-01 1.339335e-05 8.037314e-07 -3.490224e-05 1.044013e-05 -2.571411e-01 9.487915e-01
4.530737e+07 -9.943848e-01 -1.200562e-01 2.167001e-05 1.309253e-05 -2.386421e-05 4.248321e-05 -2.609253e-01 9.425659e-01
4.552610e+07 -9.946289e-01 -1.210327e-01 2.913177e-06 -6.061792e-05 1.337938e-05 -2.095848e-05 -2.647705e-01 9.337769e-01
4.574483e+07 -9.951172e-01 -1.219482e-01 -1.916289e-05 -3.354624e-06 4.030019e-05 2.046302e-05 -2.705078e-01 9.250488e-01
4.596356e+07 -9.960327e-01 -1.219482e-01 1.600944e-06 -1.134723e-05 -2.061948e-06 -1.831725e-05 -2.784424e-01 9.128418e-01
4.618229e+07 -9.972534e-01 -1.224976e-01 -1.885090e-05 -1.184922e-05 -2.239458e-05 7.167459e-06 -2.877808e-01 9.006958e-01
4.640102e+07 -9.968872e-01 -1.233521e-01 -2.531335e-05 3.358349e-05 -2.682954e-05 4.202500e-05 -2.984619e-01 8.895264e-01
4.661976e+07 -9.978027e-01 -1.240845e-01 7.046852e-06 -3.152527e-07 2.821349e-05 3.585219e-05 -3.121948e-01 8.786621e-01
4.683849e+07 -9.975586e-01 -1.245117e-01 -1.567975e-05 -1.906324e-05 -2.059154e-06 -1.835451e-05 -3.270264e-01 8.682861e-01
4.705722e+07 -9.984741e-01 -1.251221e-01 2.562068e-06 9.775162e-06 8.577947e-06 1.827721e-06 -3.430176e-01 8.602905e-01
4.727595e+07 -9.989014e-01 -1.262817e-01 3.201887e-06 2.390519e-05 2.047978e-06 1.838431e-05 -3.598633e-01 8.536987e-01
4.749468e+07 -9.996948e-01 -1.259155e-01 1.155119e-05 5.142763e-06 3.069267e-05 2.450310e-05 -3.763428e-01 8.496704e-01
4.771341e+07 -1.000122e+00 -1.271362e-01 -1.860224e-05 -2.039783e-05 3.671274e-06 -1.718942e-05 -3.927002e-01 8.445435e-01
4.793214e+07 -1.001038e+00 -1.260986e-01 -2.930313e-05 1.122244e-05 5.735084e-06 1.218636e-06 -4.071655e-01 8.447266e-01
4.815088e+07 -1.001221e+00 -1.282349e-01 8.027535e-06 5.309004e-06 3.728457e-05 7.981434e-06 -4.221191e-01 8.435669e-01
4.836961e+07 -1.001892e+00 -1.287231e-01 2.577901e-06 -5.783979e-06 4.909933e-06 -2.295338e-05 -4.336548e-01 8.433838e-01
4.858834e+07 -1.002625e+00 -1.291504e-01 -8.374918e-06 3.208872e-06 4.511699e-05 -1.436099e-05 -4.471436e-01 8.423462e-01
4.880707e+07 -1.002686e+00 -1.295166e-01 -1.131557e-05 3.315322e-05 -1.635402e-06 3.569201e-05 -4.564819e-01 8.432007e-01
4.902580e+07 -1.003906e+00 -1.304321e-01 1.611561e-05 -4.972331e-06 1.805834e-05 2.793409e-05 -4.663696e-01 8.413086e-01
4.924453e+07 -1.003601e+00 -1.303101e-01 1.255237e-05 1.082197e-05 4.930422e-06 -2.300367e-05 -4.762573e-01 8.389893e-01
4.946326e+07 -1.004395e+00 -1.312866e-01 1.323782e-05 -6.272458e-06 2.381951e-05 2.919324e-05 -4.852295e-01 8.357544e-01
4.968199e+07 -1.005127e+00 -1.311035e-01 -3.480539e-05 -4.689768e-05 -2.138317e-05 1.436099e-06 -4.950562e-01 8.319092e-01
4.990072e+07 -1.004883e+00 -1.322021e-01 3.135949e-05 8.568168e-08 2.222136e-05 -1.930818e-05 -5.062256e-01 8.267822e-01
5.011946e+07 -1.005310e+00 -1.323242e-01 7.683411e-06 2.956763e-05 2.913177e-06 -4.157797e-05 -5.167236e-01 8.225708e-01
5.033819e+07 -1.006042e+00 -1.331177e-01 -1.035910e-05 7.578637e-06 -7.008202e-06 4.522037e-06 -5.288086e-01 8.169556e-01
5.055692e+07 -1.006409e+00 -1.328125e-01 -2.745725e-05 -2.448261e-05 1.809932e-05 2.801605e-05 -5.426025e-01 8.134766e-01
5.077565e+07 -1.007324e+00 -1.334839e-01 2.692454e-05 -2.117082e-05 4.526228e-07 -3.008358e-05 -5.576782e-01 8.092041e-01
5.099438e+07 -1.007568e+00 -1.341553e-01 -3.497861e-05 8.754432e-08 1.187623e-05 5.694106e-05 -5.727539e-01 8.082886e-01
5.121311e+07 -1.008484e+00 -1.343384e-01 -2.524558e-10 9.647749e-11 2.037734e-06 1.857802e-05 -5.899658e-01 8.071289e-01
5.143184e+07 -1.008118e+00 -1.348267e-01 6.128103e-07 1.425669e-05 6.552786e-06 2.559833e-05 -6.057739e-01 8.105469e-01
5.165058e+07 -1.008789e+00 -1.352539e-01 2.340786e-05 -2.104789e-05 -1.778826e-05 2.639182e-05 -6.209717e-01 8.150635e-01
5.186931e+07 -1.009338e+00 -1.359253e-01 -2.299435e-06 1.296308e-05 2.466887e-05 5.375594e-05 -6.339722e-01 8.238525e-01
5.208804e+07 -1.009521e+00 -1.350708e-01 -3.824010e-06 -2.272427e-05 4.007667e-05 -3.453344e-06 -6.453857e-01 8.328857e-01
5.230677e+07 -1.010498e+00 -1.350708e-01 1.010485e-05 -1.474191e-05 1.611654e-05 9.530224e-06 -6.524048e-01 8.425293e-01
5.252550e+07 -1.010437e+00 -1.364136e-01 -1.880154e-05 -2.066512e-05 1.147017e-05 4.489347e-05 -6.521606e-01 8.544922e-01
5.274423e+07 -1.011169e+00 -1.361084e-01 2.238527e-05 4.786998e-06 1.079403e-05 -2.191216e-05 -6.525879e-01 8.637695e-01
5.296296e+07 -1.011902e+00 -1.364746e-01 -1.917873e-05 3.674999e-06 1.582131e-05 -4.510581e-05 -6.463623e-01 8.692017e-01
5.318169e+07 -1.012512e+00 -1.364746e-01 -4.649907e-05 1.981854e-06 -5.483627e-06 5.343184e-05 -6.405029e-01 8.707886e-01
5.340042e+07 -1.013123e+00 -1.367798e-01 8.466654e-06 -3.230758e-06 6.278977e-06 -2.900325e-05 -6.300659e-01 8.692017e-01
5.361916e+07 -1.012451e+00 -1.372070e-01 2.535433e-05 6.096438e-06 3.111362e-05 -1.754425e-05 -6.254883e-01 8.621826e-01
5.383789e+07 -1.013000e+00 -1.375732e-01 5.295500e-06 -2.746843e-05 1.095980e-05 7.529929e-05 -6.196899e-01 8.522949e-01
5.405662e+07 -1.013184e+00 -1.375122e-01 1.916289e-05 1.211744e-05 4.539732e-06 7.058959e-06 -6.171875e-01 8.409424e-01
5.427535e+07 -1.013672e+00 -1.383057e-01 -2.816319e-06 -3.291294e-05 -1.173839e-05 3.997609e-05 -6.188965e-01 8.273315e-01
5.449408e+07 -1.014648e+00 -1.384888e-01 2.269074e-05 2.777763e-05 2.778694e-05 1.211278e-05 -6.226196e-01 8.132324e-01
5.471281e+07 -1.014526e+00 -1.392212e-01 7.173978e-06 -2.980232e-07 1.161173e-05 2.532266e-06 -6.284790e-01 8.012695e-01
5.493154e+07 -1.016296e+00 -1.386108e-01 2.247840e-05 4.826114e-06 7.460359e-06 7.714611e-06 -6.374512e-01 7.913208e-01
5.515028e+07 -1.015991e+00 -1.397705e-01 4.304945e-05 -1.765788e-06 1.416542e-05 -9.077601e-06 -6.468506e-01 7.816772e-01
5.536901e+07 -1.015686e+00 -1.386719e-01 -1.137983e-05 -1.391489e-05 2.020970e-06 1.870468e-05 -6.561279e-01 7.756958e-01
5.558774e+07 -1.016724e+00 -1.386719e-01 -9.886920e-06 2.198853e-05 4.933216e-06 1.935195e-05 -6.660156e-01 7.696533e-01
5.580647e+07 -1.016846e+00 -1.395264e-01 -1.371372e-05 -8.782372e-07 2.715126e-10 4.235972e-10 -6.755981e-01 7.669067e-01
5.602520e+07 -1.017395e+00 -1.387939e-01 4.547089e-05 -1.486018e-05 -6.712042e-06 1.683086e-05 -6.820679e-01 7.659302e-01
5.624393e+07 -1.016785e+00 -1.404419e-01 -3.371388e-06 2.317876e-05 -2.000295e-05 7.802621e-06 -6.882324e-01 7.640381e-01
5.646266e+07 -1.018311e+00 -1.389160e-01 -1.115724e-05 9.095296e-06 -3.421865e-05 1.696870e-05 -6.900024e-01 7.636719e-01
5.668139e+07 -1.018311e+00 -1.398315e-01 -8.068979e-06 -2.128258e-05 3.660098e-07 1.228880e-05 -6.907959e-01 7.631226e-01
5.690012e+07 -1.017395e+00 -1.394043e-01 -3.449433e-05 3.743917e-05 1.255516e-05 -1.555402e-05 -6.885376e-01 7.598877e-01
5.711886e+07 -1.018860e+00 -1.395264e-01 2.503023e-05 3.071502e-05 -3.262423e-05 2.342276e-05 -6.853638e-01 7.542725e-01
5.733759e+07 -1.019226e+00 -1.397095e-01 -2.699718e-05 -4.216097e-05 2.915738e-06 6.384216e-07 -6.810913e-01 7.455444e-01
5.755632e+07 -1.019409e+00 -1.390991e-01 3.183819e-05 -1.570582e-05 -1.659244e-05 -2.195872e-05 -6.777344e-01 7.349854e-01
5.777505e+07 -1.019897e+00 -1.395264e-01 1.773052e-05 -7.938594e-06 9.473413e-06 2.653897e-05 -6.739502e-01 7.216187e-01
5.799378e+07 -1.019226e+00 -1.399536e-01 -2.207421e-05 2.544560e-05 5.256385e-06 3.173947e-05 -6.733398e-01 7.053223e-01
5.821251e+07 -1.020264e+00 -1.392822e-01 2.725981e-05 -5.438924e-06 -3.660098e-07 -1.232326e-05 -6.745605e-01 6.882019e-01
5.843124e+07 -1.020020e+00 -1.400757e-01 3.748573e-07 -8.681789e-06 1.203083e-05 1.488347e-05 -6.780396e-01 6.706543e-01
5.864998e+07 -1.020630e+00 -1.403198e-01 -1.052674e-05 7.649884e-06 -1.074933e-05 -2.074428e-05 -6.846924e-01 6.522217e-01
5.886871e+07 -1.020752e+00 -1.406250e-01 9.430572e-06 1.841784e-05 6.793067e-06 -1.689047e-05 -6.931763e-01 6.345520e-01
5.908744e+07 -1.021057e+00 -1.398315e-01 -3.537536e-05 -1.594983e-05 -7.839873e-06 -2.012402e-05 -7.036743e-01 6.184082e-01
5.930617e+07 -1.020874e+00 -1.395874e-01 -1.560897e-05 -2.834387e-05 4.352257e-05 -2.704561e-06 -7.161255e-01 6.040039e-01
5.952490e+07 -1.021973e+00 -1.398926e-01 -3.799796e-07 8.704606e-06 1.639593e-06 6.497838e-06 -7.290649e-01 5.919800e-01
5.974363e+07 -1.021362e+00 -1.392822e-01 8.855946e-06 3.997236e-06 3.276393e-06 1.299847e-05 -7.433472e-01 5.819702e-01
5.996236e+07 -1.022034e+00 -1.394043e-01 2.963468e-05 -2.635643e-06 -1.723133e-05 8.490868e-06 -7.567749e-01 5.748291e-01
6.018109e+07 -1.022095e+00 -1.396484e-01 -9.454787e-06 -1.849886e-05 -1.267157e-05 1.564901e-05 -7.677612e-01 5.681152e-01
6.039982e+07 -1.021973e+00 -1.403198e-01 3.566034e-05 -1.595914e-05 1.657382e-05 -3.323704e-05 -7.782593e-01 5.643921e-01
6.061856e+07 -1.023132e+00 -1.403198e-01 2.670847e-05 -3.967434e-06 -7.166062e-06 4.576985e-06 -7.885742e-01 5.606079e-01
6.083729e+07 -1.023071e+00 -1.398315e-01 1.164526e-05 -1.790468e-05 -1.269206e-05 1.567323e-05 -7.954712e-01 5.576172e-01
6.105602e+07 -1.022461e+00 -1.398315e-01 -3.296882e-06 -2.112053e-05 -1.429580e-05 2.077222e-05 -8.002930e-01 5.533447e-01
6.127475e+07 -1.022827e+00 -1.400757e-01 5.562603e-05 -1.075119e-05 -1.195725e-05 4.021451e-06 -8.055420e-01 5.492554e-01
6.149348e+07 -1.022095e+00 -1.386719e-01 -1.381896e-05 -3.874674e-05 -1.661107e-05 3.754348e-05 -8.084717e-01 5.427856e-01
6.171221e+07 -1.022888e+00 -1.396484e-01 -1.217332e-05 1.934636e-05 -2.000481e-05 -1.990795e-05 -8.108521e-01 5.375977e-01
6.193094e+07 -1.022705e+00 -1.390991e-01 4.109368e-05 -2.162717e-05 2.639554e-05 1.508929e-05 -8.140259e-01 5.292358e-01
6.214968e+07 -1.023499e+00 -1.390991e-01 3.273040e-05 -4.863739e-05 2.003647e-05 1.993030e-05 -8.167725e-01 5.206909e-01
6.236841e+07 -1.023621e+00 -1.383057e-01 -5.821697e-06 -1.483411e-05 -5.041808e-05 -7.010996e-06 -8.210449e-01 5.112915e-01
6.258714e+07 -1.023804e+00 -1.387329e-01 3.300607e-06 -3.396161e-05 -3.479049e-05 3.721565e-06 -8.256226e-01 5.020142e-01
6.280587e+07 -1.023254e+00 -1.384888e-01 2.921373e-05 -5.455315e-05 3.512949e-06 -2.521090e-05 -8.319702e-01 4.917603e-01
6.302460e+07 -1.024414e+00 -1.387939e-01 7.856637e-06 3.919750e-05 -1.050532e-06 4.846603e-05 -8.367920e-01 4.815674e-01
6.324333e+07 -1.024109e+00 -1.380005e-01 3.735721e-05 -1.230277e-05 -2.484769e-06 -2.322346e-05 -8.435669e-01 4.729614e-01
6.346206e+07 -1.024597e+00 -1.373901e-01 6.107613e-06 -3.735162e-05 -1.566671e-05 -1.075864e-05 -8.511353e-01 4.658813e-01
6.368079e+07 -1.024231e+00 -1.373901e-01 -2.518296e-06 -3.047474e-05 -4.048459e-06 -1.200940e-05 -8.597412e-01 4.592896e-01
6.389952e+07 -1.024414e+00 -1.368408e-01 4.606321e-06 -3.724545e-05 3.280118e-06 1.762528e-05 -8.663940e-01 4.542847e-01
6.411826e+07 -1.025085e+00 -1.375732e-01 2.469495e-05 -5.429611e-05 4.770607e-05 -1.340359e-05 -8.729858e-01 4.499512e-01
6.433699e+07 -1.024902e+00 -1.376953e-01 1.019798e-06 -6.232411e-06 3.530271e-05 -6.526709e-06 -8.782959e-01 4.474487e-01
6.455572e+07 -1.025208e+00 -1.368408e-01 1.260079e-06 1.526903e-05 3.585778e-05 3.079325e-05 -8.811035e-01 4.455566e-01
6.477445e+07 -1.024353e+00 -1.369629e-01 2.544373e-06 -2.482720e-05 -7.978640e-06 1.608394e-05 -8.820801e-01 4.414062e-01
6.499318e+07 -1.024719e+00 -1.371460e-01 -3.185496e-05 5.718321e-06 -4.829839e-05 -2.395734e-05 -8.822021e-01 4.385376e-01
6.521191e+07 -1.025146e+00 -1.367798e-01 -2.037734e-06 -5.986542e-06 2.815947e-05 3.935769e-06 -8.805542e-01 4.325562e-01
6.543064e+07 -1.024719e+00 -1.364136e-01 2.115406e-05 -4.825182e-06 -7.851049e-07 5.631708e-06 -8.772583e-01 4.262695e-01
6.564938e+07 -1.025146e+00 -1.359863e-01 -2.882257e-05 5.476177e-06 -2.465025e-05 -2.929755e-05 -8.752441e-01 4.171753e-01
6.586811e+07 -1.025879e+00 -1.363525e-01 -4.541129e-05 4.693866e-05 -4.066154e-06 -1.207553e-05 -8.732910e-01 4.060669e-01
6.608684e+07 -1.025024e+00 -1.367188e-01 1.255423e-06 -4.021078e-05 -2.087839e-05 2.582930e-05 -8.714600e-01 3.944702e-01
6.630557e+07 -1.025452e+00 -1.358643e-01 -1.916103e-05 1.084711e-05 -3.939122e-05 3.477931e-05 -8.709106e-01 3.809814e-01
6.652430e+07 -1.024475e+00 -1.356201e-01 -3.838446e-06 9.575393e-06 -3.464893e-05 9.238720e-07 -8.731689e-01 3.673096e-01
6.674303e+07 -1.024292e+00 -1.352539e-01 1.791865e-06 2.146233e-05 -3.019720e-05 1.018308e-05 -8.765259e-01 3.548584e-01
6.696176e+07 -1.024231e+00 -1.350708e-01 -1.636893e-05 -2.952106e-05 1.891516e-05 -1.176354e-05 -8.807983e-01 3.413086e-01
6.718049e+07 -1.025391e+00 -1.340332e-01 4.879199e-06 2.123229e-05 3.305264e-06 1.775380e-05 -8.845215e-01 3.295288e-01
6.739922e+07 -1.024292e+00 -1.337280e-01 3.069825e-05 -2.549961e-06 -2.749451e-05 -9.568408e-06 -8.906860e-01 3.188477e-01
6.761796e+07 -1.025330e+00 -1.342163e-01 2.278760e-05 -5.004928e-06 2.145953e-05 1.163781e-05 -8.967285e-01 3.086548e-01
6.783669e+07 -1.024109e+00 -1.345825e-01 -1.332536e-05 4.442781e-05 -4.470348e-06 -9.277835e-06 -9.010620e-01 3.003540e-01
6.805542e+07 -1.023987e+00 -1.343384e-01 -2.124161e-05 -3.227778e-05 -8.028932e-06 1.618918e-05 -9.049683e-01 2.913818e-01
6.827415e+07 -1.023560e+00 -1.334839e-01 1.486205e-05 2.971292e-05 -8.802861e-06 2.185628e-05 -9.088745e-01 2.832642e-01
6.849288e+07 -1.023987e+00 -1.337891e-01 1.512561e-05 -4.358590e-06 -8.566305e-06 -2.142228e-05 -9.107666e-01 2.746582e-01
6.871161e+07 -1.024109e+00 -1.342773e-01 -1.527369e-06 3.728457e-05 1.161546e-05 -4.174560e-05 -9.118042e-01 2.655640e-01
6.893034e+07 -1.023743e+00 -1.331177e-01 2.540275e-05 -1.141615e-05 -3.403611e-05 -4.740432e-06 -9.129028e-01 2.559204e-01
6.914908e+07 -1.023071e+00 -1.333008e-01 -3.339956e-06 -2.820743e-06 4.025176e-05 4.317611e-05 -9.128418e-01 2.455444e-01
6.936781e+07 -1.023376e+00 -1.333008e-01 -5.392358e-06 2.837181e-05 1.175143e-05 -1.256354e-06 -9.128418e-01 2.332764e-01
6.958654e+07 -1.023621e+00 -1.325073e-01 -9.499490e-06 -3.953651e-05 5.074590e-05 9.927899e-06 -9.133301e-01 2.195435e-01
6.980527e+07 -1.022583e+00 -1.324463e-01 1.030043e-06 -2.491102e-05 -8.206815e-06 -2.430007e-05 -9.147339e-01 2.050171e-01
7.002400e+07 -1.022400e+00 -1.320801e-01 2.466142e-05 -2.067536e-06 -2.076477e-05 -1.735240e-05 -9.177246e-01 1.892090e-01
7.024273e+07 -1.022583e+00 -1.329956e-01 1.286156e-06 -3.214227e-06 -1.692399e-05 3.821403e-05 -9.211426e-01 1.730957e-01
7.046146e+07 -1.021545e+00 -1.324463e-01 -3.500283e-05 -8.417666e-05 2.366491e-06 -1.705159e-05 -9.267578e-01 1.560669e-01
7.068019e+07 -1.021484e+00 -1.318970e-01 -1.260452e-05 -2.056360e-06 -7.271767e-06 1.058262e-05 -9.348755e-01 1.395264e-01
7.089892e+07 -1.020874e+00 -1.320190e-01 -2.650172e-05 -8.866191e-07 -3.018416e-05 -3.317557e-05 -9.439087e-01 1.231079e-01
7.111766e+07 -1.021484e+00 -1.320801e-01 -1.184735e-05 7.200055e-06 3.377348e-05 7.571653e-06 -9.549561e-01 1.085815e-01
7.133639e+07 -1.020996e+00 -1.323242e-01 3.347546e-05 -9.009615e-06 -2.611242e-05 -2.105162e-05 -9.687500e-01 9.558105e-02
7.155512e+07 -1.021179e+00 -1.315308e-01 -1.753867e-05 3.261864e-05 -1.946278e-05 1.473539e-05 -9.828491e-01 8.477783e-02
7.177385e+07 -1.021912e+00 -1.318970e-01 -3.248826e-05 2.702698e-06 2.440810e-05 -8.251518e-06 -9.971924e-01 7.843018e-02
7.199258e+07 -1.020447e+00 -1.306152e-01 3.273785e-05 3.855675e-07 -3.225543e-05 -1.899153e-05 -1.011902e+00 7.214355e-02
7.221131e+07 -1.020447e+00 -1.306763e-01 -5.085021e-07 3.120303e-05 -3.346428e-05 -1.044571e-05 -1.023743e+00 7.061768e-02
7.243004e+07 -1.019775e+00 -1.306763e-01 -4.305504e-05 2.543628e-05 -3.882121e-10 2.939089e-10 -1.035339e+00 7.135010e-02
7.264878e+07 -1.018738e+00 -1.304932e-01 -1.057889e-05 3.999099e-06 -5.549937e-05 6.504729e-05 -1.041077e+00 7.238770e-02
7.286751e+07 -1.019348e+00 -1.306763e-01 4.397705e-06 1.522060e-05 -1.359358e-05 -2.808869e-05 -1.045715e+00 7.379150e-02
7.308624e+07 -1.018616e+00 -1.304932e-01 -5.188584e-05 3.244355e-05 -1.793634e-05 3.345311e-06 -1.047791e+00 7.537842e-02
7.330497e+07 -1.018005e+00 -1.307983e-01 1.085550e-05 -9.038486e-07 2.659857e-05 1.825020e-05 -1.047119e+00 7.415771e-02
7.352370e+07 -1.018127e+00 -1.307983e-01 8.270144e-06 2.429448e-05 6.530806e-05 -8.434057e-06 -1.044739e+00 7.159424e-02
7.374243e+07 -1.017761e+00 -1.304321e-01 -7.491093e-06 3.756490e-06 5.960092e-05 -9.242445e-06 -1.042419e+00 6.738281e-02
7.396116e+07 -1.017334e+00 -1.309814e-01 7.761642e-06 -1.940597e-05 1.264177e-05 -6.998889e-06 -1.040222e+00 5.987549e-02
7.417989e+07 -1.017700e+00 -1.300659e-01 1.062173e-05 1.474097e-05 -4.031509e-05 3.824383e-05 -1.038452e+00 5.236816e-02
7.439862e+07 -1.016357e+00 -1.309814e-01 2.227351e-05 4.386529e-06 -9.070151e-06 -1.877639e-05 -1.039368e+00 4.302979e-02
7.461736e+07 -1.015625e+00 -1.310425e-01 -1.527928e-05 2.317876e-05 3.119744e-05 2.767704e-05 -1.040527e+00 3.442383e-02
7.483609e+07 -1.016113e+00 -1.309814e-01 -5.327165e-07 -2.500974e-05 -8.914620e-06 2.215244e-05 -1.042419e+00 2.441406e-02
7.505482e+07 -1.015747e+00 -1.304932e-01 2.126582e-05 2.952106e-05 2.038665e-05 -2.058782e-05 -1.047180e+00 1.715088e-02
7.527355e+07 -1.014587e+00 -1.309204e-01 -4.703179e-06 -3.720447e-05 -9.702519e-06 2.789870e-05 -1.052368e+00 1.098633e-02
7.549228e+07 -1.014099e+00 -1.306152e-01 -1.814403e-05 2.659298e-05 -3.028475e-05 7.530674e-06 -1.057068e+00 7.934570e-03
7.571101e+07 -1.013672e+00 -1.311646e-01 1.012441e-05 8.544419e-06 -3.125891e-05 -2.772547e-05 -1.062134e+00 6.530762e-03
7.592974e+07 -1.014526e+00 -1.306152e-01 -1.092441e-05 -3.670901e-05 -1.189299e-05 1.292676e-06 -1.065369e+00 6.713867e-03
7.614848e+07 -1.013489e+00 -1.304932e-01 -3.194436e-05 -2.553686e-05 -1.975335e-06 1.436751e-05 -1.065918e+00 9.155273e-03
7.636721e+07 -1.012817e+00 -1.309814e-01 -1.298357e-05 -5.191192e-06 6.542075e-06 -4.953239e-06 -1.062927e+00 1.281738e-02
7.658594e+07 -1.012268e+00 -1.309204e-01 1.424737e-05 -3.571995e-05 -1.348648e-05 1.278985e-05 -1.057007e+00 1.721191e-02
7.680467e+07 -1.011414e+00 -1.311646e-01 2.650730e-05 -2.107583e-05 7.949769e-06 -5.750731e-05 -1.047302e+00 1.818848e-02
7.702340e+07 -1.011047e+00 -1.306763e-01 -9.591691e-06 1.650862e-05 -2.658926e-05 2.272427e-05 -1.035339e+00 1.873779e-02
7.724213e+07 -1.009827e+00 -1.300659e-01 2.184510e-05 -1.830980e-06 1.268927e-05 -7.049181e-06 -1.020569e+00 1.617432e-02
7.746086e+07 -1.009644e+00 -1.309814e-01 -9.346753e-06 3.849156e-05 -4.684553e-05 -6.072223e-07 -1.006348e+00 9.277344e-03
7.767959e+07 -1.009766e+00 -1.309814e-01 6.731600e-06 -3.200583e-05 -2.999790e-05 4.669651e-06 -9.913940e-01 -1.220703e-04
7.789832e+07 -1.009644e+00 -1.304932e-01 -5.985610e-06 3.651250e-06 -1.791492e-05 -4.065409e-05 -9.769897e-01 -1.208496e-02
7.811706e+07 -1.008301e+00 -1.318359e-01 2.081599e-05 -1.434051e-05 -3.179163e-05 -2.495386e-05 -9.649658e-01 -2.777100e-02
7.833579e+07 -1.008179e+00 -1.316528e-01 -2.004486e-05 4.827045e-06 -5.652383e-05 -1.661107e-05 -9.550171e-01 -4.370117e-02
7.855452e+07 -1.008484e+00 -1.316528e-01 8.346513e-06 2.448633e-05 -2.175570e-06 5.856156e-05 -9.464722e-01 -6.060791e-02
7.877325e+07 -1.007202e+00 -1.315918e-01 3.986433e-05 6.081536e-06 2.169423e-05 -2.938509e-05 -9.403687e-01 -7.849121e-02
7.899198e+07 -1.007080e+00 -1.325073e-01 -2.088398e-05 -2.343021e-05 1.214445e-05 3.996119e-05 -9.381104e-01 -9.564209e-02
7.921071e+07 -1.005676e+00 -1.317139e-01 3.708340e-05 2.839789e-05 -5.207956e-06 -4.779547e-05 -9.357910e-01 -1.126709e-01
7.942944e+07 -1.005920e+00 -1.323853e-01 4.068762e-05 -3.440306e-06 -1.893472e-05 9.180047e-06 -9.357300e-01 -1.274414e-01
7.964818e+07 -1.004272e+00 -1.323242e-01 2.819672e-05 1.653098e-05 4.185364e-06 1.234747e-05 -9.372559e-01 -1.408691e-01
7.986691e+07 -1.005066e+00 -1.323853e-01 -1.874194e-05 3.943779e-05 -1.117121e-05 -4.484318e-06 -9.374390e-01 -1.528931e-01
8.008564e+07 -1.003784e+00 -1.332397e-01 -7.321127e-06 -1.200009e-05 -2.998859e-06 -2.103671e-05 -9.398804e-01 -1.630859e-01
8.030437e+07 -1.003296e+00 -1.329346e-01 -1.673680e-05 -1.121126e-05 5.706400e-05 1.373887e-05 -9.397583e-01 -1.718750e-01
8.052310e+07 -1.003174e+00 -1.330566e-01 1.566950e-06 -1.329463e-07 2.474524e-05 -8.411705e-06 -9.383545e-01 -1.792603e-01
8.074183e+07 -1.002197e+00 -1.331177e-01 -1.064502e-06 -1.254119e-05 -2.776459e-05 -1.264736e-05 -9.376831e-01 -1.858521e-01
8.096056e+07 -1.002869e+00 -1.340942e-01 1.629815e-05 4.286505e-05 -1.380779e-05 -2.849102e-05 -9.342651e-01 -1.925659e-01
8.117929e+07 -1.001587e+00 -1.334839e-01 2.075918e-06 -1.282152e-05 2.634339e-05 -2.002344e-05 -9.294434e-01 -1.987915e-01
8.139802e+07 -1.001465e+00 -1.348267e-01 -2.146140e-05 -1.084432e-05 -2.940558e-05 -1.080334e-06 -9.242554e-01 -2.062988e-01
8.161676e+07 -1.000671e+00 -1.344604e-01 2.365559e-06 9.293202e-06 5.402602e-06 3.699213e-06 -9.172974e-01 -2.140503e-01
8.183549e+07 -9.998169e-01 -1.342163e-01 2.873130e-06 -3.405847e-06 2.187490e-05 5.619600e-05 -9.104004e-01 -2.243652e-01
8.205422e+07 -9.993286e-01 -1.353760e-01 7.332303e-06 -6.955583e-06 -1.400430e-05 1.582317e-05 -9.042969e-01 -2.357178e-01
8.227295e+07 -9.989014e-01 -1.357422e-01 -4.058145e-05 2.561510e-05 -5.009584e-06 -6.608199e-06 -8.981934e-01 -2.475586e-01
8.249168e+07 -9.979248e-01 -1.356812e-01 -1.551583e-05 -1.454167e-05 -5.410518e-06 -3.702939e-06 -8.931274e-01 -2.601929e-01
8.271041e+07 -9.974976e-01 -1.363525e-01 -2.752058e-05 1.184829e-05 -7.809140e-06 1.373142e-05 -8.889160e-01 -2.749023e-01
8.292914e+07 -9.971924e-01 -1.363525e-01 2.463907e-05 -8.435920e-06 8.062273e-05 1.696497e-05 -8.865967e-01 -2.871094e-01
8.314788e+07 -9.963989e-01 -1.361084e-01 -2.001226e-05 -3.002584e-05 4.573539e-05 1.217425e-05 -8.864746e-01 -3.008423e-01
8.336661e+07 -9.960938e-01 -1.370239e-01 -3.036670e-05 3.430620e-05 -1.030043e-06 -3.571436e-05 -8.859253e-01 -3.133545e-01
8.358534e+07 -9.956055e-01 -1.375732e-01 3.598630e-06 -3.206916e-05 -3.493577e-05 -4.781410e-06 -8.876343e-01 -3.254395e-01
8.380407e+07 -9.952393e-01 -1.373901e-01 1.550373e-05 -4.491769e-06 1.587626e-05 1.403037e-05 -8.897095e-01 -3.360596e-01
8.402280e+07 -9.941406e-01 -1.380005e-01 -1.596473e-05 3.630109e-05 -1.945905e-05 1.216773e-05 -8.917847e-01 -3.442383e-01
8.424153e+07 -9.946289e-01 -1.383667e-01 -1.266878e-05 -1.799781e-05 9.672716e-06 1.616310e-05 -8.936157e-01 -3.519287e-01
8.446026e+07 -9.942627e-01 -1.389771e-01 -1.186132e-05 -8.529983e-06 3.438443e-06 1.829863e-05 -8.939209e-01 -3.572388e-01
8.467899e+07 -9.927979e-01 -1.397095e-01 -2.026279e-05 4.896894e-06 3.190711e-06 -2.332404e-05 -8.942261e-01 -3.612671e-01
8.489772e+07 -9.921875e-01 -1.397705e-01 3.881752e-06 -2.897717e-05 2.387911e-06 -1.749769e-05 -8.917847e-01 -3.662720e-01
8.511646e+07 -9.923706e-01 -1.405029e-01 -2.241321e-05 -2.038851e-05 -3.646314e-05 -3.771856e-05 -8.884888e-01 -3.698730e-01
8.533519e+07 -9.920044e-01 -1.410522e-01 -1.053279e-05 7.262453e-06 3.596768e-06 -2.628937e-05 -8.842163e-01 -3.756104e-01
8.555392e+07 -9.907837e-01 -1.412964e-01 -4.777685e-06 -1.870841e-05 6.239396e-06 -2.120622e-06 -8.785400e-01 -3.814697e-01
8.577265e+07 -9.901733e-01 -1.419678e-01 -2.605282e-05 3.090873e-05 -2.696924e-05 2.308562e-05 -8.728027e-01 -3.886108e-01
8.599138e+07 -9.900513e-01 -1.425781e-01 -1.544133e-06 1.928024e-05 -1.249555e-05 4.240312e-06 -8.675537e-01 -3.969116e-01
8.621011e+07 -9.899902e-01 -1.427612e-01 -3.480725e-05 2.209470e-05 -1.395121e-05 -2.872944e-05 -8.617554e-01 -4.057007e-01
8.642884e+07 -9.885864e-01 -1.438599e-01 3.835745e-05 3.816560e-05 9.286217e-06 1.914799e-05 -8.583984e-01 -4.156494e-01
8.664758e+07 -9.882202e-01 -1.434937e-01 2.248585e-05 2.041832e-05 2.806261e-05 1.278706e-05 -8.557129e-01 -4.265747e-01
8.686631e+07 -9.877319e-01 -1.437988e-01 4.258938e-06 1.239590e-05 -2.397224e-05 4.442036e-05 -8.529663e-01 -4.353638e-01
8.708504e+07 -9.871216e-01 -1.448975e-01 9.045005e-06 3.117882e-05 -6.858259e-06 4.978105e-05 -8.515625e-01 -4.452515e-01
8.730377e+07 -9.871216e-01 -1.453857e-01 -1.636799e-05 1.418591e-05 8.899719e-06 2.213009e-05 -8.513794e-01 -4.532471e-01
8.752250e+07 -9.860229e-01 -1.451416e-01 -7.162802e-06 -8.984935e-06 4.101545e-05 5.621463e-06 -8.507690e-01 -4.601440e-01
8.774123e+07 -9.860229e-01 -1.459351e-01 2.754480e-05 4.068017e-06 1.919735e-05 -9.321608e-06 -8.500366e-01 -4.663696e-01
8.795996e+07 -9.854126e-01 -1.464233e-01 8.246861e-06 2.168585e-05 -4.007015e-07 2.934132e-06 -8.486938e-01 -4.703369e-01
8.817869e+07 -9.848633e-01 -1.464233e-01 -1.906604e-05 1.650304e-06 -7.465482e-06 1.094397e-05 -8.455811e-01 -4.739380e-01
8.839742e+07 -9.844971e-01 -1.475220e-01 -4.496891e-06 3.586290e-06 4.272908e-06 1.254585e-05 -8.406982e-01 -4.769287e-01
8.861616e+07 -9.849854e-01 -1.486206e-01 -2.443790e-06 -2.861395e-05 1.176260e-05 1.604669e-06 -8.355713e-01 -4.799805e-01
8.883489e+07 -9.838867e-01 -1.483765e-01 -5.376711e-05 2.706796e-05 -1.455843e-05 1.897197e-05 -8.274536e-01 -4.837646e-01
8.905362e+07 -9.831543e-01 -1.491699e-01 1.047272e-06 -6.503426e-06 -6.747991e-05 1.175329e-05 -8.179932e-01 -4.880981e-01
8.927235e+07 -9.824829e-01 -1.500244e-01 3.557652e-05 3.365800e-06 -4.344061e-05 -3.288314e-05 -8.071899e-01 -4.949951e-01
8.949108e+07 -9.824829e-01 -1.508179e-01 -2.451055e-05 -4.281662e-05 3.708154e-05 -5.188957e-05 -7.961426e-01 -5.030518e-01
8.970981e+07 -9.818115e-01 -1.513062e-01 1.999922e-05 2.713874e-05 -3.893487e-05 2.166070e-05 -7.843628e-01 -5.137939e-01
8.992854e+07 -9.818115e-01 -1.516113e-01 2.043322e-06 -3.226474e-05 2.476946e-05 -5.625188e-06 -7.738037e-01 -5.250244e-01
9.014728e+07 -9.808960e-01 -1.524048e-01 -1.171418e-05 -5.418435e-06 6.294809e-06 -2.143439e-06 -7.630615e-01 -5.386963e-01
9.036601e+07 -9.802856e-01 -1.535645e-01 1.881830e-05 -2.413988e-05 -1.404621e-05 -2.894737e-05 -7.553101e-01 -5.543823e-01
9.058474e+07 -9.802246e-01 -1.533813e-01 -2.472289e-05 1.177005e-05 9.102747e-06 -2.278574e-05 -7.478638e-01 -5.714722e-01
9.080347e+07 -9.794312e-01 -1.540527e-01 -8.389354e-06 5.218387e-05 -4.609302e-05 2.975762e-05 -7.431030e-01 -5.882568e-01
9.102220e+07 -9.791870e-01 -1.555786e-01 1.223106e-05 -7.482246e-06 1.058634e-05 1.046713e-05 -7.399902e-01 -6.047363e-01
9.124093e+07 -9.791870e-01 -1.557007e-01 -8.768868e-06 1.041591e-05 -4.697125e-06 -9.658746e-06 -7.401733e-01 -6.213379e-01
9.145966e+07 -9.781494e-01 -1.561279e-01 -1.472514e-05 -2.128072e-05 4.884228e-05 -5.356967e-06 -7.410278e-01 -6.363525e-01
9.167839e+07 -9.777832e-01 -1.571045e-01 3.518909e-05 -3.023073e-06 -1.910329e-05 5.154312e-05 -7.440796e-01 -6.501465e-01
9.189712e+07 -9.779053e-01 -1.571045e-01 -3.839470e-05 3.300607e-06 -1.732446e-05 -5.375594e-06 -7.472534e-01 -6.622314e-01
9.211586e+07 -9.776611e-01 -1.572876e-01 1.566671e-05 -2.394244e-05 -1.653377e-05 -1.127273e-05 -7.506104e-01 -6.699219e-01
9.233459e+07 -9.772339e-01 -1.586304e-01 -3.020093e-05 -1.355633e-05 -2.413057e-06 1.774356e-05 -7.535400e-01 -6.775513e-01
9.255332e+07 -9.764404e-01 -1.595459e-01 3.803521e-06 2.547354e-05 -3.619120e-06 2.660975e-05 -7.556152e-01 -6.824951e-01
9.277205e+07 -9.761353e-01 -1.609497e-01 -3.481982e-06 -2.927380e-06 2.528541e-05 -8.601695e-06 -7.553101e-01 -6.864014e-01
9.299078e+07 -9.761353e-01 -1.604614e-01 -1.791678e-05 -1.688488e-06 -3.633648e-05 1.098961e-06 -7.543335e-01 -6.898193e-01
9.320951e+07 -9.758301e-01 -1.613159e-01 -4.246831e-07 3.235228e-05 -3.244355e-05 1.670793e-05 -7.498779e-01 -6.931152e-01
9.342824e+07 -9.749146e-01 -1.621094e-01 -2.866983e-05 -1.366995e-05 -1.736451e-05 -5.386770e-06 -7.451172e-01 -6.978149e-01
9.364698e+07 -9.749146e-01 -1.633911e-01 -2.440251e-05 -2.051331e-05 -4.304573e-06 -1.266506e-05 -7.385864e-01 -7.031250e-01
9.386571e+07 -9.746094e-01 -1.638794e-01 -3.209338e-06 2.773013e-07 -2.559647e-05 -3.369525e-05 -7.330933e-01 -7.106934e-01
9.408444e+07 -9.741211e-01 -1.645508e-01 4.163757e-05 -2.302229e-05 -1.670793e-05 3.396906e-05 -7.236328e-01 -7.153931e-01
9.430317e+07 -9.746704e-01 -1.652222e-01 -1.466554e-05 1.745392e-05 -2.565794e-05 -3.372505e-05 -7.208252e-01 -7.273560e-01
9.452190e+07 -9.737549e-01 -1.653442e-01 -2.782233e-05 1.535378e-05 1.821388e-05 -5.485490e-07 -7.152710e-01 -7.381592e-01
9.474063e+07 -9.730835e-01 -1.662598e-01 6.205402e-06 1.566485e-05 -7.551163e-06 1.106691e-05 -7.120972e-01 -7.482910e-01
9.495936e+07 -9.729004e-01 -1.670532e-01 6.933697e-06 -1.355726e-05 3.492832e-05 -3.457628e-05 -7.094116e-01 -7.586670e-01
9.517809e+07 -9.727783e-01 -1.685791e-01 4.882924e-06 1.902692e-05 -8.107163e-07 5.942769e-06 -7.105713e-01 -7.683716e-01
9.539682e+07 -9.719849e-01 -1.685181e-01 -1.470745e-05 1.749117e-05 -2.930686e-05 -7.009134e-06 -7.130127e-01 -7.769165e-01
9.561556e+07 -9.718628e-01 -1.693115e-01 -2.867915e-05 2.520718e-05 -4.012510e-05 2.783164e-05 -7.161865e-01 -7.831421e-01
9.583429e+07 -9.720459e-01 -1.702271e-01 5.024672e-05 -1.072884e-06 -8.651987e-06 -2.540648e-05 -7.196045e-01 -7.874756e-01
9.605302e+07 -9.721680e-01 -1.704102e-01 -2.395920e-05 -1.416355e-05 -2.014451e-06 1.487695e-05 -7.223511e-01 -7.872314e-01
9.627175e+07 -9.716797e-01 -1.713257e-01 3.826991e-05 2.915971e-05 1.717359e-06 -5.736575e-05 -7.243042e-01 -7.850952e-01
9.649048e+07 -9.711914e-01 -1.719971e-01 -3.745407e-05 5.521998e-05 -7.574446e-06 1.109950e-05 -7.225952e-01 -7.796021e-01
9.670921e+07 -9.702759e-01 -1.730347e-01 2.826750e-05 7.312745e-06 6.228685e-06 4.328787e-05 -7.181396e-01 -7.751465e-01
9.692794e+07 -9.707642e-01 -1.734619e-01 2.841838e-05 -2.847798e-05 7.976778e-06 -1.408998e-05 -7.107544e-01 -7.694092e-01
9.714668e+07 -9.706421e-01 -1.744995e-01 1.113862e-06 1.291465e-05 6.773043e-06 -5.151145e-06 -7.007446e-01 -7.647095e-01
9.736541e+07 -9.699097e-01 -1.751099e-01 8.918345e-06 8.979812e-06 5.453825e-06 4.929677e-05 -6.876221e-01 -7.615967e-01
9.758414e+07 -9.694824e-01 -1.751099e-01 -4.684925e-05 4.068017e-06 -2.666377e-05 1.764297e-05 -6.753540e-01 -7.599487e-01
9.780287e+07 -9.694824e-01 -1.762085e-01 -3.661588e-05 9.698793e-06 -7.987954e-06 1.410767e-05 -6.597900e-01 -7.611084e-01
9.802160e+07 -9.688110e-01 -1.775513e-01 -9.335577e-06 2.359971e-05 9.607524e-06 -2.604164e-05 -6.469116e-01 -7.650146e-01
9.824033e+07 -9.689331e-01 -1.788940e-01 -2.527609e-06 -2.910756e-05 6.649643e-06 4.043430e-05 -6.323853e-01 -7.697144e-01
9.845906e+07 -9.688721e-01 -1.791382e-01 -1.507811e-05 1.435354e-05 -1.113582e-05 -7.595867e-06 -6.197510e-01 -7.768555e-01
9.867779e+07 -9.683838e-01 -1.794434e-01 6.895512e-06 -3.322028e-05 -3.142282e-06 -2.171844e-05 -6.086426e-01 -7.829590e-01
9.889652e+07 -9.691162e-01 -1.810913e-01 -4.478917e-05 1.044571e-05 7.200520e-06 -8.154660e-06 -5.989990e-01 -7.908936e-01
9.911526e+07 -9.680176e-01 -1.817017e-01 2.393872e-05 -2.493709e-05 -5.703792e-05 1.658872e-05 -5.908813e-01 -7.997437e-01
9.933399e+07 -9.678955e-01 -1.823120e-01 -1.802109e-05 1.789909e-05 4.354864e-06 1.276750e-05 -5.838623e-01 -8.061523e-01
9.955272e+07 -9.672241e-01 -1.828613e-01 -3.045425e-06 -1.606997e-05 -6.789807e-06 5.167909e-06 -5.791016e-01 -8.103638e-01
9.977145e+07 -9.685059e-01 -1.840210e-01 -1.353491e-05 -5.356036e-06 -3.226846e-05 -3.183261e-05 -5.728760e-01 -8.140259e-01
9.999018e+07 -9.682617e-01 -1.847534e-01 1.269486e-05 -4.377216e-06 1.918152e-05 -6.533228e-06 -5.676270e-01 -8.167114e-01
1.002089e+08 -9.678955e-01 -1.854248e-01 -9.532087e-06 -1.551956e-05 -3.252178e-06 2.394617e-05 -5.611572e-01 -8.168335e-01
1.004276e+08 -9.677734e-01 -1.860352e-01 4.674867e-05 -7.368624e-06 -6.914139e-06 5.090237e-05 -5.537720e-01 -8.159790e-01
1.006464e+08 -9.675903e-01 -1.867676e-01 -1.736544e-05 -1.154654e-05 4.777685e-06 9.791460e-06 -5.458374e-01 -8.141479e-01
1.008651e+08 -9.671631e-01 -1.881104e-01 -2.587028e-05 -3.370084e-05 4.772097e-06 9.797048e-06 -5.357056e-01 -8.114624e-01
1.010838e+08 -9.668579e-01 -1.882935e-01 7.739291e-06 -2.358295e-05 -2.681650e-05 1.771376e-05 -5.228882e-01 -8.108521e-01
1.013026e+08 -9.673462e-01 -1.893311e-01 -3.584102e-05 -1.649745e-05 2.031215e-06 -1.498964e-05 -5.097656e-01 -8.095093e-01
1.015213e+08 -9.672241e-01 -1.899414e-01 9.058043e-06 2.868660e-05 -2.026558e-06 1.499429e-05 -4.931641e-01 -8.097534e-01
1.017400e+08 -9.672852e-01 -1.905518e-01 -2.118696e-10 -1.778346e-10 -4.380941e-06 -1.281407e-05 -4.783936e-01 -8.116455e-01
1.019588e+08 -9.672852e-01 -1.912842e-01 3.053807e-06 1.611095e-05 3.642961e-05 1.879409e-06 -4.630127e-01 -8.156738e-01
1.021775e+08 -9.665527e-01 -1.920776e-01 8.895062e-06 -1.062267e-05 1.281407e-05 -4.373491e-06 -4.462280e-01 -8.213501e-01
1.023962e+08 -9.666138e-01 -1.928711e-01 3.338791e-06 1.938362e-05 -2.116151e-05 -2.425537e-05 -4.296875e-01 -8.281860e-01
1.026150e+08 -9.671021e-01 -1.936035e-01 -4.097074e-05 -5.547330e-05 -2.728030e-05 2.078526e-05 -4.161377e-01 -8.365479e-01
1.028337e+08 -9.664917e-01 -1.950073e-01 -2.279505e-05 2.007931e-06 -3.726967e-05 4.114583e-06 -4.044189e-01 -8.462524e-01
1.030524e+08 -9.664917e-01 -1.954346e-01 -4.453212e-05 -2.708286e-06 -6.007962e-06 -8.135103e-07 -3.934937e-01 -8.560791e-01
1.032712e+08 -9.666138e-01 -1.964722e-01 3.125519e-06 3.584661e-05 -2.567470e-05 8.760020e-06 -3.842163e-01 -8.666382e-01
1.034899e+08 -9.667358e-01 -1.976318e-01 -3.197044e-05 2.906099e-05 4.892424e-05 5.289912e-07 -3.756104e-01 -8.758545e-01
1.037086e+08 -9.666748e-01 -1.980591e-01 -2.346747e-05 -2.418645e-05 -6.421469e-06 2.193730e-06 -3.696289e-01 -8.840942e-01
1.039273e+08 -9.671021e-01 -1.988525e-01 -9.654090e-06 -3.527664e-05 3.170967e-05 -7.949769e-06 -3.644409e-01 -8.909302e-01
1.041461e+08 -9.666748e-01 -1.993408e-01 -2.235360e-05 -1.118518e-05 -3.771670e-05 7.141382e-06 -3.598022e-01 -8.964233e-01
1.043648e+08 -9.667358e-01 -2.000122e-01 1.314841e-05 -3.729947e-05 -4.261732e-05 4.323944e-05 -3.551025e-01 -9.013672e-01
1.045835e+08 -9.666748e-01 -2.009888e-01 -1.966953e-05 -1.798104e-05 -1.846254e-05 5.597249e-07 -3.487549e-01 -9.036255e-01
1.048023e+08 -9.666748e-01 -2.022095e-01 -1.995545e-05 -2.128538e-05 4.069880e-07 -3.010035e-06 -3.425903e-01 -9.047852e-01
1.050210e+08 -9.661865e-01 -2.020264e-01 -5.094334e-06 1.690164e-05 4.051253e-06 -3.009662e-05 -3.342285e-01 -9.049072e-01
1.052397e+08 -9.669189e-01 -2.034302e-01 9.404495e-06 3.208034e-05 -2.613105e-05 1.179986e-05 -3.256226e-01 -9.055786e-01
1.054585e+08 -9.671021e-01 -2.044678e-01 -2.680346e-05 -2.400205e-05 -3.185123e-05 5.399063e-05 -3.142700e-01 -9.077148e-01
1.056772e+08 -9.667969e-01 -2.036133e-01 1.172163e-05 2.253801e-06 -3.615394e-05 -4.837289e-06 -3.028564e-01 -9.094238e-01
1.058959e+08 -9.668579e-01 -2.050171e-01 1.038564e-05 5.673617e-06 -8.411705e-06 -2.873875e-05 -2.906494e-01 -9.138794e-01
1.061147e+08 -9.661865e-01 -2.054443e-01 8.171424e-06 -7.194467e-07 1.644529e-05 1.448393e-05 -2.790527e-01 -9.193115e-01
1.063334e+08 -9.667358e-01 -2.061157e-01 1.287926e-05 1.532957e-05 -1.124479e-05 -7.650815e-06 -2.658081e-01 -9.252319e-01
1.065521e+08 -9.661865e-01 -2.070923e-01 -1.159497e-06 -1.308601e-05 1.801923e-05 4.843622e-05 -2.554932e-01 -9.351196e-01
1.067708e+08 -9.666748e-01 -2.082520e-01 3.862381e-05 -2.977997e-05 8.882955e-06 -2.029166e-05 -2.465820e-01 -9.449463e-01
1.069896e+08 -9.669189e-01 -2.084351e-01 -1.029391e-05 1.409743e-05 1.003686e-05 1.670513e-05 -2.390747e-01 -9.542236e-01
1.072083e+08 -9.672241e-01 -2.091675e-01 -1.246110e-06 -3.288686e-05 -8.062460e-06 1.427438e-05 -2.332764e-01 -9.642334e-01
1.074270e+08 -9.673462e-01 -2.102051e-01 1.454726e-05 -4.088134e-05 -4.865229e-05 -4.960224e-05 -2.314453e-01 -9.718628e-01
1.076458e+08 -9.671021e-01 -2.108765e-01 -2.613291e-06 2.664328e-05 -2.415664e-05 -3.257766e-06 -2.293701e-01 -9.786987e-01
1.078645e+08 -9.666748e-01 -2.119141e-01 8.478295e-06 2.549030e-06 -1.003128e-05 -1.672376e-05 -2.293701e-01 -9.826050e-01
1.080832e+08 -9.671021e-01 -2.119751e-01 -3.577210e-05 6.489456e-06 -4.411675e-06 -1.288857e-05 -2.296143e-01 -9.846191e-01
1.083020e+08 -9.681396e-01 -2.127075e-01 1.012674e-05 2.402347e-06 1.853798e-05 -5.792826e-07 -2.283325e-01 -9.825439e-01
1.085207e+08 -9.680786e-01 -2.125854e-01 -1.754332e-05 -1.166668e-05 -1.129881e-05 3.847666e-05 -2.255859e-01 -9.798584e-01
1.087394e+08 -9.689941e-01 -2.140503e-01 8.381903e-07 -4.632398e-05 1.165271e-05 5.083904e-05 -2.197266e-01 -9.747314e-01
1.089582e+08 -9.684448e-01 -2.160034e-01 5.207956e-06 2.847519e-06 4.410744e-06 1.291558e-05 -2.125244e-01 -9.694214e-01
1.091769e+08 -9.682007e-01 -2.151489e-01 -1.320988e-05 -1.864880e-05 1.371559e-05 -1.046993e-05 -2.020264e-01 -9.645996e-01
1.093956e+08 -9.689331e-01 -2.166748e-01 1.090858e-05 -7.575378e-06 3.346056e-05 2.606027e-05 -1.907959e-01 -9.613037e-01
1.096144e+08 -9.692383e-01 -2.177124e-01 -3.135949e-05 1.931563e-05 -6.054994e-06 -8.149073e-07 -1.752930e-01 -9.587402e-01
1.098331e+08 -9.686279e-01 -2.172241e-01 -3.253482e-05 6.185845e-06 -5.240086e-06 -6.860588e-06 -1.611328e-01 -9.588013e-01
1.100518e+08 -9.689331e-01 -2.182007e-01 4.438683e-06 -4.338101e-05 -4.020520e-06 -1.594704e-05 -1.448364e-01 -9.613647e-01
1.102706e+08 -9.692993e-01 -2.188110e-01 -3.717840e-05 9.937212e-06 4.102105e-10 -3.133209e-10 -1.317749e-01 -9.651489e-01
1.104893e+08 -9.692993e-01 -2.198486e-01 -1.159869e-05 3.745034e-05 1.374353e-05 -1.048017e-05 -1.177979e-01 -9.689331e-01
1.107080e+08 -9.697266e-01 -2.203979e-01 -4.743226e-06 -1.612958e-05 1.533329e-05 2.364069e-05 -1.063232e-01 -9.763184e-01
1.109267e+08 -9.694214e-01 -2.197266e-01 -1.789164e-05 -1.496915e-05 2.785586e-05 2.222136e-05 -9.375000e-02 -9.828491e-01
1.111455e+08 -9.692993e-01 -2.221680e-01 -3.361329e-05 1.292117e-05 -2.063625e-05 1.571514e-05 -8.459473e-02 -9.898682e-01
1.113642e+08 -9.701538e-01 -2.222290e-01 -2.484396e-05 1.879223e-05 2.832711e-05 -2.704374e-05 -7.611084e-02 -9.973145e-01
1.115829e+08 -9.703369e-01 -2.224121e-01 2.010912e-05 2.141017e-05 -8.098781e-06 1.434423e-05 -7.092285e-02 -1.004211e+00
1.118017e+08 -9.697266e-01 -2.235718e-01 1.326483e-05 1.871679e-05 2.465211e-05 2.458692e-07 -6.518555e-02 -1.009399e+00
1.120204e+08 -9.711914e-01 -2.241211e-01 1.919270e-05 4.803762e-05 -8.519739e-06 1.738127e-05 -6.127930e-02 -1.013000e+00
1.122391e+08 -9.710693e-01 -2.235718e-01 -6.396323e-06 -1.600664e-05 1.334958e-05 -7.475726e-06 -5.853271e-02 -1.014160e+00
1.124579e+08 -9.714355e-01 -2.246704e-01 5.255267e-05 -2.459064e-05 7.289927e-06 -8.285511e-06 -5.407715e-02 -1.012939e+00
1.126766e+08 -9.716187e-01 -2.260132e-01 6.206334e-06 3.260374e-05 1.254957e-05 -1.397915e-06 -4.986572e-02 -1.012329e+00
1.128953e+08 -9.715576e-01 -2.255859e-01 -2.672896e-05 3.559515e-05 -3.156811e-05 5.034730e-06 -4.278564e-02 -1.008240e+00
1.131141e+08 -9.716187e-01 -2.274170e-01 -8.041970e-06 -1.589023e-05 -7.402152e-06 5.463883e-05 -3.424072e-02 -1.003784e+00
1.133328e+08 -9.719849e-01 -2.277832e-01 5.646795e-05 -1.827255e-05 3.725663e-05 -1.164153e-06 -2.380371e-02 -1.001465e+00
1.135515e+08 -9.723511e-01 -2.280884e-01 -2.657995e-06 -2.964400e-05 -3.807805e-05 7.245690e-06 -1.159668e-02 -9.970703e-01
1.137702e+08 -9.722900e-01 -2.285767e-01 9.063631e-06 4.565716e-05 -1.633540e-06 1.214724e-05 1.647949e-03 -9.962158e-01
1.139890e+08 -9.722290e-01 -2.289429e-01 2.888218e-05 -4.910305e-05 1.628883e-06 -1.214817e-05 1.507568e-02 -9.960327e-01
1.142077e+08 -9.729004e-01 -2.294312e-01 1.536869e-05 4.180335e-05 -1.659896e-05 -1.460500e-05 2.984619e-02 -9.978638e-01
1.144264e+08 -9.725952e-01 -2.296143e-01 -1.537614e-05 -4.181080e-05 -3.362447e-05 2.023764e-05 4.376221e-02 -1.002197e+00
1.146452e+08 -9.736328e-01 -2.308350e-01 -7.811934e-06 2.398528e-05 -5.262904e-06 -6.902032e-06 5.590820e-02 -1.005920e+00
1.148639e+08 -9.739990e-01 -2.307739e-01 1.802761e-05 -2.157222e-05 -4.863366e-06 -9.942800e-06 6.671143e-02 -1.011841e+00
1.150826e+08 -9.742432e-01 -2.321777e-01 1.144875e-05 -2.099387e-05 -4.507601e-06 3.346987e-05 7.666016e-02 -1.018921e+00
1.153014e+08 -9.739990e-01 -2.319336e-01 -3.118999e-05 -1.382269e-05 8.534640e-06 -1.743622e-05 8.398438e-02 -1.024109e+00
1.155201e+08 -9.739990e-01 -2.325439e-01 -1.685694e-07 1.665484e-05 5.675480e-06 3.859401e-06 8.947754e-02 -1.030884e+00
1.157388e+08 -9.750366e-01 -2.326050e-01 -3.301073e-06 2.970919e-07 2.763607e-05 -2.109818e-05 9.332275e-02 -1.034668e+00
1.159576e+08 -9.747314e-01 -2.323608e-01 -5.187467e-06 -3.948249e-05 6.575510e-05 1.808256e-05 9.576416e-02 -1.038269e+00
1.161763e+08 -9.752808e-01 -2.327881e-01 -7.051975e-06 -2.267398e-05 -8.163042e-07 6.090384e-06 9.759521e-02 -1.040283e+00
1.163950e+08 -9.755249e-01 -2.336426e-01 1.511350e-05 3.862008e-05 -3.740937e-05 4.769117e-05 1.014404e-01 -1.039307e+00
1.166138e+08 -9.755859e-01 -2.344971e-01 2.085231e-05 2.809800e-05 -1.787022e-05 -5.505048e-06 1.031494e-01 -1.038940e+00
1.168325e+08 -9.756470e-01 -2.342529e-01 5.718321e-06 -1.050998e-05 -4.830956e-05 -5.610660e-05 1.060181e-01 -1.037537e+00
1.170512e+08 -9.768066e-01 -2.348633e-01 -2.824888e-05 -1.746416e-05 -3.646128e-06 -1.912471e-05 1.083374e-01 -1.033081e+00
1.172700e+08 -9.770508e-01 -2.365723e-01 2.029538e-05 -1.516100e-05 -1.237262e-06 9.155832e-06 1.132202e-01 -1.029297e+00
1.174887e+08 -9.769897e-01 -2.358398e-01 2.375431e-05 4.554167e-06 -6.556511e-06 4.882738e-05 1.176147e-01 -1.022705e+00
1.177074e+08 -9.765625e-01 -2.365112e-01 5.859882e-06 9.483192e-06 -5.647540e-06 -5.046651e-05 1.226807e-01 -1.018005e+00
1.179261e+08 -9.778442e-01 -2.366943e-01 1.926068e-05 -8.409843e-06 -4.318729e-05 -2.671033e-06 1.290894e-01 -1.012085e+00
1.181449e+08 -9.786987e-01 -2.374878e-01 -1.369882e-05 1.457892e-05 -1.059379e-05 -1.387112e-05 1.353760e-01 -1.008789e+00
1.183636e+08 -9.782715e-01 -2.371216e-01 1.266040e-05 -7.814728e-06 4.073605e-06 1.609698e-05 1.431274e-01 -1.003723e+00
1.185823e+08 -9.784546e-01 -2.377319e-01 4.043803e-06 2.634153e-05 7.461756e-05 -4.603341e-05 1.518555e-01 -9.993286e-01
1.188011e+08 -9.779053e-01 -2.384033e-01 -2.802722e-05 2.258085e-05 -1.628511e-05 -1.774170e-05 1.594849e-01 -9.949341e-01
1.190198e+08 -9.785156e-01 -2.387085e-01 -4.732981e-06 4.053675e-05 3.710389e-05 1.860783e-06 1.661377e-01 -9.924927e-01
1.192385e+08 -9.794312e-01 -2.395630e-01 2.380088e-05 4.535541e-06 -2.490170e-05 -2.384186e-07 1.727905e-01 -9.891968e-01
1.194573e+08 -9.793091e-01 -2.390137e-01 1.346692e-06 3.333017e-05 2.123415e-05 -1.896732e-05 1.776123e-01 -9.870605e-01
1.196760e+08 -9.794922e-01 -2.401123e-01 -1.508091e-05 -1.869909e-05 5.386397e-05 1.658872e-05 1.821899e-01 -9.804077e-01
1.198947e+08 -9.797974e-01 -2.402344e-01 -9.790994e-06 -1.584087e-05 -1.232605e-06 9.186566e-06 1.865845e-01 -9.758911e-01
1.201135e+08 -9.813232e-01 -2.408447e-01 1.341384e-05 1.887605e-05 -4.120171e-06 3.065728e-05 1.894531e-01 -9.682007e-01
1.203322e+08 -9.807129e-01 -2.400513e-01 -1.903530e-05 1.176074e-05 -5.067140e-05 5.688518e-06 1.937256e-01 -9.586792e-01
1.205509e+08 -9.815674e-01 -2.404785e-01 1.275912e-07 2.009235e-05 1.473166e-05 -1.675915e-05 2.005615e-01 -9.490967e-01
1.207696e+08 -9.815674e-01 -2.403564e-01 -2.294406e-05 -3.139675e-05 1.642853e-06 -1.227204e-05 2.079468e-01 -9.397583e-01
1.209884e+08 -9.816284e-01 -2.402344e-01 1.056818e-05 5.749986e-06 5.316455e-06 6.955583e-06 2.164917e-01 -9.288940e-01
1.212071e+08 -9.805298e-01 -2.411499e-01 1.890585e-07 -9.879004e-06 -1.094490e-05 -4.033744e-05 2.290039e-01 -9.195557e-01
1.214258e+08 -9.799194e-01 -2.415161e-01 1.583528e-05 2.059992e-05 5.490147e-06 1.840759e-06 2.427979e-01 -9.118042e-01
1.216446e+08 -9.802246e-01 -2.419434e-01 -1.446530e-05 -1.518428e-05 3.490224e-05 -4.941225e-05 2.548218e-01 -9.051514e-01
1.218633e+08 -9.799194e-01 -2.417603e-01 3.600493e-06 -2.859347e-05 -3.757887e-05 2.100877e-05 2.690430e-01 -8.997192e-01
1.220820e+08 -9.810791e-01 -2.418213e-01 -1.389347e-05 1.598150e-06 1.374818e-05 1.377519e-05 2.807007e-01 -8.970947e-01
1.223008e+08 -9.803467e-01 -2.420044e-01 3.253296e-05 -1.654401e-05 -2.653711e-05 -3.026426e-05 2.926025e-01 -8.948364e-01
1.225195e+08 -9.811401e-01 -2.429199e-01 -1.251884e-05 7.119961e-06 -1.560710e-05 1.006201e-05 3.038330e-01 -8.937378e-01
1.227382e+08 -9.816895e-01 -2.428589e-01 -2.196804e-05 -1.285970e-05 5.427748e-06 5.688518e-05 3.130493e-01 -8.927002e-01
1.229570e+08 -9.810791e-01 -2.438354e-01 -1.670793e-06 -1.388509e-05 -6.053224e-05 -1.978129e-06 3.209839e-01 -8.912354e-01
1.231757e+08 -9.815063e-01 -2.431641e-01 -2.680719e-05 -1.793914e-05 -3.117137e-05 -1.655892e-05 3.279419e-01 -8.885498e-01
1.233944e+08 -9.819946e-01 -2.440186e-01 -7.780734e-06 -6.112736e-06 -3.479794e-05 -4.230067e-05 3.328247e-01 -8.870850e-01
1.236132e+08 -9.822998e-01 -2.435303e-01 1.320988e-05 2.801977e-05 -1.285970e-05 1.815148e-06 3.383179e-01 -8.831787e-01
1.238319e+08 -9.821777e-01 -2.443237e-01 7.614493e-06 -3.051199e-05 -7.345900e-05 -1.852214e-05 3.440552e-01 -8.778076e-01
1.240506e+08 -9.815674e-01 -2.448120e-01 -2.961606e-05 1.762621e-05 -1.466833e-05 -1.105387e-05 3.502197e-01 -8.717041e-01
1.242694e+08 -9.820557e-01 -2.442627e-01 -2.707914e-05 -2.635829e-05 -4.047900e-05 2.932549e-05 3.557739e-01 -8.638306e-01
1.244881e+08 -9.822998e-01 -2.438965e-01 -1.782924e-05 2.188608e-05 -2.479553e-05 -1.749769e-05 3.612061e-01 -8.554077e-01
1.247068e+08 -9.829712e-01 -2.443848e-01 8.298084e-07 6.948132e-06 4.506484e-05 -6.362796e-06 3.686523e-01 -8.461914e-01
1.249255e+08 -9.824219e-01 -2.449951e-01 8.846633e-06 3.184658e-06 4.778430e-05 3.769994e-06 3.773193e-01 -8.363037e-01
1.251443e+08 -9.823608e-01 -2.454224e-01 3.825128e-05 -4.556030e-06 2.398156e-05 -3.487431e-05 3.878784e-01 -8.245239e-01
1.253630e+08 -9.825439e-01 -2.461548e-01 -9.973533e-06 -1.857802e-05 -4.401954e-10 2.183356e-10 4.000244e-01 -8.146362e-01
1.255817e+08 -9.818726e-01 -2.449951e-01 -2.357736e-05 -8.482486e-06 2.571195e-05 1.475774e-05 4.140625e-01 -8.051147e-01
1.258005e+08 -9.823608e-01 -2.456055e-01 -2.411567e-05 -7.001683e-06 1.383200e-05 -2.297014e-05 4.307251e-01 -7.957153e-01
1.260192e+08 -9.833374e-01 -2.463989e-01 2.950430e-06 1.058914e-06 6.495975e-06 -1.932122e-05 4.479370e-01 -7.886353e-01
1.262379e+08 -9.828491e-01 -2.459106e-01 3.306568e-05 2.854504e-05 -2.494641e-05 3.767200e-05 4.664307e-01 -7.852783e-01
1.264567e+08 -9.829102e-01 -2.462158e-01 7.489696e-06 -2.303626e-06 7.376540e-06 -3.663823e-06 4.846802e-01 -7.829590e-01
1.266754e+08 -9.832153e-01 -2.465210e-01 -1.589395e-05 -2.072100e-05 2.023391e-05 1.294352e-05 5.026855e-01 -7.835693e-01
1.268941e+08 -9.833374e-01 -2.465210e-01 9.745359e-06 2.852827e-05 -1.100078e-05 -2.214313e-05 5.203857e-01 -7.860107e-01
1.271129e+08 -9.826050e-01 -2.468872e-01 3.189035e-05 -5.194917e-06 -1.639128e-07 5.526096e-05 5.340576e-01 -7.910767e-01
1.273316e+08 -9.837036e-01 -2.463379e-01 -5.279854e-05 -1.065060e-05 -2.210774e-05 -7.415190e-06 5.460205e-01 -7.974243e-01
1.275503e+08 -9.821777e-01 -2.456665e-01 -3.591180e-05 7.072464e-06 -4.331023e-05 1.925975e-05 5.537109e-01 -8.023682e-01
1.277690e+08 -9.827881e-01 -2.473145e-01 -8.506700e-06 2.360716e-05 3.769062e-05 3.422238e-05 5.587769e-01 -8.075562e-01
1.279878e+08 -9.827881e-01 -2.463379e-01 -2.042577e-05 -1.737755e-05 1.294166e-05 -2.025254e-05 5.626221e-01 -8.091431e-01
1.282065e+08 -9.829712e-01 -2.469482e-01 1.878850e-05 3.426336e-06 4.530326e-05 -4.323199e-05 5.651855e-01 -8.102417e-01
1.284252e+08 -9.819336e-01 -2.468872e-01 -9.208918e-06 -3.004260e-05 3.695115e-05 -3.677234e-05 5.682983e-01 -8.093262e-01
1.286440e+08 -9.828491e-01 -2.471313e-01 -1.240429e-05 -2.116617e-05 6.176159e-05 1.770630e-05 5.703735e-01 -8.051147e-01
1.288627e+08 -9.830322e-01 -2.470703e-01 -2.097804e-05 -1.591537e-05 2.680346e-06 2.862327e-05 5.744019e-01 -8.009033e-01
1.290814e+08 -9.826660e-01 -2.470703e-01 -2.477504e-05 -2.396852e-05 8.210540e-06 3.047846e-05 5.798950e-01 -7.937622e-01
1.293002e+08 -9.826660e-01 -2.474976e-01 5.331822e-06 -1.478475e-05 -1.660921e-05 -5.590729e-06 5.869141e-01 -7.875366e-01
1.295189e+08 -9.821167e-01 -2.468262e-01 -1.507439e-05 -1.378264e-05 -3.511831e-05 1.283363e-05 5.932007e-01 -7.820435e-01
1.297376e+08 -9.828491e-01 -2.471924e-01 9.155832e-06 1.166947e-05 -1.025014e-05 3.045425e-05 6.012573e-01 -7.755127e-01
1.299564e+08 -9.819336e-01 -2.473145e-01 -3.397465e-06 3.721379e-05 5.352497e-05 5.703419e-06 6.093750e-01 -7.672119e-01
1.301751e+08 -9.832764e-01 -2.472534e-01 9.709504e-06 1.017749e-05 5.175173e-05 1.122430e-05 6.191406e-01 -7.600098e-01
1.303938e+08 -9.821777e-01 -2.474365e-01 -5.343929e-06 1.479220e-05 2.740882e-06 1.017377e-05 6.283569e-01 -7.540894e-01
1.306126e+08 -9.816895e-01 -2.465210e-01 -2.824701e-05 -5.180016e-06 -2.397597e-05 -2.038293e-05 6.394043e-01 -7.480469e-01
1.308313e+08 -9.823608e-01 -2.474365e-01 -1.906138e-05 6.491318e-06 1.202244e-05 9.611249e-07 6.505127e-01 -7.434082e-01
1.310500e+08 -9.816284e-01 -2.473755e-01 -5.384907e-06 -3.617024e-06 -6.479677e-06 9.052455e-07 6.610718e-01 -7.405396e-01
1.312688e+08 -9.808350e-01 -2.477417e-01 -4.563015e-06 3.371853e-06 7.485226e-05 1.597777e-05 6.710205e-01 -7.374878e-01
1.314875e+08 -9.817505e-01 -2.476807e-01 -9.756535e-06 -2.864003e-05 9.164214e-06 2.780743e-05 6.803589e-01 -7.373047e-01
1.317062e+08 -9.819336e-01 -2.476807e-01 3.062747e-05 -1.071393e-05 2.414174e-05 -1.659803e-05 6.880493e-01 -7.356567e-01
1.319249e+08 -9.813232e-01 -2.481689e-01 3.809854e-05 5.224720e-05 -2.321042e-05 1.381151e-05 6.928101e-01 -7.345581e-01
1.321437e+08 -9.812622e-01 -2.477417e-01 -2.015661e-05 9.446405e-06 -2.863072e-05 -2.511591e-05 6.977539e-01 -7.313232e-01
1.323624e+08 -9.818115e-01 -2.481689e-01 3.256649e-05 -6.658956e-06 -5.492941e-06 -2.041459e-05 7.003784e-01 -7.272949e-01
1.325811e+08 -9.812012e-01 -2.470093e-01 1.699384e-05 1.786556e-05 -3.991649e-05 2.677366e-05 7.028198e-01 -7.213135e-01
1.327999e+08 -9.804077e-01 -2.475586e-01 -2.803467e-05 -1.514703e-05 6.488059e-06 -9.043142e-07 7.078247e-01 -7.132874e-01
1.330186e+08 -9.802246e-01 -2.481689e-01 1.569465e-05 3.081746e-05 -2.409332e-05 -1.929700e-06 7.125854e-01 -7.050476e-01
1.332373e+08 -9.800415e-01 -2.484741e-01 -3.049895e-05 -3.617629e-05 -3.341027e-05 7.301569e-06 7.205811e-01 -6.946411e-01
1.334561e+08 -9.791260e-01 -2.485962e-01 -1.696963e-05 5.783513e-07 -8.452684e-06 2.498925e-05 7.296143e-01 -6.857910e-01
1.336748e+08 -9.801636e-01 -2.483521e-01 5.898066e-06 -1.631677e-05 -4.355982e-05 -1.779944e-05 7.404175e-01 -6.776733e-01
1.338935e+08 -9.793701e-01 -2.479248e-01 -4.449859e-05 -3.455579e-05 -2.746470e-06 -1.021754e-05 7.508545e-01 -6.720581e-01
1.341123e+08 -9.794922e-01 -2.481689e-01 -3.486313e-05 -4.276633e-05 2.492405e-05 3.631599e-05 7.626343e-01 -6.680908e-01
1.343310e+08 -9.791260e-01 -2.476807e-01 1.480710e-05 -1.308601e-05 1.125038e-05 -3.339164e-05 7.720947e-01 -6.667480e-01
1.345497e+08 -9.788208e-01 -2.489624e-01 -2.238341e-05 -3.067777e-06 -1.036562e-05 3.061444e-05 7.808228e-01 -6.657715e-01
1.347684e+08 -9.785156e-01 -2.485352e-01 -1.632422e-05 5.448610e-05 -2.047047e-05 5.498528e-06 7.871704e-01 -6.666870e-01
1.349872e+08 -9.777832e-01 -2.478638e-01 -4.578382e-06 3.381167e-06 1.951028e-05 -2.720393e-06 7.899780e-01 -6.669312e-01
1.352059e+08 -9.772949e-01 -2.491455e-01 9.695999e-06 -8.243602e-06 -9.418000e-07 2.783258e-06 7.910156e-01 -6.656494e-01
1.354246e+08 -9.776001e-01 -2.487793e-01 -1.154467e-05 4.115887e-05 2.714619e-05 -4.357845e-05 7.901001e-01 -6.628418e-01
1.356434e+08 -9.770508e-01 -2.490845e-01 -3.562681e-05 2.405606e-05 5.570706e-06 1.884997e-06 7.892456e-01 -6.596069e-01
1.358621e+08 -9.763794e-01 -2.484741e-01 -4.483014e-05 -6.176531e-06 2.409518e-05 2.053939e-05 7.874146e-01 -6.539307e-01
1.360808e+08 -9.759521e-01 -2.481689e-01 -2.779253e-05 1.177005e-05 1.851562e-05 1.867767e-05 7.864380e-01 -6.459961e-01
1.362996e+08 -9.759521e-01 -2.481689e-01 1.108181e-05 1.578033e-05 1.224689e-05 -3.623962e-05 7.871704e-01 -6.380615e-01
1.365183e+08 -9.750366e-01 -2.487793e-01 1.673587e-05 -9.063631e-06 -2.744608e-06 -1.024920e-05 7.855225e-01 -6.271362e-01
1.367370e+08 -9.756470e-01 -2.490234e-01 -3.766268e-06 2.888776e-05 1.631677e-06 5.031377e-05 7.862549e-01 -6.174927e-01
1.369558e+08 -9.740601e-01 -2.489014e-01 4.572794e-06 -4.038960e-05 -2.153404e-05 2.689101e-05 7.870483e-01 -6.060181e-01
1.371745e+08 -9.739990e-01 -2.483521e-01 1.969188e-05 -2.649054e-05 -2.616830e-05 2.223998e-05 7.895508e-01 -5.941772e-01
1.373932e+08 -9.742432e-01 -2.487793e-01 4.537031e-05 4.716218e-06 -8.412637e-06 6.482471e-06 7.915649e-01 -5.824585e-01
1.376120e+08 -9.741211e-01 -2.490845e-01 8.105300e-06 -3.794208e-06 -2.972782e-05 -2.250075e-05 7.969360e-01 -5.701294e-01
1.378307e+08 -9.724731e-01 -2.489624e-01 -3.268756e-05 6.649643e-06 -1.476146e-05 -2.986006e-05 8.023071e-01 -5.598145e-01
1.380494e+08 -9.730225e-01 -2.485352e-01 -2.433918e-05 -2.570264e-05 -1.816079e-06 -1.305994e-05 8.092041e-01 -5.485229e-01
1.382682e+08 -9.722900e-01 -2.491455e-01 7.860363e-06 2.472289e-05 2.887100e-05 6.653368e-06 8.165283e-01 -5.397339e-01
1.384869e+08 -9.713135e-01 -2.490234e-01 9.738375e-06 1.027016e-05 -3.067404e-05 -1.972914e-05 8.218994e-01 -5.331421e-01
1.387056e+08 -9.710693e-01 -2.492676e-01 -1.866836e-05 -1.352094e-05 8.424278e-06 -6.489456e-06 8.284912e-01 -5.280762e-01
1.389243e+08 -9.703369e-01 -2.486572e-01 2.959743e-06 -1.744740e-05 -3.550202e-06 -4.478171e-05 8.334961e-01 -5.248413e-01
1.391431e+08 -9.699097e-01 -2.490845e-01 1.244992e-05 2.835877e-06 2.415478e-05 2.064183e-05 8.359375e-01 -5.220337e-01
1.393618e+08 -9.699097e-01 -2.490845e-01 -1.892820e-05 3.355555e-05 -2.270192e-05 6.711483e-05 8.339233e-01 -5.194702e-01
1.395805e+08 -9.699097e-01 -2.496338e-01 1.191441e-05 -1.422409e-05 -2.626516e-05 2.230331e-05 8.318481e-01 -5.154419e-01
1.397993e+08 -9.689331e-01 -2.498779e-01 -1.731794e-05 -7.978640e-06 -1.127366e-05 1.489092e-05 8.267212e-01 -5.091553e-01
1.400180e+08 -9.690552e-01 -2.509155e-01 -4.116446e-05 -3.517792e-05 1.528487e-05 -6.346777e-05 8.200684e-01 -4.988403e-01
1.402367e+08 -9.680786e-01 -2.496948e-01 -4.864298e-06 1.341384e-05 1.970679e-05 -2.141297e-05 8.145752e-01 -4.868774e-01
1.404555e+08 -9.674683e-01 -2.507935e-01 -2.819486e-05 -3.385916e-05 -2.325699e-05 -2.347864e-05 8.104248e-01 -4.724731e-01
1.406742e+08 -9.662476e-01 -2.507324e-01 1.192559e-05 4.344620e-06 1.497939e-05 -7.405877e-06 8.098145e-01 -4.558105e-01
1.408929e+08 -9.661255e-01 -2.512207e-01 2.410635e-05 1.719221e-05 2.772734e-05 6.557629e-05 8.099365e-01 -4.384766e-01
1.411117e+08 -9.656982e-01 -2.503052e-01 1.844950e-05 -3.212877e-05 2.998300e-05 -1.482107e-05 8.130493e-01 -4.209595e-01
1.413304e+08 -9.646606e-01 -2.501221e-01 9.493902e-06 3.890507e-05 -2.050586e-05 -1.317635e-05 8.195801e-01 -4.053955e-01
1.415491e+08 -9.656982e-01 -2.509766e-01 8.083880e-07 -1.152977e-05 -1.139566e-05 3.365986e-05 8.262939e-01 -3.905640e-01
1.417678e+08 -9.642334e-01 -2.512817e-01 1.436379e-05 -1.165085e-05 2.242625e-05 7.594004e-06 8.350830e-01 -3.782959e-01
1.419866e+08 -9.629517e-01 -2.517700e-01 -2.494641e-05 1.287088e-05 1.576915e-05 2.722815e-05 8.432617e-01 -3.679810e-01
1.422053e+08 -9.632568e-01 -2.516479e-01 -2.143718e-05 -2.468750e-05 7.234514e-06 5.248934e-05 8.518066e-01 -3.593750e-01
1.424240e+08 -9.617920e-01 -2.515259e-01 -2.249517e-05 -2.169795e-05 2.424233e-05 2.071075e-05 8.596802e-01 -3.523560e-01
1.426428e+08 -9.614258e-01 -2.523193e-01 1.898129e-05 3.540888e-06 -1.977198e-05 2.142601e-05 8.660278e-01 -3.467407e-01
1.428615e+08 -9.614258e-01 -2.522583e-01 -2.876297e-05 -1.385994e-05 -4.043058e-05 2.697483e-05 8.717041e-01 -3.425903e-01
1.430802e+08 -9.606934e-01 -2.518311e-01 -4.070811e-06 1.896173e-06 -4.578382e-06 -2.344511e-05 8.751831e-01 -3.393555e-01
1.432990e+08 -9.597778e-01 -2.521362e-01 -8.419622e-06 -4.755799e-06 -4.516914e-05 4.100055e-05 8.776245e-01 -3.342896e-01
1.435177e+08 -9.590454e-01 -2.534790e-01 -2.064463e-05 9.480864e-07 4.022941e-05 1.055002e-05 8.774414e-01 -3.322144e-01
1.437364e+08 -9.586792e-01 -2.532349e-01 2.038479e-05 -4.669651e-05 -1.685228e-05 -5.718321e-06 8.752441e-01 -3.280029e-01
1.439552e+08 -9.567871e-01 -2.536621e-01 1.956057e-05 2.054498e-06 6.563962e-06 -8.982606e-07 8.723755e-01 -3.223877e-01
1.441739e+08 -9.569092e-01 -2.534790e-01 1.639128e-06 -2.308004e-05 -3.613532e-06 -2.628192e-05 8.674316e-01 -3.139038e-01
1.443926e+08 -9.568481e-01 -2.539673e-01 -3.635511e-05 -4.880875e-05 2.757646e-06 1.033768e-05 8.623047e-01 -3.051147e-01
1.446114e+08 -9.556885e-01 -2.536011e-01 -3.423356e-05 -1.757219e-05 -6.572809e-06 9.019859e-07 8.573608e-01 -2.921143e-01
1.448301e+08 -9.558716e-01 -2.544556e-01 -1.609325e-06 -1.413282e-05 -2.154335e-05 -1.045316e-05 8.526611e-01 -2.767944e-01
1.450488e+08 -9.550171e-01 -2.541504e-01 1.197681e-05 -1.426507e-05 -2.820790e-05 9.236857e-06 8.504639e-01 -2.598267e-01
1.452676e+08 -9.537964e-01 -2.545776e-01 9.772833e-06 1.035398e-05 -4.050508e-05 2.698973e-05 8.519287e-01 -2.400513e-01
1.454863e+08 -9.534912e-01 -2.553711e-01 1.633726e-05 -7.589348e-06 7.424504e-06 1.506601e-05 8.554688e-01 -2.202148e-01
1.457050e+08 -9.524536e-01 -2.557373e-01 -1.175888e-05 4.148111e-05 -9.557698e-07 2.812129e-06 8.621826e-01 -2.017822e-01
1.459237e+08 -9.524536e-01 -2.563477e-01 1.469068e-05 -3.105961e-06 -4.886836e-05 -4.053116e-06 8.704834e-01 -1.847534e-01
1.461425e+08 -9.511108e-01 -2.563477e-01 -6.854534e-06 2.801791e-05 2.871733e-06 -8.437783e-06 8.817749e-01 -1.690063e-01
1.463612e+08 -9.500122e-01 -2.561035e-01 -1.494586e-05 -2.410449e-05 -6.470829e-06 -1.788698e-05 8.949585e-01 -1.556396e-01
1.465799e+08 -9.497070e-01 -2.564087e-01 2.448633e-05 7.247552e-06 -5.350262e-05 -8.746982e-06 9.068604e-01 -1.462402e-01
1.467987e+08 -9.497070e-01 -2.571411e-01 -5.708076e-06 -1.225621e-05 -4.779547e-06 1.407787e-05 9.193115e-01 -1.389160e-01
1.470174e+08 -9.490967e-01 -2.575073e-01 8.387491e-06 2.344139e-05 -1.509115e-05 7.440336e-06 9.296265e-01 -1.342163e-01
1.472361e+08 -9.483032e-01 -2.579346e-01 -8.692034e-06 -1.336541e-05 -2.157688e-05 -1.047552e-05 9.384155e-01 -1.304321e-01
1.474549e+08 -9.466553e-01 -2.587280e-01 -7.378869e-06 1.087738e-05 2.443790e-05 2.028421e-06 9.443970e-01 -1.273193e-01
1.476736e+08 -9.466553e-01 -2.590332e-01 1.931097e-05 1.215935e-05 2.871267e-06 -8.451287e-06 9.503174e-01 -1.243286e-01
1.478923e+08 -9.457397e-01 -2.592163e-01 -2.309121e-05 -2.033636e-05 -2.529286e-05 -1.803041e-05 9.528198e-01 -1.206055e-01
1.481111e+08 -9.454346e-01 -2.591553e-01 -2.101250e-05 1.098588e-05 3.824010e-06 -1.127273e-05 9.562988e-01 -1.165771e-01
1.483298e+08 -9.446411e-01 -2.602539e-01 9.027310e-06 -1.537148e-05 -1.319032e-05 1.803041e-06 9.571533e-01 -1.108398e-01
1.485485e+08 -9.437866e-01 -2.606812e-01 1.054257e-06 1.566950e-05 -4.513652e-10 2.221725e-10 9.586792e-01 -1.043701e-01
1.487672e+08 -9.434204e-01 -2.605591e-01 -8.257106e-06 4.113466e-05 3.467500e-05 2.751127e-05 9.586792e-01 -9.887695e-02
1.489860e+08 -9.420166e-01 -2.614746e-01 -3.491901e-05 2.117828e-05 -2.881046e-06 8.452218e-06 9.578857e-01 -9.039307e-02
1.492047e+08 -9.415283e-01 -2.614746e-01 -2.270564e-06 4.334003e-05 5.528331e-06 2.075732e-05 9.580688e-01 -8.209229e-02
1.494234e+08 -9.404297e-01 -2.614746e-01 -1.583155e-05 6.089918e-06 7.446855e-06 1.510791e-05 9.574585e-01 -7.214355e-02
1.496422e+08 -9.401855e-01 -2.620850e-01 -2.127513e-05 2.405606e-06 -5.397946e-05 4.774332e-05 9.572144e-01 -6.005859e-02
1.498609e+08 -9.394531e-01 -2.626343e-01 3.873184e-05 5.682930e-06 1.236238e-05 -1.783483e-05 9.577637e-01 -4.785156e-02
1.500796e+08 -9.389038e-01 -2.634277e-01 -2.761558e-05 2.898835e-05 -1.800433e-05 1.590885e-05 9.598999e-01 -3.295898e-02
1.502984e+08 -9.381714e-01 -2.645874e-01 -2.963655e-05 -3.975444e-05 4.444271e-05 -1.948699e-05 9.645996e-01 -1.904297e-02
1.505171e+08 -9.371948e-01 -2.639771e-01 -2.179388e-05 -1.477543e-05 2.879649e-06 -8.463394e-06 9.688110e-01 -5.493164e-03
1.507358e+08 -9.366455e-01 -2.653809e-01 6.331131e-06 -2.657622e-05 3.110617e-05 1.149252e-06 9.769897e-01 8.056641e-03
1.509546e+08 -9.362183e-01 -2.652588e-01 -2.680719e-05 1.737848e-05 -9.608921e-07 2.823304e-06 9.863892e-01 1.855469e-02
1.511733e+08 -9.352417e-01 -2.657471e-01 -6.437302e-05 -9.972602e-06 -2.920255e-05 -6.789342e-06 9.954224e-01 2.752686e-02
1.513920e+08 -9.340820e-01 -2.666016e-01 -2.294779e-05 6.902963e-06 -1.238473e-05 1.783390e-05 1.004211e+00 3.411865e-02
1.516108e+08 -9.336548e-01 -2.669678e-01 3.495812e-05 -2.536923e-06 -1.297332e-05 -3.594346e-05 1.010559e+00 3.826904e-02
1.518295e+08 -9.327393e-01 -2.674561e-01 -7.536262e-06 -5.385280e-05 -9.240583e-06 -2.836995e-05 1.015137e+00 4.156494e-02
1.520482e+08 -9.318237e-01 -2.681885e-01 -2.651103e-05 7.284805e-06 1.886766e-05 1.331791e-07 1.016724e+00 4.473877e-02
1.522670e+08 -9.307251e-01 -2.695923e-01 -6.247312e-06 -1.080800e-05 -2.630800e-05 -1.529604e-05 1.017944e+00 4.992676e-02
1.524857e+08 -9.304199e-01 -2.695923e-01 5.539507e-06 -3.370270e-05 -3.389828e-05 -1.155958e-05 1.016174e+00 5.712891e-02
1.527044e+08 -9.296265e-01 -2.697144e-01 -1.775473e-05 1.993030e-06 -2.919696e-05 -6.804243e-06 1.016541e+00 6.567383e-02
1.529231e+08 -9.288940e-01 -2.703247e-01 1.099892e-05 -3.003702e-05 5.649868e-06 1.926441e-06 1.016846e+00 7.495117e-02
1.531419e+08 -9.281616e-01 -2.708130e-01 3.702193e-05 -3.585219e-05 -5.843490e-05 -1.360476e-05 1.019897e+00 8.587646e-02
1.533606e+08 -9.277344e-01 -2.722778e-01 2.850406e-05 -2.193078e-05 -2.063811e-06 2.453849e-05 1.024353e+00 9.613037e-02
1.535793e+08 -9.267578e-01 -2.729492e-01 -2.836250e-05 -1.556613e-05 -1.544878e-05 4.519895e-05 1.029053e+00 1.050415e-01
1.537981e+08 -9.259033e-01 -2.733765e-01 2.623349e-05 2.825633e-06 -8.546747e-06 6.544869e-06 1.034729e+00 1.129761e-01
1.540168e+08 -9.258423e-01 -2.749023e-01 -6.163493e-06 3.525428e-05 -2.343208e-05 -2.381951e-05 1.039917e+00 1.177368e-01
1.542355e+08 -9.252930e-01 -2.749023e-01 1.951680e-05 -2.524070e-05 -4.984438e-06 3.303960e-05 1.044739e+00 1.212769e-01
1.544543e+08 -9.243774e-01 -2.753296e-01 5.034730e-06 -3.225915e-05 1.488253e-05 3.034994e-05 1.047363e+00 1.238403e-01
1.546730e+08 -9.232178e-01 -2.763062e-01 -8.651987e-07 1.162477e-05 -2.634898e-05 -1.532584e-05 1.048096e+00 1.249390e-01
1.548917e+08 -9.227905e-01 -2.767944e-01 7.427298e-06 -1.092628e-05 -6.625429e-06 8.950010e-07 1.047363e+00 1.263428e-01
1.551105e+08 -9.221802e-01 -2.772217e-01 -8.828938e-06 2.406165e-05 -1.628511e-05 2.919510e-05 1.046204e+00 1.293945e-01
1.553292e+08 -9.212646e-01 -2.779541e-01 -2.158340e-05 -6.231479e-06 6.761402e-06 -1.979619e-05 1.044128e+00 1.321411e-01
1.555479e+08 -9.208374e-01 -2.792969e-01 5.431101e-05 2.851710e-05 -1.935288e-06 5.658250e-06 1.039612e+00 1.353760e-01
1.557666e+08 -9.199219e-01 -2.797241e-01 -1.922343e-05 1.512375e-05 7.445924e-06 1.518708e-05 1.035522e+00 1.391602e-01
1.559854e+08 -9.188232e-01 -2.798462e-01 1.572445e-05 -3.347173e-05 1.889467e-05 1.480803e-07 1.031982e+00 1.433105e-01
1.562041e+08 -9.179688e-01 -2.818604e-01 3.561843e-06 -3.976747e-07 -1.599360e-05 -8.651055e-06 1.026428e+00 1.472168e-01
1.564228e+08 -9.169312e-01 -2.813110e-01 1.487508e-05 -2.187118e-05 -4.618987e-05 -1.266226e-05 1.020813e+00 1.514282e-01
1.566416e+08 -9.165039e-01 -2.828369e-01 1.307018e-05 2.018083e-05 -9.695068e-06 2.828240e-05 1.014954e+00 1.567993e-01
1.568603e+08 -9.160767e-01 -2.833252e-01 -2.058037e-05 9.519048e-06 -8.567236e-06 6.548595e-06 1.006592e+00 1.643677e-01
1.570790e+08 -9.151611e-01 -2.839966e-01 2.097711e-05 -3.841519e-05 -2.829172e-05 -9.687617e-06 1.000305e+00 1.721191e-01
1.572978e+08 -9.148560e-01 -2.849121e-01 -1.076516e-05 1.995917e-05 9.221956e-06 2.845936e-05 9.932251e-01 1.810913e-01
1.575165e+08 -9.145508e-01 -2.849121e-01 3.835373e-05 7.268041e-06 -3.330037e-05 2.339669e-05 9.891357e-01 1.925049e-01
1.577352e+08 -9.130249e-01 -2.866821e-01 -2.172031e-05 1.251418e-05 1.131091e-05 3.882684e-06 9.862671e-01 2.032471e-01
1.579540e+08 -9.123535e-01 -2.871094e-01 1.615565e-05 2.528541e-06 -1.228228e-05 -1.045875e-06 9.856567e-01 2.128296e-01
1.581727e+08 -9.126587e-01 -2.875977e-01 -2.361648e-05 8.424744e-06 -1.795497e-05 -2.985820e-06 9.862671e-01 2.206421e-01
1.583914e+08 -9.108887e-01 -2.880249e-01 1.125876e-05 -2.696179e-06 -5.301461e-05 7.141382e-06 9.876099e-01 2.247925e-01
1.586102e+08 -9.105835e-01 -2.894287e-01 2.043881e-05 2.806634e-05 -3.380887e-05 -3.055669e-05 9.880371e-01 2.257080e-01
1.588289e+08 -9.097900e-01 -2.900391e-01 -6.187707e-06 3.534555e-05 -1.697894e-05 -5.822629e-06 9.868774e-01 2.244873e-01
1.590476e+08 -9.087524e-01 -2.905884e-01 -5.557202e-06 1.506973e-05 4.994869e-05 2.028048e-05 9.797363e-01 2.208252e-01
1.592664e+08 -9.089355e-01 -2.920532e-01 1.257285e-06 2.441369e-05 1.617894e-05 -1.027435e-05 9.698486e-01 2.165527e-01
1.594851e+08 -9.088745e-01 -2.927856e-01 -1.317542e-05 -1.424924e-06 2.915040e-05 2.582744e-05 9.558105e-01 2.158203e-01
1.597038e+08 -9.078979e-01 -2.937012e-01 -1.848862e-05 2.230518e-05 1.408160e-05 1.432840e-05 9.400024e-01 2.174683e-01
1.599225e+08 -9.067383e-01 -2.940063e-01 1.332909e-05 -3.616139e-05 -1.246110e-05 1.787394e-05 9.216309e-01 2.222900e-01
1.601413e+08 -9.063110e-01 -2.955322e-01 -4.916685e-06 -5.235197e-06 1.990609e-05 -2.667308e-06 9.046631e-01 2.319336e-01
1.603600e+08 -9.050293e-01 -2.965088e-01 6.118789e-06 -1.657847e-05 3.670529e-05 2.207421e-05 8.889160e-01 2.439575e-01
1.605787e+08 -9.043579e-01 -2.977295e-01 -1.663109e-06 4.520873e-06 -5.481765e-06 -2.086908e-05 8.739624e-01 2.584839e-01
1.607975e+08 -9.041748e-01 -2.980957e-01 1.048343e-05 -9.834301e-06 -1.779757e-06 -1.326576e-05 8.620605e-01 2.745361e-01
1.610162e+08 -9.044189e-01 -2.990112e-01 2.404489e-05 2.772734e-05 5.666167e-06 1.943205e-06 8.531494e-01 2.900391e-01
1.612349e+08 -9.039917e-01 -3.002930e-01 1.330301e-05 2.889521e-05 -3.081188e-05 5.277619e-05 8.461304e-01 3.060913e-01
1.614537e+08 -9.033813e-01 -3.003540e-01 9.454787e-06 -2.564676e-05 -2.736412e-05 -1.255609e-05 8.408203e-01 3.222046e-01
1.616724e+08 -9.027710e-01 -3.018188e-01 -1.073023e-05 1.185574e-06 -1.213327e-05 -2.001040e-05 8.356323e-01 3.366699e-01
1.618911e+08 -9.017334e-01 -3.025513e-01 -4.689675e-06 3.413996e-06 1.080707e-05 6.069988e-05 8.325806e-01 3.513794e-01
1.621099e+08 -9.010620e-01 -3.037109e-01 -1.495704e-05 2.190098e-05 -1.345761e-05 2.072006e-05 8.302002e-01 3.643799e-01
1.623286e+08 -9.002075e-01 -3.047485e-01 -6.237999e-06 3.542192e-05 3.360212e-06 4.550815e-05 8.277588e-01 3.766479e-01
1.625473e+08 -8.999023e-01 -3.052979e-01 -8.508097e-06 -4.852191e-06 -4.693400e-06 -4.781410e-06 8.278198e-01 3.880005e-01
1.627660e+08 -8.994141e-01 -3.063965e-01 -9.581447e-06 4.450232e-05 -2.753548e-05 6.372109e-06 8.280029e-01 3.988037e-01
1.629848e+08 -8.996582e-01 -3.071899e-01 1.375005e-05 -7.078052e-08 -3.127195e-05 -1.233071e-06 8.300781e-01 4.079590e-01
1.632035e+08 -8.989258e-01 -3.079834e-01 8.733012e-06 1.351815e-05 -3.659725e-05 -4.107878e-05 8.315430e-01 4.146118e-01
1.634222e+08 -8.983154e-01 -3.088379e-01 4.395470e-05 1.111999e-05 2.267212e-05 7.793307e-06 8.314209e-01 4.182129e-01
1.636410e+08 -8.974609e-01 -3.098755e-01 -7.719733e-06 2.296176e-06 4.179031e-05 -1.098216e-05 8.293457e-01 4.185181e-01
1.638597e+08 -8.965454e-01 -3.112183e-01 -8.856878e-06 -4.104525e-05 -1.573935e-06 -3.223494e-05 8.244629e-01 4.192505e-01
1.640784e+08 -8.958740e-01 -3.118896e-01 2.740324e-05 -2.763234e-05 -4.097819e-07 -5.400181e-05 8.170776e-01 4.202271e-01
1.642972e+08 -8.960571e-01 -3.126831e-01 5.481299e-06 3.745779e-06 -2.852641e-05 9.210780e-06 8.049316e-01 4.224854e-01
1.645159e+08 -8.957520e-01 -3.140259e-01 -2.569519e-06 1.623295e-05 -2.853572e-05 9.207055e-06 7.917480e-01 4.275513e-01
1.647346e+08 -8.953857e-01 -3.145752e-01 -3.334135e-07 1.019007e-05 -5.946308e-05 -2.995133e-05 7.778931e-01 4.363403e-01
1.649534e+08 -8.941040e-01 -3.156738e-01 -1.881365e-05 1.368206e-05 -2.851896e-05 9.195879e-06 7.642822e-01 4.489136e-01
1.651721e+08 -8.942871e-01 -3.169556e-01 1.465436e-05 -1.175422e-05 -3.363937e-05 -4.965812e-05 7.507935e-01 4.641724e-01
1.653908e+08 -8.933105e-01 -3.179932e-01 -2.228096e-05 -4.800037e-06 7.423572e-06 1.523551e-05 7.410278e-01 4.818726e-01
1.656096e+08 -8.930054e-01 -3.186035e-01 -8.968636e-06 -2.222136e-05 5.394220e-05 9.056181e-06 7.352905e-01 5.003052e-01
1.658283e+08 -8.923340e-01 -3.197021e-01 6.826594e-06 -3.700703e-05 1.895241e-05 1.862645e-07 7.315674e-01 5.187988e-01
1.660470e+08 -8.922729e-01 -3.206787e-01 1.108274e-07 -1.886673e-05 -3.988296e-05 5.267560e-06 7.316895e-01 5.360718e-01
1.662658e+08 -8.920898e-01 -3.220215e-01 -2.722442e-05 -1.008809e-05 -1.701247e-05 -5.865470e-06 7.335205e-01 5.515747e-01
1.664845e+08 -8.914795e-01 -3.226929e-01 2.822466e-05 2.594665e-05 1.370907e-06 5.121902e-05 7.367554e-01 5.654907e-01
1.667032e+08 -8.908081e-01 -3.236084e-01 -1.758151e-05 3.822893e-05 -2.698228e-05 4.144385e-05 7.395020e-01 5.761108e-01
1.669219e+08 -8.908691e-01 -3.252563e-01 -5.726144e-05 -1.259521e-05 8.797273e-06 -2.552569e-05 7.429199e-01 5.850830e-01
1.671407e+08 -8.907471e-01 -3.255005e-01 -2.186187e-05 1.254678e-05 -2.745539e-06 -1.045968e-05 7.427368e-01 5.908813e-01
1.673594e+08 -8.894653e-01 -3.278809e-01 -2.040807e-05 -6.603077e-07 -1.544133e-06 -3.228150e-05 7.434692e-01 5.983276e-01
1.675781e+08 -8.892212e-01 -3.279419e-01 2.376549e-05 -8.400530e-06 7.860363e-07 1.613423e-05 7.418823e-01 6.036987e-01
1.677969e+08 -8.892212e-01 -3.292847e-01 -5.717389e-06 -1.244619e-05 -5.812198e-05 2.121925e-05 7.410278e-01 6.098022e-01
1.680156e+08 -8.884277e-01 -3.306274e-01 1.390837e-05 -1.895148e-05 -2.733432e-06 -1.046062e-05 7.391357e-01 6.161499e-01
1.682343e+08 -8.888550e-01 -3.317261e-01 -3.231317e-05 3.550202e-06 1.175329e-06 -2.181903e-05 7.363281e-01 6.215820e-01
1.684531e+08 -8.882446e-01 -3.329468e-01 -2.847239e-05 1.184084e-05 -2.934784e-05 -6.970018e-06 7.312622e-01 6.272583e-01
1.686718e+08 -8.882446e-01 -3.339233e-01 1.873542e-05 5.212612e-06 -3.796443e-05 -4.190952e-07 7.260132e-01 6.326904e-01
1.688905e+08 -8.878174e-01 -3.346558e-01 -1.123641e-06 3.028661e-06 4.321709e-05 4.033744e-05 7.196045e-01 6.390991e-01
1.691093e+08 -8.879395e-01 -3.349609e-01 1.784600e-05 1.694076e-05 3.875419e-05 1.653656e-05 7.105408e-01 6.465454e-01
1.693280e+08 -8.867188e-01 -3.365479e-01 -1.300871e-05 7.242896e-06 1.918897e-05 -1.877639e-05 7.019958e-01 6.561279e-01
1.695467e+08 -8.867188e-01 -3.371582e-01 1.570210e-06 1.435913e-05 3.327429e-05 -4.403293e-06 6.941223e-01 6.684265e-01
1.697654e+08 -8.870850e-01 -3.387451e-01 -2.290681e-05 -3.308058e-06 -3.486127e-05 -2.792478e-05 6.866760e-01 6.830750e-01
1.699842e+08 -8.864136e-01 -3.394165e-01 -1.335796e-05 1.745578e-05 3.286079e-05 3.359094e-05 6.798096e-01 6.998291e-01
1.702029e+08 -8.857422e-01 -3.406372e-01 -7.524155e-06 1.099706e-05 -3.327988e-05 4.382804e-06 6.776123e-01 7.168579e-01
1.704216e+08 -8.858643e-01 -3.416138e-01 2.467539e-06 2.637738e-06 -3.446266e-05 2.620555e-05 6.781006e-01 7.349243e-01
1.706404e+08 -8.858032e-01 -3.428955e-01 -7.536262e-06 1.100730e-05 2.086163e-07 -1.899060e-05 6.828003e-01 7.495117e-01
1.708591e+08 -8.853760e-01 -3.433228e-01 -4.045665e-06 -1.702271e-05 -4.901551e-06 1.418870e-05 6.900024e-01 7.616577e-01
1.710778e+08 -8.848877e-01 -3.448486e-01 -5.940907e-06 -2.117921e-05 -2.544001e-05 -1.833960e-05 6.970825e-01 7.693481e-01
1.712966e+08 -8.843994e-01 -3.462524e-01 2.267398e-05 4.119426e-05 -2.761930e-05 6.319955e-06 7.034912e-01 7.731934e-01
1.715153e+08 -8.836670e-01 -3.465576e-01 -7.047132e-05 -5.446374e-06 9.597279e-06 -9.381212e-06 7.072754e-01 7.723999e-01
1.717340e+08 -8.842163e-01 -3.477783e-01 2.706796e-05 1.430511e-06 -5.532056e-07 -3.515370e-05 7.074585e-01 7.691650e-01
1.719528e+08 -8.839722e-01 -3.491821e-01 -4.990026e-06 -3.295019e-05 -1.506787e-05 -1.157634e-05 7.026978e-01 7.689819e-01
1.721715e+08 -8.840332e-01 -3.499146e-01 -7.883646e-06 2.123415e-05 -1.092628e-05 -4.194677e-05 6.964722e-01 7.677612e-01
1.723902e+08 -8.836670e-01 -3.509521e-01 -3.942754e-06 1.061661e-05 -9.394716e-06 -9.613112e-06 6.863403e-01 7.702637e-01
1.726090e+08 -8.843994e-01 -3.522339e-01 -1.877546e-05 -5.234964e-06 9.825453e-07 -2.842862e-06 6.752930e-01 7.761841e-01
1.728277e+08 -8.826294e-01 -3.537598e-01 -3.430806e-05 -6.426126e-07 -6.431714e-06 -1.813937e-05 6.658325e-01 7.830200e-01
1.730464e+08 -8.822632e-01 -3.535156e-01 3.173016e-06 -1.783296e-05 8.188188e-06 3.142655e-05 6.575317e-01 7.932129e-01
1.732652e+08 -8.829956e-01 -3.555908e-01 3.462844e-05 -9.588897e-06 2.695993e-05 5.069375e-05 6.506348e-01 8.033447e-01
1.734839e+08 -8.826294e-01 -3.562012e-01 1.884811e-05 3.293902e-05 5.624816e-05 -1.548231e-05 6.464844e-01 8.154907e-01
1.737026e+08 -8.823853e-01 -3.580322e-01 4.246831e-06 2.576783e-05 1.975521e-05 1.640245e-05 6.440430e-01 8.235474e-01
1.739213e+08 -8.831787e-01 -3.583984e-01 -2.644211e-05 -2.192520e-05 -3.213622e-05 -1.748279e-05 6.415405e-01 8.310547e-01
1.741401e+08 -8.825073e-01 -3.599854e-01 -1.999363e-05 -2.990477e-05 9.853393e-07 -2.840767e-06 6.406860e-01 8.373413e-01
1.743588e+08 -8.827515e-01 -3.609619e-01 -7.508323e-06 -3.564730e-05 -2.842024e-05 -9.847805e-06 6.369019e-01 8.450317e-01
1.745775e+08 -8.826294e-01 -3.622437e-01 2.531148e-05 2.497993e-05 -9.629875e-06 9.392388e-06 6.343994e-01 8.475342e-01
1.747963e+08 -8.823853e-01 -3.630371e-01 4.246831e-06 2.579018e-05 -2.199784e-06 2.471916e-05 6.307983e-01 8.545532e-01
1.750150e+08 -8.825684e-01 -3.641968e-01 -1.915637e-05 4.988164e-06 -1.903623e-05 -2.318993e-07 6.273193e-01 8.545532e-01
1.752337e+08 -8.831177e-01 -3.647461e-01 -1.003686e-05 8.374918e-06 2.845749e-05 9.849668e-06 6.258545e-01 8.560181e-01
1.754525e+08 -8.824463e-01 -3.662720e-01 -3.686361e-05 -3.311783e-06 -1.137890e-05 -3.949739e-06 6.227417e-01 8.623657e-01
1.756712e+08 -8.816528e-01 -3.671265e-01 3.945827e-05 -1.304224e-05 2.173521e-05 1.073815e-05 6.192627e-01 8.621826e-01
1.758899e+08 -8.812256e-01 -3.681030e-01 1.916848e-05 -4.979782e-06 4.200265e-06 -3.037043e-05 6.163330e-01 8.654175e-01
1.761087e+08 -8.812256e-01 -3.687134e-01 8.916948e-06 -5.345326e-06 3.951602e-06 -1.135841e-05 6.119385e-01 8.641968e-01
1.763274e+08 -8.824463e-01 -3.701172e-01 4.739268e-06 -3.435649e-06 1.754239e-05 -3.214926e-05 6.067505e-01 8.645630e-01
1.765461e+08 -8.814087e-01 -3.703003e-01 -5.630404e-05 -7.040799e-06 1.971144e-06 -5.684327e-06 5.992432e-01 8.621826e-01
1.767648e+08 -8.821411e-01 -3.720703e-01 1.346227e-06 5.697832e-06 6.677583e-06 -8.679926e-07 5.894775e-01 8.626099e-01
1.769836e+08 -8.823242e-01 -3.729858e-01 2.321228e-05 1.209974e-05 -3.438443e-06 4.663691e-05 5.800171e-01 8.640747e-01
1.772023e+08 -8.828125e-01 -3.738403e-01 -5.481020e-05 -2.039596e-05 -1.587160e-05 -2.783351e-05 5.711060e-01 8.668213e-01
1.774210e+08 -8.823242e-01 -3.753052e-01 1.118146e-05 -1.143571e-05 2.796203e-05 4.801899e-05 5.643921e-01 8.721313e-01
1.776398e+08 -8.822632e-01 -3.759766e-01 2.624467e-06 -1.636147e-05 -4.824251e-07 3.810972e-05 5.584717e-01 8.769531e-01
1.778585e+08 -8.822632e-01 -3.769531e-01 1.883600e-05 5.280599e-06 9.888317e-07 -2.847286e-06 5.550537e-01 8.808594e-01
1.780772e+08 -8.824463e-01 -3.782349e-01 -2.475455e-05 -4.474819e-05 -3.211200e-06 -3.478676e-05 5.551147e-01 8.817139e-01
1.782960e+08 -8.825073e-01 -3.790283e-01 3.192946e-05 2.530962e-05 1.655240e-05 9.842217e-06 5.555420e-01 8.803101e-01
1.785147e+08 -8.827515e-01 -3.794556e-01 2.394430e-05 -2.212636e-05 -8.221716e-06 3.393553e-05 5.548096e-01 8.748779e-01
1.787334e+08 -8.829346e-01 -3.810425e-01 -4.542992e-06 4.212605e-06 -2.102368e-05 -2.745539e-05 5.502930e-01 8.665161e-01
1.789522e+08 -8.836670e-01 -3.822021e-01 2.942234e-05 3.188662e-05 -1.385435e-05 -4.710630e-05 5.439453e-01 8.551636e-01
1.791709e+08 -8.832397e-01 -3.822021e-01 -3.552996e-05 -1.782365e-05 -1.166761e-05 2.033077e-06 5.316772e-01 8.429565e-01
1.793896e+08 -8.838501e-01 -3.836670e-01 1.005689e-05 -5.111098e-06 4.904345e-06 1.187995e-05 5.167236e-01 8.325195e-01
1.796084e+08 -8.843994e-01 -3.845215e-01 2.441462e-06 -6.494578e-06 -1.637172e-05 -1.271907e-05 4.980469e-01 8.258667e-01
1.798271e+08 -8.833618e-01 -3.857422e-01 1.946837e-05 7.320195e-06 1.739711e-06 5.486235e-05 4.785156e-01 8.229980e-01
1.800458e+08 -8.835449e-01 -3.867188e-01 7.788651e-06 -2.995599e-06 1.230091e-05 -1.062360e-05 4.576416e-01 8.216553e-01
1.802646e+08 -8.850708e-01 -3.877563e-01 -1.899526e-05 -2.045278e-05 2.442300e-05 -1.840666e-05 4.403687e-01 8.247681e-01
1.804833e+08 -8.837891e-01 -3.880005e-01 9.750947e-06 -2.596900e-05 -2.657250e-05 -3.077090e-05 4.234009e-01 8.308105e-01
1.807020e+08 -8.839722e-01 -3.896484e-01 -1.811422e-06 1.859386e-05 1.379102e-05 -3.070384e-05 4.096680e-01 8.358765e-01
1.809207e+08 -8.842773e-01 -3.908691e-01 1.656543e-05 -2.662651e-06 2.119690e-06 -2.869405e-05 3.964844e-01 8.392334e-01
1.811395e+08 -8.842773e-01 -3.917236e-01 -1.481548e-05 -7.526949e-05 -3.336556e-05 -1.690350e-05 3.852539e-01 8.444824e-01
1.813582e+08 -8.841553e-01 -3.915405e-01 -1.055002e-05 -1.138262e-05 -8.465722e-06 3.686361e-05 3.751831e-01 8.474121e-01
1.815769e+08 -8.852539e-01 -3.927612e-01 2.049934e-05 -1.899246e-05 3.080256e-05 -2.660044e-05 3.634644e-01 8.494873e-01
1.817957e+08 -8.847656e-01 -3.943481e-01 9.080395e-06 2.121460e-05 -7.215887e-06 1.965743e-05 3.527832e-01 8.510742e-01
1.820144e+08 -8.848877e-01 -3.953857e-01 -3.819168e-05 -6.943941e-06 -2.805516e-05 -1.073256e-05 3.419189e-01 8.538208e-01
1.822331e+08 -8.854980e-01 -3.952637e-01 -9.559095e-06 -3.773905e-05 -6.783754e-06 1.392979e-05 3.305054e-01 8.562622e-01
1.824519e+08 -8.864136e-01 -3.973389e-01 1.039263e-05 1.577940e-05 1.482666e-06 -2.011284e-05 3.200684e-01 8.593140e-01
1.826706e+08 -8.853149e-01 -3.976440e-01 -3.350899e-05 1.410395e-05 7.640570e-06 -2.540275e-05 3.098755e-01 8.616333e-01
1.828893e+08 -8.864136e-01 -3.984985e-01 1.714006e-05 -4.554167e-05 -4.000589e-05 -5.841255e-06 3.020020e-01 8.649902e-01
1.831081e+08 -8.869019e-01 -3.988037e-01 3.549084e-05 -7.480383e-06 -2.767704e-05 -1.646206e-05 2.936401e-01 8.645020e-01
1.833268e+08 -8.867188e-01 -4.000244e-01 -1.253560e-05 1.162197e-05 1.131743e-05 8.168817e-05 2.855225e-01 8.638306e-01
1.835455e+08 -8.880005e-01 -4.007568e-01 3.190525e-05 1.341105e-07 -4.601479e-05 -3.352761e-06 2.769775e-01 8.638306e-01
1.837642e+08 -8.870239e-01 -4.019165e-01 -2.994761e-05 6.563962e-06 2.894178e-05 -7.525086e-07 2.639160e-01 8.601074e-01
1.839830e+08 -8.875122e-01 -4.023438e-01 -1.136959e-05 -1.912657e-05 6.167684e-06 -5.326699e-06 2.508545e-01 8.588867e-01
1.842017e+08 -8.882446e-01 -4.035034e-01 -1.141452e-06 1.056702e-06 7.886440e-06 -2.832897e-05 2.334595e-01 8.563843e-01
1.844204e+08 -8.883057e-01 -4.036865e-01 2.758577e-06 1.441129e-05 -2.489984e-05 2.418645e-05 2.152710e-01 8.577881e-01
1.846392e+08 -8.886719e-01 -4.046631e-01 1.918152e-05 4.587322e-05 -2.257898e-05 -7.450581e-06 1.965332e-01 8.605957e-01
1.848579e+08 -8.891602e-01 -4.065552e-01 -3.126450e-05 1.199730e-05 3.878772e-05 2.314337e-05 1.791382e-01 8.681641e-01
1.850766e+08 -8.891602e-01 -4.065552e-01 -5.504116e-06 -2.884679e-05 -7.454306e-06 2.258457e-05 1.621704e-01 8.770142e-01
1.852954e+08 -8.894653e-01 -4.071045e-01 1.893193e-05 -3.451109e-05 -4.474074e-06 6.040186e-05 1.470947e-01 8.900146e-01
1.855141e+08 -8.902588e-01 -4.081421e-01 -3.458932e-06 3.287941e-05 -7.655472e-06 -5.267188e-05 1.380005e-01 9.016113e-01
1.857328e+08 -8.900757e-01 -4.089966e-01 1.416169e-05 3.842637e-06 2.047792e-05 3.625825e-05 1.299438e-01 9.151611e-01
1.859516e+08 -8.901978e-01 -4.096680e-01 1.576263e-05 1.931842e-05 -3.628433e-06 -2.921931e-05 1.250000e-01 9.248657e-01
1.861703e+08 -8.900146e-01 -4.097900e-01 -1.411326e-05 -3.355369e-05 3.559701e-05 -1.183897e-05 1.212158e-01 9.321899e-01
1.863890e+08 -8.908691e-01 -4.108887e-01 2.881326e-05 2.423860e-05 -1.685508e-05 -7.040799e-06 1.191406e-01 9.387817e-01
1.866078e+08 -8.914185e-01 -4.123535e-01 1.870096e-06 -4.837289e-05 4.330650e-05 4.089996e-05 1.140747e-01 9.400024e-01
1.868265e+08 -8.910522e-01 -4.116821e-01 1.189113e-05 5.962327e-06 -9.380281e-06 4.850700e-05 1.094971e-01 9.416504e-01
1.870452e+08 -8.922119e-01 -4.132080e-01 -4.480407e-05 -9.439886e-06 -2.668798e-05 4.729256e-05 1.022949e-01 9.417725e-01
1.872640e+08 -8.922119e-01 -4.140015e-01 -2.461486e-06 6.519258e-06 -2.433918e-05 1.557358e-05 9.118652e-02 9.443970e-01
1.874827e+08 -8.925171e-01 -4.149780e-01 1.040101e-05 1.583621e-05 -1.707673e-05 -4.163943e-06 8.062744e-02 9.461060e-01
1.877014e+08 -8.933105e-01 -4.151611e-01 4.453212e-05 -4.125386e-05 -1.046993e-05 -1.526251e-05 7.128906e-02 9.481812e-01
1.879201e+08 -8.928833e-01 -4.159546e-01 1.562573e-05 2.375431e-05 3.698233e-10 -3.187779e-10 5.987549e-02 9.525146e-01
1.881389e+08 -8.938599e-01 -4.168701e-01 -3.898889e-05 1.059659e-05 -5.578622e-05 4.804507e-05 4.901123e-02 9.563599e-01
1.883576e+08 -8.941650e-01 -4.173584e-01 5.671754e-06 2.448075e-05 -2.819672e-05 -1.079962e-05 3.820801e-02 9.619751e-01
1.885763e+08 -8.939209e-01 -4.182129e-01 1.023244e-05 2.026930e-05 1.584738e-05 -5.679950e-05 2.770996e-02 9.667358e-01
1.887951e+08 -8.947144e-01 -4.185791e-01 -5.203858e-05 -2.408400e-05 -1.515821e-05 -3.013760e-05 1.489258e-02 9.718018e-01
1.890138e+08 -8.965454e-01 -4.193115e-01 -2.591312e-05 -1.423620e-05 1.413375e-05 4.461035e-05 2.929688e-03 9.765015e-01
1.892325e+08 -8.953247e-01 -4.194336e-01 -9.555370e-06 -3.789179e-05 1.881272e-05 -1.891702e-05 -1.019287e-02 9.857178e-01
1.894513e+08 -8.963013e-01 -4.202271e-01 3.051758e-05 1.003221e-05 -1.154654e-05 -8.577481e-07 -2.154541e-02 9.965820e-01
1.896700e+08 -8.959351e-01 -4.212646e-01 -1.351628e-05 -2.149772e-05 3.833324e-06 2.640113e-05 -3.302002e-02 1.009827e+00
1.898887e+08 -8.966675e-01 -4.218140e-01 -3.939867e-05 1.945160e-05 2.049841e-05 3.637746e-05 -3.948975e-02 1.023987e+00
1.901075e+08 -8.961792e-01 -4.226074e-01 2.916902e-06 1.004385e-05 3.441609e-05 5.489215e-06 -4.345703e-02 1.038147e+00
1.903262e+08 -8.969727e-01 -4.223633e-01 1.015142e-05 5.007163e-05 -7.925555e-06 2.843328e-05 -4.296875e-02 1.053650e+00
1.905449e+08 -8.977661e-01 -4.232788e-01 -2.285093e-05 -6.382912e-05 2.540648e-06 4.375726e-05 -3.723145e-02 1.065430e+00
1.907636e+08 -8.978882e-01 -4.236450e-01 1.243129e-05 -7.240102e-06 -2.995692e-05 1.228787e-05 -3.015137e-02 1.070618e+00
1.909824e+08 -8.974609e-01 -4.244995e-01 -2.151821e-05 -1.408998e-05 -4.325993e-07 5.776528e-06 -2.209473e-02 1.074890e+00
1.912011e+08 -8.983154e-01 -4.247437e-01 -1.470931e-05 9.354204e-06 2.781674e-05 1.660176e-05 -1.617432e-02 1.069641e+00
1.914198e+08 -8.988647e-01 -4.257202e-01 -5.137175e-05 -4.176423e-05 8.741394e-06 3.845058e-05 -1.184082e-02 1.060608e+00
1.916386e+08 -8.989868e-01 -4.260254e-01 2.667680e-05 -3.315136e-05 -1.004711e-05 -2.109818e-05 -1.287842e-02 1.053467e+00
1.918573e+08 -8.992310e-01 -4.263916e-01 1.180451e-05 -1.942180e-05 1.734681e-05 1.293607e-06 -1.971436e-02 1.041687e+00
1.920760e+08 -9.006348e-01 -4.268799e-01 2.952665e-05 3.651530e-05 -2.054311e-05 -3.645755e-05 -2.935791e-02 1.032593e+00
1.922948e+08 -9.003296e-01 -4.272461e-01 3.794953e-05 -9.564683e-06 4.321337e-07 -5.785841e-06 -4.205322e-02 1.026001e+00
1.925135e+08 -9.005127e-01 -4.280396e-01 4.753470e-06 -8.657575e-06 -1.692120e-05 -7.091090e-06 -5.596924e-02 1.022644e+00
1.927322e+08 -9.010620e-01 -4.284668e-01 -7.054303e-06 1.077401e-05 2.958439e-05 -6.506220e-06 -6.884766e-02 1.023132e+00
1.929510e+08 -9.012451e-01 -4.288940e-01 -1.243874e-05 7.243827e-06 4.072115e-05 1.564622e-07 -8.148193e-02 1.025269e+00
1.931697e+08 -9.022217e-01 -4.291992e-01 2.093241e-05 5.720556e-05 1.049414e-05 1.534913e-05 -9.216309e-02 1.023132e+00
1.933884e+08 -9.022827e-01 -4.295654e-01 -1.377333e-05 1.272466e-05 1.714844e-05 4.191883e-06 -1.032104e-01 1.027893e+00
1.936072e+08 -9.028931e-01 -4.303589e-01 -7.333700e-06 -1.023570e-05 -6.008893e-06 2.460554e-06 -1.091919e-01 1.027405e+00
1.938259e+08 -9.031372e-01 -4.309082e-01 -2.534501e-05 -2.125278e-06 6.227288e-06 -5.357899e-06 -1.181030e-01 1.026245e+00
1.940446e+08 -9.024658e-01 -4.312134e-01 1.078565e-05 7.054769e-06 -2.228282e-05 -1.333281e-05 -1.287842e-01 1.026550e+00
1.942634e+08 -9.041138e-01 -4.313965e-01 8.212402e-06 -1.185201e-05 -8.994713e-06 -3.563613e-05 -1.358032e-01 1.024658e+00
1.944821e+08 -9.039917e-01 -4.312134e-01 -3.242120e-05 8.661300e-06 -6.009359e-06 2.464745e-06 -1.461792e-01 1.023499e+00
1.947008e+08 -9.040527e-01 -4.323730e-01 -8.717179e-07 2.207980e-05 -3.968924e-05 -1.464412e-05 -1.535645e-01 1.024780e+00
1.949195e+08 -9.049683e-01 -4.324341e-01 -4.063826e-06 -9.002164e-06 4.746765e-05 -1.103804e-05 -1.626587e-01 1.025085e+00
1.951383e+08 -9.047852e-01 -4.328613e-01 -2.087280e-05 -3.180467e-05 1.289044e-05 -1.651607e-05 -1.691895e-01 1.025269e+00
1.953570e+08 -9.053955e-01 -4.333496e-01 1.236796e-06 2.436712e-05 2.790429e-05 1.666509e-05 -1.738281e-01 1.024475e+00
1.955757e+08 -9.058228e-01 -4.339600e-01 1.322944e-06 -5.478039e-06 -1.675170e-05 -1.000613e-05 -1.795044e-01 1.023560e+00
1.957945e+08 -9.060669e-01 -4.339600e-01 2.128258e-05 -6.875955e-06 6.505288e-07 -8.701812e-06 -1.844482e-01 1.018372e+00
1.960132e+08 -9.067383e-01 -4.339600e-01 -1.367461e-05 -1.713168e-05 -3.119186e-05 2.683513e-05 -1.902466e-01 1.012939e+00
1.962319e+08 -9.060059e-01 -4.349365e-01 9.171665e-06 4.686415e-05 -1.828000e-05 1.028366e-05 -1.974487e-01 1.005920e+00
1.964507e+08 -9.072266e-01 -4.352417e-01 -2.305768e-05 -4.250556e-06 -1.117773e-05 -6.682239e-06 -2.061157e-01 9.983521e-01
1.966694e+08 -9.069214e-01 -4.351196e-01 -2.268702e-05 4.223734e-05 -1.008436e-05 -2.118759e-05 -2.159424e-01 9.908447e-01
1.968881e+08 -9.073486e-01 -4.357300e-01 1.113303e-05 -1.770444e-06 3.486872e-06 -4.644692e-05 -2.301636e-01 9.877319e-01
1.971069e+08 -9.072876e-01 -4.360962e-01 -2.652034e-05 -1.069158e-06 -1.698080e-05 -7.131137e-06 -2.443848e-01 9.849854e-01
1.973256e+08 -9.078979e-01 -4.350586e-01 4.566833e-05 4.716590e-05 -3.907830e-06 5.225837e-05 -2.566528e-01 9.847412e-01
1.975443e+08 -9.085693e-01 -4.368896e-01 -7.332768e-06 -1.025060e-05 1.941435e-05 -2.483465e-05 -2.633057e-01 9.866333e-01
1.977630e+08 -9.085083e-01 -4.368286e-01 -3.445661e-06 3.182096e-06 -2.752244e-05 -2.252124e-05 -2.723389e-01 9.880371e-01
1.979818e+08 -9.089355e-01 -4.364624e-01 8.739531e-06 -2.508983e-05 1.227390e-05 -7.845461e-06 -2.755127e-01 9.880981e-01
1.982005e+08 -9.088745e-01 -4.368896e-01 -3.440678e-05 -5.343184e-05 2.687424e-05 3.123097e-05 -2.753906e-01 9.871216e-01
1.984192e+08 -9.094238e-01 -4.375000e-01 -5.748589e-06 5.305279e-06 3.466383e-05 5.535781e-06 -2.762451e-01 9.814453e-01
1.986380e+08 -9.094849e-01 -4.378662e-01 -8.571893e-06 -3.465638e-05 -3.576092e-05 8.987263e-06 -2.773438e-01 9.732056e-01
1.988567e+08 -9.099731e-01 -4.376221e-01 -6.059557e-05 -8.016825e-06 -2.653152e-05 4.186854e-05 -2.803345e-01 9.607544e-01
1.990754e+08 -9.107666e-01 -4.379272e-01 -3.680773e-05 -2.142228e-05 -2.347678e-05 1.167879e-06 -2.845459e-01 9.487305e-01
1.992942e+08 -9.108887e-01 -4.378662e-01 1.222268e-05 5.258992e-05 1.657847e-05 1.292769e-05 -2.935791e-01 9.354248e-01
1.995129e+08 -9.108276e-01 -4.391479e-01 4.376471e-05 -4.031882e-05 -6.034970e-06 2.469867e-06 -3.039551e-01 9.224854e-01
1.997316e+08 -9.107666e-01 -4.392090e-01 -1.626089e-05 -3.610738e-05 -6.375089e-05 -7.748604e-06 -3.168335e-01 9.136963e-01
1.999504e+08 -9.114990e-01 -4.387817e-01 -1.936406e-05 1.359638e-05 -3.578328e-05 9.000301e-06 -3.270264e-01 9.060669e-01
2.001691e+08 -9.107056e-01 -4.391479e-01 -2.762303e-05 2.546050e-05 -1.316704e-05 1.946930e-05 -3.400269e-01 8.976440e-01
2.003878e+08 -9.116211e-01 -4.390259e-01 1.955871e-05 -1.806207e-05 -1.251046e-05 1.076050e-05 -3.513184e-01 8.912354e-01
2.006066e+08 -9.118042e-01 -4.392700e-01 3.544241e-05 2.691522e-05 -3.725290e-06 4.946068e-05 -3.632812e-01 8.843994e-01
2.008253e+08 -9.113770e-01 -4.400635e-01 2.040993e-05 1.520757e-05 3.020279e-05 -1.232885e-05 -3.709717e-01 8.787842e-01
2.010440e+08 -9.121094e-01 -4.399414e-01 -3.459863e-05 6.347895e-06 3.835186e-06 2.663024e-05 -3.803711e-01 8.731079e-01
2.012628e+08 -9.122314e-01 -4.401245e-01 2.848357e-05 7.813796e-06 -1.296308e-05 1.657940e-05 -3.901978e-01 8.641357e-01
2.014815e+08 -9.122925e-01 -4.401245e-01 -2.303626e-06 2.121669e-06 4.391186e-07 -5.822629e-06 -3.992310e-01 8.574219e-01
2.017002e+08 -9.118042e-01 -4.398804e-01 6.427988e-06 3.240071e-05 5.600974e-06 3.348570e-06 -4.093628e-01 8.526611e-01
2.019189e+08 -9.128418e-01 -4.409790e-01 -1.039356e-06 -2.886727e-05 -1.615286e-05 -1.881644e-05 -4.194946e-01 8.482056e-01
2.021377e+08 -9.130249e-01 -4.409790e-01 2.123998e-06 2.305256e-06 2.207235e-07 -2.914574e-06 -4.281616e-01 8.434448e-01
2.023564e+08 -9.131470e-01 -4.400024e-01 4.062429e-06 9.034295e-06 -1.525506e-06 2.039596e-05 -4.353638e-01 8.401489e-01
2.025751e+08 -9.125366e-01 -4.405518e-01 -1.450256e-05 -2.498180e-05 -4.462898e-05 -2.973154e-05 -4.408569e-01 8.344727e-01
2.027939e+08 -9.128418e-01 -4.411011e-01 6.970018e-06 1.912005e-05 1.682434e-05 1.006387e-05 -4.451294e-01 8.307495e-01
2.030126e+08 -9.133301e-01 -4.402466e-01 -2.071261e-06 2.318993e-05 -4.363246e-07 5.829148e-06 -4.484863e-01 8.223267e-01
2.032313e+08 -9.134521e-01 -4.410400e-01 -4.003756e-06 1.646206e-05 1.639128e-05 1.590140e-05 -4.531250e-01 8.132324e-01
2.034501e+08 -9.135132e-01 -4.416504e-01 7.525552e-06 5.855225e-06 -1.519918e-05 4.578009e-05 -4.577026e-01 8.018799e-01
2.036688e+08 -9.130859e-01 -4.407959e-01 2.079923e-05 6.408431e-06 -1.727231e-05 -4.230998e-06 -4.635010e-01 7.886353e-01
2.038875e+08 -9.142456e-01 -4.413452e-01 -7.575378e-06 -3.137812e-05 -1.211558e-05 4.955567e-06 -4.728394e-01 7.758179e-01
2.041063e+08 -9.132080e-01 -4.418335e-01 -1.199171e-05 -3.155507e-05 1.632795e-05 -6.036088e-05 -4.852295e-01 7.631836e-01
2.043250e+08 -9.138184e-01 -4.412842e-01 9.828713e-06 3.731344e-06 1.772493e-05 -1.597218e-06 -4.990845e-01 7.531738e-01
2.045437e+08 -9.133301e-01 -4.420166e-01 -1.620501e-05 -1.065992e-05 1.750421e-05 1.331791e-06 -5.129395e-01 7.456665e-01
2.047624e+08 -9.139404e-01 -4.431763e-01 -1.747161e-05 4.586577e-05 3.323518e-05 2.605282e-05 -5.255127e-01 7.404785e-01
2.049812e+08 -9.135132e-01 -4.425049e-01 -9.790063e-06 2.178457e-05 -1.011789e-05 -2.131797e-05 -5.379028e-01 7.359619e-01
2.051999e+08 -9.141846e-01 -4.434204e-01 2.856366e-06 -1.541991e-05 -2.853386e-05 -1.101755e-05 -5.489502e-01 7.338257e-01
2.054186e+08 -9.145508e-01 -4.432983e-01 -1.244619e-05 3.275834e-05 -2.226979e-05 -1.638755e-05 -5.552368e-01 7.313843e-01
2.056374e+08 -9.136353e-01 -4.431763e-01 -4.249625e-06 -4.614238e-06 -1.114793e-06 1.459848e-05 -5.623169e-01 7.271118e-01
2.058561e+08 -9.134521e-01 -4.423828e-01 1.307111e-05 -2.054870e-05 -7.603317e-06 2.291240e-05 -5.661011e-01 7.200928e-01
2.060748e+08 -9.135132e-01 -4.429932e-01 -7.018447e-06 -4.468113e-05 -1.323037e-05 1.955219e-05 -5.703735e-01 7.128296e-01
2.062936e+08 -9.131470e-01 -4.431763e-01 -5.606562e-07 1.330208e-05 -1.907535e-05 1.910422e-05 -5.774536e-01 7.027588e-01
2.065123e+08 -9.145508e-01 -4.426270e-01 -4.058238e-06 -9.047333e-06 1.103245e-05 9.649433e-06 -5.857544e-01 6.931763e-01
2.067310e+08 -9.140625e-01 -4.430542e-01 -9.890646e-06 7.732585e-05 8.594245e-06 4.180893e-05 -5.950317e-01 6.820068e-01
2.069498e+08 -9.136353e-01 -4.436035e-01 3.012642e-05 2.346002e-05 -1.191720e-05 2.034940e-06 -6.064453e-01 6.724548e-01
2.071685e+08 -9.133301e-01 -4.437866e-01 -5.487353e-06 5.197152e-05 -2.445653e-06 3.215857e-05 -6.195984e-01 6.632080e-01
2.073872e+08 -9.134521e-01 -4.442139e-01 2.411194e-05 7.683411e-06 -2.768449e-05 -2.271309e-05 -6.325378e-01 6.566467e-01
2.076060e+08 -9.140625e-01 -4.434204e-01 4.164875e-05 -1.267530e-05 4.740432e-06 1.507532e-05 -6.466980e-01 6.504211e-01
2.078247e+08 -9.128418e-01 -4.442139e-01 -1.966208e-05 1.805648e-05 -2.227165e-05 -1.642108e-05 -6.594238e-01 6.466370e-01
2.080434e+08 -9.133301e-01 -4.442139e-01 2.816878e-05 1.671538e-05 1.058541e-05 1.552422e-05 -6.720276e-01 6.416931e-01
2.082622e+08 -9.133301e-01 -4.442139e-01 1.793820e-05 -3.687106e-06 1.688488e-05 1.011975e-05 -6.842651e-01 6.372986e-01
2.084809e+08 -9.128418e-01 -4.445190e-01 -4.226528e-05 4.414469e-07 5.986542e-05 -1.307204e-05 -6.957092e-01 6.328735e-01
2.086996e+08 -9.127808e-01 -4.440918e-01 5.588867e-06 -8.759089e-07 -4.682317e-05 -3.568828e-06 -7.091980e-01 6.307373e-01
2.089183e+08 -9.128418e-01 -4.442139e-01 -6.017834e-05 -2.142042e-05 8.931383e-07 -1.170859e-05 -7.219849e-01 6.273193e-01
2.091371e+08 -9.127808e-01 -4.450073e-01 -9.106472e-06 -2.149958e-05 -4.511327e-06 -1.802389e-05 -7.360840e-01 6.271362e-01
2.093558e+08 -9.127808e-01 -4.445801e-01 7.236749e-05 -2.514571e-06 1.104083e-05 9.681098e-06 -7.476807e-01 6.287842e-01
2.095745e+08 -9.127197e-01 -4.445190e-01 2.032146e-05 4.532561e-05 -2.544373e-05 2.457015e-05 -7.606812e-01 6.322632e-01
2.097933e+08 -9.128418e-01 -4.445190e-01 7.543713e-07 -1.775939e-05 3.196299e-06 3.560074e-05 -7.670898e-01 6.366577e-01
2.100120e+08 -9.129639e-01 -4.448242e-01 1.983531e-05 -2.251379e-05 -1.914334e-05 1.918338e-05 -7.727051e-01 6.411743e-01
2.102307e+08 -9.121704e-01 -4.447021e-01 1.640432e-05 6.253831e-06 3.248081e-05 3.783032e-05 -7.754517e-01 6.445312e-01
2.104495e+08 -9.127808e-01 -4.443970e-01 -3.883056e-05 -2.756715e-06 1.459755e-05 -3.722496e-05 -7.748413e-01 6.459961e-01
2.106682e+08 -9.114990e-01 -4.451294e-01 -1.829490e-05 3.814884e-05 3.248453e-05 3.782474e-05 -7.727661e-01 6.435547e-01
2.108869e+08 -9.121094e-01 -4.458618e-01 1.756661e-05 5.202368e-06 1.128018e-05 6.757677e-06 -7.706299e-01 6.367188e-01
2.111057e+08 -9.118042e-01 -4.458618e-01 1.544878e-05 2.883375e-06 -1.491793e-05 -3.652088e-05 -7.717896e-01 6.271362e-01
2.113244e+08 -9.110718e-01 -4.464722e-01 -1.744367e-06 -1.121033e-05 -2.299994e-05 -7.655472e-06 -7.774048e-01 6.168213e-01
2.115431e+08 -9.116211e-01 -4.457397e-01 2.605096e-05 -1.111254e-05 -2.821162e-05 -1.690164e-05 -7.858276e-01 6.052246e-01
2.117618e+08 -9.108887e-01 -4.472656e-01 1.678243e-05 -2.821162e-05 -2.414733e-05 6.984919e-06 -7.956543e-01 5.958862e-01
2.119806e+08 -9.109497e-01 -4.467773e-01 2.317876e-05 -2.125464e-05 1.573935e-06 -2.053939e-05 -8.086548e-01 5.885010e-01
2.121993e+08 -9.107056e-01 -4.461670e-01 3.053434e-05 -1.093000e-05 -1.196191e-05 2.041459e-06 -8.204346e-01 5.842285e-01
2.124180e+08 -9.105225e-01 -4.470825e-01 1.162477e-05 4.058518e-05 2.935715e-05 2.251938e-06 -8.351440e-01 5.819702e-01
2.126368e+08 -9.096680e-01 -4.467163e-01 -2.494454e-05 -1.554564e-05 6.090384e-06 -2.486166e-06 -8.459473e-01 5.833740e-01
2.128555e+08 -9.096680e-01 -4.471436e-01 9.276904e-06 -8.510891e-06 -3.228150e-05 3.590062e-05 -8.558350e-01 5.836792e-01
2.130742e+08 -9.100952e-01 -4.474487e-01 1.798384e-05 2.191961e-05 3.389828e-05 2.032705e-05 -8.627930e-01 5.860596e-01
2.132930e+08 -9.088745e-01 -4.472656e-01 -3.094599e-05 -5.768612e-06 -1.602620e-05 -2.190284e-05 -8.690796e-01 5.878906e-01
2.135117e+08 -9.093018e-01 -4.481812e-01 -1.719035e-05 3.714487e-05 -2.304837e-05 -7.685274e-06 -8.726196e-01 5.902100e-01
2.137304e+08 -9.088745e-01 -4.481812e-01 -2.488494e-06 3.220513e-05 -3.859401e-06 4.994497e-05 -8.770142e-01 5.918579e-01
2.139492e+08 -9.086304e-01 -4.481812e-01 3.210455e-05 4.719943e-06 -4.745275e-05 2.261251e-06 -8.792725e-01 5.931396e-01
2.141679e+08 -9.081421e-01 -4.478760e-01 -1.722481e-05 1.151487e-05 -5.694106e-05 -2.798438e-05 -8.795166e-01 5.946655e-01
2.143866e+08 -9.076538e-01 -4.481201e-01 7.809140e-07 7.832423e-06 2.954155e-06 3.862567e-05 -8.814087e-01 5.967407e-01
2.146054e+08 -9.069214e-01 -4.489136e-01 1.161359e-05 1.496915e-05 1.334213e-05 -1.964998e-05 -8.773804e-01 5.979004e-01
2.148241e+08 -9.069214e-01 -4.490356e-01 1.181755e-05 1.053326e-05 6.807968e-07 -8.814968e-06 -8.732910e-01 5.977173e-01
2.150428e+08 -9.077759e-01 -4.495850e-01 2.148934e-05 -6.883405e-06 6.695837e-05 -2.441928e-05 -8.665161e-01 5.938721e-01
2.152616e+08 -9.071655e-01 -4.492188e-01 1.140870e-05 -6.201677e-06 4.529953e-06 1.809560e-05 -8.581543e-01 5.885010e-01
2.154803e+08 -9.067383e-01 -4.494019e-01 6.959308e-06 -6.384682e-06 1.267157e-05 -1.085363e-05 -8.494873e-01 5.781860e-01
2.156990e+08 -9.071045e-01 -4.497681e-01 -1.334958e-05 -2.622604e-05 4.548579e-05 2.422929e-05 -8.436279e-01 5.637817e-01
2.159177e+08 -9.061279e-01 -4.498901e-01 6.965362e-06 -6.395858e-06 1.833122e-05 -7.459894e-06 -8.405151e-01 5.472412e-01
2.161365e+08 -9.055176e-01 -4.503174e-01 7.351860e-06 -1.529045e-05 -1.199078e-05 2.029352e-06 -8.407593e-01 5.294800e-01
2.163552e+08 -9.052124e-01 -4.506226e-01 -1.373794e-05 -1.733098e-05 4.743226e-06 1.515727e-05 -8.459473e-01 5.105591e-01
2.165739e+08 -9.053955e-01 -4.515381e-01 7.166527e-06 1.481175e-05 2.928078e-06 3.871508e-05 -8.542480e-01 4.954834e-01
2.167927e+08 -9.041748e-01 -4.514771e-01 -1.704413e-05 7.074326e-06 -5.423557e-06 -6.338581e-06 -8.651123e-01 4.822998e-01
2.170114e+08 -9.049072e-01 -4.521484e-01 -1.743436e-05 -9.686686e-06 -1.652446e-05 -1.609512e-05 -8.772583e-01 4.745483e-01
2.172301e+08 -9.048462e-01 -4.522095e-01 6.966759e-06 -6.392598e-06 2.629682e-05 -3.351271e-05 -8.873291e-01 4.680786e-01
2.174489e+08 -9.026489e-01 -4.518433e-01 1.749955e-06 -1.443736e-05 2.034381e-05 4.298612e-05 -8.957520e-01 4.666138e-01
2.176676e+08 -9.035645e-01 -4.528809e-01 -7.962808e-06 2.866611e-05 -1.383387e-05 2.559833e-05 -9.016113e-01 4.665527e-01
2.178863e+08 -9.031982e-01 -4.525757e-01 -3.878959e-07 8.915085e-06 -4.313886e-06 5.595013e-05 -9.047241e-01 4.649048e-01
2.181051e+08 -9.015503e-01 -4.531860e-01 -2.711639e-05 -4.361942e-05 -6.887130e-07 8.825678e-06 -9.017334e-01 4.620361e-01
2.183238e+08 -9.022217e-01 -4.524536e-01 -1.880433e-05 2.150517e-05 -4.756264e-06 -1.517404e-05 -9.002686e-01 4.591675e-01
2.185425e+08 -9.020386e-01 -4.545288e-01 4.656613e-06 2.142228e-05 2.808496e-05 1.996756e-05 -8.956909e-01 4.523926e-01
2.187612e+08 -9.008179e-01 -4.534302e-01 3.823638e-05 -5.064532e-06 -1.811516e-05 4.519708e-06 -8.940430e-01 4.412231e-01
2.189800e+08 -9.009399e-01 -4.547729e-01 6.411225e-06 -1.871958e-05 2.972782e-06 -3.830157e-05 -8.919067e-01 4.342651e-01
2.191987e+08 -9.009399e-01 -4.549561e-01 2.619065e-05 1.456961e-05 -5.510449e-05 2.241507e-05 -8.919678e-01 4.241333e-01
2.194174e+08 -9.007568e-01 -4.552002e-01 -4.663132e-06 -2.143439e-05 -2.565049e-05 2.469309e-05 -8.914185e-01 4.146729e-01
2.196362e+08 -9.000854e-01 -4.553833e-01 2.213940e-05 3.114343e-05 -8.804724e-06 -3.923103e-05 -8.909912e-01 4.040527e-01
2.198549e+08 -8.995972e-01 -4.553833e-01 -2.308376e-05 -8.828938e-06 1.361221e-05 -2.264418e-05 -8.905640e-01 3.941040e-01
2.200736e+08 -9.005127e-01 -4.561768e-01 1.242943e-05 -2.853572e-05 -3.722496e-05 2.083741e-05 -8.900146e-01 3.835449e-01
2.202924e+08 -8.994751e-01 -4.569702e-01 9.486824e-05 -1.818687e-05 2.265722e-05 1.363829e-05 -8.881836e-01 3.734131e-01
2.205111e+08 -8.989258e-01 -4.569092e-01 -3.687106e-05 2.525933e-05 1.906697e-05 -1.630932e-05 -8.875732e-01 3.604736e-01
2.207298e+08 -8.989258e-01 -4.572754e-01 -3.437325e-05 1.865067e-05 1.477636e-05 -3.742054e-05 -8.867188e-01 3.471069e-01
2.209486e+08 -8.986816e-01 -4.578247e-01 1.756474e-06 -1.448207e-05 7.759035e-05 -5.796552e-06 -8.882446e-01 3.309326e-01
2.211673e+08 -8.981934e-01 -4.584351e-01 -2.740696e-05 -1.352280e-05 -1.087785e-05 -1.272094e-05 -8.910522e-01 3.179932e-01
2.213860e+08 -8.986206e-01 -4.588013e-01 -1.050392e-05 9.614509e-06 -2.660975e-05 3.652275e-05 -8.969727e-01 3.052368e-01
2.216048e+08 -8.975220e-01 -4.587402e-01 7.195398e-06 -1.088018e-05 -1.769885e-05 -1.383014e-06 -9.022827e-01 2.933350e-01
2.218235e+08 -8.966675e-01 -4.594727e-01 -1.596287e-05 3.179722e-05 1.152977e-06 -1.474470e-05 -9.092407e-01 2.852783e-01
2.220422e+08 -8.967896e-01 -4.602661e-01 -1.594611e-05 6.013550e-06 -9.024516e-06 -3.633089e-05 -9.172363e-01 2.781982e-01
2.222610e+08 -8.958740e-01 -4.611816e-01 7.669441e-07 7.874798e-06 -2.174079e-05 -2.545305e-05 -9.182129e-01 2.744141e-01
2.224797e+08 -8.957520e-01 -4.619751e-01 -7.405877e-06 1.536869e-05 -1.770724e-05 -1.397915e-06 -9.210815e-01 2.711182e-01
2.226984e+08 -8.951416e-01 -4.617920e-01 1.263618e-05 1.849141e-05 4.624017e-07 -5.902257e-06 -9.205933e-01 2.661743e-01
2.229171e+08 -8.940430e-01 -4.616089e-01 7.597730e-06 -1.983531e-05 -1.110416e-05 -9.770505e-06 -9.166260e-01 2.606812e-01
2.231359e+08 -8.949585e-01 -4.624023e-01 -7.241964e-06 3.668293e-05 -2.201274e-05 -2.250075e-05 -9.130859e-01 2.531128e-01
2.233546e+08 -8.936768e-01 -4.627075e-01 1.126155e-05 2.404489e-05 -1.514703e-05 -3.384985e-05 -9.097900e-01 2.440186e-01
2.235733e+08 -8.939209e-01 -4.630737e-01 2.966076e-05 -6.152317e-05 -3.542565e-05 -2.779067e-06 -9.072876e-01 2.315674e-01
2.237921e+08 -8.933716e-01 -4.639282e-01 -2.204068e-05 1.587346e-05 -1.158565e-06 1.476053e-05 -9.075317e-01 2.198486e-01
2.240108e+08 -8.928223e-01 -4.639893e-01 -3.117137e-05 -5.871058e-06 -6.204844e-05 3.371760e-05 -9.079590e-01 2.086182e-01
2.242295e+08 -8.927002e-01 -4.652100e-01 1.477264e-05 2.085045e-05 1.164153e-06 -1.476519e-05 -9.097900e-01 1.978149e-01
2.244483e+08 -8.927002e-01 -4.652100e-01 7.199124e-06 1.490954e-05 1.841504e-05 -7.475726e-06 -9.113159e-01 1.882935e-01
2.246670e+08 -8.921509e-01 -4.660034e-01 1.832377e-05 -8.175150e-06 -1.065154e-05 -1.570024e-05 -9.125366e-01 1.817017e-01
2.248857e+08 -8.917847e-01 -4.663696e-01 -3.372505e-05 -2.506748e-05 6.836839e-06 -1.135003e-05 -9.107056e-01 1.740112e-01
2.251045e+08 -8.916016e-01 -4.674683e-01 3.198162e-05 -1.205504e-05 1.252256e-05 -7.929280e-06 -9.075928e-01 1.668091e-01
2.253232e+08 -8.919067e-01 -4.678345e-01 -1.482107e-05 4.955567e-06 -7.213652e-05 9.190291e-06 -9.041748e-01 1.572266e-01
2.255419e+08 -8.909912e-01 -4.683228e-01 -5.223975e-05 -3.825873e-05 -4.744157e-06 -1.524761e-05 -8.986206e-01 1.465454e-01
2.257606e+08 -8.901978e-01 -4.688110e-01 -1.794379e-05 -8.028001e-07 1.877546e-06 -2.363510e-05 -8.953857e-01 1.339722e-01
2.259794e+08 -8.899536e-01 -4.696045e-01 2.301857e-05 1.338683e-05 -2.931617e-05 -5.301088e-06 -8.916016e-01 1.197510e-01
2.261981e+08 -8.898315e-01 -4.704590e-01 -3.648363e-05 -1.399033e-05 2.459437e-05 -9.946525e-06 -8.910522e-01 1.051025e-01
2.264168e+08 -8.897705e-01 -4.700317e-01 -1.404434e-05 -1.300126e-05 -3.187917e-05 2.722815e-05 -8.912964e-01 9.027100e-02
2.266356e+08 -8.895874e-01 -4.708252e-01 -4.377216e-06 4.703924e-05 -1.634099e-05 -1.914334e-05 -8.928833e-01 7.629395e-02
2.268543e+08 -8.897095e-01 -4.714355e-01 4.013628e-05 3.216416e-05 -3.354624e-06 -3.301352e-05 -8.946533e-01 6.390381e-02
2.270730e+08 -8.896484e-01 -4.721680e-01 -3.495626e-05 1.819804e-06 1.612306e-05 2.211519e-05 -8.966675e-01 5.279541e-02
2.272918e+08 -8.884888e-01 -4.731445e-01 -1.112930e-05 -2.755783e-06 2.958067e-05 2.380461e-06 -8.966064e-01 4.058838e-02
2.275105e+08 -8.889771e-01 -4.732666e-01 1.232699e-05 -2.421997e-05 -2.724864e-05 -3.194064e-05 -8.974609e-01 2.941895e-02
2.277292e+08 -8.880615e-01 -4.743652e-01 -1.287460e-05 -1.408998e-05 5.229563e-05 1.605973e-05 -8.947754e-01 1.721191e-02
2.279480e+08 -8.876343e-01 -4.754028e-01 -2.521090e-06 -1.927000e-05 1.846161e-05 -7.461756e-06 -8.951416e-01 3.479004e-03
2.281667e+08 -8.873291e-01 -4.750366e-01 -3.548339e-07 -1.691189e-05 1.277681e-05 -1.089927e-05 -8.946533e-01 -1.202393e-02
2.283854e+08 -8.873901e-01 -4.761353e-01 4.495727e-06 2.013985e-07 -4.285201e-05 1.448020e-05 -8.959961e-01 -2.874756e-02
2.286042e+08 -8.870239e-01 -4.766846e-01 -1.159310e-05 3.215298e-05 -3.552437e-05 -2.818182e-06 -9.001465e-01 -4.479980e-02
2.288229e+08 -8.859863e-01 -4.772949e-01 -2.560206e-05 -6.793067e-06 6.388407e-06 -5.444046e-06 -9.064941e-01 -6.115723e-02
2.290416e+08 -8.871460e-01 -4.775391e-01 -4.122406e-05 -3.565289e-05 -8.964911e-06 3.803708e-05 -9.157104e-01 -7.543945e-02
2.292604e+08 -8.864746e-01 -4.778442e-01 -3.015995e-05 1.892634e-05 -1.752935e-05 -4.359521e-06 -9.235840e-01 -8.557129e-02
2.294791e+08 -8.864136e-01 -4.790649e-01 5.323812e-05 2.043694e-05 -5.261227e-05 -1.310557e-05 -9.315186e-01 -9.448242e-02
2.296978e+08 -8.861084e-01 -4.797363e-01 6.053597e-07 -1.351535e-05 -2.011843e-05 2.821162e-05 -9.380493e-01 -9.906006e-02
2.299165e+08 -8.851929e-01 -4.805908e-01 2.546795e-05 -1.465157e-05 8.277595e-06 -2.913922e-05 -9.411011e-01 -1.031494e-01
2.301353e+08 -8.860474e-01 -4.807739e-01 2.070703e-05 4.156679e-05 1.161732e-05 3.896654e-06 -9.409790e-01 -1.078491e-01
2.303540e+08 -8.846436e-01 -4.814453e-01 1.725089e-05 -7.131137e-06 1.207553e-05 -2.023764e-06 -9.389648e-01 -1.155396e-01
2.305727e+08 -8.850708e-01 -4.822388e-01 -1.177599e-06 1.076842e-06 -9.359792e-07 1.185015e-05 -9.353638e-01 -1.242676e-01
2.307915e+08 -8.848267e-01 -4.832153e-01 1.371559e-05 -3.895722e-06 3.649294e-05 -9.028241e-06 -9.323730e-01 -1.369629e-01
2.310102e+08 -8.846436e-01 -4.835205e-01 -1.685694e-07 -2.148096e-05 -2.251565e-05 -1.669675e-05 -9.307861e-01 -1.520386e-01
2.312289e+08 -8.843384e-01 -4.842529e-01 -6.054528e-06 -1.608487e-05 1.658499e-05 1.623854e-05 -9.313965e-01 -1.687012e-01
2.314477e+08 -8.845825e-01 -4.847412e-01 6.407499e-07 -3.952533e-05 8.516014e-06 -3.212877e-05 -9.359131e-01 -1.855469e-01
2.316664e+08 -8.836060e-01 -4.862671e-01 -1.720991e-05 -1.884438e-05 1.903623e-06 -2.370030e-05 -9.421387e-01 -2.009277e-01
2.318851e+08 -8.840942e-01 -4.864502e-01 -1.827441e-05 2.968498e-05 -2.560765e-05 2.182275e-05 -9.502563e-01 -2.160034e-01
2.321039e+08 -8.838501e-01 -4.868774e-01 1.866557e-05 -1.272280e-05 -1.138262e-05 -6.871298e-06 -9.573975e-01 -2.276611e-01
2.323226e+08 -8.836670e-01 -4.885254e-01 -1.369976e-05 -2.209470e-05 -2.492033e-05 1.291931e-05 -9.674072e-01 -2.395630e-01
2.325413e+08 -8.833618e-01 -4.880981e-01 3.121234e-05 -1.553819e-05 -5.217735e-06 -9.363052e-06 -9.761353e-01 -2.480469e-01
2.327600e+08 -8.836670e-01 -4.893799e-01 -1.688488e-05 -1.905486e-06 -2.966076e-05 -2.365559e-06 -9.857788e-01 -2.545776e-01
2.329788e+08 -8.836670e-01 -4.893188e-01 -7.440336e-06 -1.051184e-05 3.823857e-10 -3.261960e-10 -9.952393e-01 -2.611694e-01
2.331975e+08 -8.826904e-01 -4.907837e-01 -4.478171e-05 1.496822e-05 3.060699e-05 -9.493902e-06 -1.002869e+00 -2.664795e-01
2.334162e+08 -8.824463e-01 -4.913330e-01 -1.591630e-05 1.542270e-06 -1.874007e-05 1.043547e-05 -1.011597e+00 -2.711182e-01
2.336350e+08 -8.818970e-01 -4.923706e-01 -3.483146e-07 -1.698826e-05 4.459545e-05 -3.519654e-05 -1.020691e+00 -2.714233e-01
2.338537e+08 -8.818359e-01 -4.927368e-01 2.645329e-05 4.080124e-05 -4.149601e-05 -3.334135e-06 -1.028564e+00 -2.717285e-01
2.340724e+08 -8.818970e-01 -4.941406e-01 -1.848396e-05 8.220784e-06 -2.040528e-05 3.118627e-05 -1.035889e+00 -2.672729e-01
2.342912e+08 -8.820190e-01 -4.939575e-01 3.437698e-05 1.629628e-05 -7.112511e-06 1.435261e-05 -1.038574e+00 -2.625732e-01
2.345099e+08 -8.832397e-01 -4.951782e-01 -5.498063e-06 -3.647525e-06 -7.828698e-06 2.328120e-05 -1.037903e+00 -2.541504e-01
2.347286e+08 -8.815918e-01 -4.960327e-01 -1.388602e-06 5.599577e-06 1.115073e-05 9.846874e-06 -1.032043e+00 -2.468262e-01
2.349474e+08 -8.820190e-01 -4.966431e-01 -2.950244e-05 9.406358e-07 -2.184324e-05 -2.563931e-05 -1.020142e+00 -2.424316e-01
2.351661e+08 -8.817749e-01 -4.974976e-01 2.732500e-05 -3.304332e-06 -1.473725e-05 3.465265e-05 -1.006775e+00 -2.414551e-01
2.353848e+08 -8.818970e-01 -4.978027e-01 -4.980341e-05 -2.272427e-06 -4.533678e-06 5.639717e-05 -9.924316e-01 -2.443848e-01
2.356036e+08 -8.818359e-01 -4.985962e-01 1.203828e-05 -1.532305e-05 -6.408989e-05 -2.009049e-05 -9.780273e-01 -2.528076e-01
2.358223e+08 -8.819580e-01 -4.992065e-01 4.689395e-05 -3.414601e-05 -2.327375e-05 -7.839873e-06 -9.661865e-01 -2.634888e-01
2.360410e+08 -8.817139e-01 -5.001221e-01 -1.642108e-05 3.669225e-05 -3.786758e-06 -2.719276e-05 -9.568481e-01 -2.766724e-01
2.362598e+08 -8.823853e-01 -5.009155e-01 1.698732e-05 -2.418086e-05 5.465001e-05 -1.055002e-05 -9.512939e-01 -2.911377e-01
2.364785e+08 -8.823853e-01 -5.021973e-01 -3.252923e-05 1.667440e-05 1.878198e-05 -1.044571e-05 -9.462891e-01 -3.046875e-01
2.366972e+08 -8.823242e-01 -5.025635e-01 9.635463e-06 1.292210e-05 -2.424419e-05 4.025176e-06 -9.461060e-01 -3.154907e-01
2.369159e+08 -8.816528e-01 -5.029907e-01 -1.754612e-05 1.167133e-05 -1.331232e-05 1.685601e-05 -9.445190e-01 -3.237915e-01
2.371347e+08 -8.816528e-01 -5.036011e-01 1.636334e-05 -1.060497e-05 -2.873316e-05 -1.427345e-05 -9.435425e-01 -3.312378e-01
2.373534e+08 -8.822632e-01 -5.042725e-01 -3.974885e-05 -2.453662e-05 1.307391e-05 -1.390185e-05 -9.404907e-01 -3.356934e-01
2.375721e+08 -8.819580e-01 -5.046387e-01 2.557784e-05 1.139753e-05 -1.092721e-05 -1.282711e-05 -9.366455e-01 -3.413696e-01
2.377909e+08 -8.815308e-01 -5.062866e-01 6.500632e-07 -3.971718e-05 -4.822761e-05 5.062670e-06 -9.301147e-01 -3.463135e-01
2.380096e+08 -8.822021e-01 -5.062866e-01 -2.384931e-05 2.607703e-08 -1.521595e-05 -3.410503e-05 -9.244995e-01 -3.521729e-01
2.382283e+08 -8.814087e-01 -5.070190e-01 -1.086295e-05 1.426600e-05 2.231449e-05 1.971796e-05 -9.186401e-01 -3.588257e-01
2.384471e+08 -8.809814e-01 -5.088501e-01 3.335439e-05 -8.713454e-06 -8.979812e-06 -3.661402e-05 -9.120483e-01 -3.665771e-01
2.386658e+08 -8.823242e-01 -5.090942e-01 1.752749e-06 1.143385e-05 -1.381710e-05 2.282113e-05 -9.089355e-01 -3.732910e-01
2.388845e+08 -8.817749e-01 -5.100708e-01 -1.258589e-05 -2.331659e-05 -1.092348e-05 -1.285411e-05 -9.053955e-01 -3.795776e-01
2.391033e+08 -8.820190e-01 -5.100708e-01 2.427958e-05 -9.136274e-06 2.858788e-05 -5.749986e-05 -9.002075e-01 -3.842163e-01
2.393220e+08 -8.823242e-01 -5.115967e-01 -3.476813e-05 1.432933e-05 2.654269e-06 -3.269501e-05 -8.956299e-01 -3.880005e-01
2.395407e+08 -8.824463e-01 -5.120239e-01 9.695068e-06 -1.319218e-05 -4.740432e-06 -1.534354e-05 -8.865356e-01 -3.886108e-01
2.397594e+08 -8.827515e-01 -5.130615e-01 2.660602e-05 1.486950e-05 2.523884e-05 -1.591444e-05 -8.769531e-01 -3.916626e-01
2.399782e+08 -8.827515e-01 -5.139160e-01 -2.466328e-05 -7.953495e-06 -3.544800e-05 -5.874783e-06 -8.648071e-01 -3.952026e-01
2.401969e+08 -8.823242e-01 -5.150757e-01 -1.606718e-05 2.767891e-05 2.826005e-05 2.028048e-05 -8.520508e-01 -3.995361e-01
2.404156e+08 -8.820801e-01 -5.148315e-01 1.822412e-05 -2.532266e-05 -2.897717e-05 -1.132675e-05 -8.372803e-01 -4.080811e-01
2.406344e+08 -8.826904e-01 -5.157471e-01 -1.872145e-05 -3.954582e-05 -3.838920e-10 3.262528e-10 -8.254395e-01 -4.188232e-01
2.408531e+08 -8.831787e-01 -5.169678e-01 -1.355633e-05 -2.680346e-05 7.282943e-07 -8.919276e-06 -8.127441e-01 -4.306641e-01
2.410718e+08 -8.828735e-01 -5.172119e-01 -7.753260e-06 2.013054e-05 -3.840910e-10 3.259686e-10 -8.037109e-01 -4.434204e-01
2.412906e+08 -8.831787e-01 -5.172729e-01 1.204107e-05 1.079310e-05 -7.782131e-06 -5.148724e-05 -7.968750e-01 -4.553223e-01
2.415093e+08 -8.834229e-01 -5.181274e-01 -1.286995e-05 7.380731e-06 1.924112e-06 -2.377480e-05 -7.922363e-01 -4.688110e-01
2.417280e+08 -8.831787e-01 -5.192261e-01 -1.182407e-05 -1.534633e-05 3.990158e-05 2.419204e-05 -7.869873e-01 -4.784546e-01
2.419468e+08 -8.836670e-01 -5.202637e-01 -1.999829e-05 1.390651e-05 -3.843752e-10 3.260823e-10 -7.824707e-01 -4.869995e-01
2.421655e+08 -8.842163e-01 -5.203247e-01 -1.791120e-05 -3.156811e-05 -4.981644e-06 -1.237728e-05 -7.771606e-01 -4.926758e-01
2.423842e+08 -8.848267e-01 -5.209961e-01 1.818873e-06 -1.472794e-05 -3.779307e-06 -2.725050e-05 -7.695312e-01 -5.009155e-01
2.426030e+08 -8.840332e-01 -5.212402e-01 -1.741666e-05 7.164665e-06 2.073310e-05 -3.420934e-05 -7.620850e-01 -5.074463e-01
2.428217e+08 -8.851929e-01 -5.223999e-01 6.891787e-07 3.420748e-05 -4.252419e-06 -2.131052e-05 -7.539673e-01 -5.178833e-01
2.430404e+08 -8.851929e-01 -5.231323e-01 -1.918152e-05 -4.291534e-06 -4.164875e-05 -3.419816e-06 -7.459106e-01 -5.289307e-01
2.432592e+08 -8.851929e-01 -5.239868e-01 -5.945563e-06 5.420763e-06 -1.833774e-05 4.484318e-06 -7.396240e-01 -5.418701e-01
2.434779e+08 -8.858643e-01 -5.246582e-01 -1.197308e-05 3.705174e-05 4.484318e-06 1.833681e-05 -7.360229e-01 -5.544434e-01
2.436966e+08 -8.857422e-01 -5.249023e-01 -1.462176e-06 -4.224665e-05 4.287437e-05 -1.147389e-05 -7.362061e-01 -5.675049e-01
2.439153e+08 -8.846436e-01 -5.254517e-01 2.644584e-05 1.944415e-05 -1.686532e-05 -1.335517e-05 -7.366943e-01 -5.765381e-01
2.441341e+08 -8.861694e-01 -5.264893e-01 1.050625e-05 -5.219597e-06 -3.449991e-05 -1.781061e-05 -7.386475e-01 -5.853882e-01
2.443528e+08 -8.862915e-01 -5.269775e-01 -3.958493e-05 -7.534400e-06 3.846594e-10 -3.264233e-10 -7.410889e-01 -5.894775e-01
2.445715e+08 -8.869019e-01 -5.275269e-01 1.391955e-05 -3.015622e-05 8.743256e-06 3.967062e-05 -7.429199e-01 -5.891113e-01
2.447903e+08 -8.867798e-01 -5.284424e-01 -1.140311e-05 -2.446771e-05 5.953014e-06 4.875474e-07 -7.416992e-01 -5.902100e-01
2.450090e+08 -8.876343e-01 -5.297241e-01 -8.193776e-06 2.927892e-05 1.541711e-05 3.124960e-05 -7.379761e-01 -5.899658e-01
2.452277e+08 -8.881226e-01 -5.300293e-01 -2.542511e-05 3.192946e-05 -5.224720e-06 -9.422190e-06 -7.334595e-01 -5.890503e-01
2.454465e+08 -8.887329e-01 -5.310059e-01 -4.072860e-05 -3.273413e-05 -8.154660e-06 2.633035e-05 -7.235107e-01 -5.894165e-01
2.456652e+08 -8.876953e-01 -5.302734e-01 1.605507e-05 -1.544133e-06 5.379319e-05 1.400709e-06 -7.156372e-01 -5.916748e-01
2.458839e+08 -8.889771e-01 -5.315552e-01 -7.646158e-06 -3.232248e-05 5.314127e-05 1.033023e-05 -7.066040e-01 -5.957642e-01
2.461027e+08 -8.891602e-01 -5.322266e-01 -2.369843e-05 -3.077835e-05 -1.615845e-05 -2.231635e-05 -6.981506e-01 -5.984497e-01
2.463214e+08 -8.900757e-01 -5.336304e-01 1.896359e-05 -3.909133e-05 -3.650412e-05 5.995855e-06 -6.901550e-01 -6.032410e-01
2.465401e+08 -8.906860e-01 -5.345459e-01 -4.959852e-05 1.027808e-05 -2.361089e-05 -4.954636e-06 -6.822205e-01 -6.067200e-01
2.467588e+08 -8.902588e-01 -5.328979e-01 1.781806e-05 9.953044e-06 1.093466e-05 1.288485e-05 -6.735535e-01 -6.116638e-01
2.469776e+08 -8.903809e-01 -5.346680e-01 -5.466864e-06 -2.996437e-05 4.490465e-05 -3.528222e-05 -6.638794e-01 -6.161194e-01
2.471963e+08 -8.916016e-01 -5.348511e-01 2.049841e-06 -1.933333e-05 -7.933006e-06 2.335012e-05 -6.532593e-01 -6.207886e-01
2.474150e+08 -8.914795e-01 -5.354614e-01 1.717545e-05 2.364442e-05 -3.403611e-05 -2.381206e-05 -6.414185e-01 -6.284790e-01
2.476338e+08 -8.919678e-01 -5.358887e-01 -2.152286e-05 -2.842769e-05 -1.984648e-05 2.237409e-05 -6.301575e-01 -6.376648e-01
2.478525e+08 -8.918457e-01 -5.365601e-01 7.811002e-06 -2.018642e-05 -2.260134e-05 -1.687743e-05 -6.187744e-01 -6.503601e-01
2.480712e+08 -8.922119e-01 -5.366821e-01 -5.777925e-06 -4.710257e-05 -5.706772e-05 3.727153e-05 -6.091614e-01 -6.633911e-01
2.482900e+08 -8.926392e-01 -5.381470e-01 -1.747999e-05 7.178634e-06 1.863018e-05 -7.457100e-06 -6.033936e-01 -6.786194e-01
2.485087e+08 -8.933716e-01 -5.384521e-01 -2.784841e-05 -4.019774e-05 -1.242198e-05 4.970469e-06 -6.011963e-01 -6.951904e-01
2.487274e+08 -8.937988e-01 -5.386963e-01 2.412312e-05 2.170168e-05 -1.615845e-05 -2.235360e-05 -6.014404e-01 -7.090454e-01
2.489462e+08 -8.942261e-01 -5.390015e-01 2.842210e-05 -2.153218e-05 5.474314e-06 6.457791e-06 -6.035156e-01 -7.197266e-01
2.491649e+08 -8.951416e-01 -5.400391e-01 2.533942e-05 2.063252e-05 8.923933e-06 -3.532693e-05 -6.073608e-01 -7.283936e-01
2.493836e+08 -8.949585e-01 -5.407715e-01 -4.349044e-06 -4.774658e-06 2.974644e-06 3.629923e-05 -6.098633e-01 -7.332764e-01
2.496024e+08 -8.960571e-01 -5.404663e-01 -1.151394e-05 1.737848e-06 4.301593e-05 -1.147389e-05 -6.107788e-01 -7.355957e-01
2.498211e+08 -8.956909e-01 -5.413818e-01 -1.068041e-05 -1.651514e-05 -9.460375e-06 -3.082864e-05 -6.098633e-01 -7.361450e-01
2.500398e+08 -8.953857e-01 -5.416870e-01 2.381951e-05 4.554167e-06 -1.391023e-05 2.286583e-05 -6.042480e-01 -7.388306e-01
2.502586e+08 -8.963623e-01 -5.410767e-01 -2.237596e-05 -1.020916e-05 7.432885e-06 -1.740456e-05 -5.973511e-01 -7.406616e-01
2.504773e+08 -8.972168e-01 -5.422363e-01 2.516806e-05 -4.909560e-05 -1.716428e-05 -1.043919e-05 -5.877075e-01 -7.440186e-01
2.506960e+08 -8.984375e-01 -5.426025e-01 1.510046e-05 -5.013309e-06 7.422641e-07 -8.959323e-06 -5.784912e-01 -7.514038e-01
2.509147e+08 -8.982544e-01 -5.437622e-01 -1.830980e-06 1.477730e-05 2.238527e-05 1.990609e-05 -5.679321e-01 -7.607422e-01
2.511335e+08 -8.984985e-01 -5.441284e-01 1.347903e-05 5.213544e-06 -2.985820e-06 -3.631413e-05 -5.605469e-01 -7.716675e-01
2.513522e+08 -8.994751e-01 -5.444336e-01 -4.113466e-05 -1.942739e-06 -4.703552e-05 -1.294538e-05 -5.529175e-01 -7.838745e-01
2.515709e+08 -8.992920e-01 -5.442505e-01 -3.287569e-07 -1.718290e-05 -1.716334e-05 -1.043361e-05 -5.466309e-01 -7.965088e-01
2.517897e+08 -8.996582e-01 -5.452881e-01 -3.588386e-05 -1.545064e-05 3.383681e-05 -4.527718e-05 -5.422974e-01 -8.088379e-01
2.520084e+08 -9.007568e-01 -5.447388e-01 -2.479926e-05 -8.044764e-06 4.377589e-05 -2.042204e-05 -5.390015e-01 -8.217773e-01
2.522271e+08 -9.010010e-01 -5.459595e-01 -1.373142e-05 -4.873052e-05 -6.221235e-06 2.488494e-06 -5.372925e-01 -8.347168e-01
2.524459e+08 -9.016113e-01 -5.456543e-01 2.685003e-05 -1.131371e-05 -9.909272e-07 1.194514e-05 -5.355835e-01 -8.475952e-01
2.526646e+08 -9.022827e-01 -5.464478e-01 3.774278e-05 6.519258e-07 -7.718801e-06 2.041645e-05 -5.361938e-01 -8.613892e-01
2.528833e+08 -9.025269e-01 -5.463257e-01 3.674440e-05 -2.831221e-06 -2.016313e-05 2.539344e-05 -5.383301e-01 -8.737183e-01
2.531021e+08 -9.039917e-01 -5.468750e-01 7.398427e-06 3.701448e-05 1.047365e-05 1.892820e-05 -5.422363e-01 -8.839722e-01
2.533208e+08 -9.045410e-01 -5.471802e-01 -6.053597e-06 -6.439164e-05 -2.091751e-05 3.440119e-05 -5.480347e-01 -8.927002e-01
2.535395e+08 -9.047852e-01 -5.462646e-01 2.611428e-06 -6.746035e-06 1.694448e-05 1.342967e-05 -5.543823e-01 -8.970947e-01
2.537582e+08 -9.053345e-01 -5.467529e-01 1.218636e-05 -1.546741e-05 -9.670854e-06 4.434586e-05 -5.591431e-01 -8.986816e-01
2.539770e+08 -9.058228e-01 -5.480347e-01 2.056547e-05 -2.308004e-05 -2.442114e-05 3.991649e-06 -5.634155e-01 -8.955688e-01
2.541957e+08 -9.055786e-01 -5.482788e-01 2.725981e-06 1.502410e-05 -1.594611e-05 -2.542511e-05 -5.640869e-01 -8.931274e-01
2.544144e+08 -9.057007e-01 -5.476685e-01 -1.339428e-05 -3.155135e-05 1.071393e-05 1.593772e-05 -5.588379e-01 -8.878174e-01
2.546332e+08 -9.064331e-01 -5.479736e-01 1.097098e-06 2.523512e-05 1.768954e-05 4.482456e-06 -5.492554e-01 -8.816528e-01
2.548519e+08 -9.073486e-01 -5.480957e-01 1.220591e-05 -1.545157e-05 -2.244115e-05 -1.993030e-05 -5.385132e-01 -8.783569e-01
2.550706e+08 -9.077148e-01 -5.487061e-01 4.831702e-05 -4.559755e-06 5.981885e-06 5.015172e-07 -5.247192e-01 -8.808594e-01
2.552894e+08 -9.085693e-01 -5.487061e-01 -5.982816e-06 5.443580e-06 3.042072e-05 -3.490597e-06 -5.101318e-01 -8.859863e-01
2.555081e+08 -9.089966e-01 -5.487061e-01 5.402043e-05 -2.720207e-05 3.266335e-05 -3.042258e-05 -4.973755e-01 -8.932495e-01
2.557268e+08 -9.094238e-01 -5.488892e-01 -1.795590e-05 1.632702e-05 2.046488e-05 -2.842583e-05 -4.859619e-01 -9.030762e-01
2.559456e+08 -9.099731e-01 -5.494995e-01 -7.580966e-07 4.007295e-05 -5.190820e-05 4.389137e-05 -4.798584e-01 -9.144287e-01
2.561643e+08 -9.099731e-01 -5.496216e-01 5.759299e-06 4.724413e-05 4.290417e-05 -8.463860e-06 -4.729004e-01 -9.243164e-01
2.563830e+08 -9.108887e-01 -5.494995e-01 -4.921108e-05 2.284721e-05 1.946650e-05 -1.645740e-05 -4.705811e-01 -9.320068e-01
2.566018e+08 -9.116211e-01 -5.497437e-01 9.033829e-06 7.492304e-05 -7.511117e-07 8.981675e-06 -4.696045e-01 -9.360962e-01
2.568205e+08 -9.120483e-01 -5.496826e-01 -1.394842e-05 3.918074e-06 8.720905e-06 3.992021e-05 -4.683838e-01 -9.388428e-01
2.570392e+08 -9.131470e-01 -5.496826e-01 -5.334150e-06 -8.281320e-06 -1.322851e-05 1.398288e-05 -4.643555e-01 -9.388428e-01
2.572580e+08 -9.125977e-01 -5.501709e-01 -1.363084e-05 2.112985e-05 -2.766028e-06 3.294088e-05 -4.605713e-01 -9.373779e-01
2.574767e+08 -9.140015e-01 -5.502930e-01 -1.852028e-05 3.695488e-06 -2.422929e-05 9.890646e-07 -4.537354e-01 -9.359131e-01
2.576954e+08 -9.140625e-01 -5.497437e-01 -2.507865e-05 4.460663e-05 -1.573004e-05 -2.846122e-05 -4.463501e-01 -9.325562e-01
2.579141e+08 -9.148560e-01 -5.495605e-01 -2.483279e-05 -8.083880e-06 -1.897383e-05 1.049414e-05 -4.357910e-01 -9.296875e-01
2.581329e+08 -9.153442e-01 -5.502930e-01 8.394942e-06 -7.619616e-06 1.999177e-05 -2.248213e-05 -4.268188e-01 -9.284058e-01
2.583516e+08 -9.155884e-01 -5.500488e-01 7.064082e-06 1.983903e-05 6.495044e-06 -5.495269e-06 -4.151611e-01 -9.265137e-01
2.585703e+08 -9.165649e-01 -5.494385e-01 2.671219e-05 -6.740913e-06 -5.498994e-06 -6.495509e-06 -4.045410e-01 -9.236450e-01
2.587891e+08 -9.172363e-01 -5.502930e-01 2.590939e-06 4.138984e-05 1.724530e-05 1.051649e-05 -3.914795e-01 -9.196777e-01
2.590078e+08 -9.177246e-01 -5.506592e-01 -2.341717e-05 -1.374260e-05 1.175050e-05 4.016794e-06 -3.774414e-01 -9.145508e-01
2.592265e+08 -9.182129e-01 -5.499268e-01 -1.208577e-05 -1.090299e-05 -3.873557e-05 -4.253536e-05 -3.633423e-01 -9.104004e-01
2.594453e+08 -9.174194e-01 -5.494995e-01 -2.222508e-05 -1.483783e-05 -1.899805e-05 1.049135e-05 -3.455200e-01 -9.075317e-01
2.596640e+08 -9.183350e-01 -5.491943e-01 1.172908e-05 4.184060e-05 -2.075545e-05 3.149733e-05 -3.272095e-01 -9.049072e-01
2.598827e+08 -9.189453e-01 -5.486450e-01 1.039356e-06 -4.464760e-05 -1.800526e-05 -1.503155e-06 -3.082886e-01 -9.059448e-01
2.601015e+08 -9.191284e-01 -5.490723e-01 -1.198554e-06 1.088018e-06 -1.624785e-05 -2.251193e-05 -2.893066e-01 -9.067993e-01
2.603202e+08 -9.207153e-01 -5.487061e-01 3.157649e-06 5.888287e-06 -2.500601e-07 3.003515e-06 -2.704468e-01 -9.111938e-01
2.605389e+08 -9.196777e-01 -5.491943e-01 2.332777e-05 -8.039176e-06 -6.508082e-06 5.496666e-06 -2.538452e-01 -9.171753e-01
2.607576e+08 -9.203491e-01 -5.487061e-01 1.136586e-05 -4.532933e-05 -2.250448e-05 -2.002344e-05 -2.418213e-01 -9.235229e-01
2.609764e+08 -9.219971e-01 -5.474854e-01 -3.495999e-05 -1.201965e-05 2.328120e-05 1.100264e-05 -2.298584e-01 -9.279785e-01
2.611951e+08 -9.216919e-01 -5.484619e-01 1.422688e-05 -5.665049e-05 -3.678724e-05 5.995855e-06 -2.185669e-01 -9.285278e-01
2.614138e+08 -9.226685e-01 -5.481567e-01 1.200940e-05 -1.089089e-05 2.478994e-05 -7.005408e-06 -2.092285e-01 -9.281006e-01
2.616326e+08 -9.232178e-01 -5.476074e-01 -4.632771e-05 -1.487881e-05 1.877546e-05 -7.515773e-06 -1.998901e-01 -9.272461e-01
2.618513e+08 -9.237061e-01 -5.462646e-01 -1.433119e-05 3.488176e-05 1.653563e-05 1.951121e-05 -1.865845e-01 -9.227905e-01
2.620700e+08 -9.237671e-01 -5.471191e-01 -1.552701e-05 3.598817e-05 4.752539e-06 1.552328e-05 -1.718750e-01 -9.166870e-01
2.622888e+08 -9.242554e-01 -5.476074e-01 -1.680944e-05 1.522992e-05 3.132038e-05 -1.250766e-05 -1.563110e-01 -9.146729e-01
2.625075e+08 -9.246216e-01 -5.480347e-01 2.529100e-05 -1.080334e-06 -5.260855e-05 -2.260879e-05 -1.383667e-01 -9.121094e-01
2.627262e+08 -9.252319e-01 -5.473022e-01 7.960480e-06 1.540873e-06 1.981482e-05 -1.954101e-05 -1.196899e-01 -9.127197e-01
2.629450e+08 -9.250488e-01 -5.468750e-01 -1.930632e-05 -4.397705e-06 -2.778508e-05 -2.958253e-05 -1.018066e-01 -9.133911e-01
2.631637e+08 -9.248047e-01 -5.458374e-01 3.511645e-05 -1.434051e-05 -4.256889e-05 2.469867e-06 -8.544922e-02 -9.186401e-01
2.633824e+08 -9.261475e-01 -5.456543e-01 4.194677e-06 3.121421e-05 2.957508e-05 8.534640e-06 -6.945801e-02 -9.216919e-01
2.636012e+08 -9.264526e-01 -5.455322e-01 9.015203e-07 5.169213e-05 -4.989654e-05 1.702085e-05 -5.718994e-02 -9.240112e-01
2.638199e+08 -9.271851e-01 -5.457153e-01 -2.089329e-05 2.765656e-05 1.704693e-05 1.356192e-05 -4.541016e-02 -9.287720e-01
2.640386e+08 -9.273071e-01 -5.453491e-01 -2.067164e-05 2.308562e-05 2.008118e-05 -2.256222e-05 -3.302002e-02 -9.307861e-01
2.642574e+08 -9.278564e-01 -5.444336e-01 -1.780409e-05 1.174118e-05 -5.066767e-05 2.608076e-05 -2.276611e-02 -9.313354e-01
2.644761e+08 -9.278564e-01 -5.451660e-01 1.111347e-05 7.436611e-06 -5.259644e-06 -9.541865e-06 -1.257324e-02 -9.313354e-01
2.646948e+08 -9.285889e-01 -5.441284e-01 -1.379661e-05 -2.248585e-05 -1.908373e-05 1.053140e-05 -2.929688e-03 -9.323730e-01
2.649135e+08 -9.281006e-01 -5.437622e-01 -1.209881e-05 -1.093373e-05 7.795170e-06 -2.057850e-05 8.056641e-03 -9.318848e-01
2.651323e+08 -9.295044e-01 -5.433350e-01 3.468245e-06 2.312660e-05 -3.442727e-05 -2.413057e-05 1.745605e-02 -9.328613e-01
2.653510e+08 -9.285278e-01 -5.437012e-01 -6.306916e-06 -1.179241e-05 -3.064796e-05 3.473833e-06 2.685547e-02 -9.344482e-01
2.655697e+08 -9.285278e-01 -5.422974e-01 -2.337620e-06 2.400763e-05 -1.605414e-05 -2.561323e-05 3.356934e-02 -9.359741e-01
2.657885e+08 -9.290771e-01 -5.415039e-01 -1.262501e-05 -2.359599e-05 4.193187e-05 6.537884e-06 4.272461e-02 -9.332275e-01
2.660072e+08 -9.293823e-01 -5.408325e-01 2.915785e-05 -8.888543e-06 -1.256354e-06 1.506601e-05 4.870605e-02 -9.310303e-01
2.662259e+08 -9.306030e-01 -5.407715e-01 5.786307e-06 -8.670613e-07 -2.463534e-05 4.015863e-06 5.322266e-02 -9.243774e-01
2.664447e+08 -9.296265e-01 -5.407715e-01 4.008040e-05 2.492219e-05 4.608184e-06 -5.426258e-05 6.341553e-02 -9.174194e-01
2.666634e+08 -9.299927e-01 -5.396729e-01 9.624287e-06 -8.714385e-06 -3.065355e-05 3.505498e-06 7.452393e-02 -9.107056e-01
2.668821e+08 -9.300537e-01 -5.400391e-01 2.686307e-05 3.696419e-05 5.521812e-06 6.543007e-06 8.764648e-02 -9.028320e-01
2.671009e+08 -9.299927e-01 -5.383911e-01 -7.148832e-06 -4.165992e-05 -1.656543e-05 -1.960248e-05 1.044922e-01 -9.000244e-01
2.673196e+08 -9.309692e-01 -5.387573e-01 5.099922e-06 1.288857e-05 4.256144e-06 2.163276e-05 1.210938e-01 -8.973999e-01
2.675383e+08 -9.312134e-01 -5.388794e-01 2.565607e-05 3.802590e-05 -2.916716e-05 -1.463108e-05 1.390381e-01 -8.973999e-01
2.677570e+08 -9.299927e-01 -5.376587e-01 1.053140e-05 4.304573e-05 -1.733005e-05 -1.057331e-05 1.559448e-01 -9.034424e-01
2.679758e+08 -9.316406e-01 -5.383301e-01 3.661960e-06 1.857150e-05 5.112961e-07 -6.041490e-06 1.696777e-01 -9.114990e-01
2.681945e+08 -9.317017e-01 -5.368042e-01 5.266629e-06 -1.352746e-05 -1.887511e-05 7.539056e-06 1.790771e-01 -9.216309e-01
2.684132e+08 -9.320068e-01 -5.366821e-01 2.777204e-05 1.860969e-05 -7.641502e-07 9.061303e-06 1.836548e-01 -9.291382e-01
2.686320e+08 -9.317017e-01 -5.362549e-01 -8.385628e-06 2.943352e-05 -8.840114e-06 3.271736e-05 1.865845e-01 -9.369507e-01
2.688507e+08 -9.312134e-01 -5.358276e-01 -2.655201e-05 -1.970679e-05 2.543069e-05 -1.306273e-05 1.884766e-01 -9.410400e-01
2.690694e+08 -9.313965e-01 -5.349731e-01 6.301329e-06 1.180917e-05 -1.964718e-05 1.659058e-05 1.882324e-01 -9.419556e-01
2.692882e+08 -9.322510e-01 -5.346680e-01 -1.547206e-05 -1.226459e-05 -2.164394e-05 -3.225543e-05 1.886597e-01 -9.409790e-01
2.695069e+08 -9.320068e-01 -5.342407e-01 1.152977e-06 -2.291426e-05 1.915265e-05 -1.056213e-05 1.916504e-01 -9.383545e-01
2.697256e+08 -9.315186e-01 -5.339355e-01 -5.377457e-06 -3.012456e-05 -3.048033e-05 4.693866e-07 1.964722e-01 -9.354858e-01
2.699444e+08 -9.317017e-01 -5.324707e-01 -3.302097e-05 1.673214e-05 -5.031005e-06 -1.259893e-05 2.022095e-01 -9.333496e-01
2.701631e+08 -9.306030e-01 -5.324097e-01 6.947666e-07 -1.375563e-05 -5.992129e-05 -1.114607e-05 2.099609e-01 -9.309692e-01
2.703818e+08 -9.313965e-01 -5.319214e-01 2.144463e-05 -1.502130e-05 4.767440e-06 1.563691e-05 2.156372e-01 -9.320679e-01
2.706006e+08 -9.302368e-01 -5.314331e-01 -1.139008e-05 -2.471916e-05 -5.529728e-06 -6.559305e-06 2.238159e-01 -9.343872e-01
2.708193e+08 -9.310303e-01 -5.305786e-01 -1.139753e-05 -2.470985e-05 4.556403e-05 3.736094e-05 2.292480e-01 -9.346924e-01
2.710380e+08 -9.311523e-01 -5.307007e-01 5.505048e-06 -1.810584e-05 -4.107878e-05 -1.872703e-05 2.343140e-01 -9.371338e-01
2.712568e+08 -9.309082e-01 -5.292969e-01 2.216734e-05 -2.879091e-05 -3.151968e-05 1.256727e-05 2.396240e-01 -9.379272e-01
2.714755e+08 -9.302368e-01 -5.295410e-01 -5.280599e-06 1.352746e-05 -3.939122e-05 3.319979e-05 2.431030e-01 -9.375610e-01
2.716942e+08 -9.310303e-01 -5.282593e-01 6.464496e-05 -2.778694e-05 1.867209e-05 -4.518777e-06 2.491455e-01 -9.370117e-01
2.719129e+08 -9.302368e-01 -5.277710e-01 3.218278e-05 2.347678e-05 -2.420135e-05 -2.054498e-06 2.579956e-01 -9.377441e-01
2.721317e+08 -9.306030e-01 -5.272827e-01 -6.760471e-06 -2.639368e-06 1.210626e-05 1.027249e-06 2.677002e-01 -9.385376e-01
2.723504e+08 -9.309692e-01 -5.267944e-01 -2.270751e-05 -5.735084e-06 -2.149679e-05 3.784709e-05 2.751465e-01 -9.436035e-01
2.725691e+08 -9.301147e-01 -5.263062e-01 -3.961846e-05 -1.237914e-05 1.025386e-06 -1.211092e-05 2.826538e-01 -9.490356e-01
2.727879e+08 -9.297485e-01 -5.262451e-01 -1.949258e-06 -6.995630e-06 -3.427267e-05 -2.732687e-05 2.877808e-01 -9.580688e-01
2.730066e+08 -9.298706e-01 -5.244751e-01 -2.202392e-05 -1.952238e-05 -2.218783e-05 -2.625957e-05 2.882690e-01 -9.644775e-01
2.732253e+08 -9.301147e-01 -5.248413e-01 -1.019239e-05 -2.580695e-05 -4.520640e-06 -1.869537e-05 2.893677e-01 -9.718628e-01
2.734441e+08 -9.293823e-01 -5.244141e-01 2.145022e-05 -1.500081e-05 -1.689233e-05 -1.668837e-05 2.869873e-01 -9.757080e-01
2.736628e+08 -9.287720e-01 -5.236816e-01 -1.814216e-05 -2.735108e-05 6.315764e-06 -2.515037e-06 2.817993e-01 -9.739380e-01
2.738815e+08 -9.291382e-01 -5.228882e-01 -6.467104e-06 3.644451e-05 -1.945905e-05 1.361966e-05 2.823486e-01 -9.708252e-01
2.741003e+08 -9.290161e-01 -5.227051e-01 -3.092177e-05 -2.457015e-05 -1.186598e-05 -4.066154e-06 2.839966e-01 -9.626465e-01
2.743190e+08 -9.291992e-01 -5.216675e-01 4.419684e-05 -9.242445e-06 1.281500e-06 -1.516007e-05 2.898560e-01 -9.565430e-01
2.745377e+08 -9.282227e-01 -5.219727e-01 2.340227e-05 -8.000061e-06 -1.212768e-05 -1.034699e-06 2.997437e-01 -9.495850e-01
2.747564e+08 -9.275513e-01 -5.217285e-01 -1.616031e-05 2.333336e-05 1.238659e-05 -1.993030e-06 3.140259e-01 -9.471436e-01
2.749752e+08 -9.282837e-01 -5.202026e-01 -3.212504e-05 -2.351776e-05 1.418591e-05 -2.323464e-05 3.302002e-01 -9.478149e-01
2.751939e+08 -9.278564e-01 -5.198975e-01 2.266094e-05 -3.794394e-05 2.323836e-05 1.419522e-05 3.431396e-01 -9.505005e-01
2.754126e+08 -9.264526e-01 -5.192871e-01 4.274957e-05 1.828745e-05 1.032464e-05 2.226047e-05 3.586426e-01 -9.605103e-01
2.756314e+08 -9.262695e-01 -5.181885e-01 2.251752e-05 3.220700e-05 -1.290254e-05 8.071773e-06 3.652954e-01 -9.714355e-01
2.758501e+08 -9.255981e-01 -5.184326e-01 7.004663e-05 4.614517e-05 -6.067101e-06 -5.168840e-07 3.715210e-01 -9.834595e-01
2.760688e+08 -9.259033e-01 -5.173340e-01 -8.443836e-06 7.627066e-06 -2.581626e-05 1.615845e-05 3.729248e-01 -9.958496e-01
2.762876e+08 -9.254150e-01 -5.173950e-01 3.822148e-06 -2.969615e-05 -5.812850e-06 -3.554858e-06 3.693237e-01 -1.001404e+00
2.765063e+08 -9.249268e-01 -5.161743e-01 2.221018e-05 -6.912276e-06 2.299622e-05 1.723506e-05 3.627319e-01 -1.007019e+00
2.767250e+08 -9.239502e-01 -5.158691e-01 -1.979247e-05 4.739501e-06 -6.068964e-06 -5.145557e-07 3.584595e-01 -1.008850e+00
2.769438e+08 -9.240112e-01 -5.154419e-01 3.878959e-06 1.399592e-05 -3.307685e-05 -4.255399e-05 3.537598e-01 -1.004211e+00
2.771625e+08 -9.236450e-01 -5.146484e-01 -5.125999e-06 -3.477372e-05 -2.985261e-05 -8.637086e-06 3.513184e-01 -1.000610e+00
2.773812e+08 -9.230957e-01 -5.145264e-01 2.365187e-05 -1.259334e-05 5.750731e-05 -2.875552e-05 3.495483e-01 -9.920044e-01
2.776000e+08 -9.223022e-01 -5.137329e-01 -3.288500e-05 -9.758398e-06 9.059906e-06 3.746338e-05 3.492432e-01 -9.843750e-01
2.778187e+08 -9.223633e-01 -5.136108e-01 -2.368167e-05 -9.285286e-06 4.860759e-05 4.135072e-06 3.509521e-01 -9.764404e-01
2.780374e+08 -9.216309e-01 -5.129395e-01 2.148934e-05 -1.501106e-05 -2.637692e-05 2.223067e-05 3.512573e-01 -9.686279e-01
2.782562e+08 -9.207764e-01 -5.128174e-01 -6.737188e-06 1.921132e-05 2.080575e-06 -2.429634e-05 3.562622e-01 -9.554443e-01
2.784749e+08 -9.201660e-01 -5.115356e-01 -3.619352e-06 3.264286e-06 1.603737e-05 -4.450232e-05 3.594971e-01 -9.414673e-01
2.786936e+08 -9.193115e-01 -5.111084e-01 1.155958e-05 -2.357736e-05 -2.532825e-05 1.006946e-05 3.657837e-01 -9.285889e-01
2.789123e+08 -9.193115e-01 -5.111694e-01 -7.975847e-06 -1.568347e-06 5.546212e-05 -4.433095e-06 3.728027e-01 -9.147339e-01
2.791311e+08 -9.187622e-01 -5.106201e-01 -1.136586e-05 -2.893619e-06 9.192154e-06 -3.593788e-05 3.831787e-01 -8.993530e-01
2.793498e+08 -9.186401e-01 -5.101318e-01 -5.088747e-06 -1.291092e-05 -6.338116e-06 2.522022e-06 3.963013e-01 -8.856812e-01
2.795685e+08 -9.170532e-01 -5.093384e-01 9.372830e-06 -2.599321e-05 -2.002716e-05 1.970120e-05 4.099731e-01 -8.715210e-01
2.797873e+08 -9.173584e-01 -5.102539e-01 1.087179e-05 -9.809621e-06 3.223494e-05 -1.866743e-05 4.265747e-01 -8.626099e-01
2.800060e+08 -9.163208e-01 -5.096436e-01 -2.753211e-10 -1.418243e-11 2.673268e-05 4.516169e-05 4.432983e-01 -8.547974e-01
2.802247e+08 -9.158936e-01 -5.086670e-01 -2.756715e-07 -3.916025e-05 3.699400e-05 -2.961606e-06 4.566650e-01 -8.492432e-01
2.804435e+08 -9.152222e-01 -5.079956e-01 -1.199543e-06 2.296083e-05 -5.043671e-05 1.712888e-05 4.701538e-01 -8.455811e-01
2.806622e+08 -9.144287e-01 -5.078125e-01 -9.946525e-07 -2.537481e-05 5.164184e-07 -6.082468e-06 4.792480e-01 -8.398438e-01
2.808809e+08 -9.141846e-01 -5.076904e-01 -1.736917e-05 2.444722e-05 -2.174266e-05 -3.250130e-05 4.862671e-01 -8.347168e-01
2.810997e+08 -9.124756e-01 -5.066528e-01 -2.030376e-05 -7.960945e-06 -4.488230e-05 2.371520e-05 4.919434e-01 -8.274536e-01
2.813184e+08 -9.122925e-01 -5.056152e-01 -1.188740e-05 -3.742427e-05 -1.035817e-05 -2.231076e-05 4.981689e-01 -8.162231e-01
2.815371e+08 -9.112549e-01 -5.065918e-01 1.957919e-05 -1.378357e-07 5.298760e-06 9.642448e-06 5.059204e-01 -8.010864e-01
2.817558e+08 -9.105225e-01 -5.062866e-01 3.744662e-05 -3.376417e-05 -2.406351e-05 -5.133450e-06 5.121460e-01 -7.866211e-01
2.819746e+08 -9.097290e-01 -5.050049e-01 1.234282e-05 6.384216e-06 1.562200e-05 3.193505e-05 5.232544e-01 -7.722778e-01
2.821933e+08 -9.093018e-01 -5.049438e-01 3.784895e-06 -7.353351e-05 6.077345e-06 5.210750e-07 5.355225e-01 -7.554932e-01
2.824120e+08 -9.080811e-01 -5.053101e-01 -1.208298e-05 1.088623e-05 2.378225e-05 8.182600e-06 5.491943e-01 -7.421875e-01
2.826308e+08 -9.078369e-01 -5.045776e-01 -2.562441e-05 2.747960e-05 -1.425855e-05 2.326816e-05 5.646973e-01 -7.293091e-01
2.828495e+08 -9.070435e-01 -5.040894e-01 5.096197e-06 3.484078e-05 -3.404915e-06 3.951415e-05 5.779419e-01 -7.174072e-01
2.830682e+08 -9.066162e-01 -5.040894e-01 1.499150e-05 -3.771856e-07 1.268648e-05 -5.033799e-06 5.901794e-01 -7.074890e-01
2.832870e+08 -9.055176e-01 -5.034790e-01 2.353918e-07 -4.596775e-06 -1.137424e-05 -1.016725e-05 6.019897e-01 -6.969299e-01
2.835057e+08 -9.052124e-01 -5.020142e-01 1.813751e-05 -1.633447e-05 -1.344923e-05 1.416355e-05 6.135864e-01 -6.848755e-01
2.837244e+08 -9.040527e-01 -5.032959e-01 -4.500896e-05 -2.076104e-05 5.266629e-07 -6.081536e-06 6.242371e-01 -6.724854e-01
2.839432e+08 -9.036865e-01 -5.031128e-01 -5.092472e-06 -3.482401e-05 2.359971e-06 -2.737530e-05 6.368408e-01 -6.605530e-01
2.841619e+08 -9.025879e-01 -5.023804e-01 1.546834e-05 1.233071e-05 -3.093295e-05 3.455207e-06 6.479187e-01 -6.479187e-01
2.843806e+08 -9.023438e-01 -5.022583e-01 2.178177e-05 2.293848e-06 2.224743e-05 2.641790e-05 6.612549e-01 -6.374207e-01
2.845994e+08 -9.010620e-01 -5.022583e-01 -1.137424e-05 -2.900138e-06 1.614541e-05 2.590939e-05 6.755676e-01 -6.257629e-01
2.848181e+08 -9.002075e-01 -5.022583e-01 2.008304e-05 1.255982e-05 -1.005828e-05 -2.538785e-05 6.885681e-01 -6.185303e-01
2.850368e+08 -8.991089e-01 -5.018921e-01 2.150424e-05 -3.691018e-05 -1.295377e-05 8.066185e-06 6.999207e-01 -6.102295e-01
2.852556e+08 -8.984375e-01 -5.021973e-01 9.369105e-07 -4.028156e-05 -4.467741e-05 2.063066e-05 7.108154e-01 -6.047974e-01
2.854743e+08 -8.986206e-01 -5.024414e-01 1.888350e-05 1.366157e-05 -3.123283e-05 6.483868e-06 7.176514e-01 -5.983276e-01
2.856930e+08 -8.969727e-01 -5.015259e-01 -2.612360e-05 1.478195e-05 -1.982599e-05 1.665950e-05 7.227783e-01 -5.901489e-01
2.859117e+08 -8.952637e-01 -5.010986e-01 9.438489e-06 -4.117843e-06 -4.521012e-05 -4.374236e-05 7.259521e-01 -5.809937e-01
2.861305e+08 -8.954468e-01 -5.016479e-01 4.408136e-05 6.114319e-05 -1.932122e-05 1.057889e-05 7.300415e-01 -5.688477e-01
2.863492e+08 -8.942261e-01 -5.009766e-01 -2.831966e-05 -3.145076e-05 -1.587160e-05 -2.895668e-05 7.330933e-01 -5.555420e-01
2.865679e+08 -8.930054e-01 -5.014038e-01 7.296912e-07 8.113682e-06 -1.587346e-05 4.151836e-05 7.399902e-01 -5.392456e-01
2.867867e+08 -8.920288e-01 -5.009766e-01 1.646765e-05 1.586229e-05 6.081071e-06 5.299225e-07 7.481079e-01 -5.217896e-01
2.870054e+08 -8.914795e-01 -5.010376e-01 -1.814961e-05 -5.552545e-06 -4.892796e-05 -1.195818e-06 7.597656e-01 -5.056763e-01
2.872241e+08 -8.911743e-01 -5.009155e-01 7.257797e-06 1.536403e-05 -6.536022e-05 -2.408028e-05 7.744751e-01 -4.903564e-01
2.874429e+08 -8.894653e-01 -5.005493e-01 -8.479692e-06 7.622875e-06 -1.295749e-05 8.060597e-06 7.910156e-01 -4.797363e-01
2.876616e+08 -8.888550e-01 -5.008545e-01 -2.155453e-05 -2.883002e-05 -7.942319e-06 2.076291e-05 8.076782e-01 -4.744263e-01
2.878803e+08 -8.880005e-01 -5.011597e-01 -3.005005e-05 7.320195e-07 4.098564e-05 2.198294e-05 8.226318e-01 -4.683838e-01
2.880991e+08 -8.876343e-01 -5.003662e-01 -3.225170e-05 -2.362393e-05 -4.525110e-05 2.672523e-05 8.358765e-01 -4.691162e-01
2.883178e+08 -8.869629e-01 -5.005493e-01 -5.838275e-05 1.313537e-05 3.096089e-05 -3.430992e-06 8.447876e-01 -4.706421e-01
2.885365e+08 -8.856812e-01 -5.006104e-01 -3.875978e-05 -3.092363e-05 1.057889e-05 1.932029e-05 8.507690e-01 -4.713745e-01
2.887552e+08 -8.850098e-01 -4.998169e-01 -2.422254e-06 2.178829e-06 -7.139519e-06 1.164153e-05 8.542480e-01 -4.708862e-01
2.889740e+08 -8.836670e-01 -4.996338e-01 -3.149174e-05 -1.551956e-05 1.579523e-06 -1.824461e-05 8.548584e-01 -4.680786e-01
2.891927e+08 -8.833618e-01 -5.003662e-01 8.019619e-06 -2.034567e-05 -1.402758e-05 2.023950e-05 8.550415e-01 -4.653320e-01
2.894114e+08 -8.821411e-01 -5.001221e-01 1.211825e-06 -1.090753e-06 1.580454e-06 -1.825485e-05 8.563232e-01 -4.580078e-01
2.896302e+08 -8.809204e-01 -5.009155e-01 6.079674e-06 -4.928932e-05 -2.220087e-05 -2.647378e-05 8.568726e-01 -4.523315e-01
2.898489e+08 -8.803101e-01 -4.998779e-01 -1.453515e-05 -8.848496e-06 2.123415e-06 -2.433173e-05 8.598022e-01 -4.451294e-01
2.900676e+08 -8.799438e-01 -5.007935e-01 1.624972e-05 -2.339110e-05 6.087124e-06 5.341135e-07 8.637695e-01 -4.405518e-01
2.902864e+08 -8.790894e-01 -5.009766e-01 -1.211092e-05 1.090206e-05 -1.069158e-06 1.217425e-05 8.670044e-01 -4.355469e-01
2.905051e+08 -8.776855e-01 -5.012207e-01 -4.364178e-06 -4.855450e-06 1.136679e-05 1.020078e-05 8.698730e-01 -4.333496e-01
2.907238e+08 -8.766479e-01 -5.001831e-01 -3.225915e-05 2.023950e-05 2.063997e-05 -2.577901e-05 8.716431e-01 -4.289551e-01
2.909426e+08 -8.761597e-01 -5.003052e-01 1.406763e-05 1.806766e-05 -1.639314e-05 -2.289191e-05 8.738403e-01 -4.265137e-01
2.911613e+08 -8.745117e-01 -5.012817e-01 1.020730e-05 -3.991090e-05 4.754402e-06 1.574215e-05 8.736572e-01 -4.206543e-01
2.913800e+08 -8.738403e-01 -5.006104e-01 -3.889203e-06 -1.406670e-05 -2.222508e-05 -2.644211e-05 8.756714e-01 -4.169922e-01
2.915988e+08 -8.732300e-01 -5.020142e-01 1.721084e-05 -1.988653e-05 -1.826230e-05 -1.601875e-06 8.778687e-01 -4.124146e-01
2.918175e+08 -8.723755e-01 -5.021362e-01 2.963841e-05 -1.345575e-05 -6.355811e-06 2.508052e-06 8.817139e-01 -4.093628e-01
2.920362e+08 -8.715210e-01 -5.017090e-01 -2.086628e-05 -2.076104e-05 -1.533143e-05 -3.506988e-05 8.851318e-01 -4.060059e-01
2.922550e+08 -8.708496e-01 -5.022583e-01 -1.772214e-05 7.150695e-06 -6.035715e-05 -1.144037e-05 8.888550e-01 -4.047852e-01
2.924737e+08 -8.698120e-01 -5.020752e-01 -6.567687e-06 1.468696e-05 -7.151626e-06 1.163874e-05 8.939819e-01 -4.041748e-01
2.926924e+08 -8.685913e-01 -5.026245e-01 2.087187e-05 2.077781e-05 -2.748333e-05 -3.614835e-05 8.941650e-01 -4.049683e-01
2.929111e+08 -8.676147e-01 -5.022583e-01 3.059581e-05 -9.944662e-06 1.243502e-05 -1.975335e-06 8.937988e-01 -4.056396e-01
2.931299e+08 -8.671265e-01 -5.031128e-01 -1.464505e-06 5.709939e-06 -1.810491e-06 -4.923716e-05 8.939209e-01 -4.052124e-01
2.933486e+08 -8.660889e-01 -5.021362e-01 1.285225e-05 1.919549e-05 -1.296215e-05 8.061528e-06 8.905029e-01 -4.031982e-01
2.935673e+08 -8.652344e-01 -5.041504e-01 -2.283975e-05 -5.848706e-06 -2.425164e-06 2.739951e-05 8.886108e-01 -3.997192e-01
2.937861e+08 -8.645020e-01 -5.030518e-01 1.205131e-06 2.090540e-05 -8.018687e-07 9.126496e-06 8.875732e-01 -3.926392e-01
2.940048e+08 -8.633423e-01 -5.028687e-01 6.802380e-06 2.467632e-05 -3.862754e-05 2.113916e-05 8.887939e-01 -3.865356e-01
2.942235e+08 -8.632202e-01 -5.039062e-01 3.106520e-05 2.481975e-05 1.378264e-05 -1.719128e-05 8.925781e-01 -3.802490e-01
2.944423e+08 -8.613892e-01 -5.039673e-01 3.758445e-05 5.410239e-05 1.717359e-05 1.377240e-05 8.992310e-01 -3.732910e-01
2.946610e+08 -8.609009e-01 -5.054932e-01 -2.818555e-05 7.750466e-06 3.016181e-05 5.759299e-06 9.066162e-01 -3.704834e-01
2.948797e+08 -8.598022e-01 -5.047607e-01 -1.310743e-05 -3.658980e-05 1.000986e-05 2.541207e-05 9.141846e-01 -3.681641e-01
2.950985e+08 -8.591309e-01 -5.048218e-01 -9.466894e-06 -1.787208e-05 -5.397201e-05 -1.394376e-05 9.218140e-01 -3.711548e-01
2.953172e+08 -8.587646e-01 -5.046997e-01 -4.675239e-07 -1.276378e-05 -3.149733e-05 9.510666e-06 9.247437e-01 -3.745728e-01
2.955359e+08 -8.575439e-01 -5.062256e-01 -3.304891e-05 -9.890646e-06 -4.680827e-05 -2.562627e-05 9.283447e-01 -3.785400e-01
2.957546e+08 -8.572388e-01 -5.053711e-01 2.434826e-06 -2.184766e-06 -3.256463e-05 2.167746e-05 9.284058e-01 -3.839111e-01
2.959734e+08 -8.560181e-01 -5.059204e-01 1.484901e-05 -1.774263e-05 -1.109857e-05 -1.324527e-05 9.254761e-01 -3.856201e-01
2.961921e+08 -8.561401e-01 -5.079346e-01 1.598895e-05 2.752803e-05 -1.154281e-05 3.061630e-05 9.205933e-01 -3.861694e-01
2.964108e+08 -8.555908e-01 -5.082397e-01 -1.578592e-05 1.467858e-05 7.656403e-06 2.886634e-06 9.166260e-01 -3.833618e-01
2.966296e+08 -8.544922e-01 -5.089722e-01 -6.160699e-06 -1.166016e-05 6.959774e-06 -1.267903e-05 9.114380e-01 -3.789062e-01
2.968483e+08 -8.535767e-01 -5.090332e-01 -2.930500e-05 4.301220e-05 2.635084e-05 -1.192279e-05 9.096680e-01 -3.729858e-01
2.970670e+08 -8.532715e-01 -5.094604e-01 2.236292e-05 -9.369105e-06 -1.750793e-05 1.745485e-05 9.075928e-01 -3.675537e-01
2.972858e+08 -8.526611e-01 -5.097656e-01 -2.329238e-06 -1.368206e-05 4.917383e-07 -1.293328e-05 9.057617e-01 -3.618774e-01
2.975045e+08 -8.504028e-01 -5.096436e-01 2.674200e-05 8.121133e-06 -1.849607e-05 4.325062e-05 9.042358e-01 -3.547974e-01
2.977232e+08 -8.506470e-01 -5.099487e-01 -5.584210e-06 -2.439693e-05 4.906207e-05 3.810227e-05 9.016113e-01 -3.472900e-01
2.979420e+08 -8.486938e-01 -5.100708e-01 -7.386319e-06 -1.845602e-05 -2.464093e-05 1.648441e-06 8.975220e-01 -3.388672e-01
2.981607e+08 -8.484497e-01 -5.112305e-01 -1.736358e-05 3.041886e-05 -1.770072e-05 -1.103897e-05 8.932495e-01 -3.296509e-01
2.983794e+08 -8.474731e-01 -5.109863e-01 1.495518e-05 -2.793595e-05 -3.776513e-05 -2.732873e-05 8.918457e-01 -3.189697e-01
2.985982e+08 -8.468628e-01 -5.114136e-01 2.758764e-05 2.135895e-05 -4.452467e-05 1.382455e-05 8.899536e-01 -3.030396e-01
2.988169e+08 -8.457642e-01 -5.122070e-01 3.961846e-06 -3.450736e-05 9.342562e-06 -7.403549e-06 8.897095e-01 -2.866821e-01
2.990356e+08 -8.454590e-01 -5.120850e-01 -4.139729e-06 -7.749535e-06 2.774410e-05 1.915917e-05 8.940430e-01 -2.719727e-01
2.992544e+08 -8.442383e-01 -5.137329e-01 -1.673773e-05 -5.707890e-05 3.419444e-05 1.945160e-05 9.015503e-01 -2.571411e-01
2.994731e+08 -8.439331e-01 -5.138550e-01 -1.053140e-05 2.929009e-05 2.494827e-05 -4.306063e-05 9.091187e-01 -2.449951e-01
2.996918e+08 -8.419189e-01 -5.137939e-01 -1.091324e-05 -2.280809e-05 -2.989545e-05 4.004687e-06 9.176636e-01 -2.346191e-01
2.999105e+08 -8.413086e-01 -5.150757e-01 1.149625e-05 -4.848465e-05 3.672764e-05 -4.509836e-05 9.254761e-01 -2.287598e-01
3.001293e+08 -8.411255e-01 -5.152588e-01 1.066830e-05 1.299009e-05 -4.641712e-05 -4.410744e-06 9.320068e-01 -2.274170e-01
3.003480e+08 -8.404541e-01 -5.158691e-01 -7.173512e-06 7.570721e-06 2.038293e-05 -2.508424e-05 9.334717e-01 -2.244263e-01
3.005667e+08 -8.400879e-01 -5.165405e-01 -4.237518e-05 3.263168e-05 2.584420e-05 1.007691e-06 9.308472e-01 -2.230835e-01
3.007855e+08 -8.397217e-01 -5.170898e-01 7.767230e-07 2.950989e-05 1.513027e-05 -2.271496e-05 9.239502e-01 -2.192383e-01
3.010042e+08 -8.385010e-01 -5.176392e-01 -4.916638e-05 1.311302e-06 -8.162111e-06 1.003034e-05 9.147949e-01 -2.111816e-01
3.012229e+08 -8.380737e-01 -5.179443e-01 1.152977e-05 -6.474555e-05 2.533942e-05 1.393072e-05 9.030151e-01 -1.992798e-01
3.014417e+08 -8.369751e-01 -5.181885e-01 3.613532e-07 -2.265349e-05 3.773533e-05 2.735481e-05 8.919067e-01 -1.823120e-01
3.016604e+08 -8.370972e-01 -5.189819e-01 -1.759268e-06 -1.028739e-05 -1.481548e-05 -1.870003e-05 8.846436e-01 -1.624756e-01
3.018791e+08 -8.351440e-01 -5.187988e-01 2.536550e-05 -8.543953e-06 1.748838e-05 -1.742970e-05 8.784180e-01 -1.412354e-01
3.020979e+08 -8.352051e-01 -5.206299e-01 -3.137439e-05 2.299063e-05 2.048910e-06 -5.171075e-05 8.756714e-01 -1.186523e-01
3.023166e+08 -8.347168e-01 -5.209351e-01 2.117734e-05 -7.636845e-08 1.292676e-05 5.057082e-07 8.740845e-01 -9.613037e-02
3.025353e+08 -8.336792e-01 -5.213013e-01 2.696179e-07 9.836163e-06 -3.417581e-05 -1.947396e-05 8.757324e-01 -7.342529e-02
3.027540e+08 -8.336792e-01 -5.208740e-01 1.186784e-05 1.988187e-05 -5.269423e-06 2.385117e-06 8.767090e-01 -5.456543e-02
3.029728e+08 -8.328247e-01 -5.217896e-01 -4.471047e-06 -1.355074e-06 -3.550574e-05 4.781783e-05 8.785400e-01 -3.308105e-02
3.031915e+08 -8.319092e-01 -5.234375e-01 -1.782551e-05 -2.167933e-05 -3.862195e-05 2.694875e-05 8.800659e-01 -1.336670e-02
3.034102e+08 -8.314819e-01 -5.238037e-01 -1.665764e-05 -1.481734e-05 -1.615658e-05 4.857033e-05 8.834839e-01 4.516602e-03
3.036290e+08 -8.284302e-01 -5.233765e-01 6.549060e-06 5.241483e-06 3.700517e-05 1.181476e-05 8.875732e-01 2.404785e-02
3.038477e+08 -8.289795e-01 -5.239868e-01 1.489930e-05 4.531816e-06 -1.002755e-05 -8.155592e-06 8.900146e-01 4.241943e-02
3.040664e+08 -8.291016e-01 -5.243530e-01 9.798445e-06 1.601223e-05 1.785532e-05 3.952906e-05 8.956909e-01 6.030273e-02
3.042852e+08 -8.279419e-01 -5.255127e-01 -3.642589e-05 1.953915e-06 2.413802e-05 1.131929e-05 8.992920e-01 7.727051e-02
3.045039e+08 -8.278809e-01 -5.258789e-01 3.690645e-05 3.403984e-05 -2.330728e-05 3.272854e-05 9.065552e-01 9.136963e-02
3.047226e+08 -8.269653e-01 -5.265503e-01 -2.439320e-05 4.799664e-05 6.460119e-06 2.579764e-07 9.107056e-01 1.024170e-01
3.049414e+08 -8.265381e-01 -5.272217e-01 -4.261732e-05 -2.595969e-05 2.279319e-05 -1.980923e-05 9.135132e-01 1.137695e-01
3.051601e+08 -8.262939e-01 -5.271606e-01 2.937578e-05 -2.692081e-05 -2.057850e-05 -3.391877e-06 9.150391e-01 1.218872e-01
3.053788e+08 -8.253174e-01 -5.279541e-01 -1.555867e-05 8.295290e-06 -3.388152e-06 2.057105e-05 9.140015e-01 1.317749e-01
3.055976e+08 -8.247681e-01 -5.289307e-01 7.607043e-06 4.466251e-05 4.624948e-05 -2.406165e-05 9.094238e-01 1.412964e-01
3.058163e+08 -8.244019e-01 -5.303955e-01 5.248934e-06 3.094412e-05 2.379995e-06 5.275942e-06 9.031982e-01 1.522217e-01
3.060350e+08 -8.239136e-01 -5.305786e-01 -1.348741e-05 1.219846e-05 -6.752089e-07 -1.556706e-05 8.967285e-01 1.672363e-01
3.062538e+08 -8.225708e-01 -5.306396e-01 1.863018e-05 -2.368540e-05 2.805330e-05 -2.217293e-05 8.900146e-01 1.835327e-01
3.064725e+08 -8.226929e-01 -5.313110e-01 2.413988e-05 1.713075e-05 1.530815e-05 5.777925e-06 8.853149e-01 2.009277e-01
3.066912e+08 -8.220825e-01 -5.323486e-01 -4.186109e-05 3.531575e-06 2.687797e-05 -2.483465e-05 8.842773e-01 2.208252e-01
3.069099e+08 -8.222046e-01 -5.330811e-01 1.557171e-05 -8.310191e-06 1.277030e-05 -2.799928e-05 8.851318e-01 2.402344e-01
3.071287e+08 -8.212891e-01 -5.333252e-01 1.415610e-05 -2.505630e-05 2.912804e-05 -4.803762e-05 8.883667e-01 2.571411e-01
3.073474e+08 -8.202515e-01 -5.339966e-01 2.123509e-05 -5.681068e-08 1.277775e-05 -2.796762e-05 8.928833e-01 2.725830e-01
3.075661e+08 -8.195801e-01 -5.344238e-01 9.441748e-06 3.875606e-05 -2.332777e-05 3.271922e-05 8.976440e-01 2.842407e-01
3.077849e+08 -8.189697e-01 -5.357056e-01 -3.558025e-05 -1.028180e-06 1.108274e-05 -1.767837e-05 9.031982e-01 2.930298e-01
3.080036e+08 -8.189697e-01 -5.354004e-01 -2.860650e-05 -3.477558e-05 2.213567e-05 -3.537163e-05 9.065552e-01 3.005371e-01
3.082223e+08 -8.184814e-01 -5.358887e-01 -1.937151e-05 -2.221577e-05 -7.859990e-05 2.275407e-05 9.065552e-01 3.048706e-01
3.084411e+08 -8.182983e-01 -5.371704e-01 -3.891625e-05 4.494563e-06 -6.314367e-06 2.824888e-05 9.060669e-01 3.099365e-01
3.086598e+08 -8.171997e-01 -5.380249e-01 -2.079178e-06 -3.898982e-06 -4.104152e-05 2.162904e-05 9.037476e-01 3.161621e-01
3.088785e+08 -8.167725e-01 -5.375366e-01 7.972121e-06 2.202764e-05 -4.048645e-05 8.743256e-06 8.990479e-01 3.231201e-01
3.090973e+08 -8.170776e-01 -5.394287e-01 4.426762e-05 1.018122e-05 -1.584738e-05 7.128343e-06 8.964233e-01 3.308105e-01
3.093160e+08 -8.159790e-01 -5.389404e-01 1.495937e-06 4.546018e-07 2.704188e-05 3.684312e-06 8.941650e-01 3.379517e-01
3.095347e+08 -8.156738e-01 -5.402222e-01 -1.339056e-05 -2.041832e-05 4.409999e-05 -8.195639e-07 8.913574e-01 3.475952e-01
3.097534e+08 -8.147583e-01 -5.408936e-01 -1.054443e-05 1.312885e-05 1.676753e-05 -6.151944e-05 8.900146e-01 3.540649e-01
3.099722e+08 -8.147583e-01 -5.407715e-01 -5.400972e-06 1.626788e-06 -8.850824e-06 -5.536713e-06 8.884888e-01 3.616943e-01
3.101909e+08 -8.143311e-01 -5.421143e-01 -3.761798e-05 3.756769e-05 -7.658266e-06 -2.900604e-06 8.864746e-01 3.679199e-01
3.104096e+08 -8.140259e-01 -5.422974e-01 2.992153e-05 9.115785e-06 -2.961233e-05 -3.746524e-05 8.851318e-01 3.746948e-01
3.106284e+08 -8.133545e-01 -5.438232e-01 -2.935529e-06 5.795434e-05 2.007000e-05 1.637824e-05 8.836060e-01 3.800049e-01
3.108471e+08 -8.133545e-01 -5.440674e-01 6.511807e-06 2.160762e-05 -6.762892e-05 5.029142e-06 8.816528e-01 3.853760e-01
3.110658e+08 -8.130493e-01 -5.447998e-01 -3.599003e-05 5.392358e-06 1.968071e-05 -6.923825e-05 8.824463e-01 3.923950e-01
3.112846e+08 -8.122559e-01 -5.447998e-01 2.081040e-06 3.903871e-06 -1.861900e-05 4.331395e-05 8.823242e-01 3.975220e-01
3.115033e+08 -8.115234e-01 -5.457153e-01 3.830530e-06 1.424737e-05 1.821760e-05 -1.849607e-06 8.830566e-01 4.030762e-01
3.117220e+08 -8.114624e-01 -5.465698e-01 2.994202e-06 9.119976e-07 -4.753470e-06 -1.057144e-05 8.874512e-01 4.068604e-01
3.119408e+08 -8.115234e-01 -5.469971e-01 -1.699477e-05 -2.481230e-05 -1.413748e-05 -3.165565e-06 8.898315e-01 4.069824e-01
3.121595e+08 -8.109131e-01 -5.473022e-01 1.321360e-05 -5.788170e-06 -1.347810e-05 1.241546e-05 8.930664e-01 4.044800e-01
3.123782e+08 -8.108521e-01 -5.474854e-01 -1.576729e-06 1.587626e-05 -2.537109e-05 -1.399592e-05 8.929443e-01 3.986206e-01
3.125970e+08 -8.105469e-01 -5.485840e-01 4.887581e-05 -4.734844e-06 -4.044175e-05 3.726035e-05 8.896484e-01 3.923340e-01
3.128157e+08 -8.103638e-01 -5.496216e-01 4.161615e-06 7.817056e-06 4.046783e-05 -3.728271e-05 8.826904e-01 3.862915e-01
3.130344e+08 -8.099976e-01 -5.495605e-01 -1.301989e-05 -4.326925e-05 2.518296e-06 3.383122e-05 8.718262e-01 3.804932e-01
3.132532e+08 -8.082275e-01 -5.502930e-01 6.612390e-07 -1.288857e-05 8.464605e-05 -9.432435e-06 8.587036e-01 3.798828e-01
3.134719e+08 -8.095703e-01 -5.508423e-01 -5.303323e-05 3.952160e-05 3.068149e-05 1.163036e-05 8.447266e-01 3.818970e-01
3.136906e+08 -8.089600e-01 -5.516968e-01 -3.287755e-05 3.252923e-05 2.378598e-06 5.289447e-06 8.311768e-01 3.893433e-01
3.139093e+08 -8.080444e-01 -5.522461e-01 -1.247003e-10 -2.344223e-10 -6.476883e-06 -2.682209e-07 8.199463e-01 3.988037e-01
3.141281e+08 -8.086548e-01 -5.530396e-01 8.660369e-06 9.194482e-06 -3.444031e-06 2.063252e-05 8.126221e-01 4.118652e-01
3.143468e+08 -8.076172e-01 -5.538940e-01 -1.166947e-06 -6.909948e-06 -2.106093e-05 3.806688e-05 8.067627e-01 4.246216e-01
3.145655e+08 -8.069458e-01 -5.541382e-01 7.664785e-06 -3.041327e-05 -1.091510e-06 2.590567e-05 8.069458e-01 4.367676e-01
3.147843e+08 -8.071289e-01 -5.546875e-01 -6.552786e-06 -6.427988e-05 -3.997236e-05 2.429262e-05 8.093262e-01 4.467773e-01
3.150030e+08 -8.068237e-01 -5.551147e-01 8.191913e-06 4.839152e-05 3.021210e-06 2.089888e-05 8.134766e-01 4.557495e-01
3.152217e+08 -8.066406e-01 -5.560303e-01 -3.668480e-06 1.197681e-05 -2.646819e-05 1.188368e-05 8.176880e-01 4.606934e-01
3.154405e+08 -8.062744e-01 -5.576172e-01 5.159527e-06 -1.153443e-05 7.032417e-06 -1.269020e-05 8.217163e-01 4.631958e-01
3.156592e+08 -8.057861e-01 -5.570068e-01 -4.164688e-05 -1.924485e-05 -4.193187e-05 -2.252311e-05 8.250122e-01 4.638672e-01
3.158779e+08 -8.055420e-01 -5.575562e-01 -2.474897e-05 2.194755e-05 -1.189066e-06 -2.647750e-06 8.241577e-01 4.631958e-01
3.160967e+08 -8.048096e-01 -5.576782e-01 1.242198e-05 -1.915172e-05 7.668976e-06 2.911314e-06 8.250732e-01 4.613647e-01
3.163154e+08 -8.045044e-01 -5.584106e-01 -2.543256e-05 -2.418831e-05 -2.235919e-05 6.852672e-06 8.217163e-01 4.621582e-01
3.165341e+08 -8.048096e-01 -5.589600e-01 1.340918e-05 -3.853254e-05 -6.115809e-05 3.382936e-05 8.171387e-01 4.625244e-01
3.167528e+08 -8.043823e-01 -5.595703e-01 2.816319e-05 1.516007e-05 2.009980e-05 1.642108e-05 8.124390e-01 4.632568e-01
3.169716e+08 -8.047485e-01 -5.604248e-01 2.483465e-05 2.071075e-05 -3.114901e-05 2.990849e-05 8.073120e-01 4.670410e-01
3.171903e+08 -8.040161e-01 -5.604248e-01 1.366623e-05 3.040768e-05 -1.842156e-06 -1.826696e-05 8.029175e-01 4.705811e-01
3.174090e+08 -8.034668e-01 -5.606079e-01 1.074187e-05 1.312979e-05 -4.755333e-06 -1.058914e-05 7.957764e-01 4.745483e-01
3.176278e+08 -8.036499e-01 -5.620117e-01 2.747402e-06 -8.995179e-06 -2.120249e-05 9.516254e-06 7.903442e-01 4.800415e-01
3.178465e+08 -8.035889e-01 -5.625000e-01 4.586764e-06 -1.500361e-05 1.395121e-05 -5.402789e-05 7.844238e-01 4.865112e-01
3.180652e+08 -8.031616e-01 -5.623169e-01 -1.273490e-05 -3.342517e-05 -4.995242e-05 4.469603e-05 7.771606e-01 4.960938e-01
3.182840e+08 -8.027954e-01 -5.627441e-01 -7.157214e-06 -8.749310e-06 -1.187995e-05 -2.648868e-05 7.727051e-01 5.040283e-01
3.185027e+08 -8.024902e-01 -5.637207e-01 -7.019378e-06 1.753680e-05 -2.056360e-05 2.512708e-05 7.684937e-01 5.157471e-01
3.187214e+08 -8.025513e-01 -5.639038e-01 1.683366e-05 -1.404434e-06 8.763745e-06 -2.303533e-05 7.681885e-01 5.287476e-01
3.189402e+08 -8.021240e-01 -5.646362e-01 2.483837e-05 2.073497e-05 5.841255e-05 2.462417e-06 7.706909e-01 5.399780e-01
3.191589e+08 -8.017578e-01 -5.651245e-01 -8.575618e-06 -2.560578e-05 1.234002e-05 -1.508277e-05 7.745972e-01 5.507202e-01
3.193776e+08 -8.015137e-01 -5.650635e-01 1.429394e-05 -2.516620e-05 -2.637878e-05 4.049391e-05 7.806396e-01 5.560303e-01
3.195964e+08 -8.015747e-01 -5.659790e-01 1.001544e-05 -1.662876e-05 -1.674891e-05 -6.572902e-05 7.874756e-01 5.588989e-01
3.198151e+08 -8.017578e-01 -5.664673e-01 2.724491e-05 1.822785e-05 1.363736e-05 1.618266e-05 7.914429e-01 5.543213e-01
3.200338e+08 -8.021851e-01 -5.670776e-01 -8.055940e-06 3.696606e-05 3.769435e-05 -2.967194e-05 7.923584e-01 5.505981e-01
3.202526e+08 -8.014526e-01 -5.674438e-01 -4.500384e-06 -1.381151e-06 7.686671e-06 2.916437e-06 7.880249e-01 5.421143e-01
3.204713e+08 -8.009033e-01 -5.684204e-01 1.763925e-05 -3.070757e-05 7.590279e-06 -2.570823e-05 7.791138e-01 5.371094e-01
3.206900e+08 -8.016357e-01 -5.685425e-01 -5.563349e-05 -6.593764e-07 -2.999604e-05 3.261119e-05 7.673340e-01 5.309448e-01
3.209087e+08 -8.009033e-01 -5.696411e-01 1.429580e-05 -2.516806e-05 2.956018e-05 9.063631e-06 7.511597e-01 5.293579e-01
3.211275e+08 -8.008423e-01 -5.701904e-01 3.568456e-05 1.749024e-05 -2.902932e-05 -2.207048e-05 7.318115e-01 5.323486e-01
3.213462e+08 -8.011475e-01 -5.698242e-01 -2.690218e-05 -2.470054e-05 -5.852431e-06 1.538731e-05 7.145996e-01 5.384521e-01
3.215649e+08 -7.994995e-01 -5.704956e-01 8.521602e-06 -1.709908e-05 1.115724e-05 -1.776312e-05 6.967773e-01 5.500793e-01
3.217837e+08 -7.997437e-01 -5.704346e-01 2.487190e-05 -3.835559e-05 -4.366413e-05 1.639500e-05 6.813965e-01 5.627747e-01
3.220024e+08 -7.988892e-01 -5.709229e-01 -5.328096e-06 -1.477543e-05 3.596209e-05 -1.930445e-05 6.694946e-01 5.779724e-01
3.222211e+08 -7.997437e-01 -5.709229e-01 9.778887e-08 -1.639966e-05 3.543124e-05 -6.347895e-06 6.562500e-01 5.919189e-01
3.224399e+08 -7.999268e-01 -5.720825e-01 3.328547e-05 2.003834e-05 1.550280e-05 3.453903e-05 6.492615e-01 6.073608e-01
3.226586e+08 -7.988892e-01 -5.725098e-01 1.363829e-05 3.046356e-05 -4.552677e-05 -1.940876e-06 6.419983e-01 6.213379e-01
3.228773e+08 -7.985840e-01 -5.725098e-01 -1.632236e-05 -3.785826e-05 -5.504116e-07 1.300499e-05 6.364441e-01 6.333313e-01
3.230961e+08 -7.984619e-01 -5.729980e-01 -2.665259e-05 2.796203e-05 -3.019348e-06 -2.097525e-05 6.301880e-01 6.455688e-01
3.233148e+08 -7.985229e-01 -5.728760e-01 -2.391264e-05 -2.377108e-05 4.477426e-05 -4.240870e-05 6.251831e-01 6.546936e-01
3.235335e+08 -7.984619e-01 -5.736694e-01 2.805144e-05 -1.106411e-05 -2.289563e-05 4.856661e-05 6.201782e-01 6.650391e-01
3.237522e+08 -7.984619e-01 -5.739746e-01 1.849420e-05 2.540275e-05 -5.862676e-06 1.539476e-05 6.130981e-01 6.726990e-01
3.239710e+08 -7.984619e-01 -5.744019e-01 -5.162880e-05 -1.912192e-05 -2.364628e-05 4.220754e-06 6.080322e-01 6.821594e-01
3.241897e+08 -7.980957e-01 -5.746460e-01 3.752112e-05 1.150928e-05 -1.669861e-05 -3.721751e-05 6.018677e-01 6.869507e-01
3.244084e+08 -7.980957e-01 -5.748901e-01 4.838407e-05 8.337200e-06 3.428571e-05 -8.994713e-06 5.947876e-01 6.918335e-01
3.246272e+08 -7.974243e-01 -5.755005e-01 1.914054e-05 -3.027730e-05 2.126582e-05 -9.534881e-06 5.869141e-01 6.950684e-01
3.248459e+08 -7.978516e-01 -5.756226e-01 1.731329e-05 -2.424046e-05 1.485925e-05 1.889188e-05 5.759277e-01 6.986694e-01
3.250646e+08 -7.974854e-01 -5.769043e-01 2.757087e-05 -3.095716e-05 1.191860e-06 2.660556e-06 5.645752e-01 7.022400e-01
3.252834e+08 -7.977905e-01 -5.769653e-01 -2.114289e-05 -3.276952e-05 -3.606081e-05 1.937151e-05 5.504150e-01 7.065430e-01
3.255021e+08 -7.976685e-01 -5.773315e-01 -1.374073e-05 -1.408439e-05 -3.910065e-05 -1.670793e-06 5.332642e-01 7.116394e-01
3.257208e+08 -7.973633e-01 -5.773315e-01 1.280569e-05 -2.563559e-05 -7.111952e-05 -1.606345e-05 5.188599e-01 7.233887e-01
3.259396e+08 -7.966919e-01 -5.773315e-01 2.597272e-05 -1.502223e-05 1.431629e-05 3.192760e-05 5.028076e-01 7.337646e-01
3.261583e+08 -7.968140e-01 -5.779419e-01 9.838492e-06 1.616217e-05 1.835544e-05 -1.838431e-06 4.894409e-01 7.478027e-01
3.263770e+08 -7.965088e-01 -5.783691e-01 -1.182780e-07 1.639687e-05 4.267320e-05 9.659678e-06 4.788208e-01 7.622681e-01
3.265958e+08 -7.958984e-01 -5.781860e-01 -1.602806e-06 1.592841e-05 -4.210696e-05 -2.267584e-05 4.719849e-01 7.766724e-01
3.268145e+08 -7.967529e-01 -5.794067e-01 2.885424e-05 -4.043989e-05 5.412847e-06 2.637133e-05 4.657593e-01 7.885742e-01
3.270332e+08 -7.964478e-01 -5.794678e-01 8.057803e-06 -3.696047e-05 -2.536923e-05 4.336238e-05 4.646606e-01 8.004761e-01
3.272520e+08 -7.961426e-01 -5.794067e-01 1.720898e-05 -7.851981e-06 -1.129601e-05 -1.093093e-05 4.611206e-01 8.068237e-01
3.274707e+08 -7.955933e-01 -5.795288e-01 -3.578840e-06 -4.386296e-06 -3.784895e-05 2.976693e-05 4.633179e-01 8.082886e-01
3.276894e+08 -7.952881e-01 -5.799561e-01 1.490116e-05 2.102368e-05 -4.455820e-05 -2.803281e-05 4.562988e-01 8.095093e-01
3.279081e+08 -7.955933e-01 -5.799561e-01 -5.036592e-06 -4.758313e-05 7.631257e-06 -2.582371e-05 4.468994e-01 8.061523e-01
3.281269e+08 -7.955322e-01 -5.800781e-01 -1.928397e-05 -3.880076e-05 -3.307685e-05 4.044920e-05 4.353027e-01 8.058472e-01
3.283456e+08 -7.944336e-01 -5.802612e-01 9.008683e-06 2.779532e-06 -1.757314e-10 4.608864e-10 4.187012e-01 8.049927e-01
3.285643e+08 -7.946167e-01 -5.806885e-01 3.004679e-06 9.231735e-07 -1.001917e-05 2.049282e-05 4.029541e-01 8.073730e-01
3.287831e+08 -7.949219e-01 -5.808716e-01 7.992610e-06 -2.055801e-05 1.469627e-05 -3.863126e-05 3.861694e-01 8.153687e-01
3.290018e+08 -7.947998e-01 -5.808105e-01 1.190044e-05 -2.263114e-05 4.037470e-05 4.328787e-06 3.691406e-01 8.242188e-01
3.292205e+08 -7.943726e-01 -5.816040e-01 -1.373608e-05 -1.409277e-05 -4.107133e-05 -4.888698e-05 3.536377e-01 8.366089e-01
3.294393e+08 -7.940063e-01 -5.809326e-01 9.137206e-06 -1.362525e-05 -5.286559e-05 -1.792982e-05 3.418579e-01 8.499146e-01
3.296580e+08 -7.929077e-01 -5.811157e-01 -4.276633e-06 8.540228e-06 3.023632e-05 -3.939494e-06 3.299561e-01 8.652954e-01
3.298767e+08 -7.933350e-01 -5.820312e-01 -3.220513e-06 -1.085037e-05 -5.400181e-05 8.132309e-06 3.248901e-01 8.800659e-01
3.300955e+08 -7.937622e-01 -5.816650e-01 2.259575e-05 3.327616e-05 -1.077540e-05 -2.400950e-05 3.226318e-01 8.924561e-01
3.303142e+08 -7.927856e-01 -5.830078e-01 -3.914349e-05 4.353002e-06 1.658127e-05 -2.022646e-05 3.190918e-01 9.060669e-01
3.305329e+08 -7.933350e-01 -5.829468e-01 -5.300157e-06 -1.479220e-05 -2.726726e-05 2.501719e-05 3.181152e-01 9.164429e-01
3.307516e+08 -7.933960e-01 -5.834351e-01 4.892796e-05 1.178682e-05 -1.427438e-05 -3.232621e-06 3.205566e-01 9.268799e-01
3.309704e+08 -7.932129e-01 -5.828857e-01 -3.415346e-05 -1.710653e-05 -1.592562e-05 3.600307e-05 3.248901e-01 9.318237e-01
3.311891e+08 -7.922974e-01 -5.831299e-01 -3.933907e-05 -5.569309e-06 1.443177e-05 6.085262e-05 3.299561e-01 9.364624e-01
3.314078e+08 -7.929077e-01 -5.832520e-01 -2.719462e-07 3.278069e-05 -5.535781e-05 -2.330542e-05 3.366699e-01 9.381104e-01
3.316266e+08 -7.917480e-01 -5.838623e-01 2.006907e-05 9.489246e-06 -1.546927e-05 -5.899929e-06 3.414307e-01 9.343872e-01
3.318453e+08 -7.916870e-01 -5.833740e-01 -1.500128e-06 -4.632166e-07 1.141429e-05 3.977865e-05 3.445435e-01 9.277954e-01
3.320640e+08 -7.920532e-01 -5.834351e-01 2.778135e-06 -9.008218e-06 -4.698709e-05 -4.597008e-06 3.465576e-01 9.172363e-01
3.322828e+08 -7.915039e-01 -5.836792e-01 -3.498048e-06 2.191029e-05 4.241243e-06 2.376735e-05 3.415527e-01 9.045410e-01
3.325015e+08 -7.908325e-01 -5.841064e-01 -8.810312e-06 4.980713e-05 -2.026185e-05 -1.658686e-05 3.353882e-01 8.919067e-01
3.327202e+08 -7.909546e-01 -5.840454e-01 -2.749451e-05 1.450442e-05 -2.441183e-05 -1.153350e-05 3.236084e-01 8.796997e-01
3.329390e+08 -7.904663e-01 -5.843506e-01 -1.721364e-05 7.828698e-06 -2.075173e-05 2.533384e-05 3.078613e-01 8.685913e-01
3.331577e+08 -7.897949e-01 -5.842285e-01 7.104129e-06 -6.025285e-05 7.736031e-06 2.955552e-06 2.877197e-01 8.625488e-01
3.333764e+08 -7.896729e-01 -5.845337e-01 -2.782047e-05 -2.172776e-05 -2.490543e-05 3.041141e-05 2.661743e-01 8.610229e-01
3.335952e+08 -7.887573e-01 -5.851440e-01 1.820922e-05 1.551677e-05 -3.864057e-05 1.406483e-05 2.452393e-01 8.630981e-01
3.338139e+08 -7.899780e-01 -5.851440e-01 1.849979e-05 -1.727697e-05 -2.981536e-05 -9.138137e-06 2.246704e-01 8.697510e-01
3.340326e+08 -7.886353e-01 -5.850830e-01 -2.507493e-05 1.196936e-05 7.114373e-06 -1.281593e-05 2.085571e-01 8.807373e-01
3.342514e+08 -7.883301e-01 -5.850830e-01 -5.926937e-06 2.447329e-05 -5.710125e-05 1.588464e-05 1.926270e-01 8.927612e-01
3.344701e+08 -7.889404e-01 -5.849609e-01 3.534369e-05 -1.867861e-05 7.106923e-06 -1.282711e-05 1.835327e-01 9.050293e-01
3.346888e+08 -7.874146e-01 -5.856934e-01 2.506934e-05 -1.198798e-05 1.091510e-06 -5.507842e-05 1.772461e-01 9.149170e-01
3.349075e+08 -7.877197e-01 -5.855713e-01 -1.507252e-05 -3.095903e-05 2.204999e-05 6.185845e-06 1.734009e-01 9.261475e-01
3.351263e+08 -7.869263e-01 -5.859985e-01 3.926689e-06 -2.072193e-06 -2.394430e-06 -5.354173e-06 1.719971e-01 9.327393e-01
3.353450e+08 -7.872314e-01 -5.866089e-01 -1.391955e-05 -2.402440e-05 3.523007e-05 3.567711e-05 1.704712e-01 9.382935e-01
3.355637e+08 -7.863159e-01 -5.864258e-01 -1.750700e-05 -2.842769e-05 1.253653e-05 1.367647e-05 1.668701e-01 9.404297e-01
3.357825e+08 -7.857056e-01 -5.860596e-01 -2.263673e-05 9.411946e-06 1.606066e-05 -7.181428e-06 1.636963e-01 9.420166e-01
3.360012e+08 -7.857056e-01 -5.866089e-01 2.098270e-05 6.501563e-06 -4.532188e-05 -1.510605e-05 1.560059e-01 9.406128e-01
3.362199e+08 -7.857056e-01 -5.863037e-01 -2.555549e-05 -3.417581e-05 -7.048249e-06 4.173443e-05 1.511230e-01 9.415283e-01
3.364387e+08 -7.852783e-01 -5.864258e-01 5.991664e-06 1.857523e-06 -2.080016e-05 2.536923e-05 1.427612e-01 9.423218e-01
3.366574e+08 -7.841797e-01 -5.865479e-01 2.791174e-05 5.360693e-06 -1.240522e-06 -3.157556e-05 1.313477e-01 9.445801e-01
3.368761e+08 -7.850952e-01 -5.869141e-01 1.899153e-05 2.886541e-05 1.016166e-05 8.329749e-06 1.247559e-01 9.502563e-01
3.370949e+08 -7.850952e-01 -5.869141e-01 1.862273e-05 -3.366359e-05 -3.810972e-05 2.993643e-05 1.168823e-01 9.509888e-01
3.373136e+08 -7.838745e-01 -5.866699e-01 -7.925555e-06 -2.215616e-05 1.129135e-05 -1.791306e-05 1.082153e-01 9.542236e-01
3.375323e+08 -7.837524e-01 -5.861816e-01 -2.710149e-06 3.528036e-05 -1.200242e-06 -2.679881e-06 9.924316e-02 9.586182e-01
3.377510e+08 -7.832031e-01 -5.865479e-01 -1.199264e-05 -3.718771e-06 3.040768e-05 -3.945082e-06 8.953857e-02 9.628906e-01
3.379698e+08 -7.830811e-01 -5.869141e-01 2.637971e-06 7.390510e-06 -9.456649e-06 3.642403e-05 8.245850e-02 9.672852e-01
3.381885e+08 -7.823486e-01 -5.873413e-01 -4.574656e-06 -2.770312e-05 -4.470721e-05 2.961606e-05 7.507324e-02 9.742432e-01
3.384072e+08 -7.828369e-01 -5.870361e-01 -1.913775e-05 -1.251232e-05 -1.609977e-05 7.208437e-06 6.951904e-02 9.819946e-01
3.386260e+08 -7.807007e-01 -5.866089e-01 -3.725290e-06 -5.697832e-05 3.568828e-05 -3.526360e-05 6.390381e-02 9.883423e-01
3.388447e+08 -7.817383e-01 -5.874634e-01 1.830608e-05 -2.719089e-05 -1.010299e-05 2.062507e-05 6.079102e-02 9.946289e-01
3.390634e+08 -7.807007e-01 -5.872803e-01 -1.271162e-05 9.195879e-06 5.075708e-05 1.271814e-05 6.353760e-02 1.000977e+00
3.392822e+08 -7.796021e-01 -5.872192e-01 1.109950e-05 3.302656e-05 1.786835e-05 -1.765229e-05 6.390381e-02 1.002197e+00
3.395009e+08 -7.796021e-01 -5.875854e-01 -1.199823e-05 -3.707595e-06 1.307391e-05 -2.839789e-05 6.665039e-02 9.989624e-01
3.397196e+08 -7.790527e-01 -5.877075e-01 -1.070369e-05 -1.317635e-05 1.737103e-05 2.444722e-05 6.616211e-02 9.940186e-01
3.399384e+08 -7.786865e-01 -5.888672e-01 7.908791e-06 2.215430e-05 9.551179e-06 -7.481314e-06 6.250000e-02 9.843140e-01
3.401571e+08 -7.779541e-01 -5.881348e-01 1.899526e-05 -4.012138e-05 -3.999472e-05 1.141056e-05 5.816650e-02 9.761963e-01
3.403758e+08 -7.774658e-01 -5.887451e-01 1.229346e-05 -2.906471e-05 -1.554377e-05 -5.953014e-06 4.602051e-02 9.678345e-01
3.405946e+08 -7.768555e-01 -5.883789e-01 -3.651902e-05 -1.460500e-05 2.987869e-05 9.208918e-06 3.570557e-02 9.612427e-01
3.408133e+08 -7.762451e-01 -5.892334e-01 -9.203330e-06 -1.272094e-05 7.126480e-06 -4.183128e-05 1.708984e-02 9.573975e-01
3.410320e+08 -7.761841e-01 -5.888672e-01 1.326017e-05 -3.203563e-05 -2.978370e-06 7.774215e-06 2.746582e-03 9.575806e-01
3.412508e+08 -7.763062e-01 -5.890503e-01 1.814589e-05 -1.080148e-05 -3.106520e-05 1.709349e-05 -1.263428e-02 9.609375e-01
3.414695e+08 -7.758789e-01 -5.885620e-01 -3.390759e-05 -7.225201e-06 -4.804693e-06 -1.075305e-05 -2.636719e-02 9.667358e-01
3.416882e+08 -7.753296e-01 -5.890503e-01 -7.706694e-06 -1.224317e-05 -2.214126e-05 -6.236136e-06 -3.308105e-02 9.739990e-01
3.419069e+08 -7.750854e-01 -5.886230e-01 -1.158379e-05 1.613609e-05 -1.910608e-05 1.499802e-05 -3.656006e-02 9.815063e-01
3.421257e+08 -7.741089e-01 -5.889282e-01 -1.911540e-05 -1.251046e-05 1.775101e-06 -1.047086e-05 -4.095459e-02 9.874268e-01
3.423444e+08 -7.735596e-01 -5.891113e-01 -2.013519e-05 -6.207451e-05 -1.504645e-05 -4.811957e-05 -3.845215e-02 9.888306e-01
3.425631e+08 -7.726440e-01 -5.886230e-01 -4.442409e-05 -1.050904e-05 -3.601424e-06 -8.061994e-06 -3.424072e-02 9.870605e-01
3.427819e+08 -7.722168e-01 -5.890503e-01 3.294460e-05 -1.606904e-05 1.018215e-05 8.353032e-06 -3.210449e-02 9.802246e-01
3.430006e+08 -7.719116e-01 -5.898438e-01 -1.122057e-05 9.657815e-06 -4.127622e-05 8.720905e-06 -3.149414e-02 9.694214e-01
3.432193e+08 -7.714844e-01 -5.898438e-01 6.355811e-06 -4.597940e-06 -2.441555e-05 7.542968e-05 -3.472900e-02 9.589844e-01
3.434381e+08 -7.703247e-01 -5.895386e-01 3.433973e-05 2.706796e-05 3.405660e-05 -2.486445e-05 -3.790283e-02 9.462280e-01
3.436568e+08 -7.698364e-01 -5.895386e-01 -6.199814e-06 -1.178682e-05 -4.842505e-05 2.157688e-05 -4.705811e-02 9.315186e-01
3.438755e+08 -7.697144e-01 -5.904541e-01 1.292117e-05 7.310882e-07 -1.916755e-05 -1.405738e-05 -5.657959e-02 9.205933e-01
3.440943e+08 -7.698364e-01 -5.903320e-01 1.981482e-05 -2.672710e-05 -4.252046e-05 6.034970e-06 -6.805420e-02 9.085083e-01
3.443130e+08 -7.692261e-01 -5.899658e-01 4.965812e-06 -4.775450e-05 2.405141e-06 5.384907e-06 -7.977295e-02 8.973999e-01
3.445317e+08 -7.678223e-01 -5.904541e-01 2.717413e-05 1.831353e-05 4.205853e-06 2.394244e-05 -9.558105e-02 8.884888e-01
3.447504e+08 -7.672119e-01 -5.910645e-01 1.053698e-05 2.958626e-05 4.550815e-05 1.522899e-05 -1.094360e-01 8.786621e-01
3.449692e+08 -7.673950e-01 -5.916138e-01 -4.151464e-05 3.311783e-05 -5.362555e-06 3.146939e-05 -1.265869e-01 8.721313e-01
3.451879e+08 -7.660522e-01 -5.911865e-01 -4.070997e-05 -4.886091e-05 -3.175065e-05 1.234934e-06 -1.450195e-01 8.679810e-01
3.454066e+08 -7.650757e-01 -5.913086e-01 -4.491583e-05 3.866851e-05 1.255423e-05 -1.528859e-05 -1.631470e-01 8.653564e-01
3.456254e+08 -7.645264e-01 -5.913696e-01 -1.329090e-05 5.742535e-06 -5.032495e-05 -2.602860e-05 -1.802979e-01 8.646240e-01
3.458441e+08 -7.645874e-01 -5.917969e-01 2.437644e-05 9.946525e-07 -2.033636e-05 4.137307e-05 -1.964111e-01 8.667603e-01
3.460628e+08 -7.632446e-01 -5.915527e-01 -3.929250e-06 2.068235e-06 -8.951873e-06 5.240738e-05 -2.102661e-01 8.698120e-01
3.462816e+08 -7.638550e-01 -5.914307e-01 9.048730e-06 2.913922e-05 -5.391892e-06 2.407469e-06 -2.197876e-01 8.753662e-01
3.465003e+08 -7.629395e-01 -5.921021e-01 2.529100e-05 -2.022833e-06 -1.799688e-05 -1.136959e-05 -2.272949e-01 8.814087e-01
3.467190e+08 -7.615967e-01 -5.917358e-01 9.896234e-06 -2.652779e-05 -6.558374e-06 2.876483e-05 -2.317505e-01 8.837280e-01
3.469378e+08 -7.615967e-01 -5.921021e-01 2.248958e-05 6.997958e-06 -2.398156e-05 4.226342e-06 -2.315063e-01 8.843994e-01
3.471565e+08 -7.606812e-01 -5.921631e-01 2.868287e-05 -7.538125e-06 -4.230067e-06 -2.397038e-05 -2.327881e-01 8.839722e-01
3.473752e+08 -7.608032e-01 -5.921631e-01 -2.792850e-05 -5.388632e-06 2.635084e-05 -2.792850e-05 -2.373047e-01 8.760986e-01
3.475940e+08 -7.595825e-01 -5.931396e-01 -4.816055e-05 2.779812e-05 2.039596e-05 1.678616e-05 -2.426758e-01 8.669434e-01
3.478127e+08 -7.579956e-01 -5.931396e-01 3.597513e-05 -1.515076e-05 1.977757e-05 2.996996e-05 -2.507935e-01 8.574829e-01
3.480314e+08 -7.582397e-01 -5.935059e-01 3.356487e-05 1.375005e-05 -3.599562e-06 -8.098315e-06 -2.623291e-01 8.492432e-01
3.482502e+08 -7.567749e-01 -5.933228e-01 -1.739152e-05 2.417527e-05 -5.388632e-06 -2.667494e-05 -2.772217e-01 8.426514e-01
3.484689e+08 -7.575684e-01 -5.938110e-01 -1.668930e-05 1.127925e-05 6.100163e-07 1.590513e-05 -2.939453e-01 8.389893e-01
3.486876e+08 -7.556763e-01 -5.935669e-01 -1.254678e-05 1.913775e-05 -5.377457e-06 3.147498e-05 -3.100586e-01 8.405762e-01
3.489063e+08 -7.556152e-01 -5.941772e-01 1.300126e-06 -3.581867e-05 1.439825e-05 -2.580322e-05 -3.261108e-01 8.440552e-01
3.491251e+08 -7.546387e-01 -5.942993e-01 7.701106e-06 1.227297e-05 -4.213303e-06 -2.399459e-05 -3.406372e-01 8.487549e-01
3.493438e+08 -7.547607e-01 -5.938110e-01 5.032867e-06 -4.781410e-05 -1.979992e-05 -8.810312e-07 -3.524170e-01 8.577881e-01
3.495625e+08 -7.539673e-01 -5.949097e-01 -1.957268e-05 -5.877018e-05 -2.403744e-06 -5.402137e-06 -3.604736e-01 8.659058e-01
3.497813e+08 -7.529907e-01 -5.954590e-01 1.141801e-05 -2.609007e-05 -1.620501e-05 3.630295e-05 -3.688965e-01 8.757935e-01
3.500000e+08 -7.525635e-01 -5.957031e-01 -1.330674e-05 3.208965e-05 -5.402602e-06 2.401881e-06 -3.729248e-01 8.839722e-01
