!Keysight Technologies,N5245B,MY52501319,Z.13.01.242
!Date: Wednesday, March 26, 2025 08:57:02
!Correction: S11(Full 2 Port(1,2)) 
!S21(Full 2 Port(1,2)) 
!S12(Full 2 Port(1,2)) 
!S22(Full 2 Port(1,2)) 
!S2P File: Measurements: S11, S21, S12, S22:
# Hz S  RI   R 50
10000000 -0.013101071 0.0075161904 0.98810059 -0.0024320579 0.99616361 -0.013070637 0.0094413441 -0.017207759
39950000 0.00085756805 -0.0079990467 0.99793953 -0.018956235 0.99788618 -0.019277573 0.0013918382 0.0048649036
69900000 0.00013903053 -0.00020064545 1.0018492 -0.041069027 0.99662739 -0.042414058 -0.0023028511 -0.00027359731
99850000 -0.00034693745 -4.3410884e-005 1.0004126 -0.060851596 0.99791574 -0.058966242 0.00063676364 0.0031657149
129800000 -0.0022681572 0.00062792219 0.99447757 -0.081965171 0.99508554 -0.079906464 0.0034772011 -0.0016877633
159750000 0.001604684 0.0037665421 0.99630171 -0.095038615 0.99679327 -0.094985388 -0.0015298788 -0.00078789203
189700000 0.00099359162 0.003226602 0.99119365 -0.11404812 0.99193066 -0.11177025 0.0018088605 0.0045994329
219650000 0.00025096087 0.0011730994 0.99290174 -0.12991898 0.98946059 -0.13139927 0.0042006262 0.002624799
249600000 0.002436094 -3.0901723e-005 0.99217838 -0.14834426 0.98984468 -0.14967693 0.0012520525 0.0023990083
279550000 -0.0001758735 0.00020028459 0.98352003 -0.16837767 0.98337662 -0.16813177 0.0033538062 0.00087491516
309500000 0.003078382 0.0013736705 0.98260945 -0.18398793 0.97914654 -0.18376863 -0.00096752116 0.0044294568
339450000 0.00082059111 -8.8532179e-005 0.97935778 -0.20399302 0.97644681 -0.19946535 0.00056429789 0.0017205129
369400000 0.0023981519 -0.00063030631 0.97402817 -0.21922243 0.97440988 -0.21954671 0.0031943067 0.0013158609
399350000 0.00095118984 0.0030648492 0.97051936 -0.23800443 0.96885043 -0.23858121 0.0020427459 -0.00027976706
429300000 0.0025300316 -0.0029617625 0.96627438 -0.25468513 0.96806401 -0.25179955 0.0035220832 0.0052948226
459250000 -0.0018274379 0.0024155597 0.96192318 -0.26955754 0.96080178 -0.27325249 0.0037971379 -0.0029529242
489200000 0.0003148579 0.0045063361 0.95416516 -0.2883597 0.9573915 -0.2874794 0.0030479177 0.00024715706
519150000 0.0021613098 0.0025516744 0.95040351 -0.30706233 0.95126593 -0.30519313 0.00053726358 0.0020810447
549100000 0.0021058326 0.0006453555 0.9440527 -0.32347152 0.9453916 -0.32068241 0.0024554648 0.0016654935
579050000 0.0024213635 -2.7505361e-005 0.93933856 -0.33801374 0.93837816 -0.3388671 0.00058807415 0.00081907172
609000000 0.0026931535 0.00035929255 0.93224806 -0.35629705 0.93387383 -0.35642377 0.0013117834 -0.00060326391
638950000 0.0023683032 -0.00050722813 0.92486238 -0.37295699 0.92597657 -0.37053645 0.002605953 0.002725634
668900000 0.0024232303 0.00019210618 0.91926926 -0.38753128 0.92006075 -0.3900803 0.00218197 0.0025101146
698850000 0.00066584384 0.0010782982 0.91336793 -0.40494892 0.9108994 -0.40620443 0.0043821111 -0.00028689939
728800000 0.0042448128 -8.2438391e-006 0.90554035 -0.42168227 0.90467608 -0.41967213 0.0024656367 -0.00023387493
758750000 0.0029135118 0.00022826655 0.89705825 -0.43707934 0.89602238 -0.43879542 0.0019131926 0.0019341856
788700000 0.0024150696 0.0014769711 0.88980144 -0.45413169 0.88770062 -0.4544346 0.0045690178 0.00096640852
818650000 0.0030282685 0.0012810861 0.87996566 -0.46836478 0.88130462 -0.46863022 0.0030556642 -0.00051936746
848600000 0.0030753803 0.0034719352 0.87254816 -0.48505655 0.87220973 -0.48434201 0.0012354424 -0.0030370464
878550000 0.0026135324 0.00062860583 0.86300075 -0.50013 0.8641485 -0.50157583 0.0031978942 -0.0022293734
908500000 0.0025404 0.0010707123 0.85424227 -0.51610219 0.85462922 -0.51436955 0.0037026443 0.0003256753
938450000 0.0013510863 0.00067336159 0.84538519 -0.53322208 0.8440004 -0.53078049 0.004553155 -0.0006559061
968400000 -0.00013882045 -0.00060781883 0.83432829 -0.54512066 0.83556098 -0.54569519 0.0033768343 -0.0013311503
998350000 0.0011244187 0.00012395919 0.82478988 -0.56146538 0.82606542 -0.56143236 0.0026953053 -0.00039819814
1028300000 0.0026039225 0.00023151384 0.81447434 -0.57593793 0.81546366 -0.57458544 0.0027583339 -0.00073498412
1058250000 0.0020788612 -0.0010614764 0.80378354 -0.58749932 0.80466467 -0.59115696 0.0040863287 -0.00065932801
1088200000 0.00087282254 0.00076531322 0.79384327 -0.60372835 0.79317623 -0.60394824 0.0018834844 -0.00079751579
1118150000 0.0013397855 -3.8196726e-005 0.78398889 -0.61926627 0.78252929 -0.61812919 0.0038226855 -0.0002247776
1148100000 0.004537452 -0.00099926034 0.77039254 -0.63119674 0.77139634 -0.63229132 0.0031607389 -0.00010265726
1178050000 0.0036667411 2.7452916e-005 0.7607736 -0.64388192 0.76043707 -0.64554048 0.0019443791 -0.0023052387
1208000000 0.003473836 0.00066771486 0.74832338 -0.65961903 0.74889755 -0.66015196 0.0019356136 -0.00075328618
1237950000 0.0022597017 0.00041534184 0.7367484 -0.67209303 0.73717552 -0.67131412 0.0025603687 -0.0024761173
1267900000 0.0019091967 -0.00018525749 0.72569573 -0.68485951 0.72496939 -0.68662196 0.0023314322 -0.00072322699
1297850000 0.0011603299 -0.0012379522 0.7122764 -0.69875664 0.71161264 -0.69908017 0.001930445 0.00033374535
1327800000 0.0022425191 -2.3481773e-006 0.69993466 -0.71056587 0.69855702 -0.71011156 0.0033089316 -0.0024855295
1357750000 0.00088675483 -0.00098428607 0.68758059 -0.72286713 0.68687695 -0.72393411 0.0025639539 -0.0025069343
1387700000 0.0027928569 -0.00036730457 0.67318416 -0.73477596 0.67341691 -0.7353406 0.003056854 -0.00091473502
1417650000 0.0013481055 -0.00038048803 0.6602211 -0.7464667 0.66024005 -0.74719727 0.0026796111 -0.00095225492
1447600000 0.0016875764 -0.001085716 0.64653623 -0.7595396 0.64703023 -0.75823045 0.0027964399 -0.00072207098
1477550000 0.0015355314 0.00014610821 0.63261557 -0.76986897 0.63361365 -0.76981896 0.0021711057 -0.0011541458
1507500000 0.0029253967 -0.0019108279 0.62002903 -0.78156489 0.61998814 -0.78028899 0.001445405 -0.0015174716
1537450000 0.0019532351 -3.6528487e-005 0.60535431 -0.79175508 0.60641515 -0.79251659 0.002463531 -0.00091490679
1567400000 0.0021714245 -0.00045120646 0.59040141 -0.80256605 0.58995086 -0.80365258 0.0023383533 -0.0018674801
1597350000 0.0041183005 -0.0021417411 0.57742798 -0.81301975 0.57574415 -0.8124069 0.0030840607 -0.0013760307
1627300000 0.0011051252 -0.0010589366 0.56105423 -0.82289743 0.5622685 -0.82349718 -0.00013122591 -0.0020553046
1657250000 0.0018645631 -0.00098760717 0.54773599 -0.83302867 0.54679912 -0.83372039 0.0034880624 -0.003288876
1687200000 0.0025180215 0.00030879347 0.53181136 -0.84155983 0.53377205 -0.84307557 0.0034898371 -0.0010809224
1717150000 0.00025185221 -0.0016219496 0.51634896 -0.85317999 0.51707989 -0.85325354 0.0026442204 -0.00089031266
1747100000 0.0026178712 -0.00033560075 0.50296676 -0.86060798 0.5025214 -0.8609615 0.0032449302 -0.0033603257
1777050000 0.0020534201 0.0010788182 0.48798415 -0.86977524 0.48612177 -0.87030071 0.0016350772 -0.0034777538
1807000000 0.00014575695 -0.0010701314 0.46968415 -0.87923789 0.47036481 -0.87808049 0.0049654678 -0.0038613274
1836950000 0.0025547796 -0.00036422329 0.45649526 -0.88692701 0.45404884 -0.88608801 0.0026958892 -0.0035274082
1866900000 0.0013652291 -0.0016757614 0.44017044 -0.89464283 0.43787938 -0.89353156 0.00047772707 -0.0043590581
1896850000 0.0013107054 -0.00082162197 0.4231779 -0.90146089 0.4238705 -0.90311587 0.0037108059 -0.0033780038
1926800000 -0.0004092787 -0.0014969119 0.40751472 -0.90857124 0.40715754 -0.90967804 0.00327833 -0.0013950606
1956750000 0.0015936329 -0.00078778714 0.39124969 -0.91892928 0.38970202 -0.91496265 0.00055442838 -0.0026307385
1986700000 0.0026903688 -0.0011573152 0.37312624 -0.92410648 0.37510189 -0.92320222 -4.7924266e-005 -0.0035611363
2016650000 0.0012034099 -0.0020451921 0.35854709 -0.93095428 0.35997221 -0.93028593 0.0027849919 -0.0048150481
2046600000 0.0001190203 -0.00051836018 0.34051728 -0.93755496 0.33950818 -0.93633342 0.0011685911 -0.0029410899
2076550000 0.0011387173 -0.00023795612 0.32635349 -0.94306165 0.32360545 -0.94283962 0.00063850399 -0.0025458285
2106500000 0.0019402427 -0.0021953729 0.30780476 -0.94833285 0.3070989 -0.94741517 8.8533117e-005 -0.0014438826
2136450000 0.0017634188 -0.00028234476 0.28970003 -0.95226187 0.28947547 -0.95211685 0.00011235379 -0.0018838225
2166400000 0.0010141759 -0.00046853724 0.27157816 -0.959499 0.27356663 -0.95656037 0.0021988431 -0.0029229149
2196350000 0.0010057247 -0.0014248503 0.25501171 -0.96339989 0.25446206 -0.96285605 0.00030316619 -0.0035438465
2226300000 0.0013953091 -0.0017935944 0.23854586 -0.96670526 0.23903267 -0.96824199 0.0025258695 -0.0043943319
2256250000 0.00019920316 -0.00030409571 0.22373176 -0.97119033 0.21989347 -0.97262043 0.00090137107 -0.0036382042
2286200000 0.00070705725 0.00023319157 0.20552206 -0.97464013 0.20450133 -0.97270221 0.0012980381 -0.0028858483
2316150000 -8.0522237e-005 -0.00030519546 0.18543877 -0.97797275 0.18685424 -0.97787565 0.001773407 -0.0037244922
2346100000 -0.00036162778 0.00013814401 0.16985817 -0.98198754 0.16850437 -0.98185658 0.0012438881 -0.0030909858
2376050000 -0.001481649 -0.0015338938 0.15203665 -0.98367 0.15083422 -0.9841463 0.00057898258 -0.0034525292
2406000000 -0.00083046261 0.0003258216 0.13425377 -0.98591506 0.13418101 -0.98789626 -0.00087856618 -0.004030623
2435950000 -0.00039306993 -0.0016462981 0.11580394 -0.98824954 0.11697763 -0.9906283 0.00090429717 -0.0029755738
2465900000 0.00058116572 -0.0018387019 0.098816045 -0.99169445 0.098191224 -0.99220431 -0.0010707224 -0.0032050528
2495850000 -0.0013452722 -0.00072647294 0.079816967 -0.99156928 0.081683084 -0.99376804 -3.3169268e-005 -0.0042871968
2525800000 -0.0012733403 -0.0010974414 0.062495116 -0.99310136 0.06342081 -0.99353254 -0.00075497769 -0.0025222178
2555750000 -0.00061488012 -0.0018241762 0.045932699 -0.99649662 0.044399273 -0.99345094 0.00056626793 -0.00028095118
2585700000 -0.00027610839 5.5156182e-005 0.028013391 -0.99568236 0.026426958 -0.99503338 -0.0012095622 -0.00359646
2615650000 0.00018747761 0.00030953204 0.0088508362 -0.99501079 0.0098377159 -0.99606258 -0.00019997358 -0.0017927837
2645600000 -0.0013674917 -0.0003759813 -0.0078465203 -0.99486309 -0.0080547407 -0.99553519 -9.7169977e-005 -0.0027091724
2675550000 -0.0015007192 -0.00031705265 -0.025982443 -0.99383289 -0.025213972 -0.99725491 -0.00010196098 -0.0042811162
2705500000 0.00028268871 0.00023780843 -0.04157465 -0.99474239 -0.043613248 -0.99426711 0.00035988729 -0.0020384868
2735450000 -0.00014754335 -0.0017283343 -0.0615725 -0.99357557 -0.060665153 -0.99354714 0.00011782251 -0.0013215574
2765400000 -0.00085841236 -0.00073160836 -0.079046763 -0.99288148 -0.079672523 -0.9918381 0.00077865069 -0.002897884
2795350000 -0.00051057152 0.00061304774 -0.09631639 -0.99008387 -0.095684744 -0.99239242 -0.00082395808 -0.0042895158
2825300000 -0.00071868254 -0.00026720908 -0.11319017 -0.98943919 -0.11485151 -0.98820966 -0.001566006 -0.0026757424
2855250000 0.00056955422 0.0016663638 -0.13227396 -0.98712969 -0.13171551 -0.98738182 -0.0023015549 -0.0046318928
2885200000 0.00014715655 -0.00030212835 -0.14994551 -0.98552597 -0.14951821 -0.98550123 -0.001259523 -0.0031742684
2915150000 -0.0014405283 -0.00092552783 -0.16591749 -0.98359543 -0.16683131 -0.98204356 -0.0034256577 -0.00029888732
2945100000 0.00010605387 0.0029281497 -0.18355472 -0.97902268 -0.1847959 -0.97935116 -0.0034625297 -0.0026457827
2975050000 -0.00049480255 0.00045817214 -0.20117605 -0.97379369 -0.20304206 -0.97625518 -0.00022941918 -0.0030455606
3005000000 0.0005472842 0.0005482196 -0.21703948 -0.96922612 -0.22079535 -0.97072035 -0.0021438904 -0.0017136105
3034950000 0.00086768367 0.0017771568 -0.23653376 -0.96515292 -0.23819132 -0.9663856 -0.00051650783 -0.0019616541
3064900000 -0.00021513966 0.002125409 -0.25269106 -0.96243322 -0.25575104 -0.96309155 -0.0029405761 -0.002816611
3094850000 0.00056873332 -0.0016557829 -0.26960656 -0.95975709 -0.27130774 -0.95816892 -0.0025503614 -0.0033067081
3124800000 -5.2406944e-005 0.00051056652 -0.28801835 -0.9524827 -0.28835946 -0.95295936 -0.0026428893 -0.0023590673
3154750000 -0.0019043169 0.00031960936 -0.30431774 -0.94742131 -0.30535623 -0.94746453 -0.00044560104 -0.0017679548
3184700000 -0.00087042304 -3.9682647e-005 -0.32159612 -0.94170105 -0.32280418 -0.94253951 -0.0014974053 -0.0008874989
3214650000 -0.0009632397 0.0011459553 -0.33761033 -0.93678254 -0.3379688 -0.93622392 -0.0023524205 -0.0013606192
3244600000 -0.00093603914 0.00029374968 -0.35273409 -0.93001091 -0.3559716 -0.930013 -0.00063883653 -0.0027141219
3274550000 0.0004369253 0.0023316585 -0.3722665 -0.92314196 -0.37173304 -0.92420506 -0.0016148097 -0.0012227565
3304500000 -0.0013392549 0.00015885755 -0.38872463 -0.91611844 -0.3874101 -0.91543847 -0.0010880602 -0.0017816799
3334450000 -4.4397253e-005 0.0020942085 -0.40578124 -0.91017258 -0.4044722 -0.90839779 -0.0045958296 -0.00130933
3364400000 0.00086911046 0.002582093 -0.42097476 -0.90286791 -0.42207289 -0.90242136 -0.0013242883 -0.00071803585
3394350000 -0.0024806967 0.00096631318 -0.4366053 -0.89691746 -0.43681827 -0.89289069 -0.0018460116 0.0016309107
3424300000 0.0016088813 0.0017308993 -0.45239443 -0.8859455 -0.45218155 -0.88527107 -0.0009692976 0.001779594
3454250000 -0.0016417356 0.00059024669 -0.46934634 -0.87664908 -0.46759474 -0.87810749 -0.0022535913 -0.00087223609
3484200000 0.00043627564 0.0019771995 -0.48382965 -0.87016493 -0.48382634 -0.86921304 -0.0034408523 0.00016207466
3514150000 -0.0014917928 0.00015759336 -0.49920145 -0.86116111 -0.49939302 -0.8623817 -0.0017839697 -0.0015653642
3544100000 -0.00091889658 0.0034514843 -0.5134241 -0.85121113 -0.51561046 -0.85100585 -0.0022509627 -0.0020389985
3574050000 0.00013656108 0.0025976845 -0.53018159 -0.8418045 -0.52901304 -0.84369749 -0.0025377213 0.0021352253
3604000000 -0.00035519226 0.0020777669 -0.54452991 -0.83327836 -0.54588765 -0.83359891 -0.0010992178 -0.0009312589
3633950000 -0.0014220703 0.00039644932 -0.56014031 -0.82360256 -0.55816215 -0.8236509 -0.0021785132 -0.0011456211
3663900000 0.00080085977 0.0026869918 -0.57389528 -0.81242007 -0.57427824 -0.8132261 -0.001992933 0.00087838602
3693850000 -0.0015267123 0.0029571566 -0.5892899 -0.802477 -0.58944148 -0.80348986 -0.00012571079 0.00093243766
3723800000 -0.00036010277 0.0020818966 -0.60350531 -0.79242766 -0.60286057 -0.79134607 -0.0025245494 -0.00011204188
3753750000 -0.0018692688 0.0031773164 -0.61774713 -0.78091967 -0.61718446 -0.77965146 -0.0026409957 -0.00046881539
3783700000 -0.00087782199 0.00043150265 -0.63025856 -0.76958168 -0.63113016 -0.77020609 -0.0018397816 0.0011720969
3813650000 -0.0011194902 0.00032495987 -0.64492607 -0.760019 -0.64502323 -0.75752556 -0.0027293011 0.0014072978
3843600000 -0.0010763851 0.0015260904 -0.65677965 -0.74598628 -0.65819317 -0.74715245 -0.0033230027 0.00062306452
3873550000 7.8026387e-005 0.0017946335 -0.66787773 -0.73469085 -0.67136776 -0.73516452 -0.0028403027 0.00047692074
3903500000 -0.00039741397 0.0039002053 -0.68374389 -0.72246075 -0.68568718 -0.72451007 -0.0024467849 0.0013786003
3933450000 0.00044367815 0.0029349616 -0.69520694 -0.70970082 -0.69631654 -0.71092051 -0.0022088408 0.0014325072
3963400000 -0.0014189098 0.0027772349 -0.70743418 -0.69890606 -0.70938605 -0.69775265 -0.00099944742 0.0013126199
3993350000 0.0006210276 0.0031986446 -0.72241509 -0.68564242 -0.7221247 -0.68358386 -0.002914601 0.0014947333
4023300000 0.00018100576 0.0032118838 -0.73445553 -0.6719746 -0.73356348 -0.67479682 -0.0017251882 0.0021817295
4053250000 0.0012596765 0.0023225793 -0.7430526 -0.65988666 -0.74516088 -0.65932608 -0.0020398211 0.0035978456
4083200000 -0.00083265005 0.0045697228 -0.7571491 -0.64438492 -0.75793767 -0.64584887 0.0014822892 0.0016556211
4113150000 0.0012615192 0.0043196147 -0.76804709 -0.6317156 -0.76909 -0.63215214 -0.0031468493 0.0022906722
4143100000 0.0010282784 0.0041157557 -0.77898568 -0.61822432 -0.78049612 -0.61805934 -0.00090932625 0.0027988646
4173050000 0.0028330276 0.002917758 -0.79198158 -0.6050778 -0.78995681 -0.60433352 -0.002519978 0.0021804054
4203000000 -0.0023213709 0.0037708166 -0.79848468 -0.59155434 -0.80066019 -0.58997095 -0.003921418 0.0027565768
4232950000 -0.00024406813 0.003548722 -0.81097132 -0.57647759 -0.81284881 -0.57549191 -0.00089082232 0.0035110533
4262900000 -0.00077630719 0.0026877397 -0.82159621 -0.56196719 -0.82270652 -0.55919808 -0.0029762506 0.0028299633
4292850000 -0.00038751549 0.0055685802 -0.83243233 -0.54636985 -0.83098489 -0.54491383 -0.00068511482 0.00095753529
4322800000 0.0013147843 0.0026288803 -0.84037668 -0.5316233 -0.8414883 -0.53114522 -0.00071630278 0.0025443668
4352750000 0.00049629417 0.0062067015 -0.84905082 -0.51765597 -0.85088789 -0.5165723 -0.00043594089 0.004128437
4382700000 0.0029701728 0.0037961008 -0.85965097 -0.50294352 -0.86035228 -0.50040251 6.2610248e-005 0.0028394908
4412650000 -0.00028845516 0.0042558294 -0.86903709 -0.48456952 -0.86939359 -0.48570913 -0.0018145342 0.0043288595
4442600000 0.00048520253 0.0017434353 -0.87761009 -0.46905124 -0.87808049 -0.47047326 0.00099068205 0.0011605331
4472550000 0.00031458063 0.0023002559 -0.88473839 -0.45387018 -0.88580567 -0.45354462 0.00083374005 0.0045809373
4502500000 0.0020708391 0.0035526 -0.89361703 -0.43782026 -0.89197505 -0.43655115 0.00042940708 0.0037097638
4532450000 0.0016488703 0.0037272309 -0.90038973 -0.41954848 -0.90017724 -0.4214316 0.0015280476 0.0041737701
4562400000 0.0016740173 0.002406464 -0.90746844 -0.4068684 -0.90714097 -0.40493086 0.00023403396 0.0011319629
4592350000 0.0008373622 0.0030487601 -0.91796696 -0.38863251 -0.91449505 -0.38796633 0.00036070976 0.0026744772
4622300000 0.00086305372 0.0037765217 -0.92155552 -0.37306061 -0.92157871 -0.3728835 -0.00063528144 0.0044840355
4652250000 0.0018193756 0.0046431008 -0.9286536 -0.3587265 -0.92967415 -0.35660174 -0.00044428094 0.0054573193
4682200000 0.0011865043 0.0047977264 -0.93608236 -0.33983538 -0.93262267 -0.34103405 0.00082071242 0.0063104569
4712150000 0.0020366227 0.0035011284 -0.9400807 -0.32523447 -0.94088328 -0.32288033 0.00092768128 0.0041918135
4742100000 0.0036369404 0.005455099 -0.94601494 -0.30636102 -0.94793069 -0.30533683 0.00072373461 0.0059841746
4772050000 0.0031799851 0.0041169547 -0.9519242 -0.29062307 -0.95150441 -0.28977737 0.00047121645 0.0048131044
4802000000 0.0014575237 0.0068419124 -0.95673954 -0.27290073 -0.95572603 -0.27182117 0.0021112349 0.0056470502
4831950000 0.0025941136 0.0046447068 -0.96071339 -0.25452563 -0.9612205 -0.2542724 0.0014364362 0.0054811244
4861900000 0.0013572687 0.005564502 -0.96354854 -0.23844798 -0.96624953 -0.23680362 0.00073557725 0.0049671214
4891850000 0.0020379771 0.0039282818 -0.97185719 -0.22008678 -0.97024745 -0.22135647 0.0019000544 0.0043666312
4921800000 0.0030350976 0.0034378674 -0.97335494 -0.20403077 -0.9741267 -0.20397933 0.0025035238 0.0041979826
4951750000 0.0031810207 0.0033575776 -0.97766846 -0.18585721 -0.97741973 -0.18522941 0.0012880053 0.0044339397
4981700000 0.0034918783 0.0044388673 -0.97990704 -0.1700369 -0.98158056 -0.16878296 0.002443386 0.0048149461
5011650000 0.0035482524 0.004453667 -0.98223644 -0.15212525 -0.98382467 -0.1510115 0.0035544455 0.0034741603
5041600000 0.0031139846 0.0039112661 -0.98549026 -0.13504925 -0.98448753 -0.13238734 0.0029664959 0.0050616767
5071550000 0.0032719767 0.0042018523 -0.98699325 -0.11658687 -0.98908937 -0.1170454 0.0038059773 0.0050504915
5101500000 0.002973777 0.004676532 -0.98952854 -0.099772267 -0.9913798 -0.098471351 0.002696451 0.00448529
5131450000 0.0030728835 0.0054729907 -0.99136525 -0.079789236 -0.99045527 -0.080453046 0.002675731 0.0046995515
5161400000 0.0042863651 0.0040615969 -0.99332201 -0.064111739 -0.99144483 -0.062773749 0.0034115526 0.0051223766
5191350000 0.0036187281 0.004321882 -0.99478823 -0.045616128 -0.99350786 -0.043172307 0.0035532473 0.0038544775
5221300000 0.003872904 0.0037078711 -0.99417293 -0.028094716 -0.99412906 -0.026331104 0.0038830808 0.0033516472
5251250000 0.0036400924 0.0046596308 -0.9935168 -0.0088197272 -0.99453264 -0.0091026286 0.004104482 0.004102611
5281200000 0.004016296 0.0057419986 -0.99468374 0.0077766469 -0.99632645 0.0081294924 0.0040335511 0.0046355259
5311150000 0.0034147373 0.0045288429 -0.99341267 0.025342349 -0.99596483 0.025331259 0.0031250303 0.0033014133
5341100000 0.0046017664 0.0049408153 -0.99353516 0.042005002 -0.99287683 0.043630976 0.0054040896 0.0034329738
5371050000 0.0044983346 0.0027136155 -0.99236959 0.061782841 -0.99255615 0.062050052 0.0041302633 0.0060421056
5401000000 0.0057716686 0.0042224238 -0.99038899 0.077657141 -0.99391049 0.079559192 0.0038617908 0.0039579924
5430950000 0.0061613284 0.0036514129 -0.99024934 0.095708653 -0.99215317 0.096831448 0.0030828747 0.003696112
5460900000 0.0054120123 0.0053613218 -0.98778236 0.11411934 -0.9881534 0.11469369 0.0025691688 0.0028643257
5490850000 0.0063310196 0.0036497777 -0.98650461 0.13268673 -0.98677617 0.13199569 0.0037684452 0.0018615089
5520800000 0.0065518748 0.0029431786 -0.98385304 0.14865486 -0.98350829 0.14869659 0.0027568119 0.0022920982
5550750000 0.0063016028 0.0043942849 -0.98139846 0.16847099 -0.97989482 0.16823383 0.0048441701 0.0041764886
5580700000 0.0051715313 0.0037657267 -0.97579646 0.18339567 -0.97819698 0.18473703 0.0050573107 0.0041928198
5610650000 0.0059170541 0.003568138 -0.97528803 0.20210697 -0.97318131 0.20220275 0.0054363962 0.0022341553
5640600000 0.0073875277 0.0048766178 -0.97103119 0.21638499 -0.97086698 0.22091545 0.0049673379 0.0027145555
5670550000 0.0058980118 0.0037001504 -0.9678942 0.23727609 -0.96557093 0.2356455 0.0048741023 0.0041809008
5700500000 0.0066964421 0.00509489 -0.96294397 0.25265193 -0.9609431 0.25326192 0.0036577536 0.0045573129
5730450000 0.0061057494 0.0039722151 -0.95756125 0.27072003 -0.95586276 0.2702933 0.0029845797 0.0034105196
5760400000 0.0088930102 0.0017804614 -0.95284772 0.2883431 -0.95145053 0.28872746 0.0072183069 0.0036989332
5790350000 0.0058335233 0.0017748666 -0.94768786 0.30500099 -0.94693345 0.30478245 0.0053130616 0.0031415836
5820300000 0.0081685539 0.0015216817 -0.94062036 0.32157934 -0.94139129 0.32198876 0.0074054329 0.003128795
5850250000 0.0075118747 0.0014931407 -0.93577754 0.33610719 -0.93494511 0.34082401 0.0051016938 0.0033122378
5880200000 0.0076780315 0.0040255599 -0.92894059 0.35387549 -0.92907745 0.35597229 0.0064174864 0.0057491502
5910150000 0.0088256188 0.0012963936 -0.92352456 0.37197384 -0.92232311 0.37309098 0.0074821175 0.0028030979
5940100000 0.0052630287 0.0027197381 -0.91470867 0.38790777 -0.91318923 0.38787204 0.003983282 0.0029103595
5970050000 0.0084284116 0.0029340873 -0.90827173 0.40372813 -0.9069562 0.40410849 0.0083180554 0.004384343
6000000000 0.0068772286 0.0025562623 -0.90042162 0.41923958 -0.90129745 0.42032859 0.0066752676 0.0028854096
