# Hz S RI R 50
! RAW DATA - UNCALIBRATED
1.500000e+06 3.761768e-03 -2.727985e-03 5.279202e-06 4.273839e-06 1.271535e-05 6.090850e-06 9.776001e-01 -2.093506e-02
1.717812e+06 3.114939e-03 -3.424883e-03 -2.380461e-06 -2.464652e-05 -1.735333e-05 4.842877e-08 9.769287e-01 -1.989746e-02
1.935625e+06 2.561331e-03 -3.664494e-03 -5.421229e-06 -5.430076e-06 8.552801e-06 2.725981e-06 9.761353e-01 -1.806641e-02
2.153438e+06 1.983404e-03 -3.786325e-03 7.326715e-06 -2.346002e-06 4.602131e-06 -6.631948e-06 9.755859e-01 -1.495361e-02
2.371250e+06 1.453161e-03 -3.851652e-03 9.080395e-09 3.470806e-06 -2.197282e-10 -1.047198e-10 9.766846e-01 -1.098633e-02
2.589062e+06 9.837151e-04 -3.866434e-03 1.279917e-05 -8.961186e-06 -2.188049e-05 8.301809e-06 9.758911e-01 -5.798340e-03
2.806875e+06 5.748272e-04 -3.720522e-03 2.313219e-05 3.661960e-06 -8.367002e-06 -2.087001e-05 9.763184e-01 -2.868652e-03
3.024688e+06 2.143383e-04 -3.582239e-03 -1.672562e-05 1.320802e-05 -4.794449e-06 -1.212209e-05 9.763794e-01 1.403809e-03
3.242500e+06 -7.486343e-05 -3.459454e-03 -4.907697e-05 2.928451e-05 1.429860e-05 1.342967e-06 9.776001e-01 5.920410e-03
3.460312e+06 -3.488064e-04 -3.268719e-03 -2.547354e-05 -1.221709e-05 8.498318e-06 -1.252349e-05 9.803467e-01 1.293945e-02
3.678125e+06 -6.217957e-04 -3.101349e-03 4.928559e-06 -4.089251e-05 -1.286343e-05 1.067109e-05 9.797363e-01 1.171875e-02
3.895938e+06 -7.927418e-04 -2.907515e-03 1.364760e-05 7.171184e-06 -1.276657e-05 2.013426e-05 9.792480e-01 1.373291e-02
4.113750e+06 -9.911060e-04 -2.761364e-03 -1.719780e-05 1.431443e-06 -7.618684e-06 1.219101e-06 9.789429e-01 1.367188e-02
4.331562e+06 -1.136780e-03 -2.549171e-03 -1.790933e-05 1.737010e-05 -3.671739e-06 -9.778421e-06 9.792480e-01 1.525879e-02
4.549375e+06 -1.287937e-03 -2.386093e-03 -2.053194e-05 -8.458272e-06 -2.002344e-05 -8.922070e-06 9.787598e-01 1.586914e-02
4.767188e+06 -1.401305e-03 -2.228737e-03 1.312234e-06 3.221678e-06 1.140870e-06 -1.436472e-05 9.780273e-01 1.770020e-02
4.985000e+06 -1.485467e-03 -2.022386e-03 -2.192892e-05 -4.362315e-06 -7.024501e-06 -5.085487e-06 9.786377e-01 2.014160e-02
5.202812e+06 -1.619339e-03 -1.876473e-03 -1.744926e-05 -1.268461e-06 3.925525e-06 -1.788512e-05 9.781494e-01 2.117920e-02
5.420625e+06 -1.669526e-03 -1.675844e-03 -7.100869e-06 -3.317837e-06 7.714611e-06 -2.759043e-06 9.790649e-01 2.148438e-02
5.638438e+06 -1.731038e-03 -1.499891e-03 2.167188e-06 1.249462e-05 -2.728542e-06 -9.967480e-07 9.788208e-01 2.410889e-02
5.856250e+06 -1.790047e-03 -1.351595e-03 2.324348e-06 -2.650078e-06 4.692934e-06 -6.267335e-06 9.794922e-01 2.545166e-02
6.074062e+06 -1.846671e-03 -1.197457e-03 -1.311302e-06 7.779803e-06 -9.655487e-07 -3.106892e-06 9.790649e-01 2.685547e-02
6.291875e+06 -1.838684e-03 -1.031995e-03 -6.752089e-06 -1.634099e-05 -2.324581e-06 -8.923467e-06 9.804077e-01 2.807617e-02
6.509688e+06 -1.864552e-03 -8.866787e-04 1.527555e-05 -1.637079e-05 -6.978866e-06 9.013340e-06 9.804688e-01 2.935791e-02
6.727500e+06 -1.907468e-03 -7.466078e-04 2.238899e-06 -6.738584e-06 1.675449e-06 1.156423e-05 9.816284e-01 3.155518e-02
6.945312e+06 -1.883149e-03 -6.014109e-04 -5.684793e-06 -2.317876e-05 -4.222617e-06 7.111114e-06 9.824219e-01 3.338623e-02
7.163125e+06 -1.888275e-03 -4.280806e-04 1.413003e-05 1.722947e-06 -5.772803e-06 9.869691e-06 9.829712e-01 3.411865e-02
7.380938e+06 -1.903653e-03 -2.877712e-04 -5.476177e-07 2.139807e-05 -2.575223e-06 -2.021552e-06 9.843750e-01 3.613281e-02
7.598750e+06 -1.851797e-03 -1.430511e-04 -6.890390e-06 4.034024e-06 3.269175e-06 -2.312008e-07 9.851685e-01 3.723145e-02
7.816562e+06 -1.813293e-03 -3.266335e-05 -3.531575e-06 5.634502e-07 1.056911e-05 -3.925525e-07 9.862671e-01 3.808594e-02
8.034375e+06 -1.802683e-03 1.168251e-04 5.204696e-06 -8.685514e-06 5.391659e-06 -2.754387e-06 9.876099e-01 3.955078e-02
8.252188e+06 -1.739860e-03 2.405643e-04 -1.693983e-05 5.835667e-06 -2.833083e-06 1.563877e-05 9.884033e-01 4.058838e-02
8.470000e+06 -1.725197e-03 3.433228e-04 -8.722767e-06 -1.969934e-05 -1.010904e-05 3.170688e-06 9.901123e-01 4.125977e-02
8.687812e+06 -1.660705e-03 4.807711e-04 -2.303906e-05 -1.191907e-05 -7.378869e-06 1.629908e-05 9.916382e-01 4.119873e-02
8.905625e+06 -1.649737e-03 5.974770e-04 1.912937e-06 -9.997748e-06 -1.215190e-05 6.685033e-06 9.916382e-01 4.211426e-02
9.123438e+06 -1.547575e-03 6.979704e-04 -1.744740e-05 -4.512258e-06 3.013294e-06 -6.709248e-06 9.932251e-01 4.467773e-02
9.341250e+06 -1.485705e-03 7.926226e-04 -1.792610e-05 2.049841e-06 3.188616e-06 4.238449e-06 9.943848e-01 4.449463e-02
9.559062e+06 -1.427412e-03 8.984804e-04 2.937391e-06 7.518567e-06 -2.844492e-06 -7.629860e-07 9.948730e-01 4.431152e-02
9.776875e+06 -1.353264e-03 1.017213e-03 8.847564e-06 -1.142919e-05 1.682620e-05 6.129034e-06 9.956665e-01 4.492188e-02
9.994688e+06 -1.287341e-03 1.091242e-03 -1.811609e-05 -2.500415e-05 -2.346933e-06 -6.148592e-06 9.974365e-01 4.595947e-02
1.021250e+07 -1.192153e-03 1.200140e-03 -1.898408e-05 -1.050998e-05 -5.956274e-06 2.789777e-06 9.978638e-01 4.608154e-02
1.043031e+07 -1.134992e-03 1.238465e-03 9.406358e-07 -1.943205e-05 -3.110617e-07 -5.885493e-06 9.974365e-01 4.473877e-02
1.064812e+07 -1.024604e-03 1.348734e-03 -8.372590e-06 1.234375e-05 -6.185845e-06 9.689480e-06 9.990234e-01 4.504395e-02
1.086594e+07 -9.386539e-04 1.416802e-03 -8.925330e-06 5.004462e-06 -8.635223e-06 1.811888e-06 9.991455e-01 4.675293e-02
1.108375e+07 -8.615255e-04 1.517773e-03 -1.623482e-05 2.635643e-05 8.458737e-06 -2.482906e-06 1.000610e+00 4.577637e-02
1.130156e+07 -7.412434e-04 1.569033e-03 4.156027e-07 -3.596768e-06 -6.654300e-06 7.276889e-06 1.000122e+00 4.656982e-02
1.151938e+07 -6.511211e-04 1.623988e-03 5.038455e-07 -1.448020e-05 2.597808e-06 2.014218e-06 1.000183e+00 4.705811e-02
1.173719e+07 -5.329847e-04 1.690388e-03 -2.157688e-05 4.604459e-06 9.897165e-06 1.124758e-05 1.002319e+00 4.766846e-02
1.195500e+07 -4.405975e-04 1.742125e-03 -1.519732e-05 2.389960e-05 6.503426e-06 -9.392388e-07 1.001587e+00 4.711914e-02
1.217281e+07 -3.182888e-04 1.790643e-03 3.042631e-06 1.419522e-05 -4.916452e-06 7.878523e-06 1.002686e+00 4.797363e-02
1.239062e+07 -2.025366e-04 1.823902e-03 1.042429e-05 -3.158115e-06 -9.316020e-06 -3.196765e-06 1.002930e+00 4.772949e-02
1.260844e+07 -1.158714e-04 1.863480e-03 -1.080893e-05 3.169291e-05 4.803762e-06 7.934868e-06 1.002747e+00 4.718018e-02
1.282625e+07 -1.800060e-05 1.876116e-03 1.297984e-05 -6.545335e-06 4.092231e-06 -7.136259e-07 1.002625e+00 4.901123e-02
1.304406e+07 1.229048e-04 1.941204e-03 -1.850445e-05 1.161266e-05 6.147660e-06 6.960239e-06 1.003723e+00 4.962158e-02
1.326188e+07 2.262592e-04 1.944184e-03 -8.288771e-08 -1.819804e-05 9.222422e-06 1.053791e-06 1.003296e+00 4.974365e-02
1.347969e+07 3.312826e-04 1.966119e-03 -7.816590e-06 2.282206e-06 8.051749e-06 -9.623356e-06 1.002808e+00 4.919434e-02
1.369750e+07 4.562140e-04 1.976967e-03 -7.346738e-06 8.089934e-06 8.904841e-06 7.110648e-07 1.003418e+00 5.023193e-02
1.391531e+07 5.675554e-04 1.971126e-03 1.312420e-05 6.621704e-07 -3.069639e-06 -9.354204e-06 1.003540e+00 5.017090e-02
1.413312e+07 7.073879e-04 1.990795e-03 -1.701713e-05 -1.420081e-05 -2.637040e-06 -7.450581e-06 1.002869e+00 4.907227e-02
1.435094e+07 7.789135e-04 2.000928e-03 9.022653e-06 -1.995824e-05 5.704351e-07 8.789822e-06 1.003418e+00 5.102539e-02
1.456875e+07 9.154081e-04 1.998067e-03 1.850538e-05 -9.199604e-06 4.796311e-07 2.900138e-06 1.004028e+00 5.169678e-02
1.478656e+07 1.020193e-03 1.975775e-03 1.619011e-05 1.121126e-05 -5.512033e-06 7.624738e-06 1.003235e+00 5.346680e-02
1.500438e+07 1.161933e-03 1.947522e-03 2.774782e-05 1.432002e-05 -8.688774e-06 -6.075017e-06 1.002136e+00 5.291748e-02
1.522219e+07 1.231432e-03 1.943707e-03 -1.106318e-05 7.208437e-06 5.415175e-06 1.043826e-05 1.002686e+00 5.444336e-02
1.544000e+07 1.355767e-03 1.909018e-03 -1.424551e-05 5.032867e-06 5.753711e-06 1.384970e-05 1.003418e+00 5.438232e-02
1.565781e+07 1.456141e-03 1.878381e-03 -1.744367e-05 -1.121871e-05 -1.245271e-05 -1.002103e-06 1.002869e+00 5.468750e-02
1.587562e+07 1.546383e-03 1.827836e-03 5.864538e-06 1.740456e-05 -1.767650e-06 1.046015e-05 1.003113e+00 5.590820e-02
1.609344e+07 1.718879e-03 1.839399e-03 -1.615100e-05 -3.027171e-05 -3.540330e-05 3.702380e-05 1.003540e+00 6.164551e-02
1.631125e+07 1.737595e-03 1.785636e-03 -8.003786e-06 2.730452e-05 7.087365e-07 1.704786e-05 1.003174e+00 6.262207e-02
1.652906e+07 1.902461e-03 1.744390e-03 7.798895e-06 2.580322e-05 2.856553e-05 1.644716e-06 1.002563e+00 6.323242e-02
1.674688e+07 2.006531e-03 1.680255e-03 -3.471598e-05 -2.854876e-05 -1.044944e-06 -2.422184e-05 1.003418e+00 6.335449e-02
1.696469e+07 2.096772e-03 1.655817e-03 -8.943491e-06 -9.780284e-06 2.911128e-05 1.303665e-05 1.003113e+00 6.445312e-02
1.718250e+07 2.134681e-03 1.546860e-03 3.581308e-05 3.920682e-05 -3.463589e-05 -7.087365e-06 1.003479e+00 6.549072e-02
1.740031e+07 2.224684e-03 1.515508e-03 2.207235e-05 6.191805e-05 2.286024e-05 -9.927899e-07 1.003174e+00 6.610107e-02
1.761812e+07 2.355933e-03 1.485229e-03 -4.237145e-05 4.161149e-06 -1.699664e-05 5.047768e-06 1.003601e+00 6.707764e-02
1.783594e+07 2.360702e-03 1.348972e-03 -1.848117e-05 -5.171448e-05 -2.242997e-05 1.246855e-05 1.003967e+00 6.726074e-02
1.805375e+07 2.449989e-03 1.284599e-03 2.071075e-05 -7.387251e-06 -8.481089e-06 3.248919e-06 1.004150e+00 6.933594e-02
1.827156e+07 2.557516e-03 1.198053e-03 3.985688e-05 -3.911555e-06 -2.557412e-06 7.304829e-06 1.004395e+00 6.988525e-02
1.848938e+07 2.617121e-03 1.183987e-03 1.487415e-05 1.464598e-05 -3.417209e-05 8.737668e-06 1.004883e+00 7.141113e-02
1.870719e+07 2.676010e-03 1.086950e-03 -1.057982e-06 -1.065154e-05 -4.990771e-05 -1.940504e-05 1.005676e+00 7.189941e-02
1.892500e+07 2.735615e-03 1.032591e-03 -1.597591e-05 -2.530776e-05 4.476309e-05 3.262982e-05 1.005554e+00 7.238770e-02
1.914281e+07 2.784014e-03 8.468628e-04 -3.466755e-05 3.455207e-06 -3.246590e-05 -7.802248e-05 1.005554e+00 7.360840e-02
1.936062e+07 2.911091e-03 8.747578e-04 -5.736947e-07 4.858524e-05 2.196059e-05 -2.560019e-05 1.006226e+00 7.568359e-02
1.957844e+07 2.879381e-03 7.936954e-04 6.943010e-06 -1.149531e-05 4.174188e-06 2.733991e-05 1.007507e+00 7.452393e-02
1.979625e+07 2.958536e-03 7.061958e-04 -3.317930e-05 -7.465482e-06 -4.352443e-05 -8.903444e-07 1.007935e+00 7.586670e-02
2.001406e+07 3.007412e-03 6.272793e-04 1.607463e-05 2.541766e-05 -1.659617e-06 -3.622659e-05 1.008057e+00 7.666016e-02
2.023188e+07 3.082752e-03 4.954338e-04 4.790723e-06 -3.298931e-05 -1.672935e-05 1.531467e-05 1.009216e+00 7.781982e-02
2.044969e+07 3.115177e-03 4.973412e-04 2.220273e-06 4.856661e-05 -2.235360e-05 1.994520e-05 1.009888e+00 7.714844e-02
2.066750e+07 3.091335e-03 3.874302e-04 -8.769333e-06 -5.881116e-05 2.742745e-07 5.814712e-06 1.010559e+00 7.788086e-02
2.088531e+07 3.200054e-03 3.657341e-04 -2.315082e-05 -1.394190e-05 -2.156571e-05 -2.377480e-05 1.010437e+00 7.928467e-02
2.110312e+07 3.183365e-03 2.233982e-04 3.185123e-06 -2.209656e-05 -1.415703e-05 9.437092e-06 1.012146e+00 7.989502e-02
2.132094e+07 3.166676e-03 1.149178e-04 -1.586974e-06 1.106132e-05 -2.228096e-05 2.298877e-05 1.013367e+00 8.013916e-02
2.153875e+07 3.249168e-03 1.108646e-04 2.206303e-05 -2.407655e-05 -1.268461e-05 4.012883e-05 1.013489e+00 8.099365e-02
2.175656e+07 3.204823e-03 3.576279e-05 2.495013e-05 3.016181e-05 3.075227e-05 2.925657e-05 1.014160e+00 8.081055e-02
2.197438e+07 3.266096e-03 -4.744530e-05 4.589930e-05 -3.208220e-05 -2.621114e-05 -5.594268e-05 1.015747e+00 8.190918e-02
2.219219e+07 3.314495e-03 -8.416176e-05 -1.297612e-05 6.820075e-06 -1.296215e-05 -2.433918e-05 1.016724e+00 8.203125e-02
2.241000e+07 3.264427e-03 -1.649857e-04 1.399592e-05 -2.338365e-05 2.932735e-06 -1.438893e-07 1.017212e+00 8.215332e-02
2.262781e+07 3.306627e-03 -2.341270e-04 3.527477e-05 -3.669411e-06 -1.335517e-05 -3.173016e-05 1.018005e+00 8.306885e-02
2.284562e+07 3.323555e-03 -2.923012e-04 -5.319715e-06 2.800673e-05 1.138542e-05 -7.932074e-06 1.018738e+00 8.300781e-02
2.306344e+07 3.304005e-03 -3.163815e-04 -9.281561e-06 -1.001358e-05 1.816638e-05 9.419397e-06 1.018921e+00 8.325195e-02
2.328125e+07 3.299713e-03 -3.962517e-04 1.101196e-05 2.636760e-05 -2.233684e-05 -3.286079e-05 1.020752e+00 8.349609e-02
2.349906e+07 3.350496e-03 -4.253387e-04 -4.723668e-06 3.353320e-05 1.768675e-05 -9.024516e-07 1.021118e+00 8.306885e-02
2.371688e+07 3.296614e-03 -4.739761e-04 -2.840906e-05 -8.041039e-06 -1.977198e-06 1.933612e-05 1.021912e+00 8.367920e-02
2.393469e+07 3.390551e-03 -5.414486e-04 -1.363922e-05 1.437962e-06 2.880348e-06 -1.630280e-06 1.022827e+00 8.367920e-02
2.415250e+07 3.351688e-03 -5.784035e-04 -2.616085e-05 1.381896e-05 -2.571754e-05 -3.872253e-05 1.023865e+00 8.276367e-02
2.437031e+07 3.324986e-03 -5.857944e-04 6.044749e-06 4.885253e-06 3.175437e-05 -1.798011e-05 1.024170e+00 8.410645e-02
2.458812e+07 3.345728e-03 -6.308556e-04 -5.825609e-05 -2.697483e-05 -3.001466e-05 -6.238371e-05 1.024963e+00 8.288574e-02
2.480594e+07 3.367662e-03 -6.985664e-04 -7.594749e-05 -3.614649e-05 -4.918873e-05 2.635270e-05 1.026184e+00 8.221436e-02
2.502375e+07 3.373623e-03 -7.448196e-04 1.488626e-05 9.494834e-06 1.409091e-05 4.092976e-05 1.026672e+00 8.312988e-02
2.524156e+07 3.375530e-03 -7.314682e-04 7.525086e-07 -4.450604e-05 -6.101094e-06 -2.659392e-06 1.027466e+00 8.300781e-02
2.545938e+07 3.381014e-03 -8.351803e-04 4.965067e-05 2.241880e-05 -7.115304e-05 8.232892e-06 1.027710e+00 8.264160e-02
2.567719e+07 3.460169e-03 -8.785725e-04 3.024563e-05 -3.261492e-06 -3.728084e-05 -2.786703e-05 1.029236e+00 8.276367e-02
2.589500e+07 3.393650e-03 -8.902550e-04 -7.517636e-06 -4.370138e-05 5.404931e-06 -1.074281e-05 1.029053e+00 8.258057e-02
2.611281e+07 3.410101e-03 -9.744167e-04 -8.259900e-06 8.931383e-07 2.305396e-05 -1.619384e-05 1.029968e+00 8.282471e-02
2.633062e+07 3.460646e-03 -9.934902e-04 -2.263300e-05 -3.118068e-06 -2.798066e-05 -1.942925e-05 1.029968e+00 8.227539e-02
2.654844e+07 3.448725e-03 -1.072407e-03 1.163594e-05 4.307367e-06 -1.300126e-05 -1.876708e-05 1.031616e+00 8.160400e-02
2.676625e+07 3.455877e-03 -1.125574e-03 2.153683e-06 -5.828682e-06 -1.374632e-06 -2.542511e-05 1.032288e+00 8.135986e-02
2.698406e+07 3.498793e-03 -1.161098e-03 -3.972091e-06 -1.075119e-05 -2.742931e-05 -7.543713e-06 1.032166e+00 8.105469e-02
2.720188e+07 3.456116e-03 -1.167297e-03 -2.886541e-05 -8.029863e-06 -2.753548e-05 -8.996576e-06 1.032410e+00 8.184814e-02
2.741969e+07 3.473043e-03 -1.221180e-03 3.906153e-05 2.374686e-05 3.538094e-05 4.169717e-05 1.034302e+00 8.081055e-02
2.763750e+07 3.540277e-03 -1.278162e-03 -2.094358e-05 1.354329e-05 -5.105883e-05 2.827495e-06 1.034302e+00 8.050537e-02
2.785531e+07 3.476620e-03 -1.310349e-03 2.463348e-05 -3.081746e-05 -2.435967e-05 4.958361e-05 1.033997e+00 7.952881e-02
2.807312e+07 3.504038e-03 -1.338720e-03 7.409602e-06 -3.454462e-05 -2.958626e-05 1.068600e-05 1.034851e+00 7.965088e-02
2.829094e+07 3.449678e-03 -1.418591e-03 3.426895e-05 -2.070330e-05 4.373491e-06 2.391823e-05 1.035645e+00 7.891846e-02
2.850875e+07 3.541231e-03 -1.425743e-03 -2.161600e-06 5.873851e-06 -9.049661e-06 5.126931e-07 1.036133e+00 7.867432e-02
2.872656e+07 3.499746e-03 -1.479626e-03 -7.726252e-06 6.501563e-06 -9.307638e-06 -4.016329e-06 1.036072e+00 7.836914e-02
2.894438e+07 3.521681e-03 -1.503944e-03 -8.653849e-06 2.354942e-05 -2.888963e-05 2.435409e-05 1.036926e+00 7.861328e-02
2.916219e+07 3.547907e-03 -1.536608e-03 4.120916e-05 -1.026690e-05 -1.891889e-05 4.053488e-05 1.036560e+00 7.806396e-02
2.938000e+07 3.509045e-03 -1.632214e-03 1.169369e-05 -4.654750e-05 4.236959e-05 -2.440065e-06 1.037354e+00 7.708740e-02
2.959781e+07 3.480196e-03 -1.652956e-03 5.374104e-05 -3.986061e-07 1.913402e-05 1.561828e-05 1.038086e+00 7.684326e-02
2.981562e+07 3.584862e-03 -1.607895e-03 -7.225201e-06 -3.883801e-05 -1.106784e-05 1.891889e-05 1.038025e+00 7.666016e-02
3.003344e+07 3.540754e-03 -1.708984e-03 1.629815e-05 4.351512e-05 5.498528e-06 4.231557e-05 1.038147e+00 7.592773e-02
3.025125e+07 3.549576e-03 -1.739264e-03 -6.124377e-06 4.609674e-05 -3.449060e-05 -1.626275e-05 1.038879e+00 7.592773e-02
3.046906e+07 3.545523e-03 -1.779556e-03 3.300048e-05 -9.452924e-06 3.836118e-05 2.978742e-05 1.038818e+00 7.470703e-02
3.068688e+07 3.523588e-03 -1.784086e-03 -6.281957e-05 -2.692267e-05 -2.230518e-06 1.387298e-05 1.039490e+00 7.446289e-02
3.090469e+07 3.529310e-03 -1.828909e-03 -8.422881e-06 9.625219e-07 4.039146e-06 1.657102e-05 1.038696e+00 7.452393e-02
3.112250e+07 3.531456e-03 -1.885176e-03 3.278442e-05 1.899339e-05 -1.912192e-05 1.061708e-05 1.039734e+00 7.434082e-02
3.134031e+07 3.504753e-03 -1.883268e-03 1.326203e-05 1.431536e-05 2.614409e-05 6.243587e-06 1.039917e+00 7.421875e-02
3.155812e+07 3.589392e-03 -1.917124e-03 1.896638e-06 2.046349e-06 4.977454e-06 8.110423e-06 1.040100e+00 7.421875e-02
3.177594e+07 3.564119e-03 -1.901627e-03 -1.488253e-05 -2.424791e-05 1.071859e-05 -7.130206e-06 1.039185e+00 7.348633e-02
3.199375e+07 3.543377e-03 -1.922846e-03 -1.798477e-05 5.228445e-06 -6.381422e-05 -8.322299e-06 1.039368e+00 7.391357e-02
3.221156e+07 3.562212e-03 -1.948118e-03 1.580920e-05 6.109476e-07 -2.158433e-05 3.622845e-07 1.040466e+00 7.415771e-02
3.242938e+07 3.578424e-03 -1.985312e-03 2.812967e-05 -1.080893e-05 -1.897942e-05 -1.778826e-06 1.040039e+00 7.348633e-02
3.264719e+07 3.559113e-03 -2.057791e-03 -5.697832e-06 -6.161630e-06 7.997267e-06 -1.890305e-05 1.039307e+00 7.403564e-02
3.286500e+07 3.562212e-03 -2.047062e-03 -6.313436e-06 9.665731e-06 -2.240390e-05 2.380461e-05 1.039734e+00 7.287598e-02
3.308281e+07 3.567457e-03 -2.058268e-03 2.851896e-05 -1.873821e-05 7.470604e-06 -7.936731e-06 1.040771e+00 7.312012e-02
3.330062e+07 3.531218e-03 -2.076864e-03 -4.534051e-05 -7.744879e-06 -2.232753e-05 -2.576038e-06 1.039490e+00 7.312012e-02
3.351844e+07 3.559113e-03 -2.111197e-03 -2.792105e-05 2.883375e-06 1.185760e-05 -2.916530e-05 1.039368e+00 7.287598e-02
3.373625e+07 3.520012e-03 -2.202272e-03 1.433119e-05 4.030392e-05 -3.037602e-05 -5.046651e-05 1.039612e+00 7.257080e-02
3.395406e+07 3.554583e-03 -2.163887e-03 1.907814e-06 2.062647e-06 1.214445e-05 -1.267530e-06 1.039490e+00 7.202148e-02
3.417188e+07 3.590584e-03 -2.181053e-03 1.909025e-05 2.064556e-05 -2.808310e-05 -1.371093e-05 1.039185e+00 7.238770e-02
3.438969e+07 3.578901e-03 -2.220392e-03 -2.163462e-05 -6.826594e-06 -9.047799e-07 9.552110e-06 1.038879e+00 7.244873e-02
3.460750e+07 3.582478e-03 -2.286196e-03 -9.872951e-06 -2.375804e-06 -7.543713e-06 -3.252923e-05 1.039062e+00 7.122803e-02
3.482531e+07 3.590107e-03 -2.228022e-03 5.218387e-05 -9.901822e-06 -1.433026e-05 1.893286e-05 1.038452e+00 7.177734e-02
3.504312e+07 3.549337e-03 -2.270699e-03 -4.113093e-05 3.025308e-05 -4.168786e-05 2.214126e-05 1.038574e+00 7.275391e-02
3.526094e+07 3.547192e-03 -2.356052e-03 7.647555e-06 8.286443e-06 -3.522076e-05 9.717420e-06 1.037659e+00 7.208252e-02
3.547875e+07 3.610373e-03 -2.327681e-03 -1.276750e-05 1.947302e-05 2.529472e-05 -1.211651e-05 1.038757e+00 7.226562e-02
3.569656e+07 3.582954e-03 -2.355099e-03 4.850700e-05 3.591552e-05 2.443418e-05 -2.508983e-06 1.037659e+00 7.159424e-02
3.591438e+07 3.586531e-03 -2.393484e-03 -2.043508e-05 1.118146e-05 1.109298e-05 2.089795e-05 1.037537e+00 7.165527e-02
3.613219e+07 3.556728e-03 -2.401352e-03 5.689263e-05 -2.169982e-05 3.087707e-05 1.165643e-05 1.037537e+00 7.196045e-02
3.635000e+07 3.587246e-03 -2.380848e-03 1.822505e-05 -5.275011e-06 2.046488e-05 -6.278045e-06 1.037048e+00 7.135010e-02
3.656781e+07 3.617525e-03 -2.425671e-03 -1.375284e-05 -6.567687e-06 -2.609007e-05 9.153038e-06 1.036743e+00 7.214355e-02
3.678562e+07 3.624678e-03 -2.447128e-03 -3.524497e-05 2.864562e-05 9.274110e-06 -5.709007e-07 1.036011e+00 7.171631e-02
3.700344e+07 3.642082e-03 -2.455711e-03 1.698360e-05 2.676994e-05 -5.494803e-06 -2.385303e-05 1.036926e+00 7.092285e-02
3.722125e+07 3.617048e-03 -2.512932e-03 1.569465e-05 8.675270e-06 3.472902e-05 2.808869e-05 1.035706e+00 7.202148e-02
3.743906e+07 3.624201e-03 -2.512217e-03 -7.695053e-06 -8.348376e-06 2.156291e-05 -1.835637e-06 1.035889e+00 7.110596e-02
3.765688e+07 3.654957e-03 -2.539158e-03 2.507679e-05 -2.310798e-05 3.522262e-05 4.374608e-05 1.035645e+00 7.147217e-02
3.787469e+07 3.673077e-03 -2.518415e-03 -4.951656e-05 3.020093e-05 2.991408e-06 4.023127e-05 1.035217e+00 7.055664e-02
3.809250e+07 3.637552e-03 -2.549887e-03 -1.636520e-05 -4.294887e-05 8.845702e-06 2.471358e-05 1.034485e+00 7.073975e-02
3.831031e+07 3.669024e-03 -2.544880e-03 -1.088716e-05 -2.863444e-05 1.030415e-05 4.485995e-05 1.033630e+00 7.092285e-02
3.852812e+07 3.675938e-03 -2.604246e-03 -5.785748e-05 -1.244247e-05 -2.831034e-05 4.114211e-05 1.032410e+00 7.073975e-02
3.874594e+07 3.657579e-03 -2.605677e-03 -1.417659e-05 1.430511e-06 -2.105162e-05 -9.343959e-06 1.033325e+00 7.086182e-02
3.896375e+07 3.701687e-03 -2.650738e-03 4.255027e-05 -4.302710e-06 2.545305e-05 1.464598e-05 1.032715e+00 7.006836e-02
3.918156e+07 3.704786e-03 -2.688408e-03 1.476333e-05 3.290549e-05 -3.341585e-06 -8.109491e-07 1.031860e+00 7.098389e-02
3.939938e+07 3.690958e-03 -2.670050e-03 -6.461516e-06 9.830110e-06 -3.019907e-05 -2.146512e-05 1.031189e+00 7.043457e-02
3.961719e+07 3.716707e-03 -2.687693e-03 1.158565e-05 1.259521e-05 4.522502e-06 -2.157036e-05 1.029663e+00 7.086182e-02
3.983500e+07 3.666639e-03 -2.724886e-03 3.343448e-07 -8.079689e-06 2.499297e-05 -5.633011e-05 1.031250e+00 7.049561e-02
4.005281e+07 3.725767e-03 -2.752066e-03 2.468377e-05 -5.766749e-05 -1.618825e-05 2.587028e-05 1.030640e+00 7.031250e-02
4.027062e+07 3.748417e-03 -2.731323e-03 -4.887581e-06 2.003647e-05 1.074700e-05 5.440321e-06 1.029114e+00 7.049561e-02
4.048844e+07 3.732920e-03 -2.710581e-03 2.039783e-05 -3.194436e-06 4.049391e-05 -2.957880e-06 1.029541e+00 7.000732e-02
4.070625e+07 3.751040e-03 -2.779245e-03 -5.808193e-06 -6.325077e-06 -1.961552e-05 -3.036298e-05 1.028015e+00 7.073975e-02
4.092406e+07 3.793001e-03 -2.800703e-03 -3.010407e-05 -7.372350e-06 1.865905e-05 -1.536310e-05 1.027893e+00 7.067871e-02
4.114188e+07 3.775597e-03 -2.771854e-03 -4.084408e-05 6.392598e-06 4.556403e-05 4.663691e-05 1.026672e+00 7.031250e-02
4.135969e+07 3.769159e-03 -2.765417e-03 1.884811e-05 -1.341570e-05 7.580966e-06 -2.234429e-05 1.026489e+00 7.080078e-02
4.157750e+07 3.794432e-03 -2.807617e-03 1.192093e-07 -5.077571e-05 -5.342299e-06 4.396075e-06 1.026062e+00 7.043457e-02
4.179531e+07 3.793716e-03 -2.768993e-03 -9.194016e-06 -6.948784e-05 -7.729977e-07 -1.730584e-05 1.025085e+00 7.128906e-02
4.201312e+07 3.824949e-03 -2.826214e-03 -1.592562e-06 -1.023524e-05 2.185255e-05 -1.819804e-06 1.024109e+00 7.116699e-02
4.223094e+07 3.792048e-03 -2.871037e-03 -2.809241e-05 3.745407e-05 1.727417e-05 1.990423e-05 1.023804e+00 7.128906e-02
4.244875e+07 3.828764e-03 -2.852678e-03 -3.837422e-05 -7.750466e-06 -2.498738e-05 -1.179799e-05 1.023743e+00 7.141113e-02
4.266656e+07 3.804445e-03 -2.810717e-03 5.310401e-06 -2.827495e-05 -4.672445e-06 7.441733e-06 1.022217e+00 7.244873e-02
4.288438e+07 3.817081e-03 -2.917290e-03 -7.429160e-06 -1.663249e-05 -2.362020e-05 -5.766749e-06 1.021912e+00 7.208252e-02
4.310219e+07 3.839493e-03 -2.871275e-03 -6.376579e-05 -3.544614e-05 -2.467260e-05 -1.033209e-05 1.021912e+00 7.238770e-02
4.332000e+07 3.802299e-03 -2.896309e-03 -1.240708e-05 3.548339e-06 4.139729e-05 2.724491e-05 1.020996e+00 7.250977e-02
4.353781e+07 3.823042e-03 -2.948046e-03 -7.616356e-06 3.440306e-05 1.473166e-05 3.657117e-05 1.020142e+00 7.226562e-02
4.375562e+07 3.897429e-03 -2.947569e-03 4.917383e-06 7.382408e-05 1.214445e-05 -2.772547e-06 1.019470e+00 7.348633e-02
4.397344e+07 3.879786e-03 -2.897501e-03 5.169585e-05 -1.205131e-05 2.000481e-06 -5.248934e-06 1.019226e+00 7.293701e-02
4.419125e+07 3.885746e-03 -2.921104e-03 1.548231e-05 -2.593920e-05 -2.537295e-05 9.890646e-07 1.018677e+00 7.342529e-02
4.440906e+07 3.917456e-03 -2.966404e-03 -1.584180e-06 -1.031999e-05 -2.139900e-05 -9.545125e-06 1.017761e+00 7.415771e-02
4.462688e+07 3.875732e-03 -2.980232e-03 2.078712e-05 3.986061e-05 1.532305e-05 1.093093e-05 1.016785e+00 7.354736e-02
4.484469e+07 3.921509e-03 -2.954960e-03 1.956825e-06 2.140063e-06 1.878478e-05 2.616644e-05 1.016418e+00 7.403564e-02
4.506250e+07 3.958702e-03 -2.913713e-03 -3.056601e-06 2.242997e-05 -2.631918e-06 1.663528e-05 1.014893e+00 7.434082e-02
4.528031e+07 3.983974e-03 -3.006697e-03 -2.582371e-05 -1.964718e-05 -1.741946e-05 -2.013706e-05 1.014893e+00 7.464600e-02
4.549812e+07 3.946066e-03 -3.038406e-03 3.054738e-06 -2.247840e-05 -4.664063e-06 -4.874915e-05 1.014343e+00 7.452393e-02
4.571594e+07 3.931522e-03 -3.033876e-03 -1.567043e-05 -1.716614e-05 -4.256703e-05 -1.764297e-05 1.012878e+00 7.617188e-02
4.593375e+07 3.934622e-03 -2.995968e-03 -8.590519e-06 7.835682e-06 -1.640152e-05 -1.556706e-05 1.012085e+00 7.641602e-02
4.615156e+07 3.958225e-03 -3.036499e-03 3.243051e-05 -3.351644e-05 1.322478e-05 -1.265295e-05 1.012024e+00 7.647705e-02
4.636938e+07 4.008532e-03 -3.010035e-03 7.113442e-06 2.504326e-05 2.595223e-05 1.504645e-05 1.011047e+00 7.586670e-02
4.658719e+07 4.000664e-03 -3.055096e-03 -9.341165e-06 2.433360e-05 -4.392117e-06 9.056181e-06 1.010559e+00 7.635498e-02
4.680500e+07 4.019499e-03 -3.106356e-03 2.041459e-05 5.047768e-06 -2.257712e-05 -1.423433e-05 1.010132e+00 7.720947e-02
4.702281e+07 4.007578e-03 -3.067017e-03 3.924593e-05 -2.495944e-07 2.638623e-05 3.110804e-05 1.008545e+00 7.806396e-02
4.724062e+07 4.046202e-03 -3.089428e-03 1.639128e-06 5.380064e-05 1.175888e-05 3.768876e-05 1.008789e+00 7.812500e-02
4.745844e+07 4.070044e-03 -3.096342e-03 1.022127e-05 2.544373e-06 1.153629e-05 -2.038665e-05 1.007568e+00 7.928467e-02
4.767625e+07 4.059792e-03 -3.141880e-03 -1.220219e-05 -4.698522e-06 3.095344e-05 -3.450178e-05 1.007080e+00 7.885742e-02
4.789406e+07 4.081249e-03 -3.080130e-03 1.850445e-05 2.928078e-06 -1.676660e-05 -2.671964e-06 1.006470e+00 7.958984e-02
4.811188e+07 4.076719e-03 -3.140688e-03 1.182966e-05 1.298450e-05 7.901341e-06 6.299466e-06 1.005920e+00 8.007812e-02
4.832969e+07 4.067421e-03 -3.115892e-03 8.273404e-06 3.799796e-07 5.463604e-06 -4.477799e-06 1.004761e+00 8.001709e-02
4.854750e+07 4.115820e-03 -3.146410e-03 1.222454e-05 4.711561e-06 1.713634e-07 -4.215725e-05 1.004028e+00 8.117676e-02
4.876531e+07 4.101753e-03 -3.135681e-03 1.664087e-05 4.435331e-05 -6.571412e-06 -1.471303e-05 1.003784e+00 8.142090e-02
4.898312e+07 4.156828e-03 -3.147602e-03 2.804771e-05 2.206862e-05 6.334856e-06 4.234910e-05 1.002808e+00 8.172607e-02
4.920094e+07 4.136562e-03 -3.164291e-03 -1.499709e-05 9.688549e-06 -3.529526e-05 1.610257e-05 1.001709e+00 8.300781e-02
4.941875e+07 4.165173e-03 -3.204346e-03 1.224224e-05 4.731119e-06 1.993403e-05 1.982786e-06 1.000671e+00 8.380127e-02
4.963656e+07 4.196882e-03 -3.163576e-03 1.462363e-05 -1.386739e-06 -4.902855e-05 2.725795e-05 1.000793e+00 8.447266e-02
4.985438e+07 4.178047e-03 -3.222466e-03 2.254359e-05 7.301569e-06 -8.488074e-06 3.442168e-05 9.997559e-01 8.428955e-02
5.007219e+07 4.204273e-03 -3.196478e-03 -6.328337e-06 1.783017e-06 3.191829e-05 -3.154762e-05 9.983521e-01 8.477783e-02
5.029000e+07 4.227638e-03 -3.171444e-03 -2.574921e-05 -2.828985e-05 -2.372637e-05 1.023524e-05 9.980469e-01 8.508301e-02
5.050781e+07 4.234552e-03 -3.205776e-03 5.344301e-05 -2.879277e-05 5.075708e-06 -3.533438e-05 9.980469e-01 8.489990e-02
5.072562e+07 4.288435e-03 -3.248453e-03 6.727874e-06 -1.010951e-05 -2.244674e-05 -1.285784e-05 9.969482e-01 8.599854e-02
5.094344e+07 4.273653e-03 -3.218651e-03 5.231053e-05 -4.756451e-05 2.624467e-05 1.526065e-05 9.955444e-01 8.734131e-02
5.116125e+07 4.287243e-03 -3.210783e-03 3.291108e-05 -3.390014e-05 -2.998300e-05 1.164712e-05 9.948120e-01 8.776855e-02
5.137906e+07 4.283190e-03 -3.216028e-03 4.283711e-05 -2.303347e-05 4.940107e-05 3.125146e-05 9.943237e-01 8.801270e-02
5.159688e+07 4.291534e-03 -3.217220e-03 7.156283e-06 2.543628e-05 5.523860e-05 1.368299e-05 9.950562e-01 8.898926e-02
5.181469e+07 4.311562e-03 -3.230333e-03 -1.181848e-06 -1.886860e-05 -4.149741e-06 -3.962545e-06 9.931030e-01 8.978271e-02
5.203250e+07 4.341125e-03 -3.253937e-03 1.945347e-05 3.020465e-05 3.752112e-05 -5.090237e-05 9.922485e-01 9.069824e-02
5.225031e+07 4.345179e-03 -3.290176e-03 6.726012e-06 3.379583e-05 6.565824e-07 -1.158100e-05 9.916992e-01 9.155273e-02
5.246812e+07 4.370213e-03 -3.247976e-03 -2.306513e-05 9.667128e-07 1.176633e-05 8.786097e-06 9.907227e-01 9.222412e-02
5.268594e+07 4.418135e-03 -3.310680e-03 -4.377915e-06 3.977446e-06 6.924383e-06 1.718756e-06 9.899902e-01 9.271240e-02
5.290375e+07 4.398823e-03 -3.314972e-03 -3.613532e-07 -3.559329e-05 3.664568e-05 -1.150742e-05 9.887085e-01 9.320068e-02
5.312156e+07 4.389286e-03 -3.244162e-03 1.193956e-05 1.315214e-05 5.154870e-06 -2.080295e-05 9.892578e-01 9.356689e-02
5.333938e+07 4.424810e-03 -3.288984e-03 2.865866e-05 1.396239e-05 -5.086511e-05 2.122298e-05 9.877930e-01 9.448242e-02
5.355719e+07 4.462481e-03 -3.251791e-03 3.187172e-05 -8.925796e-06 -7.208437e-06 4.087575e-05 9.865112e-01 9.552002e-02
5.377500e+07 4.468441e-03 -3.317118e-03 -5.968846e-06 -6.585848e-06 -1.699105e-05 -2.735294e-06 9.859619e-01 9.667969e-02
5.399281e+07 4.458904e-03 -3.327370e-03 4.906207e-05 -1.640618e-05 5.214009e-06 8.660369e-06 9.854736e-01 9.802246e-02
5.421062e+07 4.462481e-03 -3.317595e-03 -7.612631e-06 2.690591e-05 -1.700129e-05 -2.753921e-06 9.852295e-01 9.759521e-02
5.442844e+07 4.476070e-03 -3.295422e-03 -6.792136e-06 1.016259e-05 9.361655e-06 -2.103392e-06 9.837036e-01 9.851074e-02
5.464625e+07 4.537582e-03 -3.308296e-03 -8.251518e-07 1.675822e-05 2.980232e-08 2.949685e-05 9.834595e-01 9.991455e-02
5.486406e+07 4.524708e-03 -3.335714e-03 -1.992565e-06 -2.198271e-06 -1.597591e-05 1.925044e-06 9.826660e-01 1.000366e-01
5.508188e+07 4.565239e-03 -3.428221e-03 -3.311224e-05 -1.005270e-05 2.606958e-05 1.385994e-05 9.822388e-01 1.015625e-01
5.529969e+07 4.576921e-03 -3.324747e-03 1.079310e-05 -5.772337e-06 1.323968e-05 2.986006e-05 9.812622e-01 1.021729e-01
5.551750e+07 4.608393e-03 -3.357649e-03 7.233582e-06 -1.856219e-05 7.652212e-06 4.863366e-06 9.805908e-01 1.036377e-01
5.573531e+07 4.593611e-03 -3.346920e-03 5.250797e-06 -2.076477e-05 3.827503e-06 2.427492e-06 9.794922e-01 1.041870e-01
5.595312e+07 4.638672e-03 -3.360987e-03 -1.280475e-05 3.563240e-06 9.419397e-06 4.226156e-05 9.793091e-01 1.052246e-01
5.617094e+07 4.633427e-03 -3.393412e-03 3.243797e-05 -1.730956e-05 -3.478723e-06 -8.691568e-07 9.788208e-01 1.061401e-01
5.638875e+07 4.653215e-03 -3.349066e-03 2.108514e-06 -4.197285e-05 -1.838431e-05 5.013496e-05 9.772339e-01 1.066284e-01
5.660656e+07 4.651308e-03 -3.376484e-03 -2.291054e-06 -3.800914e-05 -3.136508e-05 -3.743730e-05 9.769897e-01 1.076050e-01
5.682438e+07 4.692793e-03 -3.403664e-03 3.517605e-05 1.230836e-05 1.148786e-05 -7.499009e-06 9.763184e-01 1.078491e-01
5.704219e+07 4.685640e-03 -3.436804e-03 1.610629e-05 -2.656877e-05 3.830064e-06 2.435176e-06 9.754028e-01 1.096802e-01
5.726000e+07 4.688501e-03 -3.408909e-03 -2.427492e-06 6.198417e-06 3.492460e-07 1.568696e-06 9.752197e-01 1.105957e-01
5.747781e+07 4.762888e-03 -3.402710e-03 9.744614e-05 -7.800758e-06 2.788380e-05 6.979331e-06 9.755859e-01 1.098633e-01
5.769562e+07 4.721880e-03 -3.443956e-03 6.848946e-06 -1.019053e-05 -2.126954e-05 2.284534e-05 9.736328e-01 1.124268e-01
5.791344e+07 4.790306e-03 -3.393650e-03 -1.000240e-05 -1.106504e-05 -8.715317e-06 2.006721e-05 9.741821e-01 1.123047e-01
5.813125e+07 4.752398e-03 -3.420353e-03 1.328159e-05 -1.199637e-05 1.078658e-05 3.386289e-05 9.730225e-01 1.133423e-01
5.834906e+07 4.819393e-03 -3.409386e-03 1.127366e-05 -1.420826e-05 3.524125e-06 -4.368275e-05 9.722290e-01 1.139526e-01
5.856688e+07 4.814148e-03 -3.404617e-03 4.560873e-05 -6.522238e-05 4.226714e-05 -2.784654e-06 9.713745e-01 1.159668e-01
5.878469e+07 4.844904e-03 -3.410816e-03 2.059154e-05 -3.062375e-05 1.049135e-06 4.719943e-06 9.703369e-01 1.163940e-01
5.900250e+07 4.886627e-03 -3.400326e-03 -3.618002e-05 4.479662e-06 2.063066e-05 3.690831e-06 9.703979e-01 1.176758e-01
5.922031e+07 4.886866e-03 -3.416300e-03 2.438668e-06 -6.224960e-06 -7.035211e-06 4.286133e-05 9.704590e-01 1.186523e-01
5.943812e+07 4.880190e-03 -3.436565e-03 2.876855e-06 -1.467485e-05 1.504831e-05 3.798679e-05 9.698486e-01 1.195068e-01
5.965594e+07 4.882097e-03 -3.434420e-03 -1.445785e-05 -7.092953e-06 5.249400e-06 8.772127e-06 9.689941e-01 1.201172e-01
5.987375e+07 4.922628e-03 -3.477335e-03 4.627556e-05 6.657094e-06 5.960464e-06 -2.977438e-06 9.684448e-01 1.216431e-01
6.009156e+07 4.915953e-03 -3.407001e-03 4.889444e-06 -1.246110e-05 2.269819e-05 4.298985e-05 9.675293e-01 1.219482e-01
6.030938e+07 4.953623e-03 -3.435135e-03 1.115352e-05 3.027171e-05 -1.054443e-05 2.716854e-05 9.675903e-01 1.229248e-01
6.052719e+07 4.988670e-03 -3.474712e-03 1.337938e-05 -1.204200e-05 2.175011e-05 2.334639e-05 9.672241e-01 1.251831e-01
6.074500e+07 5.027056e-03 -3.452778e-03 1.448765e-05 7.137656e-06 3.721006e-05 3.321469e-05 9.670410e-01 1.260376e-01
6.096281e+07 4.976511e-03 -3.481865e-03 3.591552e-05 3.989786e-06 3.976561e-05 -3.035180e-05 9.665527e-01 1.264648e-01
6.118062e+07 5.036831e-03 -3.498077e-03 -6.991439e-06 -1.535658e-05 -1.219474e-05 3.317185e-05 9.648438e-01 1.282959e-01
6.139844e+07 5.034447e-03 -3.496647e-03 -2.103299e-05 -4.601479e-05 -7.648021e-06 1.173466e-05 9.637451e-01 1.280518e-01
6.161625e+07 5.096912e-03 -3.479481e-03 -2.114847e-05 2.820231e-05 4.988164e-06 3.339164e-05 9.638062e-01 1.295166e-01
6.183406e+07 5.082130e-03 -3.489494e-03 3.227964e-06 -2.003647e-05 -2.806820e-05 1.045316e-05 9.632568e-01 1.302490e-01
6.205188e+07 5.109310e-03 -3.486156e-03 1.258217e-05 4.461035e-07 -5.592033e-05 -5.997717e-07 9.628296e-01 1.312256e-01
6.226969e+07 5.146503e-03 -3.464699e-03 2.606399e-05 -2.429448e-05 -2.374128e-05 6.198883e-06 9.627075e-01 1.322021e-01
6.248750e+07 5.149364e-03 -3.466606e-03 1.706369e-05 1.699012e-05 2.613291e-06 -4.090182e-05 9.622803e-01 1.326294e-01
6.270531e+07 5.146027e-03 -3.437042e-03 -4.909467e-06 -3.958587e-06 -3.318768e-06 7.503200e-06 9.621582e-01 1.341553e-01
6.292312e+07 5.149841e-03 -3.508091e-03 1.517218e-05 -7.394701e-07 -2.281740e-05 1.806393e-05 9.618530e-01 1.339111e-01
6.314094e+07 5.201340e-03 -3.502846e-03 3.489852e-05 -5.940720e-05 -4.947558e-05 -1.131371e-05 9.615479e-01 1.353760e-01
6.335875e+07 5.218029e-03 -3.500938e-03 -1.988746e-05 -9.521842e-06 1.093838e-05 -1.498032e-05 9.612427e-01 1.358032e-01
6.357656e+07 5.269527e-03 -3.522873e-03 -1.091138e-05 2.363324e-05 3.874116e-05 9.059906e-06 9.608765e-01 1.370239e-01
6.379438e+07 5.198002e-03 -3.508091e-03 -3.453344e-06 2.644025e-05 -4.889071e-05 -7.178262e-05 9.611206e-01 1.385498e-01
6.401219e+07 5.270004e-03 -3.496647e-03 2.828799e-05 -1.293980e-05 4.303083e-05 1.343526e-05 9.610596e-01 1.392822e-01
6.423000e+07 5.292892e-03 -3.494740e-03 -1.376681e-05 3.115647e-05 -2.697110e-06 1.622271e-05 9.605713e-01 1.406250e-01
6.444781e+07 5.303860e-03 -3.507137e-03 -9.194016e-06 -2.688915e-05 1.860783e-05 -1.224689e-06 9.594727e-01 1.409912e-01
6.466562e+07 5.361080e-03 -3.504753e-03 -1.869909e-05 2.720393e-05 -2.013147e-05 -1.399405e-05 9.597168e-01 1.430664e-01
6.488344e+07 5.333900e-03 -3.532887e-03 3.462657e-06 -2.650358e-05 -2.855808e-05 -1.196191e-05 9.600830e-01 1.437378e-01
6.510125e+07 5.354881e-03 -3.542423e-03 1.469627e-06 3.047101e-05 1.909304e-05 9.794720e-06 9.592285e-01 1.445312e-01
6.531906e+07 5.407333e-03 -3.516197e-03 -1.939386e-05 4.626065e-05 -1.539290e-05 3.720634e-05 9.594116e-01 1.461182e-01
6.553688e+07 5.392075e-03 -3.561497e-03 8.391216e-06 -2.255104e-05 1.396984e-05 -1.124199e-05 9.589233e-01 1.463013e-01
6.575469e+07 5.421638e-03 -3.560543e-03 1.437590e-05 2.461486e-05 -1.310464e-05 -7.938594e-06 9.588623e-01 1.472778e-01
6.597250e+07 5.449295e-03 -3.505230e-03 3.916584e-05 -3.035180e-05 3.860891e-05 7.230788e-06 9.584351e-01 1.492920e-01
6.619031e+07 5.463123e-03 -3.571033e-03 -8.640811e-06 2.890453e-05 -7.024407e-05 9.492040e-06 9.580078e-01 1.497803e-01
6.640812e+07 5.471706e-03 -3.567696e-03 -4.132092e-05 1.887232e-05 -4.719198e-05 -4.652515e-05 9.578857e-01 1.506348e-01
6.662594e+07 5.500317e-03 -3.532887e-03 -9.238720e-06 -2.700649e-05 4.398823e-05 -7.446855e-06 9.575806e-01 1.515503e-01
6.684375e+07 5.528450e-03 -3.503799e-03 2.807472e-06 -7.533468e-06 -6.053131e-06 -1.877081e-06 9.576416e-01 1.531372e-01
6.706156e+07 5.517960e-03 -3.493786e-03 1.659058e-05 -3.883988e-05 -1.863949e-05 -1.668185e-05 9.566650e-01 1.530762e-01
6.727938e+07 5.556107e-03 -3.524303e-03 1.338031e-05 -1.863204e-05 -9.475742e-06 -2.148561e-06 9.578247e-01 1.544189e-01
6.749719e+07 5.567551e-03 -3.568172e-03 3.241003e-06 -2.025254e-05 6.127730e-05 3.529713e-05 9.572754e-01 1.548462e-01
6.771500e+07 5.585670e-03 -3.560543e-03 -5.585700e-05 -5.785376e-06 1.465529e-05 -3.603660e-05 9.575806e-01 1.566162e-01
6.793281e+07 5.616665e-03 -3.523827e-03 3.857538e-06 3.578328e-05 1.339708e-05 1.350231e-05 9.566040e-01 1.569824e-01
6.815062e+07 5.624294e-03 -3.548622e-03 -1.577754e-05 1.346786e-05 -2.160668e-06 -4.991144e-05 9.573975e-01 1.590576e-01
6.836844e+07 5.633831e-03 -3.576756e-03 1.318008e-05 -1.229998e-05 2.841651e-05 2.439879e-05 9.572754e-01 1.593018e-01
6.858625e+07 5.656242e-03 -3.589630e-03 -1.793634e-05 1.926906e-06 -1.508836e-05 7.055700e-06 9.569702e-01 1.606445e-01
6.880406e+07 5.714417e-03 -3.546238e-03 -2.031215e-05 -3.270805e-06 -4.599243e-05 4.593283e-06 9.567261e-01 1.618652e-01
6.902188e+07 5.711555e-03 -3.536224e-03 8.013099e-06 -9.930693e-06 -6.868038e-06 -5.573966e-07 9.563599e-01 1.629639e-01
6.923969e+07 5.717754e-03 -3.516674e-03 6.236136e-06 4.111230e-05 -1.159590e-05 -1.061615e-05 9.569702e-01 1.636353e-01
6.945750e+07 5.762577e-03 -3.543377e-03 -2.679788e-05 -3.799237e-05 -3.369525e-06 -1.824833e-05 9.564819e-01 1.644287e-01
6.967531e+07 5.744457e-03 -3.515244e-03 3.042631e-06 -1.395494e-05 -4.297867e-05 3.531389e-05 9.564209e-01 1.655884e-01
6.989312e+07 5.792618e-03 -3.555775e-03 2.103485e-05 -1.589209e-05 5.587935e-08 -1.800247e-05 9.567871e-01 1.671753e-01
7.011094e+07 5.837440e-03 -3.534794e-03 -1.486391e-06 -3.075786e-05 -2.329238e-06 -1.404434e-05 9.563599e-01 1.674194e-01
7.032875e+07 5.815029e-03 -3.554344e-03 4.461035e-07 -1.278147e-05 2.575852e-05 -1.871400e-05 9.562378e-01 1.685181e-01
7.054656e+07 5.887508e-03 -3.556252e-03 -1.211651e-05 -1.963135e-05 -9.797513e-07 -2.226606e-05 9.567261e-01 1.694946e-01
7.076438e+07 5.882263e-03 -3.589153e-03 3.644079e-05 -1.669861e-05 -2.908148e-05 -1.760945e-05 9.567871e-01 1.702881e-01
7.098219e+07 5.903721e-03 -3.555775e-03 -2.082996e-05 9.519979e-06 -1.396611e-05 -2.471916e-05 9.563599e-01 1.717529e-01
7.120000e+07 5.898952e-03 -3.552437e-03 -3.514066e-05 -2.171658e-05 3.816560e-06 -3.023073e-05 9.562378e-01 1.725464e-01
7.141781e+07 5.936146e-03 -3.533840e-03 -2.106279e-05 1.594983e-05 -5.083904e-05 -2.356991e-05 9.566650e-01 1.730957e-01
7.163562e+07 5.949974e-03 -3.557205e-03 2.473593e-05 2.648868e-05 3.942288e-06 1.142453e-05 9.564819e-01 1.741943e-01
7.185344e+07 5.937576e-03 -3.509521e-03 4.386157e-05 -7.499009e-06 -2.948754e-05 -5.155802e-06 9.564819e-01 1.746216e-01
7.207125e+07 5.991936e-03 -3.516674e-03 6.278977e-05 4.067644e-05 -3.366359e-05 -2.216920e-05 9.569092e-01 1.760254e-01
7.228906e+07 5.997181e-03 -3.530025e-03 -8.927658e-06 3.560819e-05 5.553477e-06 8.788891e-06 9.557495e-01 1.768188e-01
7.250688e+07 6.033897e-03 -3.560066e-03 5.220529e-06 -2.389308e-06 1.354143e-06 -8.240808e-06 9.568481e-01 1.778564e-01
7.272469e+07 6.028175e-03 -3.489494e-03 -2.106652e-05 -5.985424e-05 -3.111735e-05 -2.471730e-06 9.569702e-01 1.793823e-01
7.294250e+07 6.067753e-03 -3.571987e-03 3.047287e-06 -1.403037e-05 4.633889e-05 -2.272055e-05 9.566650e-01 1.791992e-01
7.316031e+07 6.105900e-03 -3.519535e-03 6.616116e-05 2.028793e-05 -1.203083e-05 1.992285e-05 9.567871e-01 1.805420e-01
7.337812e+07 6.108284e-03 -3.529549e-03 3.484264e-05 3.466383e-05 -1.544133e-06 -1.543947e-05 9.575806e-01 1.820068e-01
7.359594e+07 6.133556e-03 -3.516674e-03 1.807697e-05 -1.951121e-06 7.096678e-06 2.426840e-05 9.569702e-01 1.823730e-01
7.381375e+07 6.125927e-03 -3.486156e-03 3.457069e-06 4.902855e-05 -2.083555e-05 1.647137e-05 9.570923e-01 1.835938e-01
7.403156e+07 6.180286e-03 -3.501892e-03 4.008785e-05 3.228709e-05 -7.612631e-06 -3.548153e-05 9.572754e-01 1.845703e-01
7.424938e+07 6.145477e-03 -3.549576e-03 1.593865e-05 -1.361314e-05 1.039356e-05 8.326024e-07 9.574585e-01 1.864014e-01
7.446719e+07 6.224632e-03 -3.532410e-03 3.687479e-05 -2.324767e-05 5.508959e-05 3.512949e-05 9.580078e-01 1.862183e-01
7.468500e+07 6.254673e-03 -3.485203e-03 5.701557e-06 -1.527276e-05 6.878376e-05 3.066286e-05 9.577026e-01 1.885376e-01
7.490281e+07 6.241322e-03 -3.534317e-03 4.565379e-10 1.697629e-10 1.076423e-05 -2.987310e-05 9.581909e-01 1.879883e-01
7.512062e+07 6.212234e-03 -3.486156e-03 2.009422e-05 1.618639e-05 2.357736e-05 -3.306568e-05 9.586182e-01 1.897583e-01
7.533844e+07 6.265163e-03 -3.483772e-03 -2.381019e-05 1.727045e-05 -1.078472e-05 2.989359e-05 9.580688e-01 1.898193e-01
7.555625e+07 6.267071e-03 -3.500938e-03 2.098270e-05 -9.626150e-06 2.053566e-05 1.423247e-05 9.591675e-01 1.907959e-01
7.577406e+07 6.310940e-03 -3.518105e-03 1.245923e-05 1.333281e-05 3.276393e-06 -2.352707e-05 9.587402e-01 1.915894e-01
7.599188e+07 6.347179e-03 -3.512383e-03 -1.419894e-05 -3.795326e-05 4.494563e-06 2.275407e-05 9.590454e-01 1.927490e-01
7.620969e+07 6.358147e-03 -3.491402e-03 5.381182e-05 1.346320e-05 1.597591e-05 2.786331e-05 9.592285e-01 1.932373e-01
7.642750e+07 6.327629e-03 -3.485680e-03 -2.494082e-05 -2.671033e-05 4.581176e-06 -1.362897e-05 9.592285e-01 1.948853e-01
7.664531e+07 6.393909e-03 -3.475189e-03 5.037058e-06 4.051719e-06 8.520670e-06 1.608767e-05 9.600220e-01 1.953125e-01
7.686312e+07 6.453037e-03 -3.483295e-03 -3.742054e-05 -4.008412e-05 9.937678e-06 -1.041731e-05 9.590454e-01 1.962891e-01
7.708094e+07 6.454945e-03 -3.470421e-03 1.765788e-06 2.464093e-05 -2.573431e-05 6.359071e-06 9.597778e-01 1.964111e-01
7.729875e+07 6.453991e-03 -3.497601e-03 2.521649e-05 -5.611032e-05 -1.388229e-05 -1.932308e-05 9.601440e-01 1.976929e-01
7.751656e+07 6.460190e-03 -3.447056e-03 -1.254305e-05 6.302074e-05 2.363138e-05 -1.495332e-05 9.602051e-01 1.988525e-01
7.773438e+07 6.489277e-03 -3.475666e-03 -1.316797e-05 6.021932e-06 -2.980232e-06 1.098309e-05 9.604492e-01 1.998291e-01
7.795219e+07 6.537914e-03 -3.469944e-03 -1.866650e-05 1.490489e-05 -4.189089e-06 -3.541075e-05 9.606323e-01 2.011108e-01
7.817000e+07 6.531715e-03 -3.471851e-03 -7.236376e-06 -1.580641e-05 -2.185255e-05 3.616512e-05 9.605713e-01 2.012329e-01
7.838781e+07 6.582737e-03 -3.444195e-03 -9.441748e-06 -2.755225e-05 1.068600e-05 2.471916e-05 9.607544e-01 2.014771e-01
7.860562e+07 6.570339e-03 -3.448486e-03 -2.987310e-05 -3.734417e-05 1.988001e-05 -2.629124e-06 9.612427e-01 2.022705e-01
7.882344e+07 6.594658e-03 -3.465176e-03 -1.285225e-06 -3.770553e-05 3.179908e-05 -2.841093e-05 9.617310e-01 2.042847e-01
7.904125e+07 6.660461e-03 -3.474712e-03 -2.814084e-05 -1.262315e-05 1.836941e-05 6.050617e-05 9.615479e-01 2.039795e-01
7.925906e+07 6.609917e-03 -3.446579e-03 -1.120567e-05 2.430007e-05 -3.739446e-05 1.952797e-05 9.619141e-01 2.053223e-01
7.947688e+07 6.682873e-03 -3.464699e-03 4.400313e-05 5.386770e-06 5.112262e-06 -2.406770e-06 9.621582e-01 2.065430e-01
7.969469e+07 6.670952e-03 -3.433704e-03 3.983080e-05 -2.463907e-05 1.935381e-05 4.333444e-06 9.627686e-01 2.072754e-01
7.991250e+07 6.694317e-03 -3.411770e-03 6.673858e-05 2.691895e-05 3.625639e-05 3.101863e-05 9.637451e-01 2.071533e-01
8.013031e+07 6.755352e-03 -3.438950e-03 1.365598e-05 -1.905300e-05 4.250184e-05 1.463294e-05 9.635620e-01 2.087402e-01
8.034812e+07 6.771564e-03 -3.446102e-03 4.851259e-06 1.057796e-05 -3.262237e-05 1.150370e-05 9.641724e-01 2.094727e-01
8.056594e+07 6.758690e-03 -3.464699e-03 1.101941e-05 -1.784693e-05 3.637560e-05 -5.574897e-06 9.638062e-01 2.103271e-01
8.078375e+07 6.742477e-03 -3.408432e-03 1.543108e-05 5.724840e-06 -4.611909e-06 1.373049e-05 9.642944e-01 2.103882e-01
8.100156e+07 6.782055e-03 -3.428936e-03 3.816746e-05 2.733991e-05 3.247987e-06 -5.383976e-06 9.647827e-01 2.117310e-01
8.121938e+07 6.825924e-03 -3.399849e-03 1.234561e-05 1.995824e-05 4.500523e-05 1.062825e-05 9.644775e-01 2.124023e-01
8.143719e+07 6.879807e-03 -3.404140e-03 1.347717e-05 -1.257472e-05 6.079674e-06 -5.878881e-05 9.653320e-01 2.139893e-01
8.165500e+07 6.843567e-03 -3.425121e-03 -2.979301e-05 3.291108e-05 4.071929e-05 1.171231e-05 9.656372e-01 2.128296e-01
8.187281e+07 6.917477e-03 -3.362179e-03 -2.429634e-05 2.397038e-05 -2.404302e-05 9.395182e-06 9.658813e-01 2.141724e-01
8.209062e+07 6.926060e-03 -3.390312e-03 -2.653338e-06 1.217006e-06 -7.279217e-06 -6.226823e-06 9.667969e-01 2.147827e-01
8.230844e+07 6.889820e-03 -3.369808e-03 -2.630800e-05 5.636364e-06 2.441462e-06 -4.047295e-06 9.665527e-01 2.155762e-01
8.252625e+07 6.907463e-03 -3.371239e-03 -1.547951e-05 -5.753711e-06 -3.731064e-05 -1.143105e-05 9.669800e-01 2.164307e-01
8.274406e+07 7.008076e-03 -3.410339e-03 -1.239032e-05 -2.002530e-05 -2.522022e-05 4.187413e-05 9.673462e-01 2.172852e-01
8.296188e+07 7.032394e-03 -3.364086e-03 1.261849e-05 1.351628e-05 -3.844127e-05 2.099946e-05 9.680176e-01 2.183228e-01
8.317969e+07 7.018089e-03 -3.314972e-03 -2.870802e-06 7.748604e-06 2.432615e-05 1.465529e-05 9.678345e-01 2.178345e-01
8.339750e+07 7.053375e-03 -3.348351e-03 -3.762543e-06 -4.330277e-05 1.250021e-05 -3.299303e-05 9.681396e-01 2.193604e-01
8.361531e+07 7.087708e-03 -3.289223e-03 -6.437302e-06 -4.209951e-05 -1.518615e-05 1.296494e-05 9.685059e-01 2.200928e-01
8.383312e+07 7.043839e-03 -3.303528e-03 -1.042616e-05 -1.644716e-06 2.386421e-05 -1.511537e-05 9.700928e-01 2.192993e-01
8.405094e+07 7.082462e-03 -3.278732e-03 -4.456565e-05 1.113862e-06 2.109166e-05 2.009328e-05 9.692993e-01 2.211914e-01
8.426875e+07 7.078171e-03 -3.310204e-03 -2.062693e-05 -9.849668e-06 -2.277642e-05 1.041219e-06 9.694824e-01 2.207031e-01
8.448656e+07 7.117748e-03 -3.262997e-03 6.276369e-05 3.390014e-06 -1.138821e-05 5.140901e-07 9.696655e-01 2.219238e-01
8.470438e+07 7.145405e-03 -3.301620e-03 4.110858e-05 2.625585e-05 2.739951e-05 3.576279e-06 9.710083e-01 2.222900e-01
8.492219e+07 7.145405e-03 -3.296375e-03 -2.574921e-05 -1.398101e-05 -2.822466e-05 -2.205372e-06 9.702759e-01 2.233887e-01
8.514000e+07 7.151127e-03 -3.313065e-03 3.020465e-05 -3.967434e-05 -3.182516e-05 5.288050e-05 9.713745e-01 2.240601e-01
8.535781e+07 7.170677e-03 -3.251076e-03 3.200956e-05 -1.466833e-05 -1.897570e-06 -2.988381e-06 9.716797e-01 2.250366e-01
8.557562e+07 7.243156e-03 -3.253937e-03 -1.067109e-05 4.888512e-06 -1.896918e-05 -2.994761e-05 9.717407e-01 2.253418e-01
8.579344e+07 7.295132e-03 -3.229141e-03 -2.677739e-05 -6.525964e-05 3.124401e-05 9.575859e-06 9.725342e-01 2.252197e-01
8.601125e+07 7.321835e-03 -3.240585e-03 -1.846906e-05 2.016313e-06 -2.678484e-06 -2.012961e-05 9.730225e-01 2.261353e-01
8.622906e+07 7.307529e-03 -3.207207e-03 4.654750e-05 2.391264e-05 3.285706e-06 -2.394058e-05 9.734497e-01 2.265625e-01
8.644688e+07 7.339954e-03 -3.197670e-03 -2.201274e-05 2.952293e-05 1.335237e-05 -1.604389e-05 9.731445e-01 2.264404e-01
8.666469e+07 7.360458e-03 -3.204823e-03 3.676116e-05 2.523884e-06 -2.445281e-05 -3.325194e-05 9.736328e-01 2.269897e-01
8.688250e+07 7.394314e-03 -3.127098e-03 1.625065e-05 -1.393259e-05 8.740462e-06 -2.067257e-05 9.734497e-01 2.279663e-01
8.710031e+07 7.366657e-03 -3.134251e-03 4.788488e-05 -1.549721e-05 3.071129e-05 3.516302e-05 9.731445e-01 2.287598e-01
8.731812e+07 7.411480e-03 -3.165722e-03 5.133450e-06 4.124362e-06 8.164439e-06 4.915055e-06 9.748535e-01 2.293091e-01
8.753594e+07 7.387161e-03 -3.156662e-03 7.942319e-05 -1.055747e-05 5.885959e-07 -4.416704e-05 9.750977e-01 2.291870e-01
8.775375e+07 7.441521e-03 -3.131390e-03 1.049042e-05 1.660548e-06 1.552794e-05 1.121219e-05 9.755249e-01 2.296753e-01
8.797156e+07 7.395267e-03 -3.105164e-03 -1.406297e-05 2.592988e-05 3.329851e-05 -5.951151e-06 9.763794e-01 2.305298e-01
8.818938e+07 7.484913e-03 -3.170013e-03 -2.303347e-05 -2.187863e-05 3.436580e-05 1.696497e-05 9.760132e-01 2.308350e-01
8.840719e+07 7.529736e-03 -3.103256e-03 4.503876e-06 2.392381e-05 -4.106201e-06 6.820541e-06 9.769897e-01 2.309570e-01
8.862500e+07 7.554531e-03 -3.101826e-03 -2.506003e-05 -4.046410e-05 1.416635e-05 1.968443e-05 9.766235e-01 2.325439e-01
8.884281e+07 7.549763e-03 -3.113747e-03 2.843142e-05 1.944788e-05 2.218969e-05 -3.687851e-05 9.772949e-01 2.323608e-01
8.906062e+07 7.586479e-03 -3.060341e-03 -3.112108e-05 -1.822598e-05 -1.888350e-05 1.283083e-05 9.773560e-01 2.330322e-01
8.927844e+07 7.578850e-03 -3.018379e-03 5.371403e-06 -2.468470e-06 1.424085e-05 -1.746882e-05 9.779053e-01 2.329712e-01
8.949625e+07 7.632256e-03 -3.011227e-03 -4.349276e-07 1.322199e-05 -2.820417e-05 3.520399e-06 9.785767e-01 2.340088e-01
8.971406e+07 7.622719e-03 -3.000259e-03 -9.220093e-06 -4.136190e-05 6.554648e-06 2.626888e-05 9.787598e-01 2.344971e-01
8.993188e+07 7.658005e-03 -2.983570e-03 -3.698654e-05 -2.561137e-06 1.205318e-05 -7.645227e-06 9.784546e-01 2.341919e-01
9.014969e+07 7.729530e-03 -2.979755e-03 1.711026e-05 4.431233e-05 -2.300926e-05 1.078472e-06 9.801025e-01 2.345581e-01
9.036750e+07 7.726669e-03 -2.962112e-03 -4.287809e-06 -3.062561e-05 -4.578382e-05 2.652407e-05 9.796753e-01 2.354126e-01
9.058531e+07 7.770538e-03 -2.956390e-03 3.126450e-06 -1.448672e-05 5.317479e-05 -1.635402e-06 9.803467e-01 2.355347e-01
9.080312e+07 7.800579e-03 -2.978325e-03 2.491847e-05 -3.099255e-05 6.557256e-05 -2.215058e-05 9.799805e-01 2.365112e-01
9.102094e+07 7.800102e-03 -2.898216e-03 -5.169306e-06 -4.152302e-06 9.328127e-06 9.327196e-06 9.802856e-01 2.368774e-01
9.123875e+07 7.787228e-03 -2.906799e-03 7.427298e-06 1.619197e-05 -1.756754e-05 4.373491e-06 9.813843e-01 2.376099e-01
9.145656e+07 7.868767e-03 -2.868176e-03 1.801271e-05 1.785625e-05 -2.003741e-05 -1.017563e-05 9.812622e-01 2.362671e-01
9.167438e+07 7.872581e-03 -2.862930e-03 -1.641084e-05 1.408067e-05 9.878539e-06 2.088305e-05 9.815674e-01 2.368774e-01
9.189219e+07 7.876873e-03 -2.875328e-03 -8.635223e-06 -6.144121e-05 7.410999e-06 6.322283e-06 9.819946e-01 2.369385e-01
9.211000e+07 7.920265e-03 -2.843380e-03 -1.372490e-05 1.285505e-05 1.317356e-05 1.541059e-05 9.826660e-01 2.375488e-01
9.232781e+07 7.960320e-03 -2.841473e-03 1.556985e-05 1.247879e-05 -3.246032e-05 -8.266419e-06 9.829102e-01 2.380371e-01
9.254562e+07 8.006096e-03 -2.815247e-03 -1.557078e-05 -1.247972e-05 1.787953e-05 2.010446e-05 9.828491e-01 2.379761e-01
9.276344e+07 8.012295e-03 -2.802372e-03 2.169982e-07 -6.646384e-06 -8.409843e-07 2.009235e-05 9.823608e-01 2.381592e-01
9.298125e+07 8.064747e-03 -2.806187e-03 -1.263991e-05 -2.040900e-05 3.025401e-06 7.432885e-06 9.831543e-01 2.399902e-01
9.319906e+07 8.095264e-03 -2.737522e-03 4.720278e-10 1.746798e-10 -1.486391e-05 -1.267251e-05 9.837646e-01 2.392578e-01
9.341688e+07 8.072853e-03 -2.725124e-03 2.112240e-05 -7.527322e-05 9.065494e-06 2.231076e-05 9.833984e-01 2.398071e-01
9.363469e+07 8.123875e-03 -2.723217e-03 1.040287e-05 8.336268e-06 -2.258830e-05 -6.075948e-06 9.843140e-01 2.393188e-01
9.385250e+07 8.133888e-03 -2.721310e-03 -1.450628e-05 -4.584715e-05 -1.214445e-05 2.648309e-05 9.843140e-01 2.405396e-01
9.407031e+07 8.164883e-03 -2.733707e-03 -2.461299e-05 1.788326e-05 2.647564e-05 4.966184e-05 9.846191e-01 2.406616e-01
9.428812e+07 8.210182e-03 -2.659798e-03 -2.807379e-05 -3.964454e-05 1.709908e-05 2.757646e-06 9.847412e-01 2.407227e-01
9.450594e+07 8.227348e-03 -2.656937e-03 2.810732e-05 3.964454e-05 -4.966278e-06 -1.048762e-05 9.849243e-01 2.406006e-01
9.472375e+07 8.285046e-03 -2.679348e-03 -1.540687e-05 -1.919828e-05 2.237782e-05 2.905726e-07 9.847412e-01 2.409058e-01
9.494156e+07 8.302689e-03 -2.624989e-03 9.320676e-06 4.173070e-05 2.624281e-05 6.364658e-06 9.849243e-01 2.415161e-01
9.515938e+07 8.341312e-03 -2.612591e-03 1.151673e-05 -2.503023e-05 -7.194467e-06 1.823623e-05 9.853516e-01 2.418213e-01
9.537719e+07 8.350372e-03 -2.608299e-03 -1.616776e-06 -3.216043e-05 -2.074149e-05 1.574680e-05 9.856567e-01 2.420044e-01
9.559500e+07 8.404255e-03 -2.578735e-03 -2.335384e-05 -2.217293e-05 -1.161359e-05 5.550683e-07 9.853516e-01 2.426147e-01
9.581281e+07 8.398533e-03 -2.537251e-03 2.193265e-07 -6.686896e-06 2.405047e-05 -2.473593e-06 9.864502e-01 2.426758e-01
9.603062e+07 8.497238e-03 -2.578259e-03 2.781861e-05 -3.256276e-05 -6.081536e-06 -1.494773e-05 9.859619e-01 2.423096e-01
9.624844e+07 8.473396e-03 -2.552986e-03 -2.406538e-05 -2.143905e-06 9.980984e-06 -1.660641e-05 9.871826e-01 2.432861e-01
9.646625e+07 8.543491e-03 -2.530098e-03 2.905540e-05 1.298636e-05 2.498971e-06 -4.151370e-06 9.861450e-01 2.422485e-01
9.668406e+07 8.530617e-03 -2.524376e-03 -8.732080e-06 -6.193295e-05 -3.685802e-05 -2.023950e-05 9.863892e-01 2.426758e-01
9.690188e+07 8.578300e-03 -2.527237e-03 5.087629e-05 2.954155e-06 -8.033123e-06 8.293428e-07 9.868774e-01 2.427979e-01
9.711969e+07 8.583069e-03 -2.522945e-03 -1.963601e-05 -5.699322e-05 -1.274794e-05 -3.882684e-06 9.873047e-01 2.431030e-01
9.733750e+07 8.680344e-03 -2.482891e-03 -2.615526e-05 -2.098642e-05 -9.970739e-06 3.548525e-05 9.867554e-01 2.439575e-01
9.755531e+07 8.693218e-03 -2.483845e-03 -1.342129e-05 -4.284084e-07 2.440996e-05 -1.552887e-05 9.875488e-01 2.434082e-01
9.777312e+07 8.728504e-03 -2.460957e-03 -1.866370e-06 -2.561696e-05 -5.824957e-06 -9.153504e-06 9.881592e-01 2.441406e-01
9.799094e+07 8.760929e-03 -2.448559e-03 2.118759e-05 1.008995e-05 1.948327e-06 -1.581106e-05 9.875488e-01 2.437744e-01
9.820875e+07 8.759022e-03 -2.424717e-03 2.436340e-05 -4.621223e-06 -3.189966e-05 -4.743412e-05 9.883423e-01 2.434082e-01
9.842656e+07 8.788586e-03 -2.439976e-03 -4.231930e-06 4.831702e-05 -5.556270e-06 1.554657e-05 9.880981e-01 2.440796e-01
9.864438e+07 8.873940e-03 -2.415657e-03 -2.351590e-05 -2.230518e-05 -2.692826e-05 -1.805648e-05 9.880371e-01 2.449951e-01
9.886219e+07 8.885384e-03 -2.417564e-03 4.366040e-06 3.112294e-05 2.555735e-05 -1.113303e-05 9.880371e-01 2.455444e-01
9.908000e+07 8.872986e-03 -2.385616e-03 -1.532584e-05 -2.609380e-05 1.723319e-05 -1.613237e-05 9.880981e-01 2.455444e-01
9.929781e+07 8.987904e-03 -2.421379e-03 1.292676e-06 -4.037097e-05 -1.166854e-05 1.949072e-05 9.876709e-01 2.453003e-01
9.951562e+07 8.952618e-03 -2.390385e-03 -4.604459e-06 -2.440438e-05 -8.335337e-06 1.391117e-05 9.877319e-01 2.456055e-01
9.973344e+07 8.994579e-03 -2.395153e-03 -1.849979e-05 -1.138914e-05 -5.927309e-05 4.198402e-06 9.875488e-01 2.461548e-01
9.995125e+07 9.040356e-03 -2.353668e-03 -6.426126e-07 2.020970e-05 3.905967e-06 6.125309e-06 9.885864e-01 2.451782e-01
1.001691e+08 9.043694e-03 -2.381802e-03 -6.325543e-06 2.946332e-05 2.784654e-05 -2.257526e-06 9.879761e-01 2.451172e-01
1.003869e+08 9.047031e-03 -2.323627e-03 -7.344410e-06 -2.318993e-05 4.092976e-05 7.515773e-06 9.886475e-01 2.465210e-01
1.006047e+08 9.122372e-03 -2.369404e-03 -1.283921e-05 -2.066605e-05 -1.253746e-05 -3.593042e-05 9.885254e-01 2.468872e-01
1.008225e+08 9.125233e-03 -2.333641e-03 2.128072e-07 -6.742310e-06 -3.902055e-05 -4.425645e-06 9.877930e-01 2.461548e-01
1.010403e+08 9.211540e-03 -2.324581e-03 6.575137e-07 -2.023950e-05 2.370030e-05 -1.423806e-05 9.881592e-01 2.471924e-01
1.012581e+08 9.208202e-03 -2.311707e-03 1.560617e-05 1.940783e-05 1.117354e-06 4.463363e-06 9.884033e-01 2.459717e-01
1.014759e+08 9.245872e-03 -2.305984e-03 -2.324581e-06 -1.224224e-05 2.231263e-05 1.337193e-05 9.887085e-01 2.461548e-01
1.016938e+08 9.274483e-03 -2.295017e-03 -3.839843e-05 1.771934e-05 -1.955777e-05 -3.067590e-05 9.879761e-01 2.462769e-01
1.019116e+08 9.249210e-03 -2.282619e-03 5.490612e-06 -2.532732e-06 4.477799e-06 1.786277e-05 9.882812e-01 2.467651e-01
1.021294e+08 9.282112e-03 -2.262115e-03 -1.438335e-05 2.659112e-05 1.120847e-06 4.463829e-06 9.876709e-01 2.476196e-01
1.023472e+08 9.349346e-03 -2.253532e-03 1.880154e-05 4.639849e-06 2.850965e-05 2.845377e-05 9.878540e-01 2.465820e-01
1.025650e+08 9.384632e-03 -2.213955e-03 -2.683885e-05 -7.612631e-06 2.070516e-05 3.518537e-05 9.877930e-01 2.472534e-01
1.027828e+08 9.367943e-03 -2.251625e-03 1.374818e-05 -6.345101e-06 1.007318e-05 4.020333e-05 9.884644e-01 2.473145e-01
1.030006e+08 9.430885e-03 -2.241611e-03 1.143850e-05 -1.859758e-05 2.628565e-05 3.855489e-05 9.874878e-01 2.483521e-01
1.032184e+08 9.444714e-03 -2.203465e-03 2.873316e-05 3.337674e-05 -3.350433e-06 5.593523e-06 9.863281e-01 2.468262e-01
1.034362e+08 9.469032e-03 -2.208233e-03 -1.543947e-05 -2.622791e-05 7.532537e-06 -1.256540e-05 9.871216e-01 2.478027e-01
1.036541e+08 9.510517e-03 -2.167225e-03 -8.038245e-06 -2.965797e-06 3.440306e-05 -3.129244e-07 9.870605e-01 2.481079e-01
1.038719e+08 9.514809e-03 -2.195835e-03 5.724374e-06 -9.316020e-06 1.876801e-05 3.215112e-05 9.879761e-01 2.486572e-01
1.040897e+08 9.541512e-03 -2.156734e-03 3.747270e-05 1.609698e-05 2.769753e-05 1.087040e-05 9.871826e-01 2.479858e-01
1.043075e+08 9.565353e-03 -2.149105e-03 8.549541e-07 -2.710707e-05 -8.657109e-06 8.121599e-06 9.869385e-01 2.489014e-01
1.045253e+08 9.611607e-03 -2.170086e-03 4.706532e-05 -2.833828e-05 -1.539290e-05 2.989545e-07 9.867554e-01 2.493896e-01
1.047431e+08 9.638786e-03 -2.142429e-03 4.312024e-07 -1.356658e-05 1.120660e-05 6.705523e-06 9.871826e-01 2.492065e-01
1.049609e+08 9.575367e-03 -2.165794e-03 3.184192e-06 -1.483876e-05 -5.736947e-07 -1.175515e-05 9.864502e-01 2.499390e-01
1.051788e+08 9.657860e-03 -2.103329e-03 2.778322e-05 -1.950748e-05 -8.385628e-06 3.305823e-05 9.863281e-01 2.496338e-01
1.053966e+08 9.661674e-03 -2.123833e-03 -1.737662e-05 3.479235e-05 3.783032e-05 1.312047e-05 9.864502e-01 2.493896e-01
1.056144e+08 9.689808e-03 -2.112865e-03 -1.930445e-05 8.917414e-06 1.708884e-05 -3.102235e-06 9.860840e-01 2.499390e-01
1.058322e+08 9.720325e-03 -2.102375e-03 1.717359e-05 -2.800673e-05 -4.483014e-05 1.123920e-05 9.855347e-01 2.497559e-01
1.060500e+08 9.798527e-03 -2.075672e-03 -4.246831e-07 1.358800e-05 2.240948e-05 -5.628914e-06 9.857788e-01 2.495728e-01
1.062678e+08 9.770393e-03 -2.055645e-03 5.520415e-06 -2.546236e-06 1.962204e-05 -7.312745e-06 9.850464e-01 2.500000e-01
1.064856e+08 9.777069e-03 -2.081871e-03 1.445226e-05 -2.675317e-05 1.543947e-05 -2.961606e-07 9.848022e-01 2.505493e-01
1.067034e+08 9.800911e-03 -2.065182e-03 -8.704141e-06 1.741294e-05 2.234243e-06 -1.010858e-05 9.844360e-01 2.502441e-01
1.069212e+08 9.825230e-03 -2.044678e-03 -1.359452e-05 -4.265457e-07 -2.357922e-05 1.160428e-06 9.841309e-01 2.507935e-01
1.071391e+08 9.925842e-03 -2.040386e-03 6.332994e-07 -2.041087e-05 -2.663583e-07 1.318939e-05 9.846191e-01 2.508545e-01
1.073569e+08 9.865761e-03 -1.986980e-03 -9.985641e-06 -2.891757e-05 -5.774200e-07 -1.179054e-05 9.835205e-01 2.509155e-01
1.075747e+08 9.940624e-03 -2.002716e-03 -8.084811e-06 -2.976973e-06 2.609193e-05 -2.448261e-05 9.837036e-01 2.511597e-01
1.077925e+08 9.992599e-03 -1.999378e-03 4.211813e-05 4.770234e-05 8.394709e-07 -1.405249e-06 9.835205e-01 2.523804e-01
1.080103e+08 9.986401e-03 -1.996040e-03 -4.277751e-05 -2.725795e-05 -4.497822e-06 1.131557e-06 9.834595e-01 2.520752e-01
1.082281e+08 1.000309e-02 -1.978874e-03 -8.517876e-06 1.064409e-05 1.739897e-05 -1.634937e-05 9.830322e-01 2.521362e-01
1.084459e+08 1.004076e-02 -1.914978e-03 2.109446e-07 -6.814022e-06 2.523884e-06 -4.222151e-06 9.829102e-01 2.520752e-01
1.086638e+08 1.005125e-02 -1.923561e-03 -2.559740e-06 -5.538575e-06 3.257953e-05 -2.253614e-05 9.827881e-01 2.523804e-01
1.088816e+08 1.008034e-02 -1.897812e-03 1.917779e-05 -2.136454e-06 1.242198e-05 3.033876e-05 9.826050e-01 2.529297e-01
1.090994e+08 1.012230e-02 -1.950264e-03 -1.114607e-05 -8.223951e-05 2.554618e-06 1.491234e-05 9.818726e-01 2.530518e-01
1.093172e+08 1.014328e-02 -1.915932e-03 5.749054e-06 -9.380281e-06 -3.855675e-05 -5.846843e-06 9.815674e-01 2.528687e-01
1.095350e+08 1.013279e-02 -1.870155e-03 1.732260e-06 3.282540e-05 -1.947582e-05 -2.500787e-05 9.808350e-01 2.530518e-01
1.097528e+08 1.022243e-02 -1.877785e-03 -2.515316e-05 1.836568e-05 -9.629875e-06 -2.871640e-05 9.811401e-01 2.534180e-01
1.099706e+08 1.016808e-02 -1.872063e-03 5.546026e-06 -2.560671e-06 1.185015e-05 1.856405e-05 9.807739e-01 2.546997e-01
1.101884e+08 1.023197e-02 -1.872063e-03 3.607944e-06 -2.858415e-05 -2.336130e-05 7.085502e-06 9.797974e-01 2.543945e-01
1.104062e+08 1.027107e-02 -1.852989e-03 6.638467e-06 5.075708e-05 3.888458e-05 -7.394701e-06 9.792480e-01 2.546997e-01
1.106241e+08 1.029778e-02 -1.840591e-03 2.156198e-05 1.023710e-05 -7.072464e-06 -1.379382e-05 9.794922e-01 2.551270e-01
1.108419e+08 1.029015e-02 -1.828194e-03 -1.152232e-05 1.879781e-05 -3.959984e-06 -6.190035e-06 9.792480e-01 2.548218e-01
1.110597e+08 1.032829e-02 -1.780510e-03 -5.959719e-05 -1.959503e-05 -2.164207e-05 2.341717e-05 9.786377e-01 2.548828e-01
1.112775e+08 1.038742e-02 -1.761436e-03 -2.413243e-05 -1.581386e-05 1.099706e-05 8.242205e-07 9.779053e-01 2.564697e-01
1.114953e+08 1.038551e-02 -1.731873e-03 -1.772866e-05 -4.569069e-05 6.489456e-06 1.963228e-06 9.771729e-01 2.557983e-01
1.117131e+08 1.043034e-02 -1.745224e-03 1.131743e-05 -1.196750e-05 -1.014955e-05 -2.231915e-06 9.769897e-01 2.559814e-01
1.119309e+08 1.040363e-02 -1.735687e-03 8.129980e-06 2.985820e-06 -3.608130e-05 9.100884e-06 9.776611e-01 2.565308e-01
1.121488e+08 1.037025e-02 -1.711845e-03 9.667128e-06 4.268438e-05 2.933666e-07 5.919952e-06 9.760132e-01 2.556152e-01
1.123666e+08 1.047039e-02 -1.704216e-03 -1.902599e-05 -4.695728e-06 -4.768372e-06 1.440104e-05 9.761963e-01 2.571411e-01
1.125844e+08 1.055050e-02 -1.633644e-03 -1.194514e-05 3.251806e-05 -1.412071e-05 -8.429401e-06 9.761963e-01 2.571411e-01
1.128022e+08 1.051617e-02 -1.694679e-03 2.674386e-05 2.139993e-05 -2.232846e-06 1.016073e-05 9.758911e-01 2.584229e-01
1.130200e+08 1.050091e-02 -1.628876e-03 -1.328066e-05 -1.410022e-05 -2.197921e-06 2.937019e-05 9.752197e-01 2.573242e-01
1.132378e+08 1.054764e-02 -1.658440e-03 1.647230e-05 -8.568168e-07 2.236478e-05 2.678484e-05 9.743652e-01 2.590332e-01
1.134556e+08 1.058578e-02 -1.633644e-03 -1.905486e-05 -4.698522e-06 1.357589e-05 1.578405e-05 9.743652e-01 2.595825e-01
1.136734e+08 1.062012e-02 -1.593590e-03 1.865346e-05 1.839641e-05 -2.820231e-05 2.152286e-05 9.743042e-01 2.597046e-01
1.138912e+08 1.064587e-02 -1.595497e-03 -8.760951e-06 1.757219e-05 3.347173e-06 -2.488866e-05 9.738770e-01 2.597046e-01
1.141091e+08 1.063347e-02 -1.525879e-03 1.431815e-05 -2.015382e-05 8.159317e-06 -2.007931e-05 9.733276e-01 2.598267e-01
1.143269e+08 1.070690e-02 -1.566887e-03 -2.062880e-07 6.859656e-06 -8.039176e-06 5.850568e-05 9.734497e-01 2.606812e-01
1.145447e+08 1.064110e-02 -1.573563e-03 8.356292e-06 -3.865920e-06 -2.067536e-05 -1.039822e-05 9.725952e-01 2.616577e-01
1.147625e+08 1.069641e-02 -1.531601e-03 1.102686e-06 5.358830e-05 -1.235306e-05 2.717972e-05 9.718628e-01 2.620850e-01
1.149803e+08 1.077652e-02 -1.528740e-03 -2.149493e-06 -1.929421e-05 -1.109019e-05 -2.005417e-05 9.714355e-01 2.624512e-01
1.151981e+08 1.076221e-02 -1.523018e-03 -1.052115e-05 -1.541991e-05 -7.064082e-06 5.405862e-06 9.703979e-01 2.628784e-01
1.154159e+08 1.078701e-02 -1.436234e-03 -4.252419e-05 -4.799664e-05 -3.565103e-05 1.797453e-06 9.706421e-01 2.627563e-01
1.156338e+08 1.083183e-02 -1.465797e-03 -9.911135e-06 -3.606826e-05 3.615394e-06 -3.822893e-05 9.708252e-01 2.642822e-01
1.158516e+08 1.081562e-02 -1.439095e-03 8.360948e-06 -3.876165e-06 2.438575e-05 1.069531e-05 9.696045e-01 2.627563e-01
1.160694e+08 1.089191e-02 -1.441956e-03 4.956499e-06 1.803879e-05 4.229601e-06 -7.088762e-06 9.700928e-01 2.644653e-01
1.162872e+08 1.088238e-02 -1.408577e-03 -9.477139e-06 -4.979968e-05 -1.009926e-05 3.630109e-05 9.688110e-01 2.648315e-01
1.165050e+08 1.081562e-02 -1.409531e-03 3.460795e-05 3.821217e-05 -6.970018e-06 4.394352e-05 9.689331e-01 2.650757e-01
1.167228e+08 1.091194e-02 -1.373291e-03 -7.736497e-06 -1.675077e-05 -4.323199e-06 -3.145635e-05 9.679565e-01 2.661743e-01
1.169406e+08 1.089478e-02 -1.356125e-03 -2.581626e-06 -5.589332e-06 -1.758989e-05 -2.777204e-06 9.680176e-01 2.665405e-01
1.171584e+08 1.094627e-02 -1.349449e-03 9.719282e-06 4.298240e-05 1.184270e-05 -1.989398e-05 9.672241e-01 2.662964e-01
1.173762e+08 1.094913e-02 -1.280785e-03 7.543713e-06 2.367422e-05 2.041459e-06 2.241507e-05 9.676514e-01 2.676392e-01
1.175941e+08 1.099682e-02 -1.298904e-03 1.634192e-05 6.007962e-06 5.984213e-06 9.341165e-06 9.658813e-01 2.680054e-01
1.178119e+08 1.101589e-02 -1.305580e-03 -1.916103e-05 -4.700385e-06 -2.725795e-05 -1.239590e-05 9.660034e-01 2.683105e-01
1.180297e+08 1.102257e-02 -1.257896e-03 -2.175570e-06 -1.936965e-05 -5.499460e-07 7.382128e-06 9.655762e-01 2.691040e-01
1.182475e+08 1.106262e-02 -1.238823e-03 1.551583e-05 3.356859e-05 4.548207e-05 7.811934e-06 9.645996e-01 2.704468e-01
1.184653e+08 1.108360e-02 -1.264572e-03 7.986091e-06 9.899959e-06 1.186039e-05 -1.992472e-05 9.652100e-01 2.704468e-01
1.186831e+08 1.111221e-02 -1.194000e-03 1.077820e-05 8.597039e-06 3.021955e-05 3.343262e-05 9.639282e-01 2.705688e-01
1.189009e+08 1.111031e-02 -1.168251e-03 7.786788e-06 1.680106e-05 -5.095731e-06 8.545816e-06 9.642334e-01 2.712402e-01
1.191188e+08 1.115513e-02 -1.217842e-03 -2.997741e-05 -1.332536e-05 -3.219396e-05 -1.721643e-05 9.635620e-01 2.719727e-01
1.193366e+08 1.119709e-02 -1.152992e-03 -5.181134e-05 -2.364442e-05 -1.219008e-05 1.396798e-05 9.635010e-01 2.728882e-01
1.195544e+08 1.118279e-02 -1.113892e-03 -1.162477e-05 1.900457e-05 1.913309e-05 3.266707e-05 9.631958e-01 2.732544e-01
1.197722e+08 1.120567e-02 -1.132965e-03 -5.400740e-06 -4.307367e-06 2.074614e-05 -8.894131e-06 9.624634e-01 2.737427e-01
1.199900e+08 1.123810e-02 -1.069069e-03 8.207280e-06 3.010966e-06 3.095716e-06 -1.168624e-05 9.622192e-01 2.749634e-01
1.202078e+08 1.126289e-02 -1.113892e-03 8.624047e-06 -1.080520e-05 -1.141895e-05 -6.806105e-06 9.619751e-01 2.757568e-01
1.204256e+08 1.126385e-02 -1.038551e-03 -3.867783e-05 -2.549961e-06 1.366716e-05 -3.458001e-06 9.619751e-01 2.763672e-01
1.206434e+08 1.133060e-02 -1.062393e-03 -3.963709e-06 -5.273893e-05 2.719834e-05 -4.572049e-05 9.618530e-01 2.764893e-01
1.208612e+08 1.130009e-02 -1.034737e-03 -2.004206e-05 2.292916e-05 2.553454e-06 -4.284317e-06 9.603271e-01 2.764282e-01
1.210791e+08 1.135254e-02 -9.899139e-04 1.279823e-05 -6.765127e-06 -2.199225e-05 1.527183e-05 9.591064e-01 2.767334e-01
1.212969e+08 1.140594e-02 -1.007080e-03 -3.382936e-05 -8.312985e-06 1.926161e-05 -2.615899e-05 9.575195e-01 2.780151e-01
1.215147e+08 1.140404e-02 -9.708405e-04 -8.454546e-06 1.624227e-05 3.485940e-05 4.202127e-06 9.577026e-01 2.788086e-01
1.217325e+08 1.142979e-02 -9.469986e-04 8.266419e-06 2.183020e-05 -3.243331e-06 -9.425916e-06 9.578247e-01 2.788086e-01
1.219503e+08 1.149464e-02 -9.336472e-04 2.242811e-05 6.508082e-06 4.157983e-05 1.320988e-05 9.563599e-01 2.806396e-01
1.221681e+08 1.145935e-02 -9.517670e-04 1.053326e-05 7.542782e-06 -2.293289e-05 -5.616620e-05 9.565430e-01 2.812500e-01
1.223859e+08 1.149178e-02 -9.107590e-04 -1.823530e-06 1.144037e-05 -3.677420e-05 -8.184463e-06 9.555664e-01 2.818604e-01
1.226038e+08 1.146412e-02 -8.726120e-04 -1.463853e-05 1.820549e-05 -1.235772e-05 -2.097711e-05 9.555664e-01 2.827759e-01
1.228216e+08 1.157856e-02 -8.382797e-04 -1.444481e-05 -1.990050e-05 -7.755123e-06 -6.084330e-06 9.550781e-01 2.830811e-01
1.230394e+08 1.156807e-02 -8.878708e-04 -9.823591e-06 2.485141e-05 2.965145e-05 1.886114e-05 9.548340e-01 2.839966e-01
1.232572e+08 1.155949e-02 -8.831024e-04 -2.403185e-05 4.021823e-05 3.241934e-06 9.436626e-06 9.545288e-01 2.852173e-01
1.234750e+08 1.162052e-02 -8.049011e-04 -8.704141e-06 -1.901574e-05 -2.329238e-05 2.810732e-05 9.537354e-01 2.860107e-01
1.236928e+08 1.160431e-02 -7.686615e-04 -3.756955e-05 1.455843e-05 -2.510473e-05 4.236586e-05 9.534302e-01 2.865601e-01
1.239106e+08 1.161957e-02 -7.534027e-04 5.935133e-05 -4.043803e-05 -1.196098e-05 5.660579e-06 9.525757e-01 2.877197e-01
1.241284e+08 1.163673e-02 -7.095337e-04 5.268492e-06 3.777444e-06 7.431954e-07 -1.133326e-05 9.515381e-01 2.879028e-01
1.243462e+08 1.170158e-02 -6.837845e-04 2.245791e-05 6.524846e-06 -2.841465e-06 1.720618e-05 9.515991e-01 2.889404e-01
1.245641e+08 1.172733e-02 -6.933212e-04 -1.994148e-05 1.445785e-05 -7.979106e-06 3.767665e-06 9.517822e-01 2.895508e-01
1.247819e+08 1.172066e-02 -6.704330e-04 -2.291799e-05 -3.669411e-06 -2.960488e-05 -6.575137e-07 9.511108e-01 2.907715e-01
1.249997e+08 1.169491e-02 -6.523132e-04 -2.750568e-05 2.502277e-05 -2.810918e-05 -2.334267e-05 9.515991e-01 2.911377e-01
1.252175e+08 1.175308e-02 -6.484985e-04 3.254786e-05 1.696311e-05 -6.226823e-06 3.592484e-05 9.500732e-01 2.921753e-01
1.254353e+08 1.175499e-02 -5.893707e-04 -1.284759e-05 6.768852e-06 1.701992e-05 -1.049601e-05 9.505005e-01 2.932739e-01
1.256531e+08 1.176357e-02 -5.674362e-04 4.129112e-05 3.600121e-05 3.510527e-05 -2.393313e-05 9.493408e-01 2.939453e-01
1.258709e+08 1.181698e-02 -5.645752e-04 -3.143214e-05 1.261570e-05 4.031509e-05 7.819384e-06 9.488525e-01 2.948608e-01
1.260888e+08 1.180267e-02 -5.378723e-04 1.193024e-05 -1.024455e-06 2.921745e-05 2.042018e-05 9.485474e-01 2.962646e-01
1.263066e+08 1.183414e-02 -4.930496e-04 1.170859e-05 3.719702e-05 -8.074567e-06 -1.450628e-05 9.492188e-01 2.968140e-01
1.265244e+08 1.187420e-02 -4.959106e-04 2.823398e-05 7.461756e-06 -2.201833e-05 3.364123e-05 9.483643e-01 2.974854e-01
1.267422e+08 1.189423e-02 -5.140305e-04 6.524846e-05 3.400072e-05 -3.811531e-05 2.286024e-05 9.487305e-01 2.985840e-01
1.269600e+08 1.190472e-02 -5.111694e-04 -2.252124e-05 -6.550923e-06 5.807355e-05 1.418218e-05 9.484863e-01 2.997437e-01
1.271778e+08 1.189041e-02 -4.024506e-04 -3.444031e-06 -1.529232e-05 -6.819144e-06 3.743917e-05 9.484253e-01 3.010864e-01
1.273956e+08 1.193047e-02 -3.976822e-04 2.389587e-05 -2.071261e-06 4.778430e-05 5.207211e-05 9.473877e-01 3.010864e-01
1.276134e+08 1.192665e-02 -4.024506e-04 -1.195259e-05 1.031905e-06 8.182600e-06 3.286265e-05 9.471436e-01 3.021240e-01
1.278312e+08 1.195526e-02 -3.089905e-04 -4.022568e-05 -6.463379e-06 2.718344e-05 -2.016127e-05 9.468384e-01 3.037109e-01
1.280491e+08 1.198101e-02 -3.128052e-04 -1.195818e-05 1.032837e-06 3.322959e-06 2.781115e-05 9.467163e-01 3.038940e-01
1.282669e+08 1.197720e-02 -2.679825e-04 1.286995e-05 -6.781891e-06 -2.698600e-05 1.027063e-05 9.461060e-01 3.046265e-01
1.284847e+08 1.201344e-02 -3.042221e-04 -2.113916e-05 -1.516752e-05 -1.172349e-05 1.409091e-05 9.450073e-01 3.051758e-01
1.287025e+08 1.206589e-02 -2.412796e-04 -1.930445e-05 -2.669543e-05 -1.389999e-05 1.655892e-06 9.456787e-01 3.068237e-01
1.289203e+08 1.207829e-02 -1.888275e-04 2.670474e-05 -1.930073e-05 1.013605e-05 -9.677373e-06 9.453735e-01 3.080444e-01
1.291381e+08 1.204300e-02 -2.288818e-04 1.387671e-06 -8.626841e-06 -1.533702e-05 -2.216361e-05 9.450073e-01 3.087769e-01
1.293559e+08 1.207542e-02 -1.726151e-04 8.726493e-06 1.910236e-05 3.708061e-06 -1.031626e-05 9.441528e-01 3.098755e-01
1.295738e+08 1.213932e-02 -1.525879e-04 -2.673082e-05 1.931190e-05 -4.182011e-05 -1.338124e-05 9.443970e-01 3.110962e-01
1.297916e+08 1.213360e-02 -1.630783e-04 -1.449510e-05 -2.003089e-05 -3.950670e-06 2.024136e-05 9.447021e-01 3.110962e-01
1.300094e+08 1.218605e-02 -1.163483e-04 3.800169e-05 2.088398e-05 -1.929142e-05 -1.944602e-06 9.447632e-01 3.123169e-01
1.302272e+08 1.216793e-02 -7.629395e-05 2.326444e-05 -3.464334e-05 7.133931e-06 -2.909452e-05 9.438477e-01 3.129883e-01
1.304450e+08 1.220226e-02 -7.915497e-05 2.693199e-05 1.613237e-05 -1.891982e-06 -4.014932e-06 9.437866e-01 3.139648e-01
1.306628e+08 1.223373e-02 -4.291534e-05 1.521595e-05 -2.118200e-05 -1.192093e-06 -3.378093e-05 9.436035e-01 3.150635e-01
1.308806e+08 1.225185e-02 9.536743e-06 -2.972782e-05 1.128763e-06 -1.205131e-05 5.673617e-06 9.434814e-01 3.162842e-01
1.310984e+08 1.224804e-02 3.719330e-05 -3.017485e-05 3.991649e-06 -1.782365e-05 -4.312769e-05 9.420776e-01 3.171997e-01
1.313162e+08 1.230049e-02 7.724762e-05 -2.782792e-06 1.727790e-05 -2.636574e-05 -1.949072e-05 9.423828e-01 3.179932e-01
1.315341e+08 1.229191e-02 3.433228e-05 -2.927892e-05 -1.758337e-06 1.181848e-05 4.260801e-06 9.426880e-01 3.187866e-01
1.317519e+08 1.230335e-02 6.866455e-05 2.603419e-05 2.195872e-05 2.311170e-05 9.968877e-06 9.430542e-01 3.203735e-01
1.319697e+08 1.230335e-02 1.192093e-04 2.559274e-05 2.483651e-05 1.767557e-05 -1.201034e-05 9.433594e-01 3.211060e-01
1.321875e+08 1.233959e-02 1.544952e-04 -2.056919e-05 1.739152e-05 1.124106e-06 1.543388e-05 9.424438e-01 3.223877e-01
1.324053e+08 1.237106e-02 1.258850e-04 2.259575e-05 6.593764e-06 5.680136e-06 1.206994e-05 9.423218e-01 3.226929e-01
1.326231e+08 1.240730e-02 1.993179e-04 1.340825e-05 -9.670854e-06 2.154335e-05 1.443736e-05 9.428101e-01 3.245850e-01
1.328409e+08 1.237488e-02 2.040863e-04 -1.993030e-07 -3.552996e-05 1.467764e-05 -3.146194e-05 9.416504e-01 3.248901e-01
1.330588e+08 1.244736e-02 2.298355e-04 -9.317882e-07 5.764887e-06 1.396518e-05 -1.657754e-06 9.412231e-01 3.262939e-01
1.332766e+08 1.248074e-02 2.527237e-04 4.410371e-05 -1.657382e-05 -1.668744e-05 -9.349547e-06 9.417114e-01 3.269653e-01
1.334944e+08 1.246452e-02 3.232956e-04 -3.713369e-05 -2.672337e-05 3.946759e-05 -7.512048e-06 9.417725e-01 3.276978e-01
1.337122e+08 1.248074e-02 3.242493e-04 3.885850e-05 -2.040900e-05 3.545545e-06 1.800712e-05 9.425659e-01 3.290405e-01
1.339300e+08 1.254845e-02 3.595352e-04 -2.543814e-05 1.069345e-05 3.387593e-05 -1.175329e-06 9.419556e-01 3.305054e-01
1.341478e+08 1.253986e-02 3.614426e-04 1.903996e-05 -4.434213e-05 2.611428e-06 -2.582930e-05 9.418335e-01 3.316650e-01
1.343656e+08 1.257038e-02 3.967285e-04 -4.207715e-06 2.601929e-05 4.676357e-05 -1.826882e-05 9.427490e-01 3.327637e-01
1.345834e+08 1.254082e-02 4.024506e-04 1.296122e-05 -6.792136e-06 -9.071082e-06 2.518483e-05 9.416504e-01 3.334961e-01
1.348012e+08 1.259327e-02 5.054474e-04 -2.357550e-05 -8.512288e-07 1.262967e-05 -7.158145e-06 9.410400e-01 3.341675e-01
1.350191e+08 1.264858e-02 4.262924e-04 -2.776645e-05 2.513453e-05 9.128824e-06 -6.748829e-06 9.407349e-01 3.348999e-01
1.352369e+08 1.265049e-02 5.216599e-04 -9.221956e-06 -1.632236e-05 1.804065e-05 -3.549270e-06 9.418335e-01 3.364258e-01
1.354547e+08 1.265717e-02 5.617142e-04 -2.311729e-05 -3.740191e-06 2.964167e-06 1.071719e-06 9.412842e-01 3.370361e-01
1.356725e+08 1.268196e-02 6.008148e-04 -2.332032e-05 -3.937632e-05 -3.259443e-05 6.688759e-06 9.419556e-01 3.381348e-01
1.358903e+08 1.268864e-02 6.113052e-04 8.748844e-06 1.924392e-05 -1.648441e-05 -1.937337e-05 9.423828e-01 3.400879e-01
1.361081e+08 1.268196e-02 5.941391e-04 5.623326e-06 -3.469177e-05 -1.235306e-05 1.564901e-05 9.416504e-01 3.398438e-01
1.363259e+08 1.267910e-02 6.275177e-04 1.937896e-05 2.689660e-05 1.404900e-05 1.680385e-05 9.420166e-01 3.413086e-01
1.365438e+08 1.269817e-02 6.437302e-04 -2.595969e-05 1.358986e-05 -5.363254e-07 1.483248e-06 9.414673e-01 3.421021e-01
1.367616e+08 1.272869e-02 6.875992e-04 3.551319e-05 -3.579818e-05 -4.254282e-06 3.033504e-05 9.414673e-01 3.430176e-01
1.369794e+08 1.276302e-02 7.381439e-04 -1.030788e-05 -4.624575e-05 -1.232140e-05 3.412738e-05 9.418335e-01 3.442383e-01
1.371972e+08 1.281643e-02 7.228851e-04 -2.128631e-05 -1.535192e-05 -3.490224e-05 -4.284456e-05 9.424438e-01 3.455200e-01
1.374150e+08 1.279163e-02 7.991791e-04 1.831073e-05 -2.967194e-06 -2.969988e-06 -1.074746e-06 9.421387e-01 3.461304e-01
1.376328e+08 1.280403e-02 7.591248e-04 -2.741069e-05 2.230145e-05 4.317425e-05 1.055747e-05 9.426880e-01 3.472290e-01
1.378506e+08 1.282883e-02 8.096695e-04 8.151866e-06 -1.353677e-05 -1.101010e-05 3.969669e-05 9.427490e-01 3.482056e-01
1.380684e+08 1.286030e-02 8.487701e-04 4.634261e-05 7.584691e-06 2.509356e-05 -4.367903e-06 9.425659e-01 3.500366e-01
1.382862e+08 1.292610e-02 8.907318e-04 3.083050e-05 -6.876886e-06 2.758205e-05 1.669675e-05 9.416504e-01 3.497925e-01
1.385041e+08 1.290321e-02 9.012222e-04 1.206063e-05 -1.005828e-06 4.669279e-05 -8.318573e-06 9.426270e-01 3.510742e-01
1.387219e+08 1.292610e-02 9.202957e-04 2.304465e-05 -3.192574e-05 2.216548e-07 -2.850220e-05 9.419556e-01 3.515625e-01
1.389397e+08 1.292324e-02 1.000404e-03 -2.413057e-05 2.022833e-06 -1.240894e-05 1.568627e-05 9.426270e-01 3.521729e-01
1.391575e+08 1.292419e-02 9.918213e-04 -1.028553e-05 -4.632026e-05 4.081614e-05 8.052215e-06 9.429932e-01 3.540039e-01
1.393753e+08 1.299858e-02 9.870529e-04 2.820976e-06 -1.741294e-05 2.488121e-05 2.415664e-05 9.443970e-01 3.535767e-01
1.395931e+08 1.296711e-02 1.027107e-03 7.695518e-06 -1.064781e-05 5.157664e-06 1.364388e-05 9.431763e-01 3.555298e-01
1.398109e+08 1.312065e-02 1.057625e-03 1.444109e-05 -1.549721e-05 -1.756661e-05 2.049841e-06 9.434814e-01 3.566895e-01
1.400288e+08 1.304722e-02 1.104355e-03 -1.545995e-06 -2.706796e-05 1.839641e-05 4.973263e-06 9.450684e-01 3.579712e-01
1.402466e+08 1.306343e-02 1.074791e-03 2.460927e-05 -4.913658e-06 4.411489e-05 -8.754432e-07 9.434814e-01 3.585205e-01
1.404644e+08 1.305103e-02 1.146317e-03 1.396984e-05 -1.261476e-05 5.453825e-06 2.218783e-05 9.441528e-01 3.601074e-01
1.406822e+08 1.309299e-02 1.156807e-03 3.309920e-06 -2.032146e-05 2.596527e-05 2.672896e-06 9.449463e-01 3.605347e-01
1.409000e+08 1.307297e-02 1.188278e-03 -2.560019e-05 1.072325e-05 2.475455e-06 2.110377e-05 9.454956e-01 3.616333e-01
1.411178e+08 1.311779e-02 1.171112e-03 1.057237e-05 -2.808683e-05 5.095452e-05 4.539266e-05 9.453735e-01 3.629761e-01
1.413356e+08 1.318645e-02 1.239777e-03 4.857779e-06 6.759074e-06 8.380972e-06 -1.381431e-05 9.457397e-01 3.634033e-01
1.415534e+08 1.313400e-02 1.259804e-03 -5.810522e-06 -9.522773e-07 -5.741790e-05 -8.992851e-06 9.460449e-01 3.643799e-01
1.417712e+08 1.317215e-02 1.305580e-03 2.810545e-05 1.057237e-05 2.437644e-05 7.156283e-06 9.466553e-01 3.652344e-01
1.419891e+08 1.317310e-02 1.280785e-03 -3.630854e-05 3.011897e-06 -2.709962e-05 -1.824833e-05 9.467163e-01 3.661499e-01
1.422069e+08 1.318550e-02 1.269341e-03 4.259497e-05 -4.939735e-06 2.626702e-05 -7.353723e-06 9.461670e-01 3.676147e-01
1.424247e+08 1.320839e-02 1.399994e-03 4.768372e-07 -2.907589e-06 7.751957e-05 9.544194e-06 9.468384e-01 3.679199e-01
1.426425e+08 1.321220e-02 1.414299e-03 1.427718e-06 -8.715317e-06 3.061630e-05 -1.928769e-05 9.469604e-01 3.688354e-01
1.428603e+08 1.324844e-02 1.408577e-03 -2.007931e-06 -2.419390e-05 1.215190e-05 -4.283898e-05 9.470215e-01 3.695679e-01
1.430781e+08 1.324463e-02 1.434326e-03 -3.298372e-05 -1.733750e-05 4.070997e-05 5.527586e-05 9.478149e-01 3.700562e-01
1.432959e+08 1.324654e-02 1.452446e-03 4.795194e-05 -1.098961e-06 4.066899e-05 -4.433095e-07 9.484253e-01 3.709717e-01
1.435138e+08 1.329327e-02 1.511574e-03 -2.430193e-05 -3.387779e-05 1.816265e-05 -3.538094e-06 9.488525e-01 3.723145e-01
1.437316e+08 1.328945e-02 1.545906e-03 3.870390e-05 -1.754798e-05 -3.964268e-05 -3.971346e-05 9.486084e-01 3.721313e-01
1.439494e+08 1.330376e-02 1.516342e-03 7.810071e-06 2.518483e-05 -2.605841e-05 -2.676621e-06 9.489746e-01 3.737183e-01
1.441672e+08 1.331043e-02 1.562119e-03 -4.690140e-05 6.707385e-05 6.236136e-06 -7.880386e-06 9.502563e-01 3.748169e-01
1.443850e+08 1.333046e-02 1.589775e-03 -2.084486e-05 1.750886e-05 3.258139e-05 3.380701e-06 9.506836e-01 3.762817e-01
1.446028e+08 1.335144e-02 1.600266e-03 4.516542e-05 1.638383e-05 -5.172566e-06 -3.231131e-05 9.508667e-01 3.761597e-01
1.448206e+08 1.337910e-02 1.658440e-03 1.506973e-05 1.744833e-05 -2.553500e-05 -4.194677e-06 9.508057e-01 3.776855e-01
1.450384e+08 1.344013e-02 1.664162e-03 -2.876855e-06 1.747441e-05 1.358055e-05 -1.369044e-07 9.516602e-01 3.781738e-01
1.452562e+08 1.349831e-02 1.696587e-03 6.785616e-06 -4.867092e-06 2.719276e-05 -2.812594e-07 9.522095e-01 3.790283e-01
1.454741e+08 1.348209e-02 1.729012e-03 2.954155e-06 1.844391e-05 -1.630513e-06 4.485948e-06 9.528198e-01 3.795776e-01
1.456919e+08 1.344013e-02 1.758575e-03 3.104843e-05 -6.869435e-06 -5.430775e-07 1.494423e-06 9.523926e-01 3.799438e-01
1.459097e+08 1.345921e-02 1.787186e-03 3.395230e-05 -2.434663e-05 2.257340e-05 -1.549721e-05 9.533081e-01 3.809204e-01
1.461275e+08 1.340485e-02 1.807213e-03 -4.168972e-05 3.500283e-05 5.624816e-05 2.214685e-05 9.529419e-01 3.815308e-01
1.463453e+08 1.350212e-02 1.854897e-03 -2.385676e-05 -3.689900e-05 4.354864e-06 -1.196004e-05 9.541016e-01 3.825684e-01
1.465631e+08 1.354504e-02 1.850128e-03 -2.944842e-06 -1.846626e-05 -1.768209e-05 2.033077e-06 9.550171e-01 3.839111e-01
1.467809e+08 1.349545e-02 1.937866e-03 2.284721e-05 6.770715e-06 -3.726780e-05 1.862086e-05 9.548950e-01 3.842773e-01
1.469988e+08 1.353264e-02 1.914024e-03 1.118425e-05 4.845671e-06 2.665073e-05 1.985952e-05 9.555054e-01 3.852539e-01
1.472166e+08 1.353836e-02 1.938820e-03 -1.991168e-06 -2.430752e-05 1.578405e-05 -2.474710e-05 9.563599e-01 3.852539e-01
1.474344e+08 1.357460e-02 1.981735e-03 1.943111e-05 -8.788891e-06 1.877360e-05 -5.029142e-06 9.561768e-01 3.858032e-01
1.476522e+08 1.360989e-02 1.991272e-03 -8.715317e-06 1.653470e-05 1.360662e-06 5.580485e-06 9.561768e-01 3.864136e-01
1.478700e+08 1.358604e-02 2.030373e-03 2.135709e-05 -2.043508e-05 9.264797e-06 -4.408136e-05 9.566650e-01 3.876343e-01
1.480878e+08 1.359367e-02 2.083778e-03 2.328493e-05 -3.212877e-05 9.797979e-06 -8.305069e-06 9.577026e-01 3.881836e-01
1.483056e+08 1.359653e-02 2.103806e-03 -2.961978e-05 3.410876e-05 8.135103e-07 7.077120e-06 9.586182e-01 3.887939e-01
1.485234e+08 1.367760e-02 2.121925e-03 2.484582e-05 3.108568e-05 -2.996065e-05 -1.090579e-05 9.589233e-01 3.887329e-01
1.487412e+08 1.364803e-02 2.123833e-03 -4.037470e-05 -9.674579e-06 2.260506e-05 -3.418699e-05 9.590454e-01 3.894653e-01
1.489591e+08 1.367855e-02 2.150536e-03 -8.745119e-06 1.655985e-05 -5.478412e-05 -8.072704e-06 9.604492e-01 3.904419e-01
1.491769e+08 1.367188e-02 2.212524e-03 3.796816e-05 -1.173094e-05 -9.269919e-06 6.815884e-06 9.609985e-01 3.909912e-01
1.493947e+08 1.370430e-02 2.224922e-03 4.526228e-07 -3.891066e-05 -2.012402e-05 -3.789738e-05 9.595337e-01 3.916016e-01
1.496125e+08 1.369858e-02 2.242088e-03 1.362804e-05 -9.751879e-06 -1.061149e-05 -1.743995e-05 9.614868e-01 3.923340e-01
1.498303e+08 1.372337e-02 2.300262e-03 -8.318573e-06 -2.239458e-05 -3.826339e-06 1.048949e-05 9.622803e-01 3.923340e-01
1.500481e+08 1.378536e-02 2.334595e-03 -4.481152e-05 1.658872e-05 2.480671e-05 -2.151914e-05 9.625244e-01 3.937378e-01
1.502659e+08 1.376629e-02 2.337456e-03 9.681098e-07 -5.844515e-06 -9.529293e-06 -2.045278e-05 9.627686e-01 3.940430e-01
1.504838e+08 1.375866e-02 2.365112e-03 -3.390014e-06 2.045557e-05 7.083174e-06 -8.167699e-07 9.635010e-01 3.940430e-01
1.507016e+08 1.374340e-02 2.406120e-03 4.630908e-05 1.067668e-05 3.954396e-05 1.269206e-05 9.644775e-01 3.947754e-01
1.509194e+08 1.382160e-02 2.461433e-03 1.023430e-05 1.071021e-05 -2.453290e-05 -2.594665e-05 9.644775e-01 3.952637e-01
1.511372e+08 1.379776e-02 2.449989e-03 -1.314748e-05 6.830320e-06 -8.173287e-06 -1.486856e-05 9.645996e-01 3.951416e-01
1.513550e+08 1.381779e-02 2.463341e-03 3.604218e-05 -3.609434e-05 -1.652166e-06 2.317876e-05 9.655151e-01 3.958740e-01
1.515728e+08 1.383018e-02 2.520561e-03 3.703684e-05 -5.869195e-06 -1.924112e-06 1.459755e-05 9.656372e-01 3.963623e-01
1.517906e+08 1.383877e-02 2.492905e-03 -3.119931e-05 6.834045e-06 3.220513e-05 -1.374632e-05 9.664307e-01 3.967896e-01
1.520084e+08 1.384449e-02 2.581596e-03 1.997501e-05 -1.170672e-05 -2.509356e-05 -5.751848e-06 9.665527e-01 3.974609e-01
1.522262e+08 1.386452e-02 2.589226e-03 4.976243e-05 -9.767711e-06 -3.386289e-05 -1.914799e-05 9.681396e-01 3.981323e-01
1.524441e+08 1.389217e-02 2.650261e-03 1.267344e-05 -4.003942e-05 3.519654e-05 6.023794e-06 9.691772e-01 3.986206e-01
1.526619e+08 1.389408e-02 2.634048e-03 2.484769e-05 -4.098564e-05 1.229346e-05 -5.727634e-06 9.690552e-01 3.984985e-01
1.528797e+08 1.386261e-02 2.685547e-03 -3.220513e-05 1.268834e-05 2.156198e-05 6.167218e-06 9.692383e-01 3.996582e-01
1.530975e+08 1.393223e-02 2.701759e-03 3.464520e-05 4.485250e-05 -1.147203e-05 -5.893409e-06 9.694824e-01 3.989258e-01
1.533153e+08 1.389027e-02 2.739906e-03 -2.456829e-06 -2.146885e-05 -1.358334e-06 -5.597714e-06 9.705811e-01 4.001465e-01
1.535331e+08 1.391315e-02 2.788544e-03 -3.898516e-06 -1.268554e-05 -5.454756e-06 -3.698282e-06 9.702759e-01 4.008789e-01
1.537509e+08 1.395798e-02 2.780914e-03 -2.881512e-05 -4.391000e-05 -2.457388e-05 -7.290393e-06 9.714966e-01 4.001465e-01
1.539688e+08 1.395607e-02 2.811432e-03 -5.569309e-05 8.773059e-06 5.820766e-07 -2.023671e-05 9.729004e-01 4.012451e-01
1.541866e+08 1.395607e-02 2.846718e-03 5.662069e-05 2.150238e-05 1.337565e-05 1.000147e-05 9.726562e-01 4.016724e-01
1.544044e+08 1.401520e-02 2.864838e-03 1.708046e-05 -3.027730e-05 3.257580e-05 -2.387166e-05 9.734497e-01 4.012451e-01
1.546222e+08 1.399708e-02 2.882004e-03 -1.858734e-05 -3.323518e-05 1.583248e-06 3.291294e-05 9.747925e-01 4.018555e-01
1.548400e+08 1.401711e-02 2.923012e-03 -2.199970e-05 2.346002e-05 -2.491288e-06 1.612026e-05 9.746094e-01 4.024048e-01
1.550578e+08 1.401424e-02 2.993584e-03 1.759641e-05 -3.326684e-05 -2.787448e-05 1.711771e-06 9.757690e-01 4.021606e-01
1.552756e+08 1.400375e-02 3.010750e-03 -9.762123e-06 -1.368579e-05 5.660951e-05 3.661960e-06 9.751587e-01 4.030762e-01
1.554934e+08 1.407719e-02 3.005981e-03 2.929941e-06 1.857150e-05 2.019852e-05 1.931377e-05 9.761963e-01 4.026489e-01
1.557112e+08 1.405811e-02 3.029823e-03 -2.539158e-05 -2.832152e-05 -3.849622e-06 1.051975e-05 9.758301e-01 4.024658e-01
1.559291e+08 1.406670e-02 3.144264e-03 -4.884321e-06 -6.847084e-06 -2.674758e-05 -2.001785e-05 9.771729e-01 4.032593e-01
1.561469e+08 1.405716e-02 3.122330e-03 1.272373e-05 -3.904104e-06 8.976087e-06 2.203509e-05 9.782715e-01 4.038086e-01
1.563647e+08 1.411533e-02 3.125191e-03 4.060939e-05 -2.638996e-05 4.166178e-05 -2.055988e-05 9.786987e-01 4.034424e-01
1.565825e+08 1.407337e-02 3.163338e-03 -4.429370e-06 2.642907e-05 6.919727e-06 -2.815574e-05 9.791260e-01 4.039917e-01
1.568003e+08 1.410580e-02 3.165245e-03 -1.613330e-05 -1.174212e-05 -1.863576e-05 1.363643e-05 9.786377e-01 4.033813e-01
1.570181e+08 1.413536e-02 3.214836e-03 -1.227483e-05 3.716536e-05 -9.828247e-06 -1.042103e-05 9.791870e-01 4.042969e-01
1.572359e+08 1.413536e-02 3.307343e-03 3.621541e-05 5.587935e-09 5.643815e-05 -4.921108e-06 9.806519e-01 4.031982e-01
1.574538e+08 1.417923e-02 3.254890e-03 -2.447888e-05 1.952052e-06 -3.894791e-06 2.930500e-05 9.811401e-01 4.036865e-01
1.576716e+08 1.412868e-02 3.273010e-03 3.816001e-05 2.448820e-05 -1.613703e-05 -2.500601e-06 9.810181e-01 4.035034e-01
1.578894e+08 1.409245e-02 3.371239e-03 1.490116e-06 -4.505739e-05 8.679926e-06 3.216974e-05 9.826050e-01 4.041138e-01
1.581072e+08 1.416969e-02 3.398895e-03 1.418963e-05 2.350472e-05 8.719042e-06 1.343153e-05 9.826050e-01 4.039917e-01
1.583250e+08 1.412106e-02 3.367424e-03 4.095853e-10 -2.920331e-10 -2.057850e-05 9.523705e-06 9.819946e-01 4.042969e-01
1.585428e+08 1.414585e-02 3.434181e-03 5.142018e-05 -1.857057e-05 -1.620874e-05 1.626182e-05 9.830322e-01 4.035645e-01
1.587606e+08 1.419735e-02 3.459930e-03 1.767650e-05 -3.330037e-05 1.339335e-05 1.002941e-05 9.839478e-01 4.042969e-01
1.589784e+08 1.423836e-02 3.509521e-03 -6.787479e-06 -6.762519e-05 2.058037e-05 -9.532087e-06 9.841919e-01 4.043579e-01
1.591962e+08 1.421833e-02 3.509521e-03 -4.509091e-05 1.659244e-05 -2.876669e-05 -5.418435e-06 9.841919e-01 4.041138e-01
1.594141e+08 1.419544e-02 3.582001e-03 3.136508e-05 -6.830320e-06 -2.486631e-07 -8.631963e-06 9.849854e-01 4.038086e-01
1.596319e+08 1.423550e-02 3.601074e-03 5.882233e-06 9.881333e-07 1.531281e-05 1.414958e-05 9.856567e-01 4.039917e-01
1.598497e+08 1.429653e-02 3.582001e-03 4.835427e-06 4.312396e-05 -2.529845e-05 3.172271e-05 9.852295e-01 4.039917e-01
1.600675e+08 1.421547e-02 3.639221e-03 2.894364e-05 -2.838485e-05 2.901815e-05 1.405738e-05 9.858398e-01 4.039917e-01
1.602853e+08 1.420116e-02 3.694534e-03 4.903600e-05 -3.863126e-06 -1.479965e-05 3.107823e-06 9.865723e-01 4.046021e-01
1.605031e+08 1.429844e-02 3.678322e-03 -2.845749e-05 2.545863e-05 -6.329734e-06 7.934403e-06 9.867554e-01 4.042358e-01
1.607209e+08 1.426601e-02 3.758430e-03 -1.126900e-05 -4.909001e-06 1.180917e-05 -4.215166e-06 9.870605e-01 4.036865e-01
1.609388e+08 1.427650e-02 3.799438e-03 3.388152e-05 -2.148934e-05 -2.687052e-05 -1.315027e-06 9.870605e-01 4.043579e-01
1.611566e+08 1.426411e-02 3.817558e-03 6.380491e-06 -1.956243e-06 -3.320724e-05 6.619841e-06 9.887085e-01 4.030762e-01
1.613744e+08 1.428795e-02 3.824234e-03 -1.616497e-05 -1.178961e-05 -2.010167e-05 2.679788e-05 9.882812e-01 4.031372e-01
1.615922e+08 1.424313e-02 3.861427e-03 6.378628e-06 -1.955312e-06 1.064315e-05 1.758430e-05 9.889526e-01 4.028931e-01
1.618100e+08 1.432705e-02 3.856659e-03 2.157502e-05 1.572818e-05 3.761612e-05 -1.868792e-05 9.896851e-01 4.027710e-01
1.620278e+08 1.431751e-02 3.906250e-03 -2.010539e-05 -2.458878e-05 3.155693e-05 -2.080575e-06 9.902954e-01 4.033203e-01
1.622456e+08 1.430321e-02 3.944397e-03 -2.163090e-05 2.059899e-05 1.210999e-05 -1.436658e-05 9.901123e-01 4.026489e-01
1.624634e+08 1.430321e-02 3.969193e-03 -4.664436e-05 -1.084805e-05 2.227351e-05 -1.406856e-05 9.905396e-01 4.019775e-01
1.626812e+08 1.437092e-02 3.967285e-03 -1.178216e-05 -1.981854e-06 -1.908047e-06 -4.120870e-06 9.902954e-01 4.022827e-01
1.628991e+08 1.434326e-02 3.996849e-03 2.752617e-05 -1.960807e-05 1.039822e-05 8.956064e-06 9.909668e-01 4.020996e-01
1.631169e+08 1.431656e-02 4.051208e-03 2.604350e-05 -1.076795e-05 2.227910e-05 -1.404807e-05 9.912720e-01 4.019775e-01
1.633347e+08 1.435757e-02 4.063606e-03 6.732345e-05 -3.825873e-06 3.508478e-05 1.635030e-05 9.917603e-01 4.020386e-01
1.635525e+08 1.434517e-02 4.090309e-03 1.916941e-05 -5.849637e-06 2.085976e-05 -8.903444e-07 9.916382e-01 4.015503e-01
1.637703e+08 1.442909e-02 4.111290e-03 -2.421439e-06 -2.163276e-05 -7.162243e-05 -6.370246e-07 9.923096e-01 4.012451e-01
1.639881e+08 1.436806e-02 4.179955e-03 -3.137812e-05 -2.957135e-05 -2.166722e-05 -6.242655e-06 9.916382e-01 4.016113e-01
1.642059e+08 1.438713e-02 4.140854e-03 2.060086e-05 2.166629e-05 1.354516e-05 -2.755038e-05 9.922485e-01 4.005127e-01
1.644238e+08 1.439476e-02 4.255295e-03 2.268516e-05 -2.651475e-05 -7.623807e-06 -1.650583e-05 9.930420e-01 4.010010e-01
1.646416e+08 1.439190e-02 4.237175e-03 -6.898772e-06 4.908070e-06 3.570132e-05 -3.973022e-06 9.934692e-01 4.002686e-01
1.648594e+08 1.445866e-02 4.272461e-03 2.894923e-05 4.435331e-05 1.838431e-06 2.295151e-05 9.937744e-01 4.001465e-01
1.650772e+08 1.437569e-02 4.319191e-03 1.869351e-05 -2.912246e-06 1.508743e-05 5.559064e-06 9.930420e-01 3.991089e-01
1.652950e+08 1.444530e-02 4.331589e-03 -1.180079e-05 -1.976267e-06 1.681596e-05 4.729256e-05 9.931641e-01 3.978882e-01
1.655128e+08 1.446056e-02 4.402161e-03 2.902187e-05 7.901341e-06 3.029965e-05 -2.651103e-05 9.942017e-01 3.980103e-01
1.657306e+08 1.445007e-02 4.392624e-03 2.702884e-05 1.973473e-05 -3.795326e-05 1.004338e-05 9.935913e-01 3.985596e-01
1.659484e+08 1.445484e-02 4.437447e-03 2.120435e-05 -1.767837e-05 -1.509115e-05 -5.552545e-06 9.942017e-01 3.984375e-01
1.661662e+08 1.445389e-02 4.469872e-03 1.080055e-05 7.884577e-06 1.334026e-05 2.891012e-05 9.927368e-01 3.967896e-01
1.663841e+08 1.444340e-02 4.560471e-03 -1.465157e-05 -5.717203e-05 4.272908e-06 2.557784e-05 9.945068e-01 3.975830e-01
1.666019e+08 1.443958e-02 4.531860e-03 7.819384e-06 2.563000e-05 3.105961e-06 -1.772679e-05 9.943848e-01 3.972778e-01
1.668197e+08 1.446915e-02 4.566193e-03 3.453717e-05 -2.454221e-05 -1.596939e-05 6.117858e-06 9.944458e-01 3.975220e-01
1.670375e+08 1.445007e-02 4.570007e-03 -4.500151e-06 2.658740e-05 2.453662e-05 -2.008863e-05 9.943237e-01 3.967896e-01
1.672553e+08 1.449490e-02 4.652977e-03 2.562255e-05 -7.811934e-06 5.312264e-06 -2.377480e-05 9.938354e-01 3.963623e-01
1.674731e+08 1.448727e-02 4.657745e-03 3.694929e-05 -2.862886e-06 3.853068e-05 -1.154095e-05 9.936523e-01 3.961792e-01
1.676909e+08 1.448250e-02 4.698753e-03 -1.431815e-05 1.279451e-05 -8.503441e-06 -4.850328e-06 9.945679e-01 3.952637e-01
1.679088e+08 1.447773e-02 4.689217e-03 5.862489e-05 -2.355129e-05 -1.031533e-05 -2.780929e-05 9.938965e-01 3.941650e-01
1.681266e+08 1.446629e-02 4.752159e-03 5.429983e-05 -3.341585e-05 3.321469e-05 1.226552e-05 9.948120e-01 3.953247e-01
1.683444e+08 1.445484e-02 4.774094e-03 4.131380e-10 -2.931699e-10 1.311488e-05 2.027489e-05 9.940796e-01 3.949585e-01
1.685622e+08 1.447105e-02 4.772186e-03 2.464093e-05 -1.890585e-06 -1.087040e-05 -2.631918e-05 9.934692e-01 3.944092e-01
1.687800e+08 1.447678e-02 4.853249e-03 -1.815520e-05 -3.651902e-05 -2.120808e-05 1.103897e-05 9.942627e-01 3.934326e-01
1.689978e+08 1.445103e-02 4.914284e-03 -2.074987e-05 1.473352e-05 -1.207925e-05 -4.459172e-06 9.941406e-01 3.930664e-01
1.692156e+08 1.449680e-02 4.928589e-03 2.215616e-05 1.288392e-05 -1.470372e-05 -3.458746e-05 9.935913e-01 3.928223e-01
1.694334e+08 1.448917e-02 4.939079e-03 2.607703e-05 2.572313e-05 -2.072752e-05 -3.678724e-05 9.934692e-01 3.928223e-01
1.696512e+08 1.456833e-02 4.985809e-03 2.225675e-05 -2.361462e-05 8.587725e-06 -1.398847e-05 9.929810e-01 3.923340e-01
1.698691e+08 1.453590e-02 4.987717e-03 -1.584738e-05 2.168119e-05 -6.683171e-06 1.812726e-05 9.936523e-01 3.918457e-01
1.700869e+08 1.453495e-02 5.027771e-03 -2.302229e-06 -5.822256e-05 4.189089e-05 4.468113e-05 9.925537e-01 3.914185e-01
1.703047e+08 1.453972e-02 5.075455e-03 -4.515052e-06 2.663396e-05 -1.578592e-06 -1.432095e-05 9.927368e-01 3.912354e-01
1.705225e+08 1.449966e-02 5.102158e-03 1.974963e-05 -8.832663e-06 -1.869444e-05 -5.191192e-06 9.927368e-01 3.900757e-01
1.707403e+08 1.451778e-02 5.161285e-03 -3.460608e-05 2.459809e-05 2.801046e-05 1.722388e-05 9.929199e-01 3.897705e-01
1.709581e+08 1.455212e-02 5.139351e-03 5.474687e-05 1.862645e-07 6.688759e-06 -1.815334e-05 9.916382e-01 3.894043e-01
1.711759e+08 1.452446e-02 5.199432e-03 4.294142e-05 -1.829118e-06 -1.478475e-05 -1.578033e-05 9.913940e-01 3.895264e-01
1.713938e+08 1.456070e-02 5.215645e-03 3.352948e-05 1.787208e-05 -2.553686e-05 -1.461059e-05 9.918213e-01 3.885498e-01
1.716116e+08 1.453781e-02 5.264282e-03 -2.913177e-06 -1.877360e-05 1.130719e-05 -2.698041e-06 9.915771e-01 3.883057e-01
1.718294e+08 1.457119e-02 5.294800e-03 -2.180226e-05 2.067350e-05 3.024004e-06 1.118751e-06 9.907227e-01 3.887329e-01
1.720472e+08 1.455498e-02 5.304337e-03 -2.522953e-06 1.481734e-05 -2.630614e-05 2.464838e-05 9.911499e-01 3.883667e-01
1.722650e+08 1.452923e-02 5.336761e-03 -4.187599e-05 -4.064664e-05 -1.535099e-05 -1.429301e-05 9.906616e-01 3.871460e-01
1.724828e+08 1.455307e-02 5.396843e-03 -2.071075e-05 -2.180785e-05 -1.266040e-05 -2.961606e-06 9.910278e-01 3.863525e-01
1.727006e+08 1.453114e-02 5.398750e-03 2.662092e-05 2.282672e-05 -9.725802e-06 1.702551e-05 9.901123e-01 3.865356e-01
1.729184e+08 1.455784e-02 5.438805e-03 -4.200637e-05 -4.094094e-06 1.286343e-05 5.806983e-05 9.890747e-01 3.864136e-01
1.731362e+08 1.459599e-02 5.433083e-03 2.013519e-06 -1.186132e-05 -1.400616e-05 -8.626841e-06 9.891968e-01 3.861694e-01
1.733541e+08 1.457405e-02 5.516052e-03 -7.442199e-06 7.887837e-06 4.144385e-06 -1.908513e-06 9.891357e-01 3.851318e-01
1.735719e+08 1.456928e-02 5.521774e-03 -2.287515e-05 2.662279e-05 -1.455471e-05 3.936328e-05 9.888306e-01 3.865967e-01
1.737897e+08 1.453304e-02 5.566597e-03 6.933697e-06 -4.914124e-06 1.815800e-05 6.712042e-06 9.868774e-01 3.851929e-01
1.740075e+08 1.457310e-02 5.583763e-03 -6.172061e-05 -3.188476e-05 -3.655069e-05 -2.214499e-05 9.879761e-01 3.848877e-01
1.742253e+08 1.455307e-02 5.640030e-03 5.047768e-06 -2.967566e-05 2.689660e-05 -2.619252e-05 9.875488e-01 3.846436e-01
1.744431e+08 1.455784e-02 5.624771e-03 1.324341e-05 2.974272e-05 -4.393980e-06 3.969111e-05 9.867554e-01 3.845215e-01
1.746609e+08 1.459122e-02 5.680084e-03 1.338776e-05 -6.887130e-06 4.147645e-06 -1.902925e-06 9.861450e-01 3.835449e-01
1.748788e+08 1.455688e-02 5.757332e-03 -2.438389e-05 3.558211e-05 -1.851097e-05 3.476627e-06 9.863281e-01 3.832397e-01
1.750966e+08 1.452446e-02 5.742073e-03 -6.824732e-06 -3.169477e-05 -8.968636e-06 -2.226792e-05 9.846802e-01 3.825684e-01
1.753144e+08 1.460743e-02 5.790710e-03 -4.111230e-05 -1.005456e-05 -1.156144e-05 4.052185e-05 9.857178e-01 3.827515e-01
1.755322e+08 1.458073e-02 5.818367e-03 3.271364e-05 -1.277030e-05 1.168065e-05 -1.289975e-05 9.843140e-01 3.819580e-01
1.757500e+08 1.460075e-02 5.814552e-03 -2.016313e-06 1.187995e-05 3.031688e-06 1.122244e-06 9.841919e-01 3.814697e-01
1.759678e+08 1.458836e-02 5.859375e-03 5.050097e-07 -2.972782e-06 6.732531e-06 -1.817662e-05 9.844971e-01 3.811646e-01
1.761856e+08 1.457405e-02 5.874634e-03 -2.885982e-05 2.568215e-05 1.055561e-05 3.665313e-05 9.838257e-01 3.818359e-01
1.764034e+08 1.456356e-02 5.937576e-03 4.124641e-05 -2.662465e-05 4.870072e-05 2.662465e-05 9.827881e-01 3.813477e-01
1.766212e+08 1.455879e-02 6.009102e-03 1.253374e-05 -3.763288e-05 -9.652693e-06 -1.862179e-06 9.817505e-01 3.808594e-01
1.768391e+08 1.454639e-02 6.040573e-03 -1.343247e-05 6.887130e-06 -7.624738e-06 -1.662225e-05 9.818726e-01 3.814087e-01
1.770569e+08 1.457977e-02 6.087303e-03 1.732353e-05 6.025657e-06 1.178030e-05 1.471490e-05 9.800415e-01 3.805542e-01
1.772747e+08 1.457500e-02 6.077766e-03 -2.723560e-05 -1.996197e-05 3.118068e-06 2.877414e-05 9.808350e-01 3.800049e-01
1.774925e+08 1.454830e-02 6.121635e-03 -1.768395e-05 -3.974885e-05 4.841015e-06 -2.236851e-05 9.790649e-01 3.793945e-01
1.777103e+08 1.456165e-02 6.183624e-03 -3.079139e-05 8.456409e-07 -4.884601e-05 -7.808208e-06 9.791870e-01 3.801880e-01
1.779281e+08 1.455688e-02 6.172180e-03 4.469976e-05 -1.074001e-05 -3.943220e-06 1.061521e-05 9.780273e-01 3.791504e-01
1.781459e+08 1.463604e-02 6.220818e-03 3.514811e-06 -1.096074e-05 -2.583675e-05 -4.134327e-05 9.778442e-01 3.796997e-01
1.783638e+08 1.459980e-02 6.217003e-03 -6.350223e-06 9.876676e-07 -1.443364e-05 3.208034e-05 9.766846e-01 3.786011e-01
1.785816e+08 1.457596e-02 6.326675e-03 -1.400337e-05 -3.168732e-05 3.277138e-05 -9.443611e-07 9.762573e-01 3.795166e-01
1.787994e+08 1.456547e-02 6.308556e-03 -8.978415e-06 9.207986e-06 -3.356487e-05 4.321337e-06 9.758301e-01 3.782959e-01
1.790172e+08 1.459599e-02 6.335258e-03 -3.352016e-05 1.040660e-05 -1.404621e-05 3.641844e-05 9.744263e-01 3.779907e-01
1.792350e+08 1.460266e-02 6.329536e-03 -2.673455e-05 -2.968498e-05 6.007962e-06 1.696777e-05 9.738770e-01 3.780518e-01
1.794528e+08 1.457787e-02 6.414413e-03 2.199784e-06 3.089942e-05 -3.333576e-05 -2.752058e-05 9.732056e-01 3.773804e-01
1.796706e+08 1.459122e-02 6.391525e-03 8.756295e-06 -2.743304e-05 8.631498e-06 -1.288764e-05 9.738159e-01 3.775024e-01
1.798884e+08 1.460171e-02 6.458282e-03 3.444031e-05 -1.317635e-05 -4.500896e-05 1.086295e-05 9.728394e-01 3.775635e-01
1.801062e+08 1.455307e-02 6.504059e-03 -2.123415e-07 -1.820643e-05 -1.598895e-05 5.085394e-05 9.711914e-01 3.781128e-01
1.803241e+08 1.460171e-02 6.515503e-03 -6.148592e-06 1.920108e-05 -9.470619e-06 4.194211e-06 9.713135e-01 3.771973e-01
1.805419e+08 1.455307e-02 6.545067e-03 -1.448672e-05 7.458031e-06 1.536962e-05 -1.134071e-05 9.701538e-01 3.770142e-01
1.807597e+08 1.459694e-02 6.512642e-03 -6.629899e-05 -5.755201e-05 -5.956274e-06 -4.914589e-06 9.697266e-01 3.768311e-01
1.809775e+08 1.459694e-02 6.612778e-03 -2.238899e-05 -4.350021e-05 8.843839e-06 -5.682558e-05 9.691772e-01 3.770752e-01
1.811953e+08 1.460361e-02 6.612778e-03 1.972541e-06 1.273584e-05 4.252419e-06 -2.453849e-05 9.679565e-01 3.765259e-01
1.814131e+08 1.455116e-02 6.731987e-03 -4.402362e-06 1.372863e-05 1.543853e-05 7.189810e-07 9.673462e-01 3.771362e-01
1.816309e+08 1.461983e-02 6.722450e-03 1.998991e-05 -5.697832e-06 4.233606e-05 -5.155802e-06 9.661255e-01 3.768311e-01
1.818488e+08 1.460838e-02 6.712914e-03 -8.556992e-06 -2.996810e-05 8.700881e-06 -8.288771e-07 9.650879e-01 3.762207e-01
1.820666e+08 1.457214e-02 6.778717e-03 8.560717e-06 -4.568323e-05 -2.976507e-06 -4.253909e-05 9.648438e-01 3.760986e-01
1.822844e+08 1.457596e-02 6.781578e-03 -2.000295e-05 5.705282e-06 -1.264270e-05 5.587935e-06 9.641113e-01 3.768921e-01
1.825022e+08 1.461220e-02 6.904602e-03 -4.857779e-06 5.294010e-05 3.159419e-05 -2.609193e-05 9.631958e-01 3.768311e-01
1.827200e+08 1.453590e-02 6.877899e-03 -3.228337e-05 -3.154017e-05 4.769070e-06 3.939960e-06 9.620972e-01 3.766479e-01
1.829378e+08 1.457596e-02 6.892204e-03 2.064928e-05 4.901364e-05 1.145899e-05 -6.577931e-06 9.616699e-01 3.763428e-01
1.831556e+08 1.456070e-02 6.914139e-03 -4.573166e-05 -8.601695e-06 -2.100505e-05 -1.292676e-06 9.609375e-01 3.769531e-01
1.833734e+08 1.452351e-02 6.965637e-03 3.032759e-05 1.877919e-05 1.555495e-05 2.489425e-05 9.598389e-01 3.757324e-01
1.835912e+08 1.456356e-02 6.958961e-03 -8.349307e-06 -1.176819e-05 1.660828e-05 -1.036562e-05 9.594116e-01 3.766479e-01
1.838091e+08 1.458740e-02 6.994247e-03 7.925555e-06 -2.474338e-05 -4.681945e-05 -6.522983e-06 9.588013e-01 3.767700e-01
1.840269e+08 1.459312e-02 7.068634e-03 1.275353e-05 -1.981854e-06 3.493018e-05 8.808449e-06 9.579468e-01 3.762207e-01
1.842447e+08 1.457310e-02 7.107735e-03 -1.208670e-05 -1.903623e-05 -8.622184e-06 2.501532e-05 9.569702e-01 3.762207e-01
1.844625e+08 1.453972e-02 7.154465e-03 -1.169089e-05 1.749862e-05 -3.321655e-05 2.075359e-05 9.572754e-01 3.771362e-01
1.846803e+08 1.455498e-02 7.158279e-03 -3.948808e-06 -2.553314e-05 2.249517e-05 -2.963841e-05 9.555054e-01 3.763428e-01
1.848981e+08 1.453781e-02 7.211685e-03 1.012255e-05 6.280839e-06 2.862141e-05 2.369098e-05 9.548340e-01 3.769531e-01
1.851159e+08 1.453304e-02 7.171631e-03 2.926402e-05 3.334135e-06 -1.936965e-05 1.612492e-05 9.533691e-01 3.770752e-01
1.853338e+08 1.453781e-02 7.243156e-03 -1.865998e-05 -3.634207e-05 -2.865493e-05 -2.366863e-05 9.523926e-01 3.772583e-01
1.855516e+08 1.456261e-02 7.254601e-03 7.268041e-06 -3.735535e-06 1.749583e-05 1.042895e-05 9.518433e-01 3.773193e-01
1.857694e+08 1.451874e-02 7.260323e-03 6.595626e-06 1.729187e-05 9.145588e-07 3.293157e-05 9.508667e-01 3.770752e-01
1.859872e+08 1.451206e-02 7.323265e-03 2.821721e-05 -1.220405e-05 -7.657334e-05 5.044043e-06 9.506226e-01 3.775635e-01
1.862050e+08 1.454544e-02 7.342339e-03 -6.596558e-06 -1.730584e-05 -4.608184e-05 -9.942800e-06 9.496460e-01 3.775635e-01
1.864228e+08 1.453495e-02 7.427216e-03 9.038486e-06 -9.249896e-06 8.629635e-06 -2.503209e-05 9.488525e-01 3.772583e-01
1.866406e+08 1.454353e-02 7.500648e-03 5.136058e-05 1.037866e-05 -4.407018e-06 -1.169927e-05 9.484253e-01 3.776855e-01
1.868584e+08 1.452923e-02 7.488251e-03 3.084354e-05 -2.048910e-05 1.548044e-05 7.404014e-07 9.467163e-01 3.772583e-01
1.870762e+08 1.451492e-02 7.509232e-03 1.564808e-05 8.054078e-06 5.662069e-05 -4.174188e-05 9.462891e-01 3.781128e-01
1.872941e+08 1.448822e-02 7.522583e-03 -1.278054e-05 1.973473e-06 1.899712e-05 -2.053846e-05 9.447632e-01 3.778687e-01
1.875119e+08 1.454353e-02 7.582664e-03 2.889521e-05 -3.327988e-05 3.688037e-05 -1.781806e-05 9.445801e-01 3.786621e-01
1.877297e+08 1.451397e-02 7.539749e-03 2.991036e-05 5.825981e-05 2.701767e-06 -1.788605e-05 9.436646e-01 3.795166e-01
1.879475e+08 1.447964e-02 7.697105e-03 -7.076189e-06 2.204441e-05 4.544854e-07 1.648813e-05 9.426270e-01 3.798218e-01
1.881653e+08 1.451015e-02 7.671356e-03 1.633074e-05 -1.298450e-05 1.872424e-05 1.145899e-05 9.412842e-01 3.794556e-01
1.883831e+08 1.451588e-02 7.659912e-03 3.395788e-05 7.873401e-06 1.824647e-05 -1.717079e-05 9.410400e-01 3.795166e-01
1.886009e+08 1.451588e-02 7.716179e-03 -7.975847e-06 2.480298e-05 -2.112612e-05 -1.344644e-05 9.400024e-01 3.801270e-01
1.888188e+08 1.450157e-02 7.743835e-03 6.804243e-06 3.563240e-05 -2.897345e-05 2.038479e-05 9.390869e-01 3.804321e-01
1.890366e+08 1.450062e-02 7.812500e-03 3.197975e-05 -4.924834e-06 -1.266412e-05 1.775380e-05 9.378662e-01 3.803101e-01
1.892544e+08 1.448727e-02 7.872581e-03 2.668425e-05 1.161732e-05 -2.104510e-05 1.081545e-05 9.373779e-01 3.809204e-01
1.894722e+08 1.447201e-02 7.856369e-03 8.862466e-06 -2.757646e-05 -1.317449e-05 -1.089368e-05 9.367676e-01 3.812866e-01
1.896900e+08 1.446247e-02 7.844925e-03 -1.426786e-05 -5.020201e-05 1.749769e-05 -1.667999e-06 9.351196e-01 3.813477e-01
1.899078e+08 1.445198e-02 7.937431e-03 1.744181e-05 2.562068e-06 5.125999e-06 -1.593493e-05 9.353638e-01 3.821411e-01
1.901256e+08 1.441574e-02 7.956505e-03 5.513430e-06 1.768582e-06 8.841977e-06 2.344511e-05 9.335938e-01 3.816528e-01
1.903434e+08 1.446915e-02 7.977486e-03 4.913658e-06 -5.321577e-05 -3.675744e-05 -5.062297e-05 9.335327e-01 3.825073e-01
1.905612e+08 1.444817e-02 7.990837e-03 -8.873176e-07 2.757180e-06 1.136586e-05 -5.517527e-05 9.317627e-01 3.831787e-01
1.907791e+08 1.449299e-02 8.030891e-03 1.300499e-05 1.634564e-05 -1.747720e-05 1.377892e-05 9.312134e-01 3.830566e-01
1.909969e+08 1.442337e-02 8.073807e-03 -3.953278e-05 -9.652227e-06 7.966999e-06 2.561137e-06 9.306641e-01 3.834839e-01
1.912147e+08 1.442242e-02 8.105278e-03 6.598420e-06 1.733843e-05 3.346056e-05 3.449619e-06 9.289551e-01 3.840942e-01
1.914325e+08 1.441383e-02 8.125305e-03 -5.320460e-05 -4.909933e-06 2.064463e-05 -1.520570e-05 9.284058e-01 3.839111e-01
1.916503e+08 1.439190e-02 8.170128e-03 -9.257812e-06 -9.069219e-06 2.596341e-05 1.740456e-05 9.271851e-01 3.849487e-01
1.918681e+08 1.440334e-02 8.230209e-03 5.324185e-05 4.921108e-06 6.773043e-06 1.576729e-06 9.271851e-01 3.851929e-01
1.920859e+08 1.436901e-02 8.302689e-03 6.410759e-06 -9.783544e-07 1.040194e-05 1.670886e-05 9.260254e-01 3.862305e-01
1.923038e+08 1.434135e-02 8.294106e-03 -1.052767e-05 -4.301965e-05 7.892959e-06 -2.172310e-05 9.256592e-01 3.859863e-01
1.925216e+08 1.440525e-02 8.300781e-03 -2.313964e-05 -2.269074e-05 -8.875504e-06 -3.561564e-05 9.237061e-01 3.864136e-01
1.927394e+08 1.433277e-02 8.377075e-03 7.098541e-06 -2.208911e-05 -2.626143e-05 1.462735e-05 9.236450e-01 3.864746e-01
1.929572e+08 1.440048e-02 8.358002e-03 2.082065e-05 -2.681650e-05 -4.887581e-05 4.442781e-05 9.227295e-01 3.874512e-01
1.931750e+08 1.438046e-02 8.395195e-03 7.003546e-07 -2.111681e-05 3.348850e-05 3.498048e-06 9.219971e-01 3.880005e-01
1.933928e+08 1.433086e-02 8.419037e-03 -3.689528e-05 -1.796708e-05 -2.353452e-05 -3.328547e-06 9.210815e-01 3.885498e-01
1.936106e+08 1.438236e-02 8.547783e-03 3.315881e-05 1.067668e-05 3.216788e-05 -4.618242e-05 9.205933e-01 3.891602e-01
1.938284e+08 1.436901e-02 8.468628e-03 1.282617e-05 -1.965091e-06 -5.231239e-06 -2.051797e-05 9.193115e-01 3.897705e-01
1.940462e+08 1.434994e-02 8.573532e-03 -1.122989e-05 -2.189539e-05 5.971640e-06 -7.195398e-06 9.179688e-01 3.898926e-01
1.942641e+08 1.436615e-02 8.555412e-03 -3.566965e-06 1.106039e-05 -2.533197e-07 4.430860e-05 9.187622e-01 3.914795e-01
1.944819e+08 1.430225e-02 8.594513e-03 -1.035258e-05 -2.466142e-05 -1.760945e-05 -2.270192e-05 9.168091e-01 3.908081e-01
1.946997e+08 1.433754e-02 8.615494e-03 6.683171e-05 -1.810491e-05 -1.953822e-05 4.028901e-06 9.161377e-01 3.920898e-01
1.949175e+08 1.432228e-02 8.666992e-03 3.584474e-05 2.400950e-06 4.326925e-06 -2.475455e-05 9.158325e-01 3.928223e-01
1.951353e+08 1.429272e-02 8.711815e-03 1.301710e-05 1.639966e-05 3.195554e-05 1.026876e-05 9.148560e-01 3.928223e-01
1.953531e+08 1.430988e-02 8.738518e-03 -2.665911e-06 8.285977e-06 1.834799e-05 -5.055219e-06 9.136963e-01 3.927002e-01
1.955709e+08 1.426888e-02 8.770943e-03 -1.748092e-05 -2.576038e-06 -2.349168e-05 2.101995e-05 9.136963e-01 3.937378e-01
1.957888e+08 1.430321e-02 8.762360e-03 -1.605973e-05 -4.482642e-05 -5.624257e-06 -1.276098e-05 9.120483e-01 3.943481e-01
1.960066e+08 1.426029e-02 8.815765e-03 -5.705282e-06 -2.015010e-05 -1.954194e-05 4.043803e-06 9.114990e-01 3.952637e-01
1.962244e+08 1.426315e-02 8.852959e-03 -4.466623e-06 1.382269e-05 8.450821e-06 3.131852e-05 9.104614e-01 3.961182e-01
1.964422e+08 1.430321e-02 8.881569e-03 -3.872439e-05 -1.245923e-05 3.632903e-05 -2.294779e-06 9.102173e-01 3.960571e-01
1.966600e+08 1.424980e-02 8.913994e-03 -2.049841e-05 -3.104098e-05 -1.680665e-05 -1.393631e-05 9.085693e-01 3.969727e-01
1.968778e+08 1.425648e-02 8.969307e-03 1.015980e-05 6.335787e-06 -1.468882e-05 3.238395e-05 9.074707e-01 3.980713e-01
1.970956e+08 1.426029e-02 8.979797e-03 -3.572553e-06 1.105759e-05 -8.856878e-06 -2.354011e-05 9.073486e-01 3.986206e-01
1.973134e+08 1.422405e-02 9.029388e-03 9.982847e-06 -1.203176e-05 -2.723746e-05 -3.069267e-05 9.060669e-01 3.983765e-01
1.975312e+08 1.419449e-02 9.080887e-03 -1.748279e-05 -2.590008e-06 -4.029833e-06 -1.956429e-05 9.058838e-01 3.994141e-01
1.977491e+08 1.421165e-02 9.112358e-03 -5.356036e-06 1.658313e-05 -1.143664e-05 5.535409e-05 9.047241e-01 4.000244e-01
1.979669e+08 1.420116e-02 9.162903e-03 8.746982e-06 -4.602596e-05 -1.989678e-05 4.838780e-05 9.042358e-01 4.006348e-01
1.981847e+08 1.417446e-02 9.141922e-03 2.962537e-05 2.176687e-05 2.516620e-05 -3.429130e-06 9.041138e-01 4.008789e-01
1.984025e+08 1.419926e-02 9.158134e-03 1.598150e-06 -2.392381e-05 -3.311038e-05 2.526864e-05 9.036255e-01 4.017334e-01
1.986203e+08 1.416874e-02 9.235382e-03 2.763420e-05 8.916482e-06 -3.602356e-05 -1.771189e-05 9.014893e-01 4.022827e-01
1.988381e+08 1.414108e-02 9.278297e-03 -1.196004e-05 -8.055940e-07 3.988296e-05 -3.585964e-05 9.016724e-01 4.029541e-01
1.990559e+08 1.414394e-02 9.276390e-03 1.837686e-05 -1.778826e-07 -4.840270e-05 -7.696450e-06 9.012451e-01 4.041748e-01
1.992738e+08 1.416397e-02 9.257317e-03 3.911555e-06 2.570264e-05 6.413553e-06 9.381678e-06 9.005737e-01 4.052124e-01
1.994916e+08 1.410675e-02 9.343147e-03 1.105666e-05 3.569759e-06 8.055940e-06 2.697669e-05 8.994751e-01 4.053345e-01
1.997094e+08 1.411533e-02 9.369850e-03 -8.910894e-06 2.765283e-05 -8.002855e-06 -2.589542e-06 8.988647e-01 4.059448e-01
1.999272e+08 1.415253e-02 9.419441e-03 3.213435e-05 -4.889444e-06 -3.399514e-05 1.648255e-05 8.984985e-01 4.071045e-01
2.001450e+08 1.410294e-02 9.435654e-03 2.033077e-05 1.268834e-05 3.855675e-07 -7.803552e-06 8.975830e-01 4.075928e-01
2.003628e+08 1.408577e-02 9.487152e-03 3.783777e-05 1.530349e-05 2.009980e-05 3.698282e-05 8.972168e-01 4.089355e-01
2.005806e+08 1.407051e-02 9.508133e-03 -5.536713e-06 -1.790002e-06 -2.403371e-05 -1.997687e-05 8.970947e-01 4.092407e-01
2.007984e+08 1.409149e-02 9.500504e-03 2.586842e-05 1.448393e-05 1.319870e-05 -1.224689e-06 8.955078e-01 4.100952e-01
2.010162e+08 1.403999e-02 9.554863e-03 1.285318e-05 -1.948327e-06 -1.184642e-06 1.120754e-05 8.948975e-01 4.109497e-01
2.012341e+08 1.408195e-02 9.631157e-03 5.189329e-06 -3.497303e-05 -4.422851e-06 -1.179706e-05 8.939819e-01 4.105225e-01
2.014519e+08 1.405811e-02 9.579659e-03 6.783009e-05 -2.080947e-05 -4.115701e-05 3.490411e-05 8.933105e-01 4.116211e-01
2.016697e+08 1.404762e-02 9.670258e-03 8.059666e-06 -2.491102e-05 -4.031882e-05 6.818771e-05 8.930664e-01 4.129639e-01
2.018875e+08 1.401615e-02 9.715080e-03 1.212023e-05 1.920667e-05 -1.441408e-05 1.242571e-05 8.920898e-01 4.135742e-01
2.021053e+08 1.402664e-02 9.737968e-03 -1.697242e-05 -4.218891e-05 -6.322563e-05 1.251325e-05 8.926392e-01 4.141846e-01
2.023231e+08 1.402378e-02 9.732246e-03 -2.685934e-06 8.302741e-06 9.965152e-06 -2.426654e-05 8.909302e-01 4.151001e-01
2.025409e+08 1.399612e-02 9.803772e-03 6.087497e-05 1.973286e-05 2.119690e-05 -2.306513e-05 8.900146e-01 4.165649e-01
2.027588e+08 1.398373e-02 9.848595e-03 3.035925e-05 6.295741e-07 -1.600198e-05 1.927279e-05 8.899536e-01 4.157715e-01
2.029766e+08 1.400089e-02 9.841919e-03 2.842769e-05 -1.220219e-05 -1.441594e-05 2.197921e-07 8.891602e-01 4.177856e-01
2.031944e+08 1.394939e-02 9.912491e-03 -7.657334e-06 -3.304146e-05 1.411885e-05 4.425272e-05 8.884277e-01 4.174805e-01
2.034122e+08 1.394939e-02 9.900093e-03 -1.766533e-05 -2.104230e-05 5.610753e-06 5.937181e-07 8.884888e-01 4.198608e-01
2.036300e+08 1.390648e-02 9.963036e-03 -8.384697e-06 -1.188461e-05 -3.883615e-07 7.815193e-06 8.871460e-01 4.194336e-01
2.038478e+08 1.393318e-02 9.967804e-03 1.841877e-05 -1.583248e-07 -4.104804e-07 -4.408648e-06 8.877563e-01 4.202271e-01
2.040656e+08 1.384354e-02 1.004505e-02 -1.257658e-05 3.878213e-05 1.078099e-05 -2.767518e-05 8.868408e-01 4.213257e-01
2.042834e+08 1.389217e-02 9.996414e-03 -1.631118e-05 3.143772e-05 -1.284294e-05 -6.589107e-06 8.862305e-01 4.220581e-01
2.045012e+08 1.386070e-02 1.009178e-02 2.139993e-05 2.835505e-05 8.508563e-06 4.367530e-05 8.853149e-01 4.224854e-01
2.047191e+08 1.386738e-02 1.013184e-02 4.924834e-06 -7.185340e-05 -8.093193e-07 -8.828472e-06 8.850708e-01 4.237061e-01
2.049369e+08 1.383781e-02 1.016521e-02 -1.556613e-05 1.025759e-05 1.282059e-05 -1.786277e-05 8.845825e-01 4.245605e-01
2.051547e+08 1.387501e-02 1.013374e-02 8.233357e-06 -6.509945e-06 2.284348e-05 -1.768395e-05 8.836670e-01 4.255371e-01
2.053725e+08 1.379681e-02 1.021767e-02 3.166497e-06 4.695728e-05 -6.009359e-06 7.230788e-06 8.842163e-01 4.262695e-01
2.055903e+08 1.382160e-02 1.025391e-02 7.344410e-06 -3.742520e-06 -1.925509e-05 8.430332e-06 8.832397e-01 4.277954e-01
2.058081e+08 1.381969e-02 1.023102e-02 2.578087e-05 -3.889203e-06 2.454966e-06 5.096197e-05 8.831177e-01 4.284058e-01
2.060259e+08 1.378918e-02 1.028347e-02 -1.270883e-05 2.036244e-05 7.247552e-06 1.825113e-05 8.819580e-01 4.278564e-01
2.062438e+08 1.381779e-02 1.031876e-02 5.587935e-07 7.367879e-05 9.226613e-06 -8.641742e-06 8.814697e-01 4.295044e-01
2.064616e+08 1.378918e-02 1.039600e-02 2.977997e-05 4.033744e-05 6.002374e-06 -1.947396e-05 8.813477e-01 4.309082e-01
2.066794e+08 1.377201e-02 1.041126e-02 2.471544e-05 -1.956150e-05 2.325699e-05 -5.001202e-05 8.810425e-01 4.307251e-01
2.068972e+08 1.376057e-02 1.042366e-02 -1.933519e-05 2.904795e-06 -1.886953e-05 6.249174e-07 8.796387e-01 4.324951e-01
2.071150e+08 1.372337e-02 1.043415e-02 7.187948e-06 -2.218224e-05 4.006084e-06 -4.825415e-06 8.797607e-01 4.325562e-01
2.073328e+08 1.374054e-02 1.045418e-02 8.400530e-06 1.191907e-05 -2.450310e-05 2.235174e-08 8.796387e-01 4.334717e-01
2.075506e+08 1.366234e-02 1.053715e-02 3.043190e-05 6.966293e-07 4.861876e-05 2.003834e-05 8.786621e-01 4.349365e-01
2.077684e+08 1.372051e-02 1.053238e-02 1.560152e-05 -1.027249e-05 -1.983717e-06 2.690777e-05 8.792114e-01 4.351807e-01
2.079862e+08 1.367569e-02 1.060486e-02 -1.094490e-05 1.484063e-05 1.585111e-06 -1.909025e-05 8.779297e-01 4.354248e-01
2.082041e+08 1.366901e-02 1.062012e-02 -5.682930e-06 -2.024695e-05 7.221475e-06 -3.073737e-05 8.778076e-01 4.367676e-01
2.084219e+08 1.360703e-02 1.067829e-02 -2.774410e-05 -9.024516e-06 -3.780052e-05 -1.103804e-05 8.775024e-01 4.380493e-01
2.086397e+08 1.362324e-02 1.062679e-02 -3.987923e-05 -2.831593e-05 -4.028901e-06 -7.427763e-06 8.771973e-01 4.387817e-01
2.088575e+08 1.362133e-02 1.070023e-02 3.885850e-05 1.262873e-05 -6.064400e-05 1.895055e-05 8.770142e-01 4.389648e-01
2.090753e+08 1.361561e-02 1.075459e-02 2.462044e-05 -3.798492e-05 3.621913e-06 3.009802e-06 8.757935e-01 4.396362e-01
2.092931e+08 1.363277e-02 1.076508e-02 3.964454e-05 -8.609146e-06 1.768675e-05 -1.632608e-06 8.767700e-01 4.410400e-01
2.095109e+08 1.363277e-02 1.080990e-02 -2.670288e-05 6.653368e-06 -6.446149e-06 -9.447336e-06 8.751831e-01 4.414062e-01
2.097288e+08 1.358986e-02 1.085377e-02 -1.665205e-06 2.399459e-05 -2.613291e-05 6.861985e-06 8.748779e-01 4.421387e-01
2.099466e+08 1.356220e-02 1.085663e-02 2.025627e-05 -5.694106e-06 2.453104e-06 2.653152e-05 8.748779e-01 4.426880e-01
2.101644e+08 1.354313e-02 1.084232e-02 1.711771e-05 -5.271286e-05 -4.814938e-06 8.244067e-06 8.742676e-01 4.434814e-01
2.103822e+08 1.349926e-02 1.091003e-02 2.183393e-05 -4.816055e-05 -1.169927e-05 -3.016554e-05 8.742676e-01 4.449463e-01
2.106000e+08 1.353073e-02 1.095676e-02 7.215887e-06 -2.220646e-05 1.214445e-06 1.328532e-05 8.737793e-01 4.459839e-01
2.108178e+08 1.348209e-02 1.102924e-02 8.657575e-06 4.884973e-05 -3.581867e-05 1.108833e-05 8.733521e-01 4.467773e-01
2.110356e+08 1.346588e-02 1.105785e-02 -5.257130e-05 1.052767e-05 -1.128949e-05 2.334453e-05 8.735352e-01 4.480591e-01
2.112534e+08 1.352406e-02 1.103115e-02 1.636893e-05 -3.151037e-05 6.445684e-06 2.173055e-05 8.728638e-01 4.479370e-01
2.114712e+08 1.350117e-02 1.108837e-02 7.692724e-07 -2.125092e-05 1.005270e-05 -1.208484e-05 8.727417e-01 4.494019e-01
2.116891e+08 1.345348e-02 1.112652e-02 -1.744740e-05 1.582690e-05 -2.856739e-05 4.835427e-06 8.730469e-01 4.498291e-01
2.119069e+08 1.343155e-02 1.115036e-02 -1.691654e-05 -4.237890e-05 -9.274110e-06 3.320910e-05 8.721313e-01 4.507446e-01
2.121247e+08 1.345348e-02 1.115990e-02 1.948327e-06 1.291279e-05 -1.973379e-05 -8.245930e-06 8.717041e-01 4.508057e-01
2.123425e+08 1.335812e-02 1.123619e-02 1.685694e-06 -2.404861e-05 2.698228e-05 2.656505e-05 8.718262e-01 4.524536e-01
2.125603e+08 1.333618e-02 1.122093e-02 -2.880394e-05 -2.476946e-05 1.975894e-05 5.738065e-05 8.709717e-01 4.533081e-01
2.127781e+08 1.338959e-02 1.122284e-02 -1.007877e-05 1.208577e-05 7.240102e-06 -1.852773e-05 8.710938e-01 4.531860e-01
2.129959e+08 1.334572e-02 1.130676e-02 -2.713129e-05 -4.875287e-05 -1.329649e-05 1.217239e-06 8.703003e-01 4.537964e-01
2.132138e+08 1.333141e-02 1.129913e-02 -1.223944e-05 -3.782287e-05 -3.639609e-06 -7.674843e-05 8.696899e-01 4.559326e-01
2.134316e+08 1.336479e-02 1.144218e-02 3.712811e-05 1.822598e-05 8.462928e-06 7.045921e-06 8.707886e-01 4.557495e-01
2.136494e+08 1.331425e-02 1.141644e-02 2.858974e-05 -1.224317e-05 -1.370162e-05 9.073876e-06 8.709106e-01 4.562988e-01
2.138672e+08 1.332664e-02 1.144409e-02 1.190044e-05 -1.765322e-05 -1.531933e-05 3.620051e-06 8.699951e-01 4.572754e-01
2.140850e+08 1.328278e-02 1.152229e-02 2.857298e-05 -1.221709e-05 -2.258830e-05 -2.700463e-05 8.693237e-01 4.578247e-01
2.143028e+08 1.325989e-02 1.149082e-02 -1.759641e-05 -2.657995e-06 -7.692724e-06 -3.506988e-05 8.696899e-01 4.589844e-01
2.145206e+08 1.321697e-02 1.151848e-02 -1.810491e-06 5.564187e-06 2.419204e-05 -2.903864e-05 8.693848e-01 4.594727e-01
2.147384e+08 1.320362e-02 1.157379e-02 3.219210e-05 -2.334453e-05 6.042421e-06 1.733191e-05 8.686523e-01 4.598389e-01
2.149562e+08 1.319599e-02 1.156616e-02 7.236376e-06 -2.225116e-05 5.084276e-05 -1.914799e-05 8.687134e-01 4.605103e-01
2.151741e+08 1.316166e-02 1.162910e-02 -2.782606e-05 -9.054318e-06 -1.572911e-05 -1.310650e-05 8.689575e-01 4.615479e-01
2.153919e+08 1.320362e-02 1.169586e-02 -1.384690e-05 4.726462e-06 -1.129415e-05 1.110416e-05 8.687744e-01 4.620361e-01
2.156097e+08 1.317024e-02 1.164627e-02 -1.294538e-05 1.928769e-06 1.206994e-06 -1.129415e-05 8.681641e-01 4.634399e-01
2.158275e+08 1.316547e-02 1.169968e-02 -2.952293e-05 1.499802e-05 -7.283874e-06 -1.835637e-05 8.680420e-01 4.636230e-01
2.160453e+08 1.311779e-02 1.176357e-02 6.703660e-06 3.607385e-05 2.460554e-05 -1.230277e-05 8.683472e-01 4.649658e-01
2.162631e+08 1.313019e-02 1.176453e-02 6.955117e-05 1.346692e-05 -1.293514e-05 1.795683e-05 8.681641e-01 4.660034e-01
2.164809e+08 1.308727e-02 1.183224e-02 -1.580268e-05 -8.242205e-06 -2.845190e-06 1.816265e-05 8.681030e-01 4.669189e-01
2.166988e+08 1.304626e-02 1.183033e-02 5.569309e-05 1.819804e-05 -4.922971e-05 -2.235174e-08 8.680420e-01 4.672852e-01
2.169166e+08 1.305962e-02 1.182842e-02 -3.044680e-05 1.780130e-05 6.040558e-06 1.735147e-05 8.676147e-01 4.672241e-01
2.171344e+08 1.306725e-02 1.189137e-02 -6.604940e-06 -1.756847e-05 4.027039e-06 1.978222e-05 8.681030e-01 4.687500e-01
2.173522e+08 1.304913e-02 1.193047e-02 -1.876801e-05 -3.696978e-05 -2.102740e-05 2.765097e-05 8.673096e-01 4.693604e-01
2.175700e+08 1.301861e-02 1.201344e-02 -1.296215e-05 1.941808e-06 7.644296e-06 3.514811e-05 8.671265e-01 4.693604e-01
2.177878e+08 1.302242e-02 1.200390e-02 -2.070144e-05 -4.992634e-05 8.888543e-06 -8.051284e-07 8.668213e-01 4.703979e-01
2.180056e+08 1.301003e-02 1.199532e-02 2.139620e-05 1.006201e-05 -5.634502e-06 -2.525188e-05 8.673096e-01 4.708862e-01
2.182234e+08 1.291561e-02 1.206589e-02 1.035072e-05 2.496131e-05 4.092231e-06 -2.949499e-05 8.665161e-01 4.716797e-01
2.184412e+08 1.290894e-02 1.206875e-02 -2.129190e-05 8.471310e-06 -3.637979e-06 -3.034016e-06 8.666992e-01 4.729004e-01
2.186591e+08 1.292324e-02 1.211548e-02 1.206994e-05 8.456409e-07 1.614448e-06 5.456619e-06 8.672485e-01 4.730835e-01
2.188769e+08 1.289749e-02 1.212597e-02 -3.893487e-05 5.796552e-06 -9.286217e-06 -1.597125e-05 8.663330e-01 4.739380e-01
2.190947e+08 1.294041e-02 1.216602e-02 -9.438023e-06 -2.778880e-05 -1.859199e-05 -7.289462e-06 8.664551e-01 4.749146e-01
2.193125e+08 1.288891e-02 1.222324e-02 -4.775822e-06 -2.315640e-05 1.600012e-06 1.778360e-05 8.655396e-01 4.747314e-01
2.195303e+08 1.285934e-02 1.223087e-02 2.232008e-05 7.299706e-06 -1.134537e-05 2.343953e-05 8.665161e-01 4.756470e-01
2.197481e+08 1.283073e-02 1.228428e-02 -2.766587e-05 2.799928e-05 -1.942832e-05 8.480623e-06 8.660889e-01 4.759521e-01
2.199659e+08 1.282310e-02 1.227093e-02 7.889420e-05 4.135072e-06 3.650784e-06 -2.163928e-05 8.662109e-01 4.762573e-01
2.201838e+08 1.281357e-02 1.229477e-02 7.282943e-06 -2.231635e-05 2.872385e-05 3.219396e-05 8.660278e-01 4.770508e-01
2.204016e+08 1.278400e-02 1.231289e-02 4.086271e-05 7.182360e-06 -8.381903e-07 2.811104e-05 8.654175e-01 4.776611e-01
2.206194e+08 1.280308e-02 1.234913e-02 -3.520772e-05 1.322292e-05 3.645197e-06 -9.309966e-06 8.663940e-01 4.782104e-01
2.208372e+08 1.278019e-02 1.239204e-02 2.514571e-06 -4.550442e-05 -1.818873e-05 -2.753176e-05 8.654175e-01 4.787598e-01
2.210550e+08 1.272297e-02 1.245213e-02 3.553554e-05 4.253909e-05 -1.092907e-05 -9.118579e-06 8.660278e-01 4.799194e-01
2.212728e+08 1.267910e-02 1.248550e-02 2.733432e-06 -8.380506e-06 -5.284324e-06 1.617800e-05 8.663330e-01 4.796143e-01
2.214906e+08 1.272964e-02 1.253891e-02 -3.829412e-05 -3.415719e-05 -7.238239e-06 -4.311465e-05 8.655396e-01 4.806519e-01
2.217084e+08 1.269531e-02 1.253319e-02 -1.949258e-05 2.893619e-06 1.579057e-05 8.316711e-07 8.652954e-01 4.813843e-01
2.219262e+08 1.263905e-02 1.253223e-02 1.757313e-05 -1.591258e-05 -3.479794e-05 -2.494454e-05 8.661499e-01 4.818726e-01
2.221441e+08 1.267242e-02 1.260853e-02 5.204231e-05 -7.741153e-06 6.126240e-06 -3.198907e-05 8.660889e-01 4.830322e-01
2.223619e+08 1.264763e-02 1.262665e-02 -1.310371e-05 -1.666136e-05 -1.178961e-05 1.903251e-05 8.652954e-01 4.833984e-01
2.225797e+08 1.263714e-02 1.264286e-02 -3.425404e-05 2.905168e-05 -3.447570e-05 -8.126721e-06 8.657227e-01 4.837036e-01
2.227975e+08 1.258278e-02 1.268482e-02 -3.653765e-05 -3.980845e-05 -2.028886e-05 1.191720e-05 8.656616e-01 4.843750e-01
2.230153e+08 1.259041e-02 1.269150e-02 2.055429e-05 1.288764e-05 -1.984462e-05 -8.349307e-06 8.656006e-01 4.839478e-01
2.232331e+08 1.254177e-02 1.275826e-02 -3.439561e-05 1.046248e-05 -4.524365e-06 2.512522e-05 8.660278e-01 4.852295e-01
2.234509e+08 1.255989e-02 1.277828e-02 -3.173016e-05 -1.657568e-05 3.643520e-05 4.286133e-05 8.648071e-01 4.853516e-01
2.236688e+08 1.250076e-02 1.283073e-02 -5.492009e-06 1.679640e-05 1.174957e-05 5.693175e-06 8.653564e-01 4.860229e-01
2.238866e+08 1.255417e-02 1.281643e-02 2.321042e-05 -1.410209e-05 -1.621898e-05 -5.292706e-06 8.653564e-01 4.866333e-01
2.241044e+08 1.250935e-02 1.291275e-02 -2.841465e-06 -1.023244e-05 2.311729e-05 6.932765e-06 8.646851e-01 4.875488e-01
2.243222e+08 1.248360e-02 1.288986e-02 -3.272854e-05 -3.245473e-05 1.140498e-05 -2.351776e-05 8.641968e-01 4.882202e-01
2.245400e+08 1.245689e-02 1.293468e-02 -1.324713e-05 -3.531761e-05 -2.186559e-05 -3.066473e-05 8.650513e-01 4.869995e-01
2.247578e+08 1.247787e-02 1.294899e-02 5.908310e-06 5.775318e-05 3.853627e-05 1.567230e-05 8.654175e-01 4.883423e-01
2.249756e+08 1.240826e-02 1.292515e-02 -1.048297e-05 -4.377589e-05 -2.029631e-05 -4.386529e-07 8.651733e-01 4.891968e-01
2.251934e+08 1.238441e-02 1.299095e-02 -3.727525e-05 2.123415e-07 1.740083e-05 3.106892e-05 8.646851e-01 4.887085e-01
2.254112e+08 1.231575e-02 1.299763e-02 -2.723746e-05 -3.061816e-05 -1.423620e-05 1.703575e-05 8.656616e-01 4.889526e-01
2.256291e+08 1.234341e-02 1.302242e-02 3.627501e-05 -1.603924e-05 -2.647564e-05 5.637109e-05 8.642578e-01 4.899292e-01
2.258469e+08 1.237583e-02 1.308632e-02 -9.276904e-06 9.382609e-06 8.089468e-06 2.745166e-05 8.649292e-01 4.902344e-01
2.260647e+08 1.232052e-02 1.311970e-02 -2.253614e-05 -2.599880e-05 2.155174e-05 -1.094211e-05 8.646240e-01 4.906006e-01
2.262825e+08 1.229668e-02 1.311016e-02 3.803521e-05 -4.033372e-05 -1.385249e-05 3.391132e-05 8.647461e-01 4.909668e-01
2.265003e+08 1.223373e-02 1.319313e-02 5.601719e-05 -3.054738e-07 3.165193e-05 1.409650e-05 8.649902e-01 4.914551e-01
2.267181e+08 1.224995e-02 1.318073e-02 -4.449987e-10 2.255831e-10 2.680905e-05 -2.400950e-06 8.646851e-01 4.914551e-01
2.269359e+08 1.225758e-02 1.325226e-02 4.595146e-06 -1.403317e-05 -1.262687e-05 2.252869e-05 8.646851e-01 4.923096e-01
2.271538e+08 1.220608e-02 1.328087e-02 -4.114956e-05 -7.219613e-06 7.772818e-06 -3.899261e-05 8.651123e-01 4.920044e-01
2.273716e+08 1.221943e-02 1.329803e-02 -1.307018e-05 1.934357e-06 -5.688984e-06 -6.263144e-07 8.646851e-01 4.926147e-01
2.275894e+08 1.217747e-02 1.331520e-02 4.699687e-06 4.648697e-06 9.275973e-07 -6.546080e-05 8.652954e-01 4.928589e-01
2.278072e+08 1.215363e-02 1.335716e-02 -3.677793e-06 1.122802e-05 -2.480857e-05 -3.911555e-08 8.640747e-01 4.936523e-01
2.280250e+08 1.215553e-02 1.340771e-02 -3.531203e-05 5.068630e-05 1.138449e-05 1.253560e-06 8.645020e-01 4.945679e-01
2.282428e+08 1.211643e-02 1.344872e-02 -1.657754e-07 -3.739633e-05 -1.978129e-06 -2.238527e-05 8.634644e-01 4.948730e-01
2.284606e+08 1.208973e-02 1.338673e-02 3.653951e-05 2.135523e-05 -5.751848e-06 2.419762e-05 8.630371e-01 4.956665e-01
2.286784e+08 1.204586e-02 1.348114e-02 8.301809e-06 -2.529845e-05 1.377240e-05 2.810732e-05 8.634644e-01 4.957886e-01
2.288962e+08 1.206684e-02 1.346493e-02 2.138875e-05 -2.722628e-05 -1.581199e-05 -2.566725e-05 8.632812e-01 4.955444e-01
2.291141e+08 1.203156e-02 1.349545e-02 -1.494493e-05 7.566065e-06 5.273148e-06 8.549541e-06 8.643188e-01 4.957886e-01
2.293319e+08 1.198959e-02 1.353073e-02 -1.391582e-05 2.346188e-05 -1.423527e-05 -7.766299e-06 8.633423e-01 4.957886e-01
2.295497e+08 1.198959e-02 1.353931e-02 8.251518e-07 -2.153777e-05 -5.331635e-05 -3.207475e-06 8.632812e-01 4.963989e-01
2.297675e+08 1.200104e-02 1.361561e-02 1.225993e-05 1.959968e-05 2.444163e-05 -4.421920e-06 8.627319e-01 4.964600e-01
2.299853e+08 1.201534e-02 1.365757e-02 3.654510e-05 2.654269e-06 -2.728030e-05 -2.117828e-06 8.630981e-01 4.974976e-01
2.302031e+08 1.197433e-02 1.364231e-02 -1.965091e-05 2.906658e-06 -5.684793e-06 -1.304597e-05 8.627930e-01 4.967041e-01
2.304209e+08 1.195240e-02 1.370049e-02 -2.998114e-05 -3.581867e-06 -1.222175e-05 2.214685e-06 8.625488e-01 4.965820e-01
2.306388e+08 1.191139e-02 1.366234e-02 2.060086e-05 -5.722046e-06 -2.840068e-06 -6.529968e-06 8.632812e-01 4.981689e-01
2.308566e+08 1.189137e-02 1.375866e-02 8.408912e-06 -6.602611e-06 6.524846e-06 -2.838671e-06 8.629150e-01 4.982300e-01
2.310744e+08 1.187897e-02 1.377106e-02 -1.019239e-05 3.097020e-05 -6.077811e-06 -1.754332e-05 8.622437e-01 4.983521e-01
2.312922e+08 1.181698e-02 1.377487e-02 -2.724677e-05 -1.208484e-05 -8.249190e-07 3.462890e-06 8.624268e-01 4.987183e-01
2.315100e+08 1.179314e-02 1.379681e-02 -7.629022e-05 -7.186085e-05 5.705748e-06 6.272458e-07 8.621826e-01 4.984131e-01
2.317278e+08 1.180267e-02 1.384735e-02 8.180737e-06 -6.287172e-05 8.244067e-06 -3.461540e-05 8.616943e-01 4.991455e-01
2.319456e+08 1.175594e-02 1.386166e-02 3.584474e-05 4.298240e-05 -2.902374e-05 2.969056e-05 8.620605e-01 4.985352e-01
2.321634e+08 1.175499e-02 1.386261e-02 -1.765788e-06 2.440438e-05 2.606213e-05 1.352280e-05 8.619385e-01 4.989014e-01
2.323812e+08 1.171017e-02 1.391315e-02 2.532825e-05 -1.050532e-06 -4.712492e-07 2.038013e-05 8.614502e-01 4.989624e-01
2.325991e+08 1.170254e-02 1.388741e-02 1.884624e-05 1.869164e-05 -1.648441e-06 6.926246e-06 8.611450e-01 4.995117e-01
2.328169e+08 1.171494e-02 1.397514e-02 -2.155639e-05 8.551404e-06 -5.057454e-05 -9.093434e-06 8.614502e-01 4.993286e-01
2.330347e+08 1.162910e-02 1.397991e-02 3.870577e-06 2.627075e-05 -1.769513e-06 -8.471310e-05 8.609619e-01 4.994507e-01
2.332525e+08 1.163673e-02 1.399231e-02 -5.648006e-06 -1.852401e-06 4.490372e-06 -3.951136e-07 8.611450e-01 4.998169e-01
2.334703e+08 1.166153e-02 1.404476e-02 -1.180917e-06 -5.355477e-05 1.759455e-05 -1.852214e-05 8.605347e-01 5.003662e-01
2.336881e+08 1.160717e-02 1.408672e-02 -3.491901e-05 -2.709217e-05 -1.024269e-05 1.221523e-05 8.604736e-01 5.006714e-01
2.339059e+08 1.160526e-02 1.407337e-02 4.723202e-06 4.677335e-06 -7.368159e-06 6.314833e-06 8.603516e-01 5.003662e-01
2.341238e+08 1.156616e-02 1.411057e-02 -2.777204e-06 8.474570e-06 7.208437e-06 5.598366e-05 8.599243e-01 5.005493e-01
2.343416e+08 1.152802e-02 1.415443e-02 2.453290e-05 2.054498e-05 2.411008e-05 -8.916482e-06 8.588867e-01 5.005493e-01
2.345594e+08 1.153564e-02 1.417732e-02 -7.729977e-08 -1.882389e-05 3.717653e-05 -2.123415e-06 8.598633e-01 5.020752e-01
2.347772e+08 1.148605e-02 1.418877e-02 7.511582e-06 -3.796536e-06 2.577342e-05 -1.586787e-05 8.590088e-01 5.021362e-01
2.349950e+08 1.149368e-02 1.422882e-02 -2.268143e-05 -2.626330e-05 2.253242e-05 -1.444295e-05 8.587646e-01 5.017090e-01
2.352128e+08 1.148224e-02 1.426601e-02 -2.441183e-05 1.705624e-05 1.713447e-05 1.435354e-05 8.593140e-01 5.019531e-01
2.354306e+08 1.146603e-02 1.430035e-02 -1.409557e-05 4.761852e-06 -1.591537e-05 -1.333468e-05 8.579712e-01 5.017090e-01
2.356484e+08 1.137638e-02 1.430035e-02 1.782365e-05 -1.608115e-05 -3.188662e-05 -1.739711e-06 8.579712e-01 5.020752e-01
2.358662e+08 1.140690e-02 1.429939e-02 -5.366281e-05 1.057982e-05 3.346056e-05 1.973100e-05 8.581543e-01 5.024414e-01
2.360841e+08 1.137447e-02 1.435566e-02 -8.367002e-06 2.546050e-05 -4.380569e-05 1.746789e-05 8.572388e-01 5.020752e-01
2.363019e+08 1.130581e-02 1.440811e-02 -4.351884e-05 -3.938377e-05 3.789179e-05 3.183447e-05 8.576660e-01 5.024414e-01
2.365197e+08 1.134014e-02 1.439762e-02 4.726462e-06 4.689209e-06 -4.498754e-06 3.941823e-07 8.564453e-01 5.022583e-01
2.367375e+08 1.131344e-02 1.440048e-02 -2.543256e-05 1.037493e-06 4.134513e-05 -7.037073e-06 8.561401e-01 5.028076e-01
2.369553e+08 1.129913e-02 1.444626e-02 -2.866611e-06 -1.034886e-05 -1.349580e-05 1.181848e-06 8.555908e-01 5.026855e-01
2.371731e+08 1.121807e-02 1.451015e-02 -6.515533e-06 1.983158e-05 3.928877e-05 -4.608184e-06 8.562622e-01 5.026855e-01
2.373909e+08 1.124477e-02 1.447201e-02 1.800433e-05 2.160482e-05 -5.995855e-06 -4.256517e-05 8.553467e-01 5.028076e-01
2.376088e+08 1.121712e-02 1.455116e-02 2.822466e-05 -9.570271e-06 5.289447e-06 8.608680e-06 8.551636e-01 5.018921e-01
2.378266e+08 1.114368e-02 1.458931e-02 -4.737405e-06 -4.695728e-06 -1.399778e-05 3.414974e-05 8.550415e-01 5.029907e-01
2.380444e+08 1.118279e-02 1.455021e-02 -1.972914e-05 2.179667e-05 3.716443e-06 -9.402633e-06 8.550415e-01 5.029907e-01
2.382622e+08 1.117611e-02 1.455879e-02 4.818663e-06 2.357550e-05 6.282702e-05 -5.998835e-05 8.545532e-01 5.032959e-01
2.384800e+08 1.113224e-02 1.462841e-02 1.040474e-05 6.562099e-06 -2.944656e-05 -1.216307e-05 8.531494e-01 5.032959e-01
2.386978e+08 1.109219e-02 1.459217e-02 -1.522340e-05 -3.015064e-05 -3.065355e-05 -2.566539e-05 8.530884e-01 5.039673e-01
2.389156e+08 1.106834e-02 1.461506e-02 2.736226e-06 -2.739765e-05 -3.393367e-05 -1.177937e-05 8.526611e-01 5.040283e-01
2.391334e+08 1.104450e-02 1.471043e-02 4.056096e-05 -8.650124e-06 3.597885e-05 2.182834e-05 8.519287e-01 5.038452e-01
2.393512e+08 1.103210e-02 1.474380e-02 2.268702e-05 7.456169e-06 -2.013240e-05 1.651142e-05 8.516235e-01 5.036011e-01
2.395691e+08 1.098061e-02 1.473522e-02 1.709722e-05 2.447888e-05 4.067086e-06 7.594004e-06 8.513184e-01 5.039062e-01
2.397869e+08 1.097298e-02 1.478291e-02 -1.034420e-05 1.231395e-05 1.423061e-05 3.281981e-05 8.505859e-01 5.043335e-01
2.400047e+08 1.094818e-02 1.476097e-02 1.118146e-05 -3.405660e-05 -1.224596e-05 -1.028366e-05 8.504639e-01 5.039062e-01
2.402225e+08 1.096344e-02 1.483059e-02 -5.847961e-05 2.478436e-05 -2.942979e-07 -2.950989e-05 8.496704e-01 5.045166e-01
2.404403e+08 1.092434e-02 1.485062e-02 8.477829e-06 -6.647781e-06 4.907604e-06 4.115747e-06 8.497925e-01 5.045776e-01
2.406581e+08 1.086330e-02 1.483917e-02 -2.070516e-05 2.464093e-05 1.572445e-05 -4.115887e-05 8.491211e-01 5.051270e-01
2.408759e+08 1.084614e-02 1.483536e-02 4.252046e-05 4.556030e-06 1.059845e-05 1.726113e-05 8.480225e-01 5.048218e-01
2.410938e+08 1.084614e-02 1.489067e-02 2.268888e-05 7.480383e-06 -3.660284e-05 3.618933e-05 8.469849e-01 5.051270e-01
2.413116e+08 1.080608e-02 1.490974e-02 -2.932362e-05 -6.506220e-06 1.928397e-05 -5.504116e-07 8.474731e-01 5.052490e-01
2.415294e+08 1.077175e-02 1.495838e-02 -8.481555e-06 6.653368e-06 2.428517e-05 -2.145022e-05 8.471680e-01 5.054932e-01
2.417472e+08 1.075840e-02 1.494980e-02 -2.069585e-05 2.465583e-05 -2.836436e-05 1.384318e-05 8.463135e-01 5.050659e-01
2.419650e+08 1.076889e-02 1.496220e-02 1.106784e-05 -7.188693e-05 -2.105720e-06 1.495890e-05 8.455811e-01 5.057373e-01
2.421828e+08 1.073074e-02 1.502514e-02 3.596582e-05 5.537644e-06 -1.673587e-05 -2.242438e-05 8.456421e-01 5.060425e-01
2.424006e+08 1.066113e-02 1.506996e-02 -5.684327e-06 -1.869164e-06 -1.537427e-05 -4.642084e-05 8.450928e-01 5.056152e-01
2.426184e+08 1.069927e-02 1.505280e-02 -3.889203e-06 -2.645701e-05 5.053729e-05 -2.035871e-05 8.441772e-01 5.054321e-01
2.428362e+08 1.069164e-02 1.508522e-02 4.824251e-06 2.364628e-05 -2.175011e-05 -1.527369e-06 8.444214e-01 5.057373e-01
2.430541e+08 1.060867e-02 1.512051e-02 8.791685e-07 -2.177246e-05 -1.197774e-05 1.923647e-05 8.429565e-01 5.066528e-01
2.432719e+08 1.059437e-02 1.512909e-02 -4.253536e-05 1.434982e-05 -4.220754e-06 2.995320e-05 8.425903e-01 5.061646e-01
2.434897e+08 1.054096e-02 1.517582e-02 2.460182e-05 1.823530e-06 -1.722109e-05 -1.925975e-06 8.414307e-01 5.066528e-01
2.437075e+08 1.050949e-02 1.516914e-02 -6.907433e-05 1.823530e-05 -4.909467e-06 -4.128320e-06 8.413696e-01 5.066528e-01
2.439253e+08 1.053524e-02 1.515865e-02 5.688053e-06 1.875684e-06 -1.246482e-05 3.976189e-05 8.404541e-01 5.068970e-01
2.441431e+08 1.049995e-02 1.522827e-02 -5.620532e-06 1.705065e-05 2.332032e-05 1.959875e-05 8.390503e-01 5.065918e-01
2.443609e+08 1.042461e-02 1.521969e-02 -4.355982e-05 -1.735985e-06 7.860363e-07 9.031966e-06 8.391113e-01 5.067139e-01
2.445788e+08 1.051521e-02 1.522541e-02 -2.275035e-05 -7.495284e-06 2.185814e-05 -2.353266e-05 8.382568e-01 5.068970e-01
2.447966e+08 1.044559e-02 1.523018e-02 -1.513492e-05 7.635914e-06 -7.895753e-06 2.687238e-05 8.382568e-01 5.073242e-01
2.450144e+08 1.041508e-02 1.526356e-02 -1.238845e-05 -1.985207e-05 -1.954474e-05 -4.156865e-05 8.371582e-01 5.078125e-01
2.452322e+08 1.034641e-02 1.527882e-02 -1.144037e-05 -2.270006e-05 -1.606718e-05 1.164339e-05 8.364258e-01 5.080566e-01
2.454500e+08 1.033306e-02 1.536942e-02 -2.813525e-06 8.550473e-06 2.038479e-05 -5.415082e-05 8.370361e-01 5.085449e-01
2.456678e+08 1.033020e-02 1.533604e-02 1.627207e-05 4.637614e-05 -2.680719e-05 1.939945e-05 8.352661e-01 5.081177e-01
2.458856e+08 1.030064e-02 1.535130e-02 -1.132395e-05 1.521315e-05 2.791174e-05 6.703660e-06 8.351440e-01 5.086670e-01
2.461034e+08 1.030254e-02 1.536846e-02 2.653711e-05 -3.896654e-06 -8.379575e-07 3.488502e-06 8.342285e-01 5.087280e-01
2.463212e+08 1.025200e-02 1.542091e-02 3.746711e-06 -1.138356e-05 4.675239e-05 2.672523e-05 8.327637e-01 5.084839e-01
2.465391e+08 1.020622e-02 1.541519e-02 -4.758127e-06 -4.724367e-06 1.318008e-05 -5.706213e-06 8.328857e-01 5.090942e-01
2.467569e+08 1.016808e-02 1.551723e-02 9.974465e-07 1.611281e-05 -3.773719e-05 -2.751872e-05 8.315430e-01 5.090942e-01
2.469747e+08 1.014137e-02 1.545811e-02 -1.239032e-05 -1.988932e-05 3.399327e-07 1.706835e-05 8.314819e-01 5.097046e-01
2.471925e+08 1.012230e-02 1.551437e-02 -1.138076e-05 -3.766268e-06 -8.719042e-06 1.786370e-05 8.292847e-01 5.100098e-01
2.474103e+08 1.012707e-02 1.555538e-02 -7.581431e-06 3.815629e-06 -1.654960e-05 1.965743e-05 8.299561e-01 5.103149e-01
2.476281e+08 1.008797e-02 1.550484e-02 3.882125e-05 -2.192892e-05 -1.590699e-05 -2.598763e-05 8.287354e-01 5.103149e-01
2.478459e+08 1.006413e-02 1.556396e-02 6.565824e-06 -1.993403e-05 2.336130e-05 1.962110e-05 8.278198e-01 5.097656e-01
2.480638e+08 1.003551e-02 1.557922e-02 -4.643574e-06 3.324077e-05 -3.685011e-06 -3.102235e-06 8.280029e-01 5.106812e-01
2.482816e+08 1.000023e-02 1.561165e-02 7.515773e-06 -2.278201e-05 -1.727231e-05 -1.935288e-06 8.264160e-01 5.101929e-01
2.484994e+08 9.974480e-03 1.563454e-02 -2.086908e-05 5.763024e-06 -3.506988e-05 1.673028e-05 8.265991e-01 5.110474e-01
2.487172e+08 9.989738e-03 1.562214e-02 1.007691e-06 1.611467e-05 -1.599453e-05 -1.343526e-05 8.247070e-01 5.105591e-01
2.489350e+08 9.967804e-03 1.566124e-02 -2.280436e-05 -7.528812e-06 -1.125038e-06 -2.613477e-05 8.241577e-01 5.118408e-01
2.491528e+08 9.881020e-03 1.573086e-02 -1.939945e-06 -1.328904e-05 2.258457e-05 1.059659e-05 8.234863e-01 5.120239e-01
2.493706e+08 9.912491e-03 1.562214e-02 6.645452e-06 -9.681098e-07 3.465079e-05 -2.123602e-05 8.229370e-01 5.123291e-01
2.495884e+08 9.860992e-03 1.570320e-02 2.288073e-05 2.651475e-05 2.757646e-05 2.192333e-06 8.221436e-01 5.122070e-01
2.498062e+08 9.829521e-03 1.574421e-02 -1.629069e-05 -4.649535e-05 -1.684763e-06 6.993301e-06 8.212891e-01 5.130005e-01
2.500241e+08 9.797096e-03 1.574421e-02 2.370961e-05 -1.432933e-05 -3.051944e-05 1.632981e-05 8.208008e-01 5.132446e-01
2.502419e+08 9.799957e-03 1.579189e-02 -2.552383e-05 3.901124e-05 -5.535781e-06 4.156493e-05 8.191528e-01 5.131836e-01
2.504597e+08 9.736061e-03 1.583481e-02 -2.374500e-05 -4.680827e-06 -3.065169e-05 4.143454e-05 8.180542e-01 5.137329e-01
2.506775e+08 9.710312e-03 1.581573e-02 5.327538e-05 3.027916e-05 -2.956949e-06 1.851004e-05 8.182373e-01 5.142822e-01
2.508953e+08 9.678841e-03 1.581573e-02 5.647540e-06 -1.710560e-05 3.417954e-06 -2.652407e-05 8.168335e-01 5.142822e-01
2.511131e+08 9.650230e-03 1.587582e-02 6.644987e-06 -9.699725e-07 3.860891e-05 -5.582720e-05 8.160400e-01 5.148926e-01
2.513309e+08 9.621620e-03 1.584339e-02 1.041498e-05 -1.237076e-05 -7.832423e-06 1.816079e-06 8.148804e-01 5.151978e-01
2.515488e+08 9.642601e-03 1.589012e-02 1.433119e-05 3.322959e-05 1.166947e-06 1.361221e-05 8.146973e-01 5.164185e-01
2.517666e+08 9.568214e-03 1.588345e-02 -1.041405e-05 1.237169e-05 -5.505979e-06 2.902932e-05 8.134766e-01 5.158081e-01
2.519844e+08 9.557724e-03 1.595020e-02 -1.226738e-05 3.708154e-05 7.178634e-06 4.394352e-05 8.127441e-01 5.166626e-01
2.522022e+08 9.539604e-03 1.597786e-02 2.010539e-05 5.410612e-05 1.166575e-05 -2.384000e-05 8.123169e-01 5.164185e-01
2.524200e+08 9.534836e-03 1.597595e-02 1.798384e-05 -3.522821e-05 -2.332001e-11 -2.719247e-10 8.119507e-01 5.175171e-01
2.526378e+08 9.499550e-03 1.604462e-02 1.046993e-05 6.636605e-06 2.911780e-06 -5.963258e-06 8.107300e-01 5.184326e-01
2.528556e+08 9.471893e-03 1.595592e-02 6.560236e-06 -3.898144e-05 9.001233e-06 1.179148e-05 8.096313e-01 5.179443e-01
2.530734e+08 9.394646e-03 1.599121e-02 3.991649e-05 -5.815178e-06 -2.923049e-05 -7.778406e-06 8.089600e-01 5.184937e-01
2.532912e+08 9.392738e-03 1.603985e-02 1.236144e-05 9.182841e-07 1.146365e-05 1.385808e-05 8.083496e-01 5.189209e-01
2.535091e+08 9.358406e-03 1.601219e-02 2.386793e-05 4.273653e-05 2.266280e-05 -1.944602e-06 8.071899e-01 5.197144e-01
2.537269e+08 9.307861e-03 1.612663e-02 -6.570667e-05 -3.127009e-05 1.354422e-05 1.142640e-05 8.067627e-01 5.205688e-01
2.539447e+08 9.258270e-03 1.608372e-02 3.420562e-05 -7.690862e-06 1.574587e-05 -1.620967e-05 8.053589e-01 5.200806e-01
2.541625e+08 9.242058e-03 1.608658e-02 2.834946e-06 -8.566305e-06 1.123268e-05 -1.580641e-05 8.049316e-01 5.212402e-01
2.543803e+08 9.274483e-03 1.610756e-02 -2.100691e-05 -3.228150e-05 2.838857e-05 1.127832e-05 8.035889e-01 5.209961e-01
2.545981e+08 9.230614e-03 1.613522e-02 3.413484e-05 -4.572421e-05 -1.602154e-05 -1.348555e-05 8.024902e-01 5.214844e-01
2.548159e+08 9.184837e-03 1.612091e-02 -1.422502e-05 2.380833e-05 -2.184696e-05 -1.562759e-06 8.016968e-01 5.223389e-01
2.550338e+08 9.156227e-03 1.620197e-02 -9.493437e-06 9.533484e-06 4.004687e-06 -5.979091e-05 8.012085e-01 5.222168e-01
2.552516e+08 9.149551e-03 1.614380e-02 -1.703203e-05 5.140901e-05 3.610179e-05 -4.541874e-05 8.001709e-01 5.228882e-01
2.554694e+08 9.074211e-03 1.624966e-02 -7.579103e-06 2.286024e-05 6.617978e-06 -2.854038e-06 7.997437e-01 5.243530e-01
2.556872e+08 9.061813e-03 1.623249e-02 7.672235e-06 3.425963e-05 -4.667789e-06 2.556294e-05 7.987671e-01 5.249023e-01
2.559050e+08 9.081841e-03 1.624775e-02 9.427313e-07 -2.856134e-06 2.039596e-05 5.086884e-05 7.977295e-01 5.238647e-01
2.561228e+08 9.015083e-03 1.627827e-02 -7.642433e-06 -1.521967e-05 -3.800541e-05 1.012348e-05 7.969971e-01 5.255737e-01
2.563406e+08 9.032249e-03 1.626492e-02 2.858229e-05 9.465963e-06 -3.250316e-06 -1.116190e-05 7.962036e-01 5.258179e-01
2.565584e+08 8.935928e-03 1.631832e-02 3.824942e-06 7.603317e-06 -5.576387e-05 3.606081e-06 7.952271e-01 5.263672e-01
2.567762e+08 8.895874e-03 1.632404e-02 -1.714099e-05 -5.685724e-06 1.340918e-05 -3.089756e-05 7.940674e-01 5.275879e-01
2.569941e+08 8.900642e-03 1.632118e-02 1.853332e-06 -2.475269e-05 3.622845e-06 1.571886e-05 7.935791e-01 5.277710e-01
2.572119e+08 8.893967e-03 1.634598e-02 -3.715418e-05 -2.807006e-06 1.379289e-05 -2.633780e-05 7.927856e-01 5.291138e-01
2.574297e+08 8.830070e-03 1.640987e-02 2.191029e-05 1.042709e-05 -1.311582e-05 -1.949258e-05 7.917480e-01 5.288086e-01
2.576475e+08 8.794785e-03 1.636982e-02 -3.326871e-05 2.385490e-05 -3.932044e-06 -3.286637e-05 7.908325e-01 5.293579e-01
2.578653e+08 8.754730e-03 1.639175e-02 -3.864989e-06 -2.666935e-05 -1.394283e-05 -1.598988e-05 7.906494e-01 5.305176e-01
2.580831e+08 8.769989e-03 1.638699e-02 -2.577901e-05 -5.612895e-05 1.132488e-05 -2.843142e-05 7.888184e-01 5.309448e-01
2.583009e+08 8.715630e-03 1.643181e-02 3.337488e-05 1.421943e-05 -7.925555e-06 1.440756e-05 7.889404e-01 5.315552e-01
2.585188e+08 8.686066e-03 1.649570e-02 5.709752e-05 -1.915172e-05 2.776273e-05 -1.034513e-05 7.877808e-01 5.317383e-01
2.587366e+08 8.681297e-03 1.646233e-02 3.999099e-05 -5.774200e-06 3.352202e-05 -9.732321e-06 7.869263e-01 5.327148e-01
2.589544e+08 8.676529e-03 1.649952e-02 -8.593313e-06 -1.236796e-05 -1.318380e-05 -6.891787e-06 7.862549e-01 5.328979e-01
2.591722e+08 8.624077e-03 1.649952e-02 1.616869e-05 -1.049973e-05 -2.566725e-05 7.914379e-06 7.850952e-01 5.335693e-01
2.593900e+08 8.596420e-03 1.654148e-02 -2.961606e-05 -8.277595e-05 -1.279917e-05 -2.348796e-06 7.836914e-01 5.344849e-01
2.596078e+08 8.569717e-03 1.646996e-02 -2.865680e-06 -1.046620e-05 -2.403371e-05 1.349859e-05 7.821045e-01 5.347290e-01
2.598256e+08 8.484840e-03 1.654625e-02 -1.142174e-05 1.526158e-05 -4.627742e-06 1.299102e-05 7.823486e-01 5.362549e-01
2.600434e+08 8.460045e-03 1.655865e-02 2.287701e-05 7.571653e-06 -2.853014e-05 1.279637e-06 7.817993e-01 5.360107e-01
2.602612e+08 8.487701e-03 1.658821e-02 2.666004e-05 -3.835186e-06 4.552305e-06 -3.827736e-07 7.800293e-01 5.370483e-01
2.604791e+08 8.451462e-03 1.660347e-02 -4.190952e-05 3.053993e-05 6.633811e-06 -2.854038e-06 7.798462e-01 5.384521e-01
2.606969e+08 8.394241e-03 1.661682e-02 9.201467e-07 -2.191961e-05 1.874939e-05 -2.221949e-05 7.788086e-01 5.384521e-01
2.609147e+08 8.441925e-03 1.662540e-02 -7.588416e-06 4.192442e-05 1.495611e-05 -1.272839e-05 7.775879e-01 5.399780e-01
2.611325e+08 8.336067e-03 1.664448e-02 -2.189167e-05 8.590519e-06 -8.188188e-06 -1.535751e-05 7.768555e-01 5.396729e-01
2.613503e+08 8.366585e-03 1.665974e-02 2.672151e-05 1.521967e-05 -2.440065e-07 -2.980232e-05 7.774048e-01 5.410767e-01
2.615681e+08 8.294106e-03 1.670456e-02 -3.716908e-05 -2.188422e-05 1.939014e-06 2.275966e-05 7.754517e-01 5.415649e-01
2.617859e+08 8.260727e-03 1.669979e-02 9.406358e-07 -2.190471e-05 1.212582e-05 -1.936592e-05 7.742310e-01 5.425415e-01
2.620038e+08 8.247375e-03 1.670361e-02 -9.490177e-06 2.859347e-05 -4.697591e-06 2.562627e-05 7.739868e-01 5.429077e-01
2.622216e+08 8.214951e-03 1.673508e-02 -1.334306e-05 1.916662e-06 -3.047287e-06 -4.904345e-05 7.733154e-01 5.446777e-01
2.624394e+08 8.197784e-03 1.669979e-02 -2.192892e-05 8.586794e-06 -1.259521e-05 2.745166e-05 7.728882e-01 5.454102e-01
2.626572e+08 8.164406e-03 1.672077e-02 -1.583248e-08 -1.904462e-05 -9.423122e-06 -1.640059e-05 7.713013e-01 5.449829e-01
2.628750e+08 8.066177e-03 1.670551e-02 -6.675720e-06 -3.714114e-05 1.915358e-05 -1.765788e-05 7.700806e-01 5.465698e-01
2.630928e+08 8.111000e-03 1.674843e-02 5.339086e-05 4.949793e-05 -7.031020e-06 -1.696404e-06 7.700806e-01 5.470581e-01
2.633106e+08 8.025169e-03 1.677227e-02 -1.428835e-05 4.774891e-06 9.126961e-07 -7.119402e-05 7.689819e-01 5.478516e-01
2.635284e+08 8.009911e-03 1.677895e-02 -8.585863e-06 -1.238845e-05 9.434298e-07 -1.615100e-05 7.684326e-01 5.488892e-01
2.637462e+08 7.999420e-03 1.678085e-02 3.825873e-06 2.667308e-05 2.163090e-05 -1.560338e-05 7.672729e-01 5.494995e-01
2.639641e+08 7.966995e-03 1.679516e-02 -2.870336e-06 -1.047831e-05 -1.555867e-05 3.344938e-05 7.670288e-01 5.495605e-01
2.641819e+08 7.934570e-03 1.685143e-02 2.569705e-05 -5.812198e-05 -1.104549e-05 -2.203882e-05 7.656250e-01 5.509644e-01
2.643997e+08 7.850647e-03 1.683617e-02 -6.671995e-06 9.555370e-07 -1.230463e-05 4.460663e-05 7.655640e-01 5.519409e-01
2.646175e+08 7.893562e-03 1.679802e-02 2.953410e-05 -1.239777e-05 -2.934597e-05 -7.849187e-06 7.644043e-01 5.524902e-01
2.648353e+08 7.842064e-03 1.693344e-02 -3.431365e-05 7.631257e-06 1.176447e-05 -2.394989e-05 7.633667e-01 5.534668e-01
2.650531e+08 7.840157e-03 1.688957e-02 -1.431722e-05 -1.430511e-05 -2.898462e-05 -3.298745e-06 7.631836e-01 5.549316e-01
2.652709e+08 7.793427e-03 1.690388e-02 -1.905486e-05 1.909025e-05 5.930662e-06 4.310720e-05 7.623901e-01 5.550537e-01
2.654888e+08 7.757187e-03 1.691914e-02 1.047272e-05 -1.239125e-05 -1.184829e-05 3.660098e-05 7.604370e-01 5.555420e-01
2.657066e+08 7.758141e-03 1.697350e-02 -4.769769e-06 -4.758826e-06 -3.025308e-05 6.343797e-05 7.601318e-01 5.562134e-01
2.659244e+08 7.717133e-03 1.696396e-02 -3.334880e-05 4.292652e-05 -2.900325e-05 -3.311783e-06 7.596436e-01 5.578613e-01
2.661422e+08 7.676125e-03 1.694489e-02 -3.812835e-05 1.862645e-08 -9.511597e-06 -3.802124e-06 7.586060e-01 5.585938e-01
2.663600e+08 7.619858e-03 1.695728e-02 1.908280e-05 -3.725290e-09 -2.033729e-05 3.991649e-06 7.588501e-01 5.592041e-01
2.665778e+08 7.582664e-03 1.694489e-02 1.240335e-05 2.002902e-05 -3.012642e-05 -1.701154e-05 7.578125e-01 5.603027e-01
2.667956e+08 7.560730e-03 1.701069e-02 -4.863366e-05 -6.675720e-06 3.118813e-05 -1.181290e-05 7.566528e-01 5.610352e-01
2.670134e+08 7.522583e-03 1.703930e-02 -2.870336e-06 -2.954714e-05 1.958013e-05 -1.317263e-05 7.559814e-01 5.612183e-01
2.672312e+08 7.503510e-03 1.698875e-02 9.526499e-06 9.540003e-06 1.298450e-05 -2.293475e-05 7.548828e-01 5.629883e-01
2.674491e+08 7.494926e-03 1.705360e-02 -1.143478e-05 -3.819354e-06 1.785345e-06 -1.968816e-05 7.539062e-01 5.637817e-01
2.676669e+08 7.488251e-03 1.703453e-02 -2.285466e-05 -4.580617e-05 -2.770312e-05 -1.490861e-05 7.537231e-01 5.648193e-01
2.678847e+08 7.431030e-03 1.703835e-02 1.812074e-05 -1.620315e-05 3.806315e-06 -9.514391e-06 7.528687e-01 5.655518e-01
2.681025e+08 7.407188e-03 1.708984e-02 2.194569e-05 1.051277e-05 2.492778e-05 -4.388392e-06 7.526855e-01 5.675659e-01
2.683203e+08 7.364273e-03 1.709938e-02 1.623668e-05 -1.049414e-05 2.185069e-05 -4.088134e-05 7.525024e-01 5.686035e-01
2.685381e+08 7.336617e-03 1.709366e-02 -8.590519e-06 2.576783e-05 2.657995e-06 -2.323277e-05 7.518311e-01 5.688477e-01
2.687559e+08 7.299423e-03 1.711750e-02 -1.143664e-05 3.434345e-05 -2.969429e-05 -2.510473e-05 7.508545e-01 5.691528e-01
2.689738e+08 7.239342e-03 1.706982e-02 -2.673268e-05 -1.528673e-05 -2.761371e-06 -1.931656e-05 7.504883e-01 5.709839e-01
2.691916e+08 7.232666e-03 1.715088e-02 -4.771352e-05 -9.559095e-06 -6.661750e-06 2.857763e-06 7.495728e-01 5.716553e-01
2.694094e+08 7.226944e-03 1.716995e-02 -4.104525e-05 -1.053512e-05 -2.695620e-05 4.939362e-05 7.490234e-01 5.730591e-01
2.696272e+08 7.218361e-03 1.718521e-02 4.099682e-05 1.049414e-05 -1.028460e-05 -1.294073e-05 7.475586e-01 5.727539e-01
2.698450e+08 7.152557e-03 1.720047e-02 -2.959743e-05 1.239590e-05 3.494136e-05 -8.676201e-06 7.476807e-01 5.746460e-01
2.700628e+08 7.135391e-03 1.716137e-02 -3.435276e-05 -1.145899e-05 5.810522e-06 6.654300e-07 7.464600e-01 5.752563e-01
2.702806e+08 7.080078e-03 1.718044e-02 -5.763024e-06 3.625639e-05 -4.781038e-05 -4.895031e-05 7.454834e-01 5.762329e-01
2.704984e+08 7.023811e-03 1.721191e-02 -3.721565e-05 -2.888963e-06 -5.523674e-06 1.656730e-05 7.450562e-01 5.769653e-01
2.707162e+08 7.010460e-03 1.726437e-02 -1.336727e-05 1.903623e-06 6.284099e-06 -7.427763e-06 7.446899e-01 5.781860e-01
2.709341e+08 6.991386e-03 1.726055e-02 9.540003e-06 -9.539071e-06 3.229827e-05 1.456589e-05 7.437744e-01 5.780029e-01
2.711519e+08 6.946564e-03 1.717091e-02 1.933426e-06 -6.297603e-05 5.133450e-06 -2.115220e-05 7.431641e-01 5.797119e-01
2.713697e+08 6.901741e-03 1.726437e-02 3.245845e-05 -1.888722e-06 -4.664995e-06 1.305155e-05 7.429199e-01 5.808105e-01
2.715875e+08 6.916046e-03 1.726627e-02 3.725290e-05 -1.620501e-05 -8.848496e-06 1.800433e-05 7.425537e-01 5.821533e-01
2.718053e+08 6.885529e-03 1.732922e-02 2.194941e-05 1.053512e-05 -1.894496e-05 3.497489e-05 7.413330e-01 5.836792e-01
2.720231e+08 6.833076e-03 1.726818e-02 6.680377e-06 -9.485520e-07 -8.389354e-06 9.903219e-06 7.408447e-01 5.834961e-01
2.722409e+08 6.804466e-03 1.733875e-02 -4.009157e-05 -1.342595e-05 -2.487935e-05 -8.288771e-06 7.402954e-01 5.852661e-01
2.724588e+08 6.772995e-03 1.726246e-02 1.912098e-05 -1.908001e-05 -1.171697e-05 1.134537e-05 7.400513e-01 5.859375e-01
2.726766e+08 6.745338e-03 1.734638e-02 -1.526531e-05 -1.146644e-05 -9.341165e-06 -2.917275e-05 7.396240e-01 5.865479e-01
2.728944e+08 6.700516e-03 1.731968e-02 -9.834766e-07 2.197549e-05 -1.467578e-05 1.734123e-05 7.392578e-01 5.885620e-01
2.731122e+08 6.672859e-03 1.735020e-02 4.204735e-05 -1.138449e-05 -3.996678e-05 4.474074e-06 7.379761e-01 5.895996e-01
2.733300e+08 6.654739e-03 1.732159e-02 -2.575666e-05 -1.816079e-05 -2.848729e-05 3.115274e-05 7.373657e-01 5.894775e-01
2.735478e+08 6.624222e-03 1.740646e-02 -1.147762e-05 1.526624e-05 -4.192814e-06 4.959293e-06 7.372437e-01 5.910034e-01
2.737656e+08 6.606102e-03 1.739216e-02 -9.568408e-06 2.864003e-05 3.346056e-05 2.830289e-05 7.368774e-01 5.920410e-01
2.739834e+08 6.510735e-03 1.736736e-02 -1.527742e-05 -1.146458e-05 2.533570e-05 2.142042e-07 7.366333e-01 5.925293e-01
2.742012e+08 6.525993e-03 1.737499e-02 -5.666167e-06 -5.921349e-05 -1.392514e-05 2.651475e-05 7.359619e-01 5.938110e-01
2.744191e+08 6.543159e-03 1.738358e-02 -1.904741e-05 -3.824383e-05 -6.485730e-05 -3.855675e-06 7.351685e-01 5.954590e-01
2.746369e+08 6.444931e-03 1.741982e-02 -4.778057e-05 -9.607524e-06 3.762543e-07 4.576752e-06 7.355347e-01 5.963745e-01
2.748547e+08 6.465912e-03 1.741886e-02 3.352761e-08 -1.910143e-05 1.174118e-05 -1.134723e-05 7.340088e-01 5.971069e-01
2.750725e+08 6.398201e-03 1.744175e-02 2.391636e-05 -1.431257e-05 -2.709031e-05 -4.849583e-05 7.349243e-01 5.985107e-01
2.752903e+08 6.362915e-03 1.745605e-02 -6.652437e-06 -1.816358e-05 -1.030136e-05 -1.297984e-05 7.328491e-01 5.994263e-01
2.755081e+08 6.333351e-03 1.748848e-02 -1.005828e-06 4.107133e-05 4.295260e-06 -1.765322e-05 7.326050e-01 5.997314e-01
2.757259e+08 6.281853e-03 1.743889e-02 -1.242291e-05 -9.760261e-07 -8.894131e-06 1.801737e-05 7.322998e-01 6.015625e-01
2.759438e+08 6.252289e-03 1.744843e-02 -7.677823e-06 2.291799e-05 6.098673e-05 -2.923980e-05 7.314453e-01 6.024170e-01
2.761616e+08 6.237030e-03 1.744556e-02 -4.791655e-06 1.433212e-05 -3.186800e-05 -2.270937e-05 7.318726e-01 6.032104e-01
2.763794e+08 6.203651e-03 1.746464e-02 4.587695e-05 -2.287328e-05 -7.648021e-06 1.906883e-05 7.306519e-01 6.038818e-01
2.765972e+08 6.175041e-03 1.747036e-02 -1.532957e-05 2.673641e-05 1.277588e-05 1.508277e-05 7.305298e-01 6.053467e-01
2.768150e+08 6.153107e-03 1.749229e-02 -9.350479e-07 -1.624413e-05 1.677126e-05 3.550574e-05 7.299805e-01 6.060791e-01
2.770328e+08 6.104469e-03 1.748466e-02 3.633648e-05 -1.332536e-05 -1.040334e-05 -2.961606e-07 7.296753e-01 6.073608e-01
2.772506e+08 6.087303e-03 1.749897e-02 -1.050439e-05 -6.710179e-06 -1.014676e-05 1.699477e-05 7.294922e-01 6.085815e-01
2.774684e+08 6.011963e-03 1.752567e-02 3.159791e-05 -3.723986e-05 2.365559e-05 7.281080e-06 7.291870e-01 6.093140e-01
2.776862e+08 6.014824e-03 1.748180e-02 -2.197921e-05 -1.055188e-05 1.650862e-05 1.824088e-05 7.288818e-01 6.107178e-01
2.779041e+08 5.980492e-03 1.749229e-02 3.343634e-05 -4.732981e-06 8.306466e-06 2.781395e-06 7.279053e-01 6.104126e-01
2.781219e+08 5.934715e-03 1.754570e-02 1.533516e-05 -2.676249e-05 -2.266653e-05 1.917034e-05 7.285156e-01 6.122437e-01
2.783397e+08 5.961418e-03 1.754284e-02 -5.261600e-05 2.377480e-05 -3.762729e-05 1.928397e-05 7.269287e-01 6.134033e-01
2.785575e+08 5.907059e-03 1.755810e-02 2.006255e-05 -2.834946e-06 2.393685e-05 2.455711e-05 7.268677e-01 6.134644e-01
2.787753e+08 5.841255e-03 1.756477e-02 -7.838383e-05 5.580485e-06 -1.956709e-05 4.516914e-07 7.265625e-01 6.150513e-01
2.789931e+08 5.796432e-03 1.755524e-02 -1.807511e-05 -4.113466e-05 -2.854969e-06 -6.684102e-06 7.262573e-01 6.159668e-01
2.792109e+08 5.784035e-03 1.755619e-02 3.442913e-05 -7.599592e-06 2.325885e-05 -4.000403e-05 7.265625e-01 6.170654e-01
2.794288e+08 5.785942e-03 1.758289e-02 -1.880340e-06 -1.338683e-05 1.728069e-06 -7.064082e-06 7.252197e-01 6.186523e-01
2.796466e+08 5.776405e-03 1.757717e-02 1.920387e-06 -5.732290e-06 -3.827270e-06 9.540934e-06 7.253418e-01 6.195679e-01
2.798644e+08 5.690575e-03 1.758289e-02 1.433399e-05 1.437403e-05 -1.510233e-05 1.277402e-05 7.257690e-01 6.210327e-01
2.800822e+08 5.673409e-03 1.755047e-02 4.015118e-05 -5.647540e-06 3.566779e-05 -2.947822e-05 7.240601e-01 6.217041e-01
2.803000e+08 5.607605e-03 1.763058e-02 -2.847053e-06 -1.053046e-05 -6.876886e-05 4.833564e-05 7.246094e-01 6.232910e-01
2.805178e+08 5.578041e-03 1.763248e-02 -3.156438e-05 -1.024455e-06 2.561137e-07 1.729280e-05 7.237549e-01 6.239014e-01
2.807356e+08 5.558014e-03 1.762962e-02 3.161840e-05 -1.812540e-05 9.853393e-07 -1.625251e-05 7.240601e-01 6.254883e-01
2.809534e+08 5.555153e-03 1.762486e-02 3.631040e-05 2.491474e-05 4.311837e-05 -2.315268e-05 7.235107e-01 6.253662e-01
2.811712e+08 5.486488e-03 1.766682e-02 5.694106e-06 2.104789e-05 -7.676892e-06 1.910422e-05 7.227173e-01 6.267700e-01
2.813891e+08 5.493164e-03 1.764202e-02 2.393685e-05 -1.431443e-05 -1.565367e-05 -2.180412e-05 7.230225e-01 6.278076e-01
2.816069e+08 5.469322e-03 1.765156e-02 4.770467e-06 4.792819e-06 1.057237e-05 3.031455e-05 7.224731e-01 6.287842e-01
2.818247e+08 5.427361e-03 1.770496e-02 -2.008490e-05 2.827495e-06 -2.478808e-05 2.167001e-05 7.223511e-01 6.298218e-01
2.820425e+08 5.407333e-03 1.766682e-02 4.775589e-06 4.792586e-06 -1.685973e-05 1.987163e-05 7.230225e-01 6.309204e-01
2.822603e+08 5.345345e-03 1.764488e-02 -2.846122e-06 -1.053419e-05 1.786929e-05 6.614253e-06 7.222900e-01 6.322632e-01
2.824781e+08 5.269051e-03 1.766586e-02 -1.434982e-05 4.745089e-06 -1.711864e-05 2.554618e-06 7.213745e-01 6.324463e-01
2.826959e+08 5.305290e-03 1.767921e-02 4.974008e-05 -1.517311e-05 2.704561e-05 5.880371e-06 7.210083e-01 6.333008e-01
2.829138e+08 5.238533e-03 1.770973e-02 -4.500151e-05 1.997501e-05 1.440849e-05 2.079178e-05 7.211304e-01 6.347656e-01
2.831316e+08 5.225182e-03 1.768970e-02 7.471442e-05 -5.149841e-05 -2.144929e-05 2.023578e-05 7.211914e-01 6.354370e-01
2.833494e+08 5.214691e-03 1.773071e-02 -9.229407e-07 -1.625437e-05 -2.754480e-05 4.500523e-05 7.204590e-01 6.359253e-01
2.835672e+08 5.127907e-03 1.766968e-02 -2.846122e-06 -1.053046e-05 3.173202e-05 -4.996359e-05 7.206421e-01 6.375732e-01
2.837850e+08 5.162239e-03 1.772499e-02 1.714751e-05 2.491102e-05 4.732981e-06 2.965145e-05 7.202148e-01 6.385498e-01
2.840028e+08 5.096436e-03 1.773643e-02 1.623854e-05 8.652918e-06 -2.977811e-05 1.744367e-05 7.200928e-01 6.395874e-01
2.842206e+08 5.059242e-03 1.770020e-02 -1.921877e-05 3.823079e-05 -1.858734e-05 2.694316e-05 7.200928e-01 6.403198e-01
2.844384e+08 5.018234e-03 1.773548e-02 4.579022e-10 -2.275158e-10 -3.921613e-05 8.903444e-07 7.199097e-01 6.416016e-01
2.846562e+08 4.964828e-03 1.767445e-02 6.755814e-06 -2.008118e-05 -9.180512e-06 7.445924e-07 7.197876e-01 6.426392e-01
2.848741e+08 4.969597e-03 1.771545e-02 1.909677e-05 1.918152e-05 -1.599174e-05 1.632981e-05 7.197876e-01 6.431885e-01
2.850919e+08 4.943848e-03 1.771355e-02 -5.029142e-08 1.914985e-05 9.806827e-07 -1.624878e-05 7.199707e-01 6.444702e-01
2.853097e+08 4.930496e-03 1.771545e-02 -5.649403e-05 -2.991408e-06 -8.578412e-06 -2.008490e-05 7.200928e-01 6.458130e-01
2.855275e+08 4.865646e-03 1.773167e-02 9.594951e-06 -9.549782e-06 1.788419e-05 6.632879e-06 7.191162e-01 6.468506e-01
2.857453e+08 4.793167e-03 1.770782e-02 -2.774596e-05 -1.253560e-05 -2.344139e-05 1.000986e-05 7.193604e-01 6.484985e-01
2.859631e+08 4.822731e-03 1.772690e-02 1.239590e-05 2.014264e-05 5.958602e-06 -1.204759e-05 7.188110e-01 6.484375e-01
2.861809e+08 4.786491e-03 1.774502e-02 1.154002e-05 -1.528952e-05 1.624599e-05 -4.178658e-05 7.188721e-01 6.497803e-01
2.863988e+08 4.738808e-03 1.774311e-02 4.913658e-06 -5.267933e-05 -4.217261e-06 4.971633e-06 7.190552e-01 6.502686e-01
2.866166e+08 4.680634e-03 1.775074e-02 -1.870096e-06 -1.341477e-05 -1.030322e-05 -1.304317e-05 7.178955e-01 6.516113e-01
2.868344e+08 4.701614e-03 1.776409e-02 -3.068708e-05 1.523271e-05 -6.209128e-06 -5.281530e-06 7.181396e-01 6.523438e-01
2.870522e+08 4.635811e-03 1.778412e-02 7.672701e-06 -3.815163e-06 -2.111075e-06 2.486864e-06 7.186279e-01 6.528320e-01
2.872700e+08 4.605293e-03 1.775455e-02 2.393685e-05 4.861504e-06 -3.613904e-05 -1.788884e-05 7.180176e-01 6.542969e-01
2.874878e+08 4.611969e-03 1.779461e-02 1.057517e-05 -1.242571e-05 -4.883483e-05 -2.976507e-06 7.182007e-01 6.550293e-01
2.877056e+08 4.539490e-03 1.779079e-02 2.194010e-05 2.975762e-05 -7.340685e-06 2.372451e-05 7.177734e-01 6.557007e-01
2.879234e+08 4.493713e-03 1.779842e-02 -4.312769e-05 -4.891306e-06 1.279451e-05 -2.764910e-05 7.186890e-01 6.564941e-01
2.881412e+08 4.478455e-03 1.776981e-02 2.395175e-05 4.846603e-06 3.083423e-05 -3.374368e-05 7.184448e-01 6.574097e-01
2.883591e+08 4.454613e-03 1.779461e-02 -4.592538e-05 -3.461540e-05 -6.868690e-05 2.290308e-05 7.179565e-01 6.585083e-01
2.885769e+08 4.410744e-03 1.776409e-02 -5.802140e-06 1.723878e-05 -4.100148e-06 -7.760711e-06 7.178955e-01 6.596069e-01
2.887947e+08 4.373550e-03 1.777077e-02 -2.679788e-05 -1.542084e-05 -1.479685e-05 -2.540275e-05 7.178345e-01 6.605835e-01
2.890125e+08 4.349709e-03 1.779270e-02 2.396666e-05 4.850328e-06 -1.242093e-06 -1.055538e-06 7.185669e-01 6.608276e-01
2.892303e+08 4.277229e-03 1.782417e-02 1.832843e-06 3.260933e-05 6.959774e-06 1.447834e-05 7.179565e-01 6.621094e-01
2.894481e+08 4.313469e-03 1.780510e-02 -2.694316e-05 2.293289e-05 -5.593523e-06 -2.614222e-05 7.176514e-01 6.636963e-01
2.896659e+08 4.188538e-03 1.779175e-02 5.082041e-05 2.029166e-05 -1.868233e-06 1.980923e-05 7.185669e-01 6.642456e-01
2.898838e+08 4.199028e-03 1.777840e-02 1.724437e-05 5.805865e-06 -5.727634e-06 2.939813e-05 7.180176e-01 6.644287e-01
2.901016e+08 4.182816e-03 1.781654e-02 -3.812835e-06 -7.684343e-06 7.700175e-06 -1.914427e-05 7.180176e-01 6.648560e-01
2.903194e+08 4.168510e-03 1.779079e-02 -2.301671e-05 -7.761642e-06 1.939386e-05 -1.775194e-05 7.181396e-01 6.667480e-01
2.905372e+08 4.096985e-03 1.780415e-02 1.343712e-05 -1.883134e-06 1.989119e-05 -2.593920e-05 7.183228e-01 6.664429e-01
2.907550e+08 4.083633e-03 1.786041e-02 6.860122e-06 -3.931299e-05 2.111774e-05 1.796801e-05 7.173462e-01 6.680908e-01
2.909728e+08 4.065514e-03 1.781273e-02 -2.391450e-05 -2.408028e-05 3.617071e-05 -2.491102e-05 7.178345e-01 6.693726e-01
2.911906e+08 3.990173e-03 1.784039e-02 -1.053605e-05 -6.758608e-06 -2.985355e-06 6.027054e-06 7.173462e-01 6.701660e-01
2.914084e+08 3.946304e-03 1.782799e-02 2.696738e-05 -2.293661e-05 -7.331371e-06 -1.908932e-05 7.170410e-01 6.710815e-01
2.916262e+08 3.922462e-03 1.780987e-02 6.984919e-08 -1.921132e-05 1.628511e-05 1.003966e-06 7.176514e-01 6.718750e-01
2.918441e+08 3.918648e-03 1.780891e-02 -1.046807e-05 -2.596155e-05 -1.092628e-05 -3.499538e-05 7.169800e-01 6.722412e-01
2.920619e+08 3.880501e-03 1.781845e-02 -3.815629e-06 -7.701106e-06 -2.118945e-05 2.483837e-05 7.179565e-01 6.734009e-01
2.922797e+08 3.850937e-03 1.781082e-02 -2.204813e-05 -1.063757e-05 9.442680e-06 1.661666e-05 7.173462e-01 6.735229e-01
2.924975e+08 3.805161e-03 1.781368e-02 5.820766e-06 -1.727324e-05 5.593523e-06 2.619252e-05 7.176514e-01 6.746826e-01
2.927153e+08 3.766060e-03 1.783371e-02 -6.802380e-06 2.016686e-05 3.481284e-06 -1.418311e-05 7.182617e-01 6.758423e-01
2.929331e+08 3.751755e-03 1.780701e-02 -1.249742e-05 -1.003034e-06 3.143214e-05 3.105775e-05 7.179565e-01 6.767578e-01
2.931509e+08 3.720284e-03 1.784325e-02 3.559142e-05 -1.044758e-05 -1.169275e-05 -1.378357e-06 7.175293e-01 6.771851e-01
2.933688e+08 3.673553e-03 1.788330e-02 -4.723668e-06 -2.404116e-05 1.382083e-05 -1.105480e-06 7.175903e-01 6.773682e-01
2.935866e+08 3.669739e-03 1.786804e-02 1.346879e-05 -1.878478e-06 4.475005e-06 1.237541e-05 7.180786e-01 6.788330e-01
2.938044e+08 3.637314e-03 1.786327e-02 -9.659678e-06 9.573996e-06 -3.609806e-06 2.694689e-05 7.177124e-01 6.796265e-01
2.940222e+08 3.589630e-03 1.785469e-02 -1.533329e-05 -1.160987e-05 -1.717452e-05 2.536923e-06 7.174683e-01 6.805420e-01
2.942400e+08 3.510475e-03 1.785564e-02 -4.242733e-05 3.061444e-05 3.463216e-05 -3.059953e-05 7.179565e-01 6.803589e-01
2.944578e+08 3.485680e-03 1.789951e-02 -1.945533e-06 5.765818e-06 -2.082251e-05 2.944842e-05 7.184448e-01 6.813965e-01
2.946756e+08 3.437042e-03 1.788330e-02 -1.730025e-05 -5.834736e-06 3.133155e-05 9.816140e-07 7.183228e-01 6.821289e-01
2.948934e+08 3.445625e-03 1.786137e-02 -1.923554e-05 -7.823110e-08 -1.426414e-05 -3.361143e-05 7.178955e-01 6.826782e-01
2.951112e+08 3.435135e-03 1.781845e-02 -1.250394e-05 -1.002103e-06 -1.409277e-05 2.661347e-05 7.183838e-01 6.826782e-01
2.953291e+08 3.397942e-03 1.783371e-02 4.231930e-05 7.856637e-06 -2.487563e-06 -2.119341e-06 7.183838e-01 6.840820e-01
2.955469e+08 3.338814e-03 1.785851e-02 3.169663e-05 2.031773e-05 -1.880806e-05 -3.119931e-06 7.185669e-01 6.845093e-01
2.957647e+08 3.321648e-03 1.783085e-02 -4.865229e-06 1.442991e-05 4.554540e-05 4.440546e-06 7.189941e-01 6.854248e-01
2.959825e+08 3.307343e-03 1.788044e-02 1.731515e-05 5.846843e-06 -4.500151e-06 3.049523e-05 7.189331e-01 6.864624e-01
2.962003e+08 3.232002e-03 1.785755e-02 -1.309812e-05 -2.385676e-05 -1.485227e-06 -5.384674e-06 7.194824e-01 6.887817e-01
2.964181e+08 3.234863e-03 1.784992e-02 -7.839873e-06 2.226327e-06 1.147017e-05 5.431846e-05 7.196045e-01 6.878662e-01
2.966359e+08 3.250122e-03 1.779556e-02 -7.465482e-06 -3.391877e-05 -2.893060e-05 -1.116842e-05 7.192993e-01 6.897583e-01
2.968538e+08 3.183365e-03 1.784515e-02 -2.575666e-05 -1.177192e-06 -1.277495e-05 -1.072790e-05 7.197876e-01 6.892090e-01
2.970716e+08 3.186226e-03 1.784897e-02 1.969747e-05 -3.525615e-05 4.046410e-05 -5.355477e-05 7.195435e-01 6.907959e-01
2.972894e+08 3.108978e-03 1.782227e-02 4.224479e-06 -7.557683e-06 8.234754e-06 -2.501905e-05 7.203979e-01 6.913452e-01
2.975072e+08 3.098488e-03 1.783276e-02 -4.649162e-06 -3.898330e-05 -4.949048e-06 -1.468323e-05 7.197876e-01 6.924438e-01
2.977250e+08 3.044128e-03 1.782417e-02 2.155453e-05 8.717179e-06 1.519453e-05 3.377907e-06 7.197876e-01 6.914062e-01
2.979428e+08 3.038406e-03 1.784325e-02 -1.147855e-05 -3.113411e-06 -2.198666e-05 1.724437e-05 7.192993e-01 6.926270e-01
2.981606e+08 3.005981e-03 1.783180e-02 -1.393817e-05 -3.424659e-05 -2.350844e-05 2.032146e-06 7.199707e-01 6.937866e-01
2.983784e+08 2.910614e-03 1.786041e-02 1.311675e-05 2.386235e-05 1.471117e-05 4.845671e-06 7.197876e-01 6.938477e-01
2.985962e+08 2.848625e-03 1.782417e-02 2.156384e-05 8.733943e-06 -1.517311e-05 6.426126e-06 7.197266e-01 6.943359e-01
2.988141e+08 2.867699e-03 1.783276e-02 6.272644e-05 4.164875e-05 9.697396e-07 -2.944842e-06 7.202759e-01 6.950073e-01
2.990319e+08 2.852440e-03 1.784706e-02 -3.553927e-05 -4.300103e-05 -9.316951e-06 -1.444481e-06 7.203979e-01 6.956787e-01
2.992497e+08 2.809525e-03 1.781654e-02 -5.635433e-06 1.008436e-05 4.512817e-05 2.141669e-05 7.197266e-01 6.968994e-01
2.994675e+08 2.746582e-03 1.783562e-02 -5.876645e-07 1.290161e-05 2.693757e-05 -2.523884e-06 7.205811e-01 6.964722e-01
2.996853e+08 2.727509e-03 1.780033e-02 2.840534e-05 -2.714619e-05 3.731810e-05 3.518537e-05 7.200928e-01 6.976929e-01
2.999031e+08 2.760887e-03 1.780128e-02 4.174560e-05 2.003089e-05 1.574215e-05 2.153870e-05 7.200928e-01 6.979370e-01
3.001209e+08 2.663612e-03 1.779938e-02 1.817010e-05 2.669729e-05 -1.126435e-05 4.448928e-06 7.203979e-01 6.979370e-01
3.003388e+08 2.625465e-03 1.783466e-02 -1.410954e-06 2.520857e-06 -6.859656e-06 9.951182e-07 7.201538e-01 6.989136e-01
3.005566e+08 2.549171e-03 1.780319e-02 -3.593042e-05 -6.847084e-06 6.919727e-06 1.860969e-05 7.207031e-01 7.005615e-01
3.007744e+08 2.586365e-03 1.780224e-02 2.827682e-05 3.236718e-05 -1.866184e-05 -1.269206e-05 7.208252e-01 7.005615e-01
3.009922e+08 2.546310e-03 1.785278e-02 5.049631e-06 2.825167e-06 -4.953891e-05 1.583248e-06 7.211914e-01 7.014771e-01
3.012100e+08 2.480507e-03 1.775742e-02 -2.383441e-05 -1.665577e-05 -4.116260e-05 -3.810972e-06 7.210083e-01 7.019043e-01
3.014278e+08 2.475739e-03 1.777077e-02 1.528487e-05 -5.108118e-05 1.029111e-05 -1.501758e-06 7.210083e-01 7.015991e-01
3.016456e+08 2.426147e-03 1.781845e-02 2.100877e-05 2.167746e-05 -3.580935e-05 -3.743917e-07 7.207031e-01 7.021484e-01
3.018634e+08 2.437592e-03 1.778603e-02 -3.050081e-06 -1.828000e-05 3.917329e-05 -1.971610e-05 7.218018e-01 7.030029e-01
3.020812e+08 2.392769e-03 1.779270e-02 -2.280623e-05 1.707301e-05 -1.849607e-05 4.616380e-05 7.207031e-01 7.033081e-01
3.022991e+08 2.356529e-03 1.782322e-02 -9.734184e-06 -4.190952e-05 1.328904e-05 1.909584e-05 7.214355e-01 7.037964e-01
3.025169e+08 2.314568e-03 1.783276e-02 -2.021901e-05 -1.131184e-05 4.938804e-06 1.470372e-05 7.214966e-01 7.048340e-01
3.027347e+08 2.267838e-03 1.782513e-02 1.656823e-05 5.937181e-06 1.766533e-05 5.843118e-06 7.210693e-01 7.044067e-01
3.029525e+08 2.252579e-03 1.784420e-02 -4.020706e-05 7.227063e-07 1.953728e-05 -2.952293e-05 7.208862e-01 7.050171e-01
3.031703e+08 2.227783e-03 1.780319e-02 -2.210587e-05 -5.539879e-05 -2.659485e-05 -2.839975e-05 7.214966e-01 7.045898e-01
3.033881e+08 2.137184e-03 1.780605e-02 2.444535e-05 3.715977e-06 -1.920294e-05 -2.105255e-05 7.213135e-01 7.052002e-01
3.036059e+08 2.183914e-03 1.781082e-02 -4.912540e-05 -3.081188e-05 3.628805e-05 -1.084059e-06 7.209473e-01 7.060547e-01
3.038238e+08 2.070427e-03 1.780891e-02 -2.164021e-05 -8.760020e-06 -1.672562e-05 -1.861341e-05 7.214966e-01 7.059326e-01
3.040416e+08 2.049446e-03 1.780701e-02 2.346002e-05 -3.001466e-05 5.161017e-05 1.215562e-05 7.203979e-01 7.076416e-01
3.042594e+08 2.056122e-03 1.778603e-02 -5.866401e-06 -1.324899e-05 -1.081917e-05 -6.845221e-06 7.210693e-01 7.079468e-01
3.044772e+08 2.000809e-03 1.776505e-02 2.227724e-06 7.886905e-06 2.412871e-05 2.595037e-05 7.214966e-01 7.077026e-01
3.046950e+08 2.013206e-03 1.776791e-02 2.365932e-05 -6.681308e-06 2.999417e-05 1.809187e-05 7.209473e-01 7.083130e-01
3.049128e+08 1.930237e-03 1.778603e-02 -2.693199e-05 -3.495254e-05 -3.503636e-06 -2.896227e-05 7.212524e-01 7.076416e-01
3.051306e+08 1.923561e-03 1.775742e-02 -3.458932e-05 -9.389594e-06 -3.437046e-06 4.994217e-07 7.207031e-01 7.086792e-01
3.053484e+08 1.922607e-03 1.777172e-02 2.265722e-05 -4.049018e-05 -1.034793e-05 -1.815148e-05 7.214355e-01 7.100220e-01
3.055662e+08 1.873016e-03 1.776886e-02 -2.366118e-05 6.690621e-06 -2.214685e-05 -3.186800e-05 7.210083e-01 7.094116e-01
3.057841e+08 1.729965e-03 1.779461e-02 2.234243e-06 7.894821e-06 1.184829e-05 3.334507e-05 7.217407e-01 7.106323e-01
3.060019e+08 1.792908e-03 1.774979e-02 -1.474842e-05 3.826246e-05 1.085550e-05 2.649426e-05 7.213135e-01 7.106323e-01
3.062197e+08 1.755714e-03 1.778603e-02 2.472475e-05 2.710894e-05 -5.863607e-06 1.768861e-05 7.216187e-01 7.109375e-01
3.064375e+08 1.717567e-03 1.774025e-02 2.345257e-05 -3.008172e-05 -4.454516e-06 -1.619570e-05 7.210693e-01 7.111816e-01
3.066553e+08 1.702309e-03 1.777363e-02 2.508983e-05 -9.236857e-06 -1.526438e-05 -1.322571e-05 7.211914e-01 7.113647e-01
3.068731e+08 1.629829e-03 1.778412e-02 9.723008e-06 4.201010e-05 4.463829e-06 1.619942e-05 7.206421e-01 7.120361e-01
3.070909e+08 1.585007e-03 1.781178e-02 -1.481548e-05 -4.488975e-05 7.367227e-06 -2.471730e-06 7.214966e-01 7.127686e-01
3.073088e+08 1.621246e-03 1.777554e-02 2.210028e-05 -2.754666e-05 -2.441928e-06 7.374678e-06 7.207642e-01 7.135620e-01
3.075266e+08 1.552582e-03 1.776886e-02 -4.559383e-05 -2.553314e-05 -7.964671e-06 -4.518405e-05 7.211914e-01 7.131958e-01
3.077444e+08 1.555443e-03 1.774406e-02 -1.616776e-06 -2.085604e-05 -3.197603e-05 -2.203695e-05 7.202759e-01 7.130737e-01
3.079622e+08 1.462936e-03 1.773739e-02 3.829226e-05 1.479127e-05 5.158037e-05 -7.495284e-06 7.206421e-01 7.135620e-01
3.081800e+08 1.434326e-03 1.772881e-02 3.243424e-05 1.525506e-06 -1.967512e-05 -9.785406e-06 7.208862e-01 7.141724e-01
3.083978e+08 1.437187e-03 1.771832e-02 -2.310425e-05 -6.278977e-06 -2.147630e-05 5.510822e-05 7.205811e-01 7.138062e-01
3.086156e+08 1.357079e-03 1.773167e-02 3.970414e-05 1.224503e-05 4.279613e-05 9.296462e-06 7.202148e-01 7.139893e-01
3.088334e+08 1.404762e-03 1.774788e-02 -1.989305e-05 3.548712e-05 9.220093e-07 -3.245473e-05 7.205811e-01 7.153320e-01
3.090512e+08 1.345634e-03 1.771927e-02 -4.867092e-06 2.059154e-05 -2.796203e-05 5.460903e-05 7.208862e-01 7.155151e-01
3.092691e+08 1.298904e-03 1.770115e-02 2.312288e-05 6.301329e-06 -3.931299e-05 9.898096e-06 7.202759e-01 7.160034e-01
3.094869e+08 1.306534e-03 1.768780e-02 4.563853e-05 2.554804e-05 6.850809e-06 -2.067070e-05 7.204590e-01 7.155151e-01
3.097047e+08 1.227379e-03 1.768589e-02 1.683831e-05 -5.388260e-05 -1.228880e-05 7.400289e-06 7.199097e-01 7.161865e-01
3.099225e+08 1.198769e-03 1.770115e-02 3.125705e-05 2.746843e-05 2.358481e-05 -2.168491e-05 7.201538e-01 7.153931e-01
3.101403e+08 1.161575e-03 1.770973e-02 2.496503e-05 -3.268197e-05 -6.880611e-06 1.083640e-05 7.197876e-01 7.167358e-01
3.103581e+08 1.174927e-03 1.771259e-02 -3.005564e-05 -5.348772e-05 -4.899688e-06 1.476705e-05 7.194824e-01 7.173462e-01
3.105759e+08 1.118660e-03 1.771069e-02 1.033582e-05 2.911687e-05 -2.984889e-06 -2.066698e-05 7.188721e-01 7.174072e-01
3.107938e+08 1.118660e-03 1.771069e-02 1.359172e-05 -1.237448e-05 1.425296e-05 -1.330394e-05 7.191162e-01 7.169189e-01
3.110116e+08 1.031876e-03 1.768970e-02 3.915839e-05 2.529472e-05 -2.560765e-05 -4.128180e-05 7.188110e-01 7.178955e-01
3.112294e+08 1.014709e-03 1.765442e-02 5.540997e-05 -1.561269e-05 4.577637e-05 1.024455e-05 7.188721e-01 7.179565e-01
3.114472e+08 9.422302e-04 1.768589e-02 -1.665670e-05 -6.008893e-06 -1.569651e-05 3.737584e-05 7.193604e-01 7.192993e-01
3.116650e+08 1.001358e-03 1.763916e-02 -3.107451e-05 -4.094094e-06 4.626438e-05 8.791685e-06 7.185669e-01 7.190552e-01
3.118828e+08 9.641647e-04 1.763725e-02 3.231689e-05 -2.191588e-05 4.778430e-05 2.401695e-05 7.183838e-01 7.192993e-01
3.121006e+08 8.563995e-04 1.766205e-02 -6.174669e-07 1.301058e-05 -5.430542e-06 -1.327135e-05 7.191162e-01 7.196045e-01
3.123184e+08 8.907318e-04 1.769066e-02 -1.969188e-05 -2.438389e-05 5.561486e-05 -1.927838e-05 7.180176e-01 7.192993e-01
3.125362e+08 8.296967e-04 1.760769e-02 -2.112612e-05 -2.186000e-05 2.411194e-05 -3.485009e-06 7.185669e-01 7.198486e-01
3.127541e+08 7.991791e-04 1.762486e-02 -9.540468e-06 -1.869816e-05 -1.570955e-05 2.758577e-05 7.178345e-01 7.197266e-01
3.129719e+08 8.258820e-04 1.764011e-02 -1.807790e-05 -3.467314e-06 1.924299e-05 4.083849e-05 7.175903e-01 7.199707e-01
3.131897e+08 7.839203e-04 1.760483e-02 -3.678724e-05 6.098300e-06 -2.169050e-05 -1.373794e-05 7.182007e-01 7.198486e-01
3.134075e+08 7.076263e-04 1.762676e-02 1.361966e-05 -1.238566e-05 1.826882e-05 4.382432e-05 7.171021e-01 7.201538e-01
3.136253e+08 7.038116e-04 1.760197e-02 1.790561e-05 -2.001598e-05 2.611615e-05 4.619360e-07 7.171631e-01 7.210693e-01
3.138431e+08 5.979538e-04 1.762199e-02 3.293529e-05 -3.495812e-05 -1.334772e-05 -4.873052e-05 7.172852e-01 7.205811e-01
3.140609e+08 6.313324e-04 1.760578e-02 -2.500415e-05 -5.076826e-05 -5.624071e-05 -5.813316e-05 7.173462e-01 7.216187e-01
3.142788e+08 5.397797e-04 1.759434e-02 7.528812e-06 -4.922599e-05 3.052317e-05 -2.267770e-05 7.171021e-01 7.211304e-01
3.144966e+08 5.483627e-04 1.753616e-02 -4.809350e-06 -6.286055e-05 -2.166163e-05 1.576636e-05 7.167358e-01 7.216187e-01
3.147144e+08 5.273819e-04 1.756859e-02 -2.229121e-06 -7.933937e-06 -4.628673e-05 1.050532e-06 7.160034e-01 7.219849e-01
3.149322e+08 5.140305e-04 1.754284e-02 -6.224960e-05 -8.210540e-06 -5.967915e-06 -5.125999e-05 7.160034e-01 7.224121e-01
3.151500e+08 4.606247e-04 1.764011e-02 -1.667812e-05 -6.026588e-06 2.988614e-06 2.070144e-05 7.156372e-01 7.236938e-01
3.153678e+08 4.673004e-04 1.755428e-02 -6.681308e-06 -2.381392e-05 -7.860363e-06 3.353506e-05 7.151489e-01 7.233276e-01
3.155856e+08 4.434586e-04 1.755428e-02 3.395230e-05 -9.834766e-07 -4.917383e-07 1.479639e-06 7.144165e-01 7.226562e-01
3.158034e+08 3.957748e-04 1.758289e-02 2.338178e-05 2.985075e-05 -1.875125e-05 -1.279637e-05 7.145996e-01 7.239380e-01
3.160212e+08 3.070831e-04 1.753998e-02 -5.064905e-05 -5.040318e-06 -1.775939e-05 -1.576263e-05 7.137451e-01 7.236328e-01
3.162391e+08 3.490448e-04 1.753426e-02 -3.845990e-05 -1.492351e-05 -2.466259e-06 -2.462068e-06 7.141724e-01 7.246094e-01
3.164569e+08 2.717972e-04 1.754379e-02 -4.719198e-05 -2.314150e-05 -3.254227e-05 8.912757e-06 7.138062e-01 7.238159e-01
3.166747e+08 2.679825e-04 1.755714e-02 3.971159e-05 -1.116097e-05 1.980923e-06 1.380965e-05 7.138672e-01 7.247314e-01
3.168925e+08 2.164841e-04 1.750946e-02 -1.955777e-07 -2.351031e-05 -1.041405e-05 -2.809428e-05 7.136230e-01 7.241211e-01
3.171103e+08 2.164841e-04 1.747990e-02 -1.445599e-05 1.913868e-06 -2.793968e-08 -2.958439e-05 7.125854e-01 7.250366e-01
3.173281e+08 1.544952e-04 1.751614e-02 -2.856832e-06 5.084556e-06 4.928326e-06 4.927628e-06 7.123413e-01 7.254028e-01
3.175459e+08 9.250641e-05 1.749229e-02 -8.566305e-06 1.526345e-05 -2.219714e-05 -2.217852e-05 7.125244e-01 7.254639e-01
3.177638e+08 6.198883e-05 1.746178e-02 8.571893e-06 -1.527183e-05 -1.380406e-05 1.184829e-05 7.124023e-01 7.260742e-01
3.179816e+08 3.814697e-05 1.747131e-02 -1.972355e-05 -2.445467e-05 4.917383e-07 3.797933e-05 7.115479e-01 7.257690e-01
3.181994e+08 5.149841e-05 1.748943e-02 -4.481897e-05 8.258969e-06 -2.266280e-05 2.861768e-05 7.111816e-01 7.261353e-01
3.184172e+08 -1.621246e-05 1.746464e-02 3.481843e-05 9.529293e-06 2.072472e-05 6.901100e-06 7.112427e-01 7.266846e-01
3.186350e+08 4.005432e-05 1.748276e-02 3.654044e-06 5.405396e-06 3.702380e-05 2.713315e-05 7.105103e-01 7.268677e-01
3.188528e+08 -6.008148e-05 1.743603e-02 -3.818423e-06 -2.891012e-05 -5.924702e-05 -9.853393e-06 7.097778e-01 7.263794e-01
3.190706e+08 -8.773804e-05 1.742840e-02 -1.175329e-05 -2.668984e-05 -4.886836e-05 -1.134723e-05 7.091064e-01 7.268066e-01
3.192884e+08 -9.632111e-05 1.742077e-02 -6.867573e-05 1.493469e-05 9.806827e-07 1.677871e-05 7.092896e-01 7.274170e-01
3.195062e+08 -1.411438e-04 1.746464e-02 2.876855e-05 -2.735294e-05 3.060699e-05 -2.272800e-05 7.089233e-01 7.279053e-01
3.197241e+08 -1.573563e-04 1.739883e-02 8.122995e-06 2.131425e-05 -2.319925e-05 -9.372830e-06 7.094727e-01 7.285156e-01
3.199419e+08 -1.850128e-04 1.742268e-02 -2.544187e-05 -1.430325e-05 5.185977e-05 4.191324e-05 7.084961e-01 7.282104e-01
3.201597e+08 -2.012253e-04 1.737499e-02 1.430279e-06 -2.545305e-06 -1.875591e-05 6.921589e-06 7.083740e-01 7.291260e-01
3.203775e+08 -2.479553e-04 1.741123e-02 -3.179163e-05 8.897856e-06 3.457069e-06 -4.000589e-05 7.072754e-01 7.294312e-01
3.205953e+08 -2.937317e-04 1.734924e-02 -4.037842e-05 2.419204e-05 2.516434e-05 -6.416813e-06 7.076416e-01 7.295532e-01
3.208131e+08 -3.213882e-04 1.736927e-02 -3.390387e-05 2.450310e-05 1.628976e-05 -1.924951e-05 7.072754e-01 7.307739e-01
3.210309e+08 -3.356934e-04 1.734638e-02 -3.810972e-06 -2.895482e-05 -4.940666e-07 1.481967e-06 7.063599e-01 7.307129e-01
3.212488e+08 -3.614426e-04 1.733112e-02 7.953495e-06 -2.228655e-06 2.073683e-05 1.678802e-05 7.064209e-01 7.305298e-01
3.214666e+08 -3.910065e-04 1.734066e-02 8.422881e-06 -3.881566e-05 3.011338e-05 -1.134723e-05 7.053833e-01 7.308350e-01
3.216844e+08 -4.014969e-04 1.734734e-02 3.051944e-05 1.717731e-05 -1.529325e-05 1.630653e-05 7.050171e-01 7.303467e-01
3.219022e+08 -4.749298e-04 1.733780e-02 2.258830e-05 1.941063e-05 1.977198e-06 3.950670e-06 7.050781e-01 7.311401e-01
3.221200e+08 -5.207062e-04 1.728725e-02 1.811702e-05 3.511086e-06 -4.941598e-06 -3.457256e-05 7.033081e-01 7.313232e-01
3.223378e+08 -5.378723e-04 1.733589e-02 2.212077e-05 -5.122274e-05 1.037121e-05 1.827162e-05 7.042236e-01 7.317505e-01
3.225556e+08 -5.359650e-04 1.727581e-02 -4.422665e-05 -4.805624e-06 -2.024416e-05 1.136400e-05 7.031250e-01 7.326660e-01
3.227734e+08 -5.636215e-04 1.727962e-02 -1.956895e-05 -9.583309e-07 -1.482666e-06 -2.518669e-05 7.031860e-01 7.322998e-01
3.229912e+08 -6.198883e-04 1.734447e-02 -4.452653e-06 -1.590513e-05 9.875745e-06 3.956072e-05 7.026367e-01 7.323608e-01
3.232091e+08 -6.103516e-04 1.728344e-02 1.147576e-05 -2.036802e-05 2.618693e-05 1.036562e-05 7.022705e-01 7.338257e-01
3.234269e+08 -6.284714e-04 1.727486e-02 1.432374e-06 -2.546702e-06 -4.954636e-07 -3.806129e-05 7.022705e-01 7.335205e-01
3.236447e+08 -6.904602e-04 1.724052e-02 -1.195446e-05 -5.028397e-05 -3.408827e-05 1.331605e-05 7.020874e-01 7.335815e-01
3.238625e+08 -6.923676e-04 1.727104e-02 1.431908e-06 -2.545770e-06 1.234189e-05 2.224743e-05 7.009277e-01 7.340698e-01
3.240803e+08 -6.904602e-04 1.727772e-02 8.594245e-06 -1.526810e-05 1.037167e-05 8.403324e-06 7.005615e-01 7.341919e-01
3.242981e+08 -7.591248e-04 1.724529e-02 -3.673136e-06 1.018122e-04 -2.669729e-05 9.741634e-07 7.002563e-01 7.346191e-01
3.245159e+08 -8.182526e-04 1.718616e-02 4.518777e-05 3.885478e-05 -6.918330e-06 9.825453e-07 6.998291e-01 7.355347e-01
3.247338e+08 -8.316040e-04 1.720238e-02 3.418885e-05 2.262741e-05 -4.202686e-05 7.389113e-06 6.987915e-01 7.359619e-01
3.249516e+08 -8.659363e-04 1.720142e-02 1.590978e-05 -4.453585e-06 1.185853e-05 1.384690e-05 6.987915e-01 7.357788e-01
3.251694e+08 -9.002686e-04 1.718521e-02 -1.669396e-05 -6.050803e-06 -4.445203e-06 -6.429385e-06 6.976929e-01 7.363281e-01
3.253872e+08 -9.174347e-04 1.714230e-02 -1.161452e-05 -3.190711e-06 1.234934e-05 6.182492e-05 6.978149e-01 7.372437e-01
3.256050e+08 -9.365082e-04 1.715946e-02 1.797080e-05 -2.000853e-05 -1.235958e-05 7.417053e-06 6.966553e-01 7.361450e-01
3.258228e+08 -1.008987e-03 1.711750e-02 -1.497194e-05 3.848411e-05 5.435199e-06 3.465684e-06 6.968994e-01 7.372437e-01
3.260406e+08 -9.956360e-04 1.709747e-02 -1.095701e-05 -1.623575e-05 1.035724e-05 1.830049e-05 6.961060e-01 7.379761e-01
3.262584e+08 -1.017570e-03 1.711082e-02 2.035126e-05 1.147017e-05 1.862645e-09 -1.978315e-05 6.955566e-01 7.384644e-01
3.264762e+08 -1.017570e-03 1.712418e-02 -7.961877e-06 2.216082e-06 -5.144626e-05 5.938113e-06 6.952515e-01 7.395630e-01
3.266941e+08 -1.054764e-03 1.706409e-02 -1.801737e-05 2.003089e-05 3.908388e-05 -2.816133e-05 6.945190e-01 7.403564e-01
3.269119e+08 -1.143456e-03 1.709747e-02 8.609146e-06 -1.526345e-05 -9.913929e-07 2.971385e-06 6.944580e-01 7.398682e-01
3.271297e+08 -1.158714e-03 1.709175e-02 1.670141e-05 6.061047e-06 1.482666e-06 -2.424605e-05 6.939697e-01 7.401123e-01
3.273475e+08 -1.177788e-03 1.708412e-02 1.070090e-05 -3.085844e-05 7.910654e-06 2.571568e-05 6.930542e-01 7.406006e-01
3.275653e+08 -1.194000e-03 1.704121e-02 -1.304131e-05 -6.528571e-07 1.137983e-05 5.448237e-06 6.921997e-01 7.406006e-01
3.277831e+08 -1.242638e-03 1.701736e-02 -3.770739e-05 -4.490837e-06 1.433957e-05 1.634564e-05 6.920776e-01 7.415771e-01
3.280009e+08 -1.240730e-03 1.703262e-02 -3.064424e-05 -4.075468e-05 4.795194e-05 2.427772e-05 6.912842e-01 7.418213e-01
3.282188e+08 -1.239777e-03 1.698303e-02 -4.721060e-05 -2.327934e-05 1.633726e-05 -9.389594e-06 6.909790e-01 7.419434e-01
3.284366e+08 -1.283646e-03 1.702785e-02 9.644777e-06 4.230067e-05 5.399436e-05 -2.322719e-05 6.902466e-01 7.422485e-01
3.286544e+08 -1.363754e-03 1.701450e-02 5.085953e-06 2.871267e-06 7.962808e-06 -4.354492e-05 6.899414e-01 7.433472e-01
3.288722e+08 -1.327515e-03 1.698494e-02 -1.017656e-05 -5.736016e-06 -1.535472e-05 1.632515e-05 6.898193e-01 7.433472e-01
3.290900e+08 -1.394272e-03 1.696014e-02 -1.745950e-05 -1.657475e-05 -5.455222e-06 6.423332e-06 6.888428e-01 7.440186e-01
3.293078e+08 -1.439095e-03 1.696301e-02 -6.526243e-06 -3.282912e-07 1.637824e-05 -2.920628e-05 6.895142e-01 7.445679e-01
3.295256e+08 -1.473427e-03 1.691341e-02 5.020201e-05 4.178286e-05 3.465451e-05 -2.470985e-05 6.884766e-01 7.453613e-01
3.297434e+08 -1.424789e-03 1.692581e-02 -4.222989e-05 -4.399195e-05 -1.083873e-05 -3.664754e-05 6.877441e-01 7.456665e-01
3.299612e+08 -1.488686e-03 1.691723e-02 3.535859e-05 -2.695620e-05 -9.886455e-06 -9.906013e-06 6.868896e-01 7.465210e-01
3.301791e+08 -1.566887e-03 1.691532e-02 2.672337e-05 -1.173280e-05 -1.086947e-05 -1.685228e-05 6.868896e-01 7.462158e-01
3.303969e+08 -1.615524e-03 1.691723e-02 5.647168e-05 -4.991889e-06 5.345419e-05 -1.184642e-05 6.862183e-01 7.472534e-01
3.306147e+08 -1.603127e-03 1.683903e-02 1.657661e-05 -1.746789e-05 3.922731e-06 2.772547e-05 6.859131e-01 7.479248e-01
3.308325e+08 -1.563072e-03 1.685429e-02 4.057214e-05 -5.997717e-07 -3.949739e-06 -7.921830e-06 6.863403e-01 7.479858e-01
3.310503e+08 -1.613617e-03 1.688385e-02 -6.014854e-05 -4.172325e-07 1.533609e-05 1.338962e-05 6.852417e-01 7.490234e-01
3.312681e+08 -1.646042e-03 1.689148e-02 -1.293980e-05 2.288073e-05 2.921000e-05 1.519918e-06 6.844482e-01 7.496948e-01
3.314859e+08 -1.661301e-03 1.681328e-02 2.166815e-05 -1.460314e-05 -4.607439e-05 2.918392e-05 6.842651e-01 7.504272e-01
3.317038e+08 -1.729012e-03 1.683426e-02 -3.926456e-05 -2.553314e-05 1.484714e-05 4.970469e-06 6.840210e-01 7.508545e-01
3.319216e+08 -1.753807e-03 1.683426e-02 -1.813006e-05 -3.532507e-06 -1.931936e-05 8.402392e-06 6.837158e-01 7.509155e-01
3.321394e+08 -1.761436e-03 1.677227e-02 5.085953e-06 2.872664e-06 1.583528e-05 1.190137e-05 6.831665e-01 7.514648e-01
3.323572e+08 -1.775742e-03 1.677704e-02 2.673827e-05 -1.172721e-05 2.083741e-05 -2.275221e-05 6.824341e-01 7.517090e-01
3.325750e+08 -1.831055e-03 1.676559e-02 -2.244674e-05 4.099682e-06 2.030749e-05 -1.478009e-06 6.824341e-01 7.529907e-01
3.327928e+08 -1.854897e-03 1.673508e-02 -2.530403e-05 9.167939e-06 -5.429611e-06 -1.338124e-05 6.813354e-01 7.526855e-01
3.330106e+08 -1.839638e-03 1.674747e-02 1.888163e-05 1.404434e-05 1.391117e-05 -2.177339e-05 6.808472e-01 7.536011e-01
3.332284e+08 -1.864433e-03 1.673412e-02 -1.647696e-05 4.099682e-05 4.461408e-05 -4.887581e-06 6.806030e-01 7.542725e-01
3.334462e+08 -1.845360e-03 1.670742e-02 -5.778670e-05 3.103912e-05 -3.023259e-05 1.430511e-06 6.800537e-01 7.540894e-01
3.336641e+08 -1.922607e-03 1.670361e-02 -1.525506e-05 -8.630566e-06 -2.176128e-05 -3.373623e-05 6.798096e-01 7.556763e-01
3.338819e+08 -1.939774e-03 1.668549e-02 2.827682e-05 9.296462e-06 1.586881e-05 -7.896684e-06 6.785278e-01 7.560425e-01
3.340997e+08 -2.010345e-03 1.670742e-02 4.419126e-06 1.590978e-05 -3.518909e-05 -3.539026e-06 6.785278e-01 7.559814e-01
3.343175e+08 -2.074242e-03 1.663589e-02 1.134723e-05 -6.740913e-05 6.392598e-06 3.026612e-05 6.776733e-01 7.577515e-01
3.345353e+08 -2.006531e-03 1.666451e-02 1.159962e-05 3.209338e-06 7.440336e-06 -2.468005e-06 6.774902e-01 7.575684e-01
3.347531e+08 -2.063751e-03 1.661491e-02 1.083314e-05 -7.282943e-06 1.984648e-05 -9.886920e-06 6.768188e-01 7.584229e-01
3.349709e+08 -2.098083e-03 1.662064e-02 -6.426126e-06 2.321228e-05 -2.775155e-05 -6.007031e-06 6.768799e-01 7.598267e-01
3.351888e+08 -2.157211e-03 1.659203e-02 2.884120e-05 -2.728403e-05 -4.963484e-06 4.951609e-06 6.764526e-01 7.595215e-01
3.354066e+08 -2.161980e-03 1.661301e-02 1.524948e-05 8.621253e-06 -1.143105e-05 2.427772e-05 6.762695e-01 7.605591e-01
3.356244e+08 -2.200127e-03 1.657009e-02 1.093186e-05 1.624785e-05 1.141522e-05 -4.439615e-06 6.752319e-01 7.613525e-01
3.358422e+08 -2.206802e-03 1.654434e-02 1.150183e-05 -2.033636e-05 -7.422641e-06 -7.450581e-06 6.756592e-01 7.619629e-01
3.360600e+08 -2.182961e-03 1.653004e-02 2.885051e-05 -2.724677e-05 2.913177e-06 3.075227e-05 6.739502e-01 7.622681e-01
3.362778e+08 -2.221107e-03 1.650620e-02 -4.123524e-05 1.356006e-05 1.434237e-06 2.529472e-05 6.747437e-01 7.629395e-01
3.364956e+08 -2.295494e-03 1.649952e-02 6.798655e-07 -1.303665e-05 -7.446855e-06 2.467539e-06 6.738281e-01 7.633667e-01
3.367134e+08 -2.328873e-03 1.651096e-02 -3.640540e-06 -5.420297e-06 -1.741946e-05 2.228469e-05 6.737061e-01 7.647095e-01
3.369312e+08 -2.423286e-03 1.645660e-02 3.632903e-05 3.062561e-05 -1.338962e-05 4.610047e-07 6.732178e-01 7.648926e-01
3.371491e+08 -2.353668e-03 1.647663e-02 7.852912e-06 -2.573244e-05 3.420189e-05 6.509945e-06 6.729126e-01 7.650146e-01
3.373669e+08 -2.376556e-03 1.645088e-02 -7.290393e-06 -1.083221e-05 -1.285784e-05 -3.078766e-05 6.732178e-01 7.658691e-01
3.375847e+08 -2.393723e-03 1.643276e-02 6.414950e-06 -2.319552e-05 -8.904375e-06 -1.291279e-05 6.726074e-01 7.661743e-01
3.378025e+08 -2.461433e-03 1.643372e-02 -8.717179e-06 -8.290634e-06 2.529472e-05 3.520399e-06 6.715088e-01 7.674561e-01
3.380203e+08 -2.436638e-03 1.638222e-02 -2.388097e-05 6.599352e-06 -5.928800e-06 -1.191627e-05 6.714478e-01 7.686768e-01
3.382381e+08 -2.503395e-03 1.640797e-02 -1.242757e-05 -3.724918e-05 -4.463643e-05 -1.500547e-05 6.708984e-01 7.691650e-01
3.384559e+08 -2.566338e-03 1.640892e-02 8.723233e-06 8.294825e-06 3.824010e-05 -2.520345e-05 6.712036e-01 7.698364e-01
3.386738e+08 -2.511978e-03 1.634693e-02 1.532584e-05 3.215112e-05 3.828853e-05 -3.512390e-05 6.705933e-01 7.696533e-01
3.388916e+08 -2.555847e-03 1.636219e-02 -5.953014e-06 -3.691763e-05 -3.314763e-05 -4.925579e-05 6.709595e-01 7.709961e-01
3.391094e+08 -2.605438e-03 1.634598e-02 -2.098642e-05 1.519918e-06 -3.969856e-05 -6.705523e-08 6.695557e-01 7.716064e-01
3.393272e+08 -2.634048e-03 1.630974e-02 9.399373e-06 -4.740898e-06 9.988435e-07 -2.975808e-06 6.693115e-01 7.723999e-01
3.395450e+08 -2.619743e-03 1.630020e-02 -2.989173e-05 -5.384535e-05 3.224984e-05 1.249090e-05 6.687622e-01 7.728882e-01
3.397628e+08 -2.628326e-03 1.631737e-02 -2.539158e-05 -1.437776e-05 4.568696e-05 -7.845461e-06 6.682739e-01 7.737427e-01
3.399806e+08 -2.721786e-03 1.625633e-02 2.530962e-05 -9.134412e-06 -9.426847e-06 -1.514331e-06 6.682129e-01 7.742920e-01
3.401984e+08 -2.774239e-03 1.625443e-02 1.016073e-05 5.761161e-06 -5.457550e-07 2.135709e-05 6.680298e-01 7.757568e-01
3.404162e+08 -2.751350e-03 1.626301e-02 -5.157664e-06 -2.641045e-05 4.464015e-05 3.487989e-05 6.677246e-01 7.756348e-01
3.406341e+08 -2.775192e-03 1.625729e-02 -1.448113e-05 1.860783e-06 -4.906207e-06 -2.484582e-05 6.677856e-01 7.766724e-01
3.408519e+08 -2.823830e-03 1.617241e-02 5.910173e-06 3.690459e-05 -3.056601e-06 3.870204e-05 6.670532e-01 7.770996e-01
3.410697e+08 -2.794266e-03 1.622677e-02 -8.644536e-06 1.523178e-05 -3.464520e-07 -5.809590e-05 6.669312e-01 7.783203e-01
3.412875e+08 -2.834320e-03 1.619339e-02 -2.242811e-05 4.066154e-06 -3.340095e-05 5.012378e-05 6.670532e-01 7.780762e-01
3.415053e+08 -2.843857e-03 1.619053e-02 3.478490e-05 9.674579e-06 3.825501e-05 -5.386770e-06 6.660156e-01 7.795410e-01
3.417231e+08 -2.873421e-03 1.618385e-02 -2.969615e-05 -6.765127e-06 -3.014691e-06 1.885276e-05 6.660156e-01 7.794189e-01
3.419409e+08 -2.898216e-03 1.611042e-02 5.428120e-05 -1.287833e-05 3.341958e-05 -5.006045e-05 6.663208e-01 7.807617e-01
3.421588e+08 -2.992630e-03 1.611233e-02 6.835908e-07 -1.304131e-05 -5.504116e-07 2.134871e-05 6.657104e-01 7.821045e-01
3.423766e+08 -2.949715e-03 1.609898e-02 -1.242943e-05 -3.726967e-05 4.224107e-05 -7.349998e-06 6.654663e-01 7.824707e-01
3.425944e+08 -3.019333e-03 1.610565e-02 -7.205643e-06 1.269672e-05 5.286187e-06 5.317852e-05 6.652832e-01 7.833252e-01
3.428122e+08 -2.997398e-03 1.602268e-02 -4.393980e-06 -1.591817e-05 -4.418939e-05 -6.593764e-06 6.649780e-01 7.836914e-01
3.430300e+08 -3.060341e-03 1.607323e-02 1.394004e-05 5.825236e-05 5.938113e-06 1.193956e-05 6.647339e-01 7.843018e-01
3.432478e+08 -3.094673e-03 1.604939e-02 -3.988296e-05 -1.255423e-05 2.570450e-05 4.183128e-05 6.646729e-01 7.853394e-01
3.434656e+08 -3.046036e-03 1.603413e-02 6.381422e-06 -4.675612e-05 3.051013e-06 -2.880394e-05 6.643677e-01 7.864380e-01
3.436834e+08 -3.044128e-03 1.601791e-02 5.131587e-06 2.643093e-05 -8.983538e-06 1.688208e-05 6.642456e-01 7.868652e-01
3.439012e+08 -3.127098e-03 1.597691e-02 2.759509e-05 2.237782e-05 -6.886199e-06 -2.885610e-05 6.646118e-01 7.870483e-01
3.441191e+08 -3.201485e-03 1.597786e-02 2.533011e-05 -9.132549e-06 -2.039317e-05 1.426786e-06 6.644287e-01 7.877808e-01
3.443369e+08 -3.187180e-03 1.591873e-02 9.401701e-06 -4.735775e-06 4.453119e-06 6.473623e-06 6.641846e-01 7.880859e-01
3.445547e+08 -3.194809e-03 1.592827e-02 3.715977e-06 2.896227e-05 1.388229e-05 7.987022e-06 6.640625e-01 7.888794e-01
3.447725e+08 -3.224373e-03 1.590252e-02 -1.454540e-05 -2.170168e-05 -8.974690e-06 6.928109e-06 6.634521e-01 7.904053e-01
3.449903e+08 -3.235817e-03 1.589012e-02 -7.120892e-06 3.623217e-05 -1.395680e-05 1.189299e-05 6.633301e-01 7.904663e-01
3.452081e+08 -3.244400e-03 1.587963e-02 1.016352e-05 5.770475e-06 -1.729652e-05 -3.734231e-05 6.630249e-01 7.921143e-01
3.454259e+08 -3.303528e-03 1.588345e-02 -2.107583e-05 -2.202764e-05 -1.040287e-06 1.293328e-05 6.625366e-01 7.920532e-01
3.456438e+08 -3.322601e-03 1.585388e-02 -2.244487e-06 -3.151223e-05 4.667789e-05 1.905113e-05 6.622314e-01 7.932739e-01
3.458616e+08 -3.352165e-03 1.583481e-02 -3.488734e-05 -3.325008e-05 -2.977066e-05 -1.999177e-05 6.629028e-01 7.940063e-01
3.460794e+08 -3.364563e-03 1.578617e-02 -2.688169e-05 -3.545173e-05 2.911314e-06 2.089515e-05 6.617432e-01 7.948608e-01
3.462972e+08 -3.374100e-03 1.581573e-02 1.160428e-05 3.222376e-06 -4.927628e-06 -1.494773e-05 6.625366e-01 7.947388e-01
3.465150e+08 -3.414154e-03 1.580524e-02 -3.776513e-05 -2.815761e-05 3.424473e-06 1.942366e-05 6.622925e-01 7.955322e-01
3.467328e+08 -3.416061e-03 1.575375e-02 -7.272698e-06 -1.085829e-05 7.053837e-06 -3.083423e-05 6.617432e-01 7.969971e-01
3.469506e+08 -3.479958e-03 1.578522e-02 9.540468e-06 4.237890e-05 1.607835e-05 -4.772842e-05 6.624756e-01 7.971191e-01
3.471684e+08 -3.496170e-03 1.571369e-02 -2.329610e-05 -3.004819e-05 1.985487e-05 1.998059e-05 6.626587e-01 7.984619e-01
3.473862e+08 -3.503799e-03 1.571369e-02 -1.733191e-05 3.046356e-05 -2.602488e-05 3.774092e-05 6.614380e-01 7.982178e-01
3.476041e+08 -3.502846e-03 1.567268e-02 -1.524016e-05 -8.660369e-06 -1.438707e-05 -1.647975e-05 6.620483e-01 7.987671e-01
3.478219e+08 -3.538132e-03 1.567554e-02 -5.146489e-05 7.718801e-06 5.504116e-06 -6.448478e-06 6.622925e-01 7.998047e-01
3.480397e+08 -3.563881e-03 1.567173e-02 -5.889684e-06 -3.694929e-05 -3.123656e-06 3.883056e-05 6.615601e-01 8.000488e-01
3.482575e+08 -3.599167e-03 1.563454e-02 -2.172031e-05 1.455471e-05 4.518405e-05 3.352761e-05 6.621094e-01 8.009644e-01
3.484753e+08 -3.644943e-03 1.561928e-02 -1.155771e-05 2.034754e-05 1.985114e-05 2.000481e-05 6.628418e-01 8.021240e-01
3.486931e+08 -3.635406e-03 1.559544e-02 1.739804e-05 -6.935559e-06 3.529713e-05 1.356564e-05 6.622314e-01 8.026733e-01
3.489109e+08 -3.644943e-03 1.559353e-02 1.380779e-05 1.120381e-05 -2.592057e-05 7.880852e-06 6.623535e-01 8.026123e-01
3.491288e+08 -3.712654e-03 1.559925e-02 2.246536e-05 -4.051253e-06 -3.481656e-05 -1.507252e-05 6.619873e-01 8.030396e-01
3.493466e+08 -3.697395e-03 1.553822e-02 -5.589426e-05 -8.184463e-06 -1.385901e-05 -1.796428e-05 6.625366e-01 8.041382e-01
3.495644e+08 -3.684044e-03 1.548576e-02 -1.075864e-05 5.443394e-05 -9.485986e-06 8.436386e-06 6.622314e-01 8.051147e-01
3.497822e+08 -3.709793e-03 1.553535e-02 -3.843196e-05 8.452684e-06 4.023314e-06 -1.194514e-05 6.625366e-01 8.056641e-01
3.500000e+08 -3.735542e-03 1.549053e-02 3.038906e-05 -2.983026e-05 1.943670e-06 1.395401e-05 6.621094e-01 8.065796e-01
