# Hz S RI R 50
! RAW DATA - UNCALIBRATED
1.500000e+06 9.770508e-01 -1.391602e-02 1.525134e-05 3.781728e-05 2.004206e-06 -1.104642e-05 9.763184e-01 -2.124023e-02
1.717812e+06 9.766235e-01 -1.678467e-02 5.827285e-06 -3.706664e-06 -1.395121e-05 -1.108367e-05 9.744263e-01 -1.940918e-02
1.935625e+06 9.769287e-01 -1.318359e-02 -1.221895e-05 1.971610e-06 1.618173e-06 8.372124e-06 9.761963e-01 -1.806641e-02
2.153438e+06 9.767456e-01 -1.092529e-02 -1.300592e-05 -5.762093e-06 -2.048910e-06 6.859191e-06 9.766235e-01 -1.403809e-02
2.371250e+06 9.766235e-01 -9.704590e-03 4.955567e-06 -9.146985e-06 -3.757887e-06 2.141576e-06 9.763794e-01 -1.171875e-02
2.589062e+06 9.774780e-01 -6.469727e-03 -6.556977e-06 -2.441462e-06 -1.167972e-05 -1.280289e-05 9.763184e-01 -6.286621e-03
2.806875e+06 9.771729e-01 -3.417969e-03 1.643039e-05 -1.100358e-05 -2.065580e-05 -3.299676e-06 9.766846e-01 -3.417969e-03
3.024688e+06 9.782715e-01 -1.220703e-03 1.405925e-05 6.963499e-06 8.176081e-06 3.335066e-06 9.773560e-01 1.037598e-03
3.242500e+06 9.768677e-01 3.234863e-03 3.113411e-06 -1.866277e-05 8.267350e-06 2.876855e-06 9.773560e-01 6.042480e-03
3.460312e+06 9.744263e-01 3.906250e-03 -3.371760e-05 6.169081e-06 -2.784887e-06 -6.093178e-07 9.804688e-01 1.171875e-02
3.678125e+06 9.745483e-01 3.906250e-03 -1.719035e-05 -2.379902e-05 -1.563318e-05 9.508803e-06 9.800415e-01 1.232910e-02
3.895938e+06 9.744873e-01 2.746582e-03 -8.493662e-07 -2.182648e-05 -1.138914e-05 -1.807697e-06 9.799194e-01 1.379395e-02
4.113750e+06 9.722900e-01 3.051758e-03 3.097579e-06 2.162531e-05 -1.408905e-05 3.828667e-06 9.791260e-01 1.446533e-02
4.331562e+06 9.725952e-01 2.502441e-03 3.711320e-06 5.843118e-06 -1.907069e-05 7.596798e-06 9.790039e-01 1.507568e-02
4.549375e+06 9.719849e-01 2.502441e-03 7.651746e-06 -2.383068e-05 -1.791865e-05 -1.588184e-05 9.792480e-01 1.507568e-02
4.767188e+06 9.710693e-01 2.258301e-03 -9.843148e-06 -1.350418e-07 -4.264759e-06 -2.965797e-06 9.780273e-01 1.757812e-02
4.985000e+06 9.702148e-01 3.845215e-03 1.061987e-05 9.071082e-06 -5.300157e-06 -1.675356e-05 9.776001e-01 1.953125e-02
5.202812e+06 9.694824e-01 3.295898e-03 -8.570962e-06 -6.060582e-06 -1.417473e-06 -7.666182e-06 9.778442e-01 2.069092e-02
5.420625e+06 9.690552e-01 3.601074e-03 -2.173893e-05 -4.492700e-06 -1.273304e-05 2.448447e-06 9.782104e-01 2.276611e-02
5.638438e+06 9.683228e-01 4.394531e-03 1.890305e-05 9.452924e-07 -1.230184e-05 -4.349276e-07 9.784546e-01 2.331543e-02
5.856250e+06 9.681396e-01 5.371094e-03 -1.329277e-05 -4.677102e-06 -8.213799e-06 4.684553e-07 9.788818e-01 2.502441e-02
6.074062e+06 9.672241e-01 6.408691e-03 -5.068257e-06 2.055801e-05 5.743001e-06 -1.024175e-05 9.787598e-01 2.612305e-02
6.291875e+06 9.664307e-01 7.812500e-03 -8.039642e-06 5.964655e-06 7.255934e-06 -7.501803e-07 9.805298e-01 2.862549e-02
6.509688e+06 9.664307e-01 7.995605e-03 -1.771562e-05 -8.298084e-07 2.216548e-06 -1.184270e-05 9.816895e-01 3.057861e-02
6.727500e+06 9.666138e-01 9.033203e-03 1.521874e-05 1.686439e-05 -4.733447e-07 1.383363e-06 9.805298e-01 3.179932e-02
6.945312e+06 9.647217e-01 1.055908e-02 -2.291985e-06 -1.404248e-05 -9.090174e-06 6.921124e-06 9.816895e-01 3.283691e-02
7.163125e+06 9.652710e-01 1.165771e-02 2.249144e-05 1.305714e-06 7.812865e-06 8.357223e-06 9.830933e-01 3.436279e-02
7.380938e+06 9.658203e-01 1.269531e-02 -5.841721e-06 -5.439389e-06 -4.020520e-06 -1.186412e-05 9.844360e-01 3.546143e-02
7.598750e+06 9.647217e-01 1.409912e-02 -4.634727e-06 -9.663869e-06 -2.929009e-06 1.895241e-07 9.849854e-01 3.747559e-02
7.816562e+06 9.636841e-01 1.513672e-02 -6.746501e-06 -4.298985e-06 -9.615440e-06 -4.440080e-06 9.854126e-01 3.851318e-02
8.034375e+06 9.633179e-01 1.666260e-02 7.407740e-06 3.450923e-05 -5.345326e-06 -9.255018e-06 9.876709e-01 3.979492e-02
8.252188e+06 9.642334e-01 1.788330e-02 2.970174e-05 1.213327e-05 -6.272458e-06 -1.337100e-05 9.888916e-01 4.107666e-02
8.470000e+06 9.649658e-01 2.032471e-02 1.291558e-05 1.247227e-05 6.146729e-08 1.448113e-05 9.901733e-01 4.089355e-02
8.687812e+06 9.650269e-01 2.136230e-02 1.450162e-05 1.636613e-05 7.432885e-06 -1.084898e-05 9.904175e-01 4.150391e-02
8.905625e+06 9.647827e-01 2.270508e-02 2.980931e-06 2.020504e-06 -2.605841e-05 1.399219e-05 9.913940e-01 4.302979e-02
9.123438e+06 9.641113e-01 2.478027e-02 -3.790483e-06 -2.275035e-05 -2.536923e-06 -5.515292e-06 9.921265e-01 4.345703e-02
9.341250e+06 9.667358e-01 2.563477e-02 2.545677e-05 -1.209415e-05 -1.819804e-06 -1.045782e-05 9.935913e-01 4.467773e-02
9.559062e+06 9.656372e-01 2.746582e-02 1.727603e-05 -5.216338e-06 7.101335e-06 -3.548805e-06 9.946899e-01 4.345703e-02
9.776875e+06 9.658813e-01 2.838135e-02 1.957640e-06 -6.956514e-06 -5.232170e-06 -7.718336e-06 9.949951e-01 4.492188e-02
9.994688e+06 9.669800e-01 2.966309e-02 9.241980e-06 -9.184238e-06 -4.073838e-06 8.740462e-07 9.965210e-01 4.522705e-02
1.021250e+07 9.678955e-01 3.155518e-02 -1.617242e-05 -1.658872e-05 -1.577102e-05 -1.811422e-06 9.976196e-01 4.602051e-02
1.043031e+07 9.684448e-01 3.314209e-02 2.134033e-05 8.221716e-06 -5.947426e-06 -1.556613e-05 9.979858e-01 4.577637e-02
1.064812e+07 9.696655e-01 3.387451e-02 -1.761410e-05 1.507066e-05 1.165550e-06 9.811018e-06 9.991455e-01 4.534912e-02
1.086594e+07 9.695435e-01 3.527832e-02 1.439918e-05 -1.611188e-06 1.330394e-05 -3.949739e-06 9.998779e-01 4.656982e-02
1.108375e+07 9.706421e-01 3.619385e-02 7.118098e-06 -1.380220e-06 -2.219342e-06 1.155771e-05 1.000793e+00 4.705811e-02
1.130156e+07 9.722290e-01 3.747559e-02 3.079884e-06 -1.592562e-05 -4.920177e-06 -9.397045e-06 1.000610e+00 4.687500e-02
1.151938e+07 9.727783e-01 3.875732e-02 -2.784282e-05 -1.306646e-05 -8.813106e-06 -2.216548e-07 1.000549e+00 4.687500e-02
1.173719e+07 9.734497e-01 3.906250e-02 1.919176e-05 7.239170e-06 -3.436115e-06 -8.651987e-06 1.001587e+00 4.669189e-02
1.195500e+07 9.744263e-01 4.162598e-02 1.344737e-05 9.100884e-06 -1.077261e-05 -1.336075e-05 1.002197e+00 4.748535e-02
1.217281e+07 9.746704e-01 4.241943e-02 3.907830e-06 -2.015755e-05 9.286217e-06 1.449324e-05 1.002136e+00 4.852295e-02
1.239062e+07 9.757690e-01 4.235840e-02 -3.134459e-05 -2.140179e-05 2.288143e-06 2.357527e-06 1.002930e+00 4.736328e-02
1.260844e+07 9.774170e-01 4.370117e-02 -7.141382e-06 -2.842210e-05 -4.417729e-06 -2.930872e-06 1.002441e+00 4.754639e-02
1.282625e+07 9.778442e-01 4.412842e-02 6.459653e-06 -1.847744e-05 5.034730e-06 -1.257658e-05 1.002319e+00 4.870605e-02
1.304406e+07 9.790649e-01 4.589844e-02 -1.044292e-05 -1.658127e-05 -1.220405e-05 -2.600253e-06 1.002808e+00 4.888916e-02
1.326188e+07 9.791260e-01 4.632568e-02 1.623947e-05 1.147389e-06 -1.813401e-06 -2.314337e-06 1.003113e+00 4.840088e-02
1.347969e+07 9.805298e-01 4.669189e-02 -3.698282e-06 -1.781993e-05 1.584180e-05 -8.874573e-06 1.002319e+00 4.962158e-02
1.369750e+07 9.808350e-01 4.766846e-02 -1.058169e-05 7.798895e-06 -6.667804e-06 -5.756505e-06 1.003418e+00 5.017090e-02
1.391531e+07 9.824829e-01 4.809570e-02 1.604389e-05 -1.848582e-05 -5.776528e-06 3.132038e-06 1.003418e+00 4.907227e-02
1.413312e+07 9.839478e-01 4.858398e-02 7.766299e-06 -2.523419e-06 6.659207e-11 2.399929e-10 1.003845e+00 5.072021e-02
1.435094e+07 9.844971e-01 4.895020e-02 3.647292e-06 1.711305e-07 1.347158e-06 5.841721e-07 1.002808e+00 5.133057e-02
1.456875e+07 9.851074e-01 5.010986e-02 -7.720664e-06 -6.884336e-06 -3.688270e-06 1.920620e-06 1.003540e+00 5.145264e-02
1.478656e+07 9.851685e-01 5.023193e-02 3.607944e-06 -6.032642e-07 -9.156764e-06 -1.390465e-05 1.003357e+00 5.218506e-02
1.500438e+07 9.864502e-01 5.108643e-02 -1.092535e-05 -1.220871e-05 -5.853828e-06 -5.564652e-07 1.003174e+00 5.358887e-02
1.522219e+07 9.869385e-01 5.224609e-02 1.492910e-06 -1.632422e-05 -1.471839e-06 1.711305e-08 1.003479e+00 5.279541e-02
1.544000e+07 9.874268e-01 5.187988e-02 6.520655e-06 -3.371853e-06 9.461772e-06 4.804693e-06 1.003784e+00 5.541992e-02
1.565781e+07 9.898682e-01 5.230713e-02 1.020264e-05 1.951121e-06 1.349952e-06 5.729496e-06 1.003845e+00 5.480957e-02
1.587562e+07 9.893188e-01 5.303955e-02 -5.589332e-06 4.786998e-06 -4.266854e-06 -3.158115e-06 1.004272e+00 5.560303e-02
1.609344e+07 9.924927e-01 5.297852e-02 -3.885478e-06 -5.798787e-05 1.725182e-05 5.535036e-05 1.002808e+00 6.109619e-02
1.631125e+07 9.935303e-01 5.218506e-02 2.823770e-05 -7.022917e-05 -3.432855e-06 2.180133e-05 1.003052e+00 6.164551e-02
1.652906e+07 9.940186e-01 5.242920e-02 -2.972595e-05 -8.340925e-06 -3.885478e-06 -9.615440e-06 1.003357e+00 6.213379e-02
1.674688e+07 9.939575e-01 5.200195e-02 4.066899e-05 1.990423e-05 1.014769e-05 -1.253933e-05 1.003235e+00 6.378174e-02
1.696469e+07 9.951782e-01 5.230713e-02 -2.128072e-07 7.504597e-06 2.690591e-05 -1.722202e-05 1.003845e+00 6.451416e-02
1.718250e+07 9.959106e-01 5.151367e-02 -4.013255e-05 -4.247203e-05 3.017485e-07 2.843095e-06 1.002991e+00 6.542969e-02
1.740031e+07 9.963379e-01 5.047607e-02 -1.884997e-06 6.765500e-05 1.241080e-05 -1.860876e-05 1.003052e+00 6.622314e-02
1.761812e+07 9.968262e-01 5.126953e-02 -1.976267e-05 3.334321e-05 -6.213039e-05 1.240149e-05 1.003113e+00 6.738281e-02
1.783594e+07 9.973755e-01 4.998779e-02 -1.283269e-05 -1.355913e-05 -7.246062e-05 -2.358109e-06 1.004333e+00 6.811523e-02
1.805375e+07 9.971924e-01 4.980469e-02 3.069639e-06 -4.332885e-05 -5.635619e-05 1.326948e-05 1.004089e+00 6.872559e-02
1.827156e+07 9.976196e-01 4.980469e-02 1.919828e-05 -1.081731e-05 3.453530e-05 2.522394e-05 1.004639e+00 6.939697e-02
1.848938e+07 9.982910e-01 4.925537e-02 -6.947666e-06 4.710257e-05 2.942048e-05 4.077330e-06 1.005127e+00 7.067871e-02
1.870719e+07 9.985352e-01 4.913330e-02 -5.321577e-06 -1.339987e-05 -1.333468e-05 -1.596007e-05 1.005737e+00 7.177734e-02
1.892500e+07 9.982910e-01 4.827881e-02 8.396804e-06 -3.010221e-05 -3.707223e-05 -2.066419e-05 1.005981e+00 7.287598e-02
1.914281e+07 9.979248e-01 4.827881e-02 -2.972409e-05 -2.356246e-05 7.683411e-06 -9.553507e-06 1.005859e+00 7.391357e-02
1.936062e+07 9.987793e-01 4.760742e-02 -1.030043e-06 3.794208e-05 -1.640525e-05 -1.713168e-05 1.005981e+00 7.513428e-02
1.957844e+07 9.987183e-01 4.718018e-02 7.599127e-06 1.974404e-07 -3.173202e-05 2.970546e-05 1.007324e+00 7.513428e-02
1.979625e+07 9.996948e-01 4.730225e-02 2.135336e-05 -1.658686e-05 4.222430e-05 1.286156e-05 1.008057e+00 7.617188e-02
2.001406e+07 9.995117e-01 4.626465e-02 -4.647300e-06 3.417768e-05 1.247600e-05 7.394701e-06 1.008606e+00 7.623291e-02
2.023188e+07 9.991455e-01 4.724121e-02 7.606670e-05 9.488314e-06 -1.923181e-05 -1.542456e-05 1.009155e+00 7.739258e-02
2.044969e+07 9.985962e-01 4.602051e-02 -1.125500e-11 4.559411e-10 -2.761930e-05 1.474470e-05 1.009766e+00 7.775879e-02
2.066750e+07 9.984741e-01 4.644775e-02 -1.676381e-06 -9.592623e-06 -2.121832e-05 -6.444752e-06 1.010010e+00 7.861328e-02
2.088531e+07 9.994507e-01 4.620361e-02 -2.312288e-05 7.085502e-06 1.687929e-05 4.652143e-05 1.010315e+00 7.977295e-02
2.110312e+07 9.992065e-01 4.589844e-02 4.112720e-05 4.314631e-05 -2.096873e-06 7.577240e-06 1.012573e+00 8.032227e-02
2.132094e+07 9.989014e-01 4.559326e-02 3.927387e-06 -3.744615e-06 -2.911314e-06 -2.612919e-05 1.014038e+00 8.062744e-02
2.153875e+07 9.985962e-01 4.510498e-02 2.599508e-05 -4.351512e-05 -1.841504e-05 1.972076e-05 1.013367e+00 8.142090e-02
2.175656e+07 9.979248e-01 4.565430e-02 9.205192e-06 1.751259e-05 1.519918e-05 4.194677e-06 1.014587e+00 8.172607e-02
2.197438e+07 9.982910e-01 4.583740e-02 2.226792e-06 -1.341384e-05 3.729016e-06 6.959308e-06 1.014893e+00 8.178711e-02
2.219219e+07 9.985962e-01 4.498291e-02 -2.877042e-05 -6.418675e-06 -5.186349e-05 1.171976e-05 1.017151e+00 8.166504e-02
2.241000e+07 9.984741e-01 4.626465e-02 -6.785244e-05 1.583993e-05 -3.249384e-06 -2.590939e-06 1.017273e+00 8.288574e-02
2.262781e+07 9.981689e-01 4.577637e-02 -5.253032e-05 1.619756e-05 6.966293e-06 -1.707207e-05 1.018799e+00 8.331299e-02
2.284562e+07 9.981689e-01 4.528809e-02 -1.713634e-07 7.722527e-06 3.092457e-06 1.133420e-06 1.018127e+00 8.312988e-02
2.306344e+07 9.980469e-01 4.522705e-02 -3.696233e-05 8.875504e-06 1.706928e-05 -6.383285e-06 1.020203e+00 8.294678e-02
2.328125e+07 9.981079e-01 4.602051e-02 1.721736e-05 1.005270e-05 -1.873448e-05 -8.692592e-05 1.020935e+00 8.337402e-02
2.349906e+07 9.976807e-01 4.626465e-02 -7.434748e-06 -1.565181e-05 2.856553e-05 1.606904e-05 1.020996e+00 8.270264e-02
2.371688e+07 9.976196e-01 4.565430e-02 3.117323e-05 -7.102266e-06 -1.814216e-05 4.969910e-05 1.021423e+00 8.355713e-02
2.393469e+07 9.978027e-01 4.626465e-02 -3.246963e-05 -2.589077e-05 -1.066923e-05 3.698282e-05 1.022522e+00 8.337402e-02
2.415250e+07 9.972534e-01 4.626465e-02 -1.760479e-05 5.474314e-06 -3.104843e-05 1.548417e-05 1.023682e+00 8.325195e-02
2.437031e+07 9.968262e-01 4.669189e-02 -5.016103e-05 -2.045557e-05 1.371838e-05 -1.051836e-05 1.024048e+00 8.343506e-02
2.458812e+07 9.975586e-01 4.772949e-02 5.095452e-05 -1.849979e-05 1.544878e-05 5.653501e-05 1.024231e+00 8.282471e-02
2.480594e+07 9.978027e-01 4.675293e-02 2.482347e-05 2.582371e-05 -1.146365e-05 4.310161e-06 1.025635e+00 8.325195e-02
2.502375e+07 9.981079e-01 4.766846e-02 -7.342920e-05 -3.651902e-05 1.358334e-05 -1.204852e-05 1.026367e+00 8.306885e-02
2.524156e+07 9.984741e-01 4.864502e-02 -2.062880e-06 5.820300e-06 3.112108e-05 -1.560338e-05 1.027222e+00 8.349609e-02
2.545938e+07 9.972534e-01 4.779053e-02 -3.982335e-06 3.837282e-06 1.176819e-05 4.968792e-05 1.028015e+00 8.294678e-02
2.567719e+07 9.976196e-01 4.931641e-02 5.334616e-06 -8.205324e-05 3.803894e-05 -5.999953e-05 1.028320e+00 8.215332e-02
2.589500e+07 9.978638e-01 4.907227e-02 7.969327e-06 -7.695053e-06 2.825260e-05 1.025200e-05 1.030029e+00 8.233643e-02
2.611281e+07 9.987183e-01 4.937744e-02 -9.489246e-06 -1.779106e-05 -4.958361e-05 1.330674e-05 1.029236e+00 8.215332e-02
2.633062e+07 9.990845e-01 4.968262e-02 -4.083663e-05 -1.839921e-05 1.928303e-06 -9.262934e-06 1.029968e+00 8.337402e-02
2.654844e+07 9.990845e-01 4.980469e-02 -2.010167e-05 2.715178e-05 -9.440351e-06 -3.416557e-06 1.031494e+00 8.166504e-02
2.676625e+07 9.995117e-01 4.949951e-02 4.562363e-05 -2.480298e-05 3.747642e-05 -1.498871e-05 1.031921e+00 8.117676e-02
2.698406e+07 9.987183e-01 5.010986e-02 2.629310e-05 -4.482642e-05 -3.066286e-05 -3.950670e-06 1.032410e+00 8.056641e-02
2.720188e+07 9.987183e-01 5.084229e-02 -1.187436e-05 3.746711e-06 9.637326e-06 -4.648790e-05 1.032837e+00 8.117676e-02
2.741969e+07 1.000183e+00 5.041504e-02 1.562200e-05 8.134171e-06 1.389533e-06 -1.378916e-05 1.032715e+00 8.081055e-02
2.763750e+07 1.000793e+00 5.126953e-02 -3.109314e-05 -3.207102e-05 1.316611e-05 -1.670606e-05 1.034729e+00 8.007812e-02
2.785531e+07 1.000244e+00 5.169678e-02 -3.170781e-05 7.435679e-06 1.606531e-05 3.299117e-05 1.034424e+00 7.934570e-02
2.807312e+07 1.001404e+00 5.145264e-02 -3.196485e-05 2.318807e-05 -1.936685e-05 1.595635e-05 1.033630e+00 8.044434e-02
2.829094e+07 1.001038e+00 5.133057e-02 1.399871e-05 -9.688549e-06 -1.440570e-05 3.210455e-05 1.035889e+00 7.928467e-02
2.850875e+07 1.002136e+00 5.200195e-02 8.731335e-05 -1.456589e-05 -2.694502e-05 2.911314e-05 1.035339e+00 7.867432e-02
2.872656e+07 1.002075e+00 5.218506e-02 -2.331100e-05 -3.203936e-05 -4.131906e-05 1.102686e-05 1.035522e+00 7.849121e-02
2.894438e+07 1.003601e+00 5.181885e-02 -1.021847e-05 2.169050e-05 -1.737382e-05 -1.772493e-05 1.036621e+00 7.806396e-02
2.916219e+07 1.003479e+00 5.126953e-02 -3.969297e-05 -5.289912e-07 -3.243797e-05 -1.593865e-05 1.035950e+00 7.727051e-02
2.938000e+07 1.004150e+00 5.206299e-02 4.026806e-06 -3.923895e-06 4.151836e-05 -3.555976e-05 1.037659e+00 7.678223e-02
2.959781e+07 1.004700e+00 5.200195e-02 3.356114e-05 1.838244e-05 9.674579e-06 2.942234e-05 1.037598e+00 7.739258e-02
2.981562e+07 1.003784e+00 5.206299e-02 -3.343076e-05 -3.429130e-05 6.949063e-06 6.809831e-06 1.038086e+00 7.635498e-02
3.003344e+07 1.005249e+00 5.249023e-02 -1.015142e-07 7.967930e-06 -2.040155e-05 8.596107e-06 1.037598e+00 7.592773e-02
3.025125e+07 1.006042e+00 5.212402e-02 -1.452118e-05 4.171208e-05 -4.921481e-05 -2.624467e-05 1.038818e+00 7.604980e-02
3.046906e+07 1.007263e+00 5.194092e-02 2.198853e-05 -1.739711e-06 -4.244968e-06 -3.478676e-05 1.038818e+00 7.452393e-02
3.068688e+07 1.007141e+00 5.200195e-02 -3.368407e-05 -2.640672e-05 2.064276e-05 -7.119030e-06 1.039551e+00 7.489014e-02
3.090469e+07 1.007507e+00 5.187988e-02 1.859292e-05 -5.375966e-05 -1.601316e-05 -3.035553e-05 1.038635e+00 7.421875e-02
3.112250e+07 1.008423e+00 5.346680e-02 -4.756823e-05 1.049414e-05 -2.594902e-11 -2.534222e-10 1.040222e+00 7.409668e-02
3.134031e+07 1.008423e+00 5.187988e-02 1.088157e-05 -2.626143e-05 6.396323e-06 -4.131347e-05 1.039185e+00 7.440186e-02
3.155812e+07 1.008484e+00 5.310059e-02 -2.630800e-05 -1.089647e-05 -1.988374e-05 1.488719e-05 1.040161e+00 7.427979e-02
3.177594e+07 1.008667e+00 5.267334e-02 -1.689419e-06 -2.025999e-05 5.263835e-06 -1.125690e-05 1.039490e+00 7.385254e-02
3.199375e+07 1.008789e+00 5.377197e-02 -2.419576e-05 -5.040318e-05 6.579328e-06 1.464970e-06 1.039795e+00 7.342529e-02
3.221156e+07 1.009644e+00 5.389404e-02 5.486421e-06 1.087319e-06 -1.844950e-05 -2.275407e-05 1.039917e+00 7.373047e-02
3.242938e+07 1.009644e+00 5.322266e-02 9.357929e-06 1.041777e-05 -3.163703e-05 5.388632e-06 1.040344e+00 7.385254e-02
3.264719e+07 1.010132e+00 5.358887e-02 3.341585e-05 -5.333126e-05 -1.704320e-07 1.934171e-05 1.040039e+00 7.366943e-02
3.286500e+07 1.009766e+00 5.334473e-02 2.036802e-05 1.259893e-05 3.455952e-05 4.376471e-05 1.040222e+00 7.269287e-02
3.308281e+07 1.010132e+00 5.346680e-02 6.322190e-05 -1.747161e-06 1.307111e-05 -8.862466e-06 1.039612e+00 7.250977e-02
3.330062e+07 1.010925e+00 5.358887e-02 2.915598e-05 -2.803281e-06 -2.620482e-11 -2.552554e-10 1.039307e+00 7.238770e-02
3.351844e+07 1.011780e+00 5.395508e-02 3.803335e-05 1.042709e-05 2.880208e-05 -2.343766e-05 1.039795e+00 7.330322e-02
3.373625e+07 1.011108e+00 5.426025e-02 -2.697110e-06 4.246458e-05 2.218597e-05 3.757887e-05 1.040344e+00 7.220459e-02
3.395406e+07 1.011902e+00 5.541992e-02 8.829869e-06 1.321919e-05 8.964445e-06 3.383961e-06 1.038940e+00 7.250977e-02
3.417188e+07 1.011475e+00 5.444336e-02 -2.705120e-05 -8.253381e-06 -8.846819e-05 1.017749e-05 1.039185e+00 7.238770e-02
3.438969e+07 1.012207e+00 5.407715e-02 -3.699586e-05 1.274049e-05 1.147110e-05 1.717918e-05 1.039185e+00 7.196045e-02
3.460750e+07 1.012207e+00 5.352783e-02 1.491699e-05 -1.714844e-05 -1.417659e-05 1.980644e-05 1.039490e+00 7.202148e-02
3.482531e+07 1.011780e+00 5.444336e-02 -3.040954e-05 -2.042577e-05 8.679926e-07 8.554198e-06 1.038879e+00 7.196045e-02
3.504312e+07 1.013000e+00 5.468750e-02 3.373809e-05 3.837049e-06 1.282245e-05 3.005192e-05 1.038086e+00 7.165527e-02
3.526094e+07 1.012939e+00 5.456543e-02 1.648907e-06 -8.309726e-06 4.269741e-05 -1.630001e-05 1.038879e+00 7.128906e-02
3.547875e+07 1.012024e+00 5.401611e-02 1.052767e-05 -5.263090e-05 2.710894e-05 -5.255640e-05 1.038269e+00 7.226562e-02
3.569656e+07 1.012024e+00 5.364990e-02 -3.161281e-05 -4.374981e-05 -8.231029e-06 -3.815070e-05 1.037659e+00 7.104492e-02
3.591438e+07 1.012634e+00 5.395508e-02 7.208902e-06 -7.210765e-06 -2.414174e-05 7.875264e-06 1.037781e+00 7.189941e-02
3.613219e+07 1.013000e+00 5.462646e-02 1.109950e-05 2.218410e-06 -5.554780e-05 2.948195e-05 1.037720e+00 7.177734e-02
3.635000e+07 1.013123e+00 5.444336e-02 -2.440065e-05 3.553368e-05 1.411512e-05 7.448345e-05 1.036926e+00 7.104492e-02
3.656781e+07 1.011902e+00 5.364990e-02 -2.279133e-05 2.723373e-05 -7.264316e-08 3.150851e-05 1.037781e+00 7.147217e-02
3.678562e+07 1.012878e+00 5.346680e-02 3.902242e-06 -1.947396e-05 3.350899e-06 2.248026e-05 1.037170e+00 7.177734e-02
3.700344e+07 1.012512e+00 5.401611e-02 -1.862645e-08 2.892874e-05 3.775209e-05 -2.451241e-05 1.036438e+00 7.135010e-02
3.722125e+07 1.012878e+00 5.377197e-02 5.674362e-05 5.584210e-06 -2.499111e-05 1.122802e-05 1.035645e+00 7.128906e-02
3.743906e+07 1.012878e+00 5.346680e-02 2.728961e-05 8.359551e-06 3.164634e-06 -3.299303e-05 1.035828e+00 7.073975e-02
3.765688e+07 1.012512e+00 5.389404e-02 2.225861e-05 3.342703e-05 3.336184e-05 3.910996e-05 1.034119e+00 7.122803e-02
3.787469e+07 1.012146e+00 5.383301e-02 4.455913e-06 6.702263e-06 2.198294e-05 -4.144572e-05 1.035217e+00 7.159424e-02
3.809250e+07 1.012390e+00 5.358887e-02 -1.336262e-05 -2.010912e-05 3.613345e-05 -4.183874e-05 1.034058e+00 7.128906e-02
3.831031e+07 1.012512e+00 5.279541e-02 4.020333e-05 2.283603e-06 1.213327e-05 3.369339e-05 1.034424e+00 7.104492e-02
3.852812e+07 1.012756e+00 5.267334e-02 2.739765e-05 -2.063625e-05 -2.594665e-05 2.609566e-06 1.033203e+00 7.128906e-02
3.874594e+07 1.012146e+00 5.322266e-02 -2.741814e-05 2.068467e-05 7.826835e-06 3.418885e-05 1.033752e+00 7.055664e-02
3.896375e+07 1.012329e+00 5.358887e-02 4.541129e-06 -5.141273e-05 2.412125e-05 -3.194250e-05 1.031616e+00 7.073975e-02
3.918156e+07 1.011658e+00 5.303955e-02 -1.795031e-05 3.129058e-05 2.351590e-05 2.717972e-05 1.031067e+00 7.080078e-02
3.939938e+07 1.011353e+00 5.273438e-02 -2.298690e-05 2.740137e-05 -2.576411e-05 2.666190e-05 1.031189e+00 7.055664e-02
3.961719e+07 1.012085e+00 5.249023e-02 -5.601905e-06 -1.128297e-06 -3.143679e-06 1.410954e-06 1.030945e+00 7.031250e-02
3.983500e+07 1.011780e+00 5.432129e-02 -3.645010e-05 7.249415e-06 -2.463721e-05 -1.615472e-05 1.030457e+00 7.019043e-02
4.005281e+07 1.011536e+00 5.334473e-02 1.564622e-05 3.815629e-05 2.328306e-07 2.407841e-05 1.029663e+00 7.000732e-02
4.027062e+07 1.010986e+00 5.255127e-02 -2.467819e-05 -2.251193e-05 -8.567236e-06 1.293514e-05 1.029663e+00 7.061768e-02
4.048844e+07 1.010376e+00 5.236816e-02 1.173466e-06 -3.480911e-05 -1.087878e-05 -2.087373e-05 1.028442e+00 7.019043e-02
4.070625e+07 1.010010e+00 5.200195e-02 6.787479e-06 -3.368780e-05 -1.110137e-05 -1.086853e-06 1.027710e+00 7.006836e-02
4.092406e+07 1.010559e+00 5.249023e-02 -1.799222e-05 2.210028e-06 -2.820231e-05 -7.076189e-06 1.027283e+00 7.055664e-02
4.114188e+07 1.009888e+00 5.224609e-02 -8.399598e-06 -1.633819e-05 -8.599833e-06 1.295097e-05 1.027039e+00 7.104492e-02
4.135969e+07 1.009399e+00 5.157471e-02 -7.344875e-06 7.307623e-06 4.795380e-06 3.921567e-06 1.027344e+00 7.122803e-02
4.157750e+07 1.008789e+00 5.224609e-02 -1.752749e-05 2.869964e-05 1.287274e-05 -2.550334e-05 1.026489e+00 7.080078e-02
4.179531e+07 1.008240e+00 5.163574e-02 3.289431e-06 4.171580e-05 5.513430e-07 -2.760626e-05 1.025452e+00 7.043457e-02
4.201312e+07 1.008118e+00 5.175781e-02 -3.389269e-05 2.244860e-05 -4.328787e-06 -4.365668e-05 1.023865e+00 7.122803e-02
4.223094e+07 1.007690e+00 5.175781e-02 -1.177937e-05 -2.880953e-05 3.520027e-05 -2.335757e-05 1.023560e+00 7.086182e-02
4.244875e+07 1.007690e+00 5.200195e-02 1.144130e-06 -5.643815e-06 -8.359551e-06 4.939362e-05 1.023193e+00 7.141113e-02
4.266656e+07 1.007446e+00 5.236816e-02 -5.079433e-06 -3.968831e-06 -2.428703e-05 2.048910e-07 1.023865e+00 7.110596e-02
4.288438e+07 1.006531e+00 5.212402e-02 -2.030283e-05 -1.589954e-05 1.125876e-05 1.324061e-05 1.022095e+00 7.238770e-02
4.310219e+07 1.006897e+00 5.236816e-02 -3.439561e-05 -3.349409e-05 -3.702566e-05 5.863607e-06 1.021423e+00 7.226562e-02
4.332000e+07 1.006042e+00 5.169678e-02 3.844127e-05 1.374260e-05 4.501641e-05 -3.360212e-06 1.020935e+00 7.330322e-02
4.353781e+07 1.006287e+00 5.249023e-02 -3.233738e-05 1.405552e-05 5.064532e-06 -1.600664e-05 1.020264e+00 7.257080e-02
4.375562e+07 1.005493e+00 5.218506e-02 3.689155e-05 -7.228926e-06 -5.689450e-06 -1.273490e-05 1.019897e+00 7.360840e-02
4.397344e+07 1.005188e+00 5.291748e-02 5.672127e-05 1.155958e-05 2.947636e-06 1.854077e-05 1.019775e+00 7.305908e-02
4.419125e+07 1.003479e+00 5.273438e-02 5.783513e-06 -2.836064e-05 6.811693e-06 1.545064e-06 1.018311e+00 7.336426e-02
4.440906e+07 1.004150e+00 5.279541e-02 -1.251139e-05 3.363937e-06 1.581199e-05 2.508238e-05 1.017761e+00 7.324219e-02
4.462688e+07 1.003540e+00 5.224609e-02 -1.268461e-06 3.522821e-05 -9.662006e-06 -7.935800e-06 1.016846e+00 7.348633e-02
4.484469e+07 1.002991e+00 5.334473e-02 -2.273731e-05 -4.654750e-06 2.174266e-05 -3.882498e-05 1.016113e+00 7.434082e-02
4.506250e+07 1.002014e+00 5.261230e-02 -4.521105e-06 -6.850343e-06 -2.749078e-05 2.606027e-05 1.015686e+00 7.452393e-02
4.528031e+07 1.001831e+00 5.389404e-02 1.371372e-05 -9.054318e-06 -2.924353e-05 8.421019e-06 1.015320e+00 7.464600e-02
4.549812e+07 1.001404e+00 5.267334e-02 -5.561858e-06 -3.078580e-05 4.845206e-06 3.981637e-06 1.013672e+00 7.458496e-02
4.571594e+07 1.000183e+00 5.279541e-02 -5.364418e-05 9.275973e-07 2.563000e-05 -1.144409e-05 1.013672e+00 7.507324e-02
4.593375e+07 9.992676e-01 5.419922e-02 6.288290e-06 -1.681503e-06 8.693896e-07 8.841511e-06 1.012695e+00 7.574463e-02
4.615156e+07 9.998169e-01 5.358887e-02 -4.959479e-05 -1.906231e-05 6.927177e-06 1.382828e-05 1.012146e+00 7.531738e-02
4.636938e+07 9.995117e-01 5.371094e-02 1.550186e-05 -1.763087e-05 3.489666e-05 -2.019294e-05 1.010925e+00 7.592773e-02
4.658719e+07 9.982910e-01 5.310059e-02 -4.352629e-05 8.933246e-06 -4.931539e-05 -2.423301e-05 1.010681e+00 7.690430e-02
4.680500e+07 9.977417e-01 5.517578e-02 1.041591e-05 -2.170168e-05 1.781434e-05 1.055934e-05 1.010315e+00 7.727051e-02
4.702281e+07 9.972534e-01 5.462646e-02 3.154203e-05 -8.428469e-06 2.942979e-06 1.872797e-05 1.009399e+00 7.708740e-02
4.724062e+07 9.963989e-01 5.535889e-02 -4.971772e-05 -1.910701e-05 3.651716e-06 3.005611e-06 1.008118e+00 7.653809e-02
4.745844e+07 9.965820e-01 5.499268e-02 4.265457e-07 2.694502e-05 -1.102313e-05 4.816800e-05 1.007507e+00 7.794189e-02
4.767625e+07 9.957275e-01 5.480957e-02 -8.076429e-06 1.027901e-05 5.309936e-06 8.450355e-06 1.006287e+00 7.806396e-02
4.789406e+07 9.951172e-01 5.596924e-02 -1.997501e-05 -1.904741e-05 -1.298264e-06 -1.334026e-05 1.005920e+00 7.897949e-02
4.811188e+07 9.938965e-01 5.609131e-02 -1.937896e-05 -2.194569e-05 -2.139155e-05 1.105759e-05 1.004944e+00 8.020020e-02
4.832969e+07 9.939575e-01 5.584717e-02 2.591871e-05 -9.620562e-06 -1.371186e-05 9.186566e-06 1.004944e+00 8.020020e-02
4.854750e+07 9.928589e-01 5.621338e-02 1.621619e-05 -2.058595e-05 -2.865493e-05 1.738034e-05 1.003662e+00 8.142090e-02
4.876531e+07 9.926758e-01 5.694580e-02 -4.718080e-05 -3.714114e-06 -1.194701e-05 -3.032573e-05 1.003906e+00 8.099365e-02
4.898312e+07 9.923096e-01 5.700684e-02 -6.934628e-06 4.562549e-06 2.336130e-05 -2.587587e-05 1.002747e+00 8.178711e-02
4.920094e+07 9.912109e-01 5.706787e-02 -9.127893e-06 -1.388416e-05 2.914481e-05 -1.294725e-05 1.001709e+00 8.251953e-02
4.941875e+07 9.909058e-01 5.859375e-02 -2.242066e-05 -7.633120e-06 -9.424984e-06 -1.597777e-05 1.001465e+00 8.312988e-02
4.963656e+07 9.901733e-01 5.780029e-02 9.915791e-06 -1.895428e-05 -2.641976e-05 -5.329028e-06 1.000000e+00 8.349609e-02
4.985438e+07 9.891357e-01 5.908203e-02 -4.382804e-06 -3.692508e-05 8.398667e-06 -3.010593e-05 9.995117e-01 8.386230e-02
5.007219e+07 9.883423e-01 5.914307e-02 9.344891e-06 -1.608673e-05 -3.662892e-05 -5.524606e-06 9.981079e-01 8.508301e-02
5.029000e+07 9.879761e-01 5.987549e-02 -2.824143e-05 -8.858740e-06 4.954636e-06 -5.354360e-05 9.981689e-01 8.551025e-02
5.050781e+07 9.881592e-01 6.048584e-02 1.253001e-05 2.665818e-05 2.280623e-05 2.339482e-06 9.976807e-01 8.569336e-02
5.072562e+07 9.866943e-01 6.097412e-02 -1.393817e-05 9.141862e-06 1.257099e-05 -1.024362e-05 9.965210e-01 8.679199e-02
5.094344e+07 9.872437e-01 6.030273e-02 -1.993217e-05 3.799982e-05 1.214631e-05 -1.473166e-05 9.953003e-01 8.728027e-02
5.116125e+07 9.863892e-01 6.103516e-02 7.576309e-06 -7.468276e-06 1.763273e-05 1.865998e-05 9.952393e-01 8.764648e-02
5.137906e+07 9.855957e-01 6.188965e-02 3.947690e-05 -1.590699e-05 -6.510876e-06 2.885703e-06 9.942627e-01 8.880615e-02
5.159688e+07 9.841919e-01 6.170654e-02 -1.853798e-05 2.176501e-06 1.291744e-05 -3.065355e-05 9.931641e-01 8.868408e-02
5.181469e+07 9.837646e-01 6.274414e-02 -2.530403e-05 -2.336688e-05 3.359281e-05 3.187358e-05 9.928589e-01 9.008789e-02
5.203250e+07 9.830322e-01 6.317139e-02 -3.336743e-05 4.435331e-05 -1.823902e-05 3.459491e-05 9.918823e-01 9.045410e-02
5.225031e+07 9.830322e-01 6.396484e-02 7.344410e-06 2.264604e-05 -3.948808e-05 2.527609e-05 9.906616e-01 9.094238e-02
5.246812e+07 9.822998e-01 6.433105e-02 3.341213e-05 -4.439801e-05 3.046170e-05 -3.689900e-05 9.910278e-01 9.167480e-02
5.268594e+07 9.815063e-01 6.469727e-02 -2.619252e-05 9.667128e-06 -2.073962e-05 2.013799e-05 9.901123e-01 9.228516e-02
5.290375e+07 9.804077e-01 6.591797e-02 -8.814037e-06 1.327880e-05 5.790964e-06 1.306273e-05 9.893188e-01 9.289551e-02
5.312156e+07 9.804688e-01 6.585693e-02 1.220033e-05 -4.833564e-07 -8.997507e-06 8.619390e-07 9.887695e-01 9.350586e-02
5.333938e+07 9.790649e-01 6.665039e-02 5.466864e-06 -2.609007e-05 -4.543737e-05 -2.458692e-07 9.876709e-01 9.533691e-02
5.355719e+07 9.790039e-01 6.695557e-02 -1.463480e-05 1.209136e-05 -2.196617e-05 3.159046e-05 9.874878e-01 9.527588e-02
5.377500e+07 9.783325e-01 6.738281e-02 -3.373250e-06 -1.282245e-05 3.397837e-05 -9.424984e-07 9.862671e-01 9.637451e-02
5.399281e+07 9.774170e-01 6.781006e-02 3.024191e-05 2.682209e-07 5.254522e-06 -1.641177e-05 9.860840e-01 9.686279e-02
5.421062e+07 9.768066e-01 6.933594e-02 7.627066e-06 -7.496215e-06 2.166815e-05 -1.114327e-05 9.851074e-01 9.765625e-02
5.442844e+07 9.758301e-01 6.866455e-02 -1.475215e-06 3.604963e-05 1.931749e-05 1.179706e-05 9.837646e-01 9.851074e-02
5.464625e+07 9.752808e-01 7.049561e-02 -2.020597e-05 -1.939014e-05 1.661014e-06 5.536247e-06 9.837036e-01 9.973145e-02
5.486406e+07 9.746704e-01 7.098389e-02 2.196431e-05 -4.699454e-05 5.228445e-06 -2.896227e-05 9.832153e-01 1.000366e-01
5.508188e+07 9.739990e-01 7.159424e-02 -7.031020e-06 4.591886e-06 1.552608e-05 -1.628045e-05 9.824219e-01 1.016235e-01
5.529969e+07 9.731445e-01 7.159424e-02 -1.218636e-06 5.809125e-06 7.365830e-06 -6.391201e-06 9.803467e-01 1.022949e-01
5.551750e+07 9.736938e-01 7.244873e-02 -1.188926e-05 2.784468e-05 -8.992851e-06 1.338031e-05 9.798584e-01 1.021729e-01
5.573531e+07 9.727783e-01 7.354736e-02 2.786703e-05 1.193769e-05 -2.888404e-05 -4.058890e-05 9.800415e-01 1.036377e-01
5.595312e+07 9.718628e-01 7.464600e-02 1.194514e-05 -2.787448e-05 2.435409e-06 -1.049833e-05 9.793091e-01 1.049805e-01
5.617094e+07 9.708862e-01 7.489014e-02 2.787262e-05 1.194701e-05 -5.469099e-05 5.662441e-07 9.784546e-01 1.060181e-01
5.638875e+07 9.706421e-01 7.519531e-02 -6.434508e-06 1.690350e-06 6.183051e-06 5.122274e-06 9.779663e-01 1.060181e-01
5.660656e+07 9.694824e-01 7.678223e-02 -2.330542e-05 -4.896894e-06 2.299994e-05 -1.017191e-05 9.776001e-01 1.069336e-01
5.682438e+07 9.697876e-01 7.720947e-02 4.217497e-10 -2.748664e-10 4.979782e-06 1.665484e-05 9.772949e-01 1.082764e-01
5.704219e+07 9.688721e-01 7.775879e-02 -1.441780e-05 -1.826417e-05 1.362804e-05 1.128297e-05 9.758911e-01 1.094360e-01
5.726000e+07 9.692993e-01 7.855225e-02 -5.187467e-05 -1.395494e-05 -3.092736e-05 -1.307577e-05 9.755859e-01 1.100464e-01
5.747781e+07 9.677734e-01 7.965088e-02 1.167320e-05 2.464280e-06 -2.137944e-05 1.571793e-05 9.755249e-01 1.114502e-01
5.769562e+07 9.679565e-01 8.062744e-02 -7.996336e-06 -1.996756e-05 -1.445413e-05 -7.788651e-06 9.747314e-01 1.113281e-01
5.791344e+07 9.668579e-01 8.087158e-02 1.690257e-05 6.613322e-06 -9.025447e-06 1.342222e-05 9.737549e-01 1.124268e-01
5.813125e+07 9.661255e-01 8.239746e-02 -3.257766e-05 -1.908466e-05 -3.805384e-06 -2.821721e-05 9.729614e-01 1.134033e-01
5.834906e+07 9.667969e-01 8.258057e-02 -4.181266e-05 2.474338e-05 -5.386304e-06 -8.647796e-06 9.725342e-01 1.137085e-01
5.856688e+07 9.659424e-01 8.349609e-02 -1.104921e-05 -6.334856e-05 1.203269e-05 1.833588e-05 9.718018e-01 1.150513e-01
5.878469e+07 9.647217e-01 8.441162e-02 1.354981e-05 -6.289221e-06 -1.198612e-06 1.156423e-05 9.709473e-01 1.168823e-01
5.900250e+07 9.645996e-01 8.502197e-02 -1.169648e-05 -2.482906e-06 -1.265667e-06 -1.363736e-05 9.703979e-01 1.174927e-01
5.922031e+07 9.638672e-01 8.508301e-02 4.282221e-05 -1.043081e-07 1.026876e-05 -2.502091e-05 9.702759e-01 1.181641e-01
5.943812e+07 9.638672e-01 8.605957e-02 -1.507718e-05 -1.543947e-05 -2.929009e-05 3.025308e-05 9.699097e-01 1.198120e-01
5.965594e+07 9.630737e-01 8.770752e-02 2.528541e-05 -3.818423e-06 -9.079464e-06 1.347344e-05 9.689331e-01 1.205444e-01
5.987375e+07 9.626465e-01 8.886719e-02 -4.563108e-05 -1.578405e-05 -6.565824e-06 2.816319e-05 9.684448e-01 1.206665e-01
6.009156e+07 9.626465e-01 8.929443e-02 -1.758896e-05 -3.731810e-06 -2.985448e-05 -2.479926e-05 9.684448e-01 1.218872e-01
6.030938e+07 9.608765e-01 9.051514e-02 -1.049042e-05 -8.355826e-06 3.336929e-06 1.118332e-05 9.678345e-01 1.228027e-01
6.052719e+07 9.612427e-01 9.039307e-02 8.624047e-06 1.716521e-05 -1.322944e-05 1.846254e-05 9.669189e-01 1.242676e-01
6.074500e+07 9.602661e-01 9.204102e-02 -2.499670e-06 1.175702e-05 1.955777e-08 1.265015e-05 9.682617e-01 1.257935e-01
6.096281e+07 9.602661e-01 9.307861e-02 1.912378e-05 2.555177e-05 3.323518e-05 2.340041e-05 9.663696e-01 1.264648e-01
6.118062e+07 9.609985e-01 9.423828e-02 4.818663e-05 -4.481524e-06 1.669023e-05 9.369105e-07 9.644775e-01 1.276855e-01
6.139844e+07 9.615479e-01 9.399414e-02 -1.209788e-05 3.202446e-05 -2.112426e-05 -3.161095e-05 9.644165e-01 1.281738e-01
6.161625e+07 9.608154e-01 9.533691e-02 2.388284e-05 -1.868419e-05 -1.518754e-06 -8.451752e-08 9.638062e-01 1.286011e-01
6.183406e+07 9.598389e-01 9.588623e-02 -6.566197e-05 8.828938e-07 -1.961179e-05 -3.153458e-05 9.631348e-01 1.306152e-01
6.205188e+07 9.597168e-01 9.680176e-02 9.326264e-06 -2.720766e-05 1.080055e-05 -2.450775e-06 9.638672e-01 1.318970e-01
6.226969e+07 9.594727e-01 9.814453e-02 -1.888257e-05 -1.191162e-06 -8.451752e-06 -1.266412e-05 9.630737e-01 1.321411e-01
6.248750e+07 9.586182e-01 9.899902e-02 3.273226e-05 2.226420e-05 4.039146e-06 -1.809746e-05 9.624634e-01 1.322632e-01
6.270531e+07 9.582520e-01 9.954834e-02 -6.441399e-05 -1.475215e-06 2.380461e-05 -1.700036e-05 9.625244e-01 1.333008e-01
6.292312e+07 9.585571e-01 1.007690e-01 3.607571e-05 -5.089492e-05 -2.146885e-05 1.873821e-06 9.621582e-01 1.342163e-01
6.314094e+07 9.579468e-01 1.013184e-01 2.476200e-05 -3.136881e-05 -2.810359e-05 -1.679547e-05 9.622803e-01 1.358032e-01
6.335875e+07 9.580078e-01 1.014404e-01 3.624707e-06 -1.750048e-05 -2.598390e-06 -3.682636e-05 9.613647e-01 1.363525e-01
6.357656e+07 9.573975e-01 1.022339e-01 4.858151e-05 -2.737343e-05 -5.559064e-06 1.804624e-05 9.614868e-01 1.375122e-01
6.379438e+07 9.572144e-01 1.032715e-01 1.278892e-05 -2.202392e-05 -1.320895e-05 1.762901e-05 9.617310e-01 1.387329e-01
6.401219e+07 9.569092e-01 1.037598e-01 -2.099760e-05 -8.914620e-06 1.084059e-05 -2.463348e-06 9.606934e-01 1.392212e-01
6.423000e+07 9.572144e-01 1.041870e-01 -6.267801e-07 -1.018774e-05 9.262934e-06 -3.011711e-05 9.606323e-01 1.405640e-01
6.444781e+07 9.557495e-01 1.055908e-01 3.788620e-06 -4.037842e-05 -1.612213e-05 -1.312979e-05 9.604492e-01 1.416016e-01
6.466562e+07 9.561768e-01 1.070557e-01 -6.154180e-06 -2.324395e-05 -1.360662e-06 -3.138324e-06 9.602661e-01 1.427002e-01
6.488344e+07 9.550781e-01 1.071167e-01 -1.480430e-05 -8.731335e-05 1.525413e-05 1.230184e-05 9.597168e-01 1.437988e-01
6.510125e+07 9.555054e-01 1.082764e-01 -2.910756e-05 3.881752e-05 -4.286319e-05 -4.773960e-06 9.594116e-01 1.444702e-01
6.531906e+07 9.540405e-01 1.098633e-01 -1.614448e-05 -6.099232e-06 2.133567e-05 1.844857e-05 9.595337e-01 1.452637e-01
6.553688e+07 9.545288e-01 1.104736e-01 -1.535006e-05 -1.875684e-05 2.235174e-08 -6.129500e-06 9.589233e-01 1.459961e-01
6.575469e+07 9.547729e-01 1.112671e-01 1.267157e-05 7.990748e-07 1.230463e-05 -9.153038e-06 9.590454e-01 1.475220e-01
6.597250e+07 9.545288e-01 1.125488e-01 4.910398e-06 2.853805e-06 -2.453476e-05 -3.168359e-06 9.584961e-01 1.483765e-01
6.619031e+07 9.541016e-01 1.125488e-01 -1.188926e-05 -1.347903e-05 -2.767146e-05 1.677871e-05 9.586182e-01 1.491089e-01
6.640812e+07 9.541626e-01 1.135864e-01 -1.315400e-05 -3.392994e-05 1.519732e-05 4.304014e-05 9.581299e-01 1.502686e-01
6.662594e+07 9.537354e-01 1.148682e-01 -6.059930e-05 -8.899719e-06 -4.304573e-05 1.056865e-05 9.582520e-01 1.516724e-01
6.684375e+07 9.538574e-01 1.155396e-01 2.097152e-05 3.189780e-05 -1.532305e-05 -1.081452e-05 9.584961e-01 1.523438e-01
6.706156e+07 9.536133e-01 1.171265e-01 5.237386e-05 -2.224743e-05 -4.903227e-05 -3.555417e-05 9.575806e-01 1.528931e-01
6.727938e+07 9.534302e-01 1.171875e-01 2.190284e-05 -3.734604e-06 2.978370e-06 2.460182e-05 9.570312e-01 1.541748e-01
6.749719e+07 9.534302e-01 1.182251e-01 -1.287833e-05 2.214499e-05 3.997236e-05 1.704320e-06 9.573975e-01 1.553955e-01
6.771500e+07 9.533081e-01 1.186523e-01 -3.592297e-05 -1.756474e-05 -1.840759e-05 -1.392327e-05 9.577026e-01 1.561890e-01
6.793281e+07 9.530640e-01 1.195679e-01 -1.430046e-06 2.463348e-06 2.445653e-05 4.010089e-05 9.569702e-01 1.571045e-01
6.815062e+07 9.532471e-01 1.212769e-01 -7.640570e-06 -2.091192e-05 -9.130687e-06 -2.313778e-05 9.572754e-01 1.578369e-01
6.836844e+07 9.529419e-01 1.215210e-01 5.211681e-06 5.905330e-05 3.085705e-06 -1.527835e-06 9.561768e-01 1.595459e-01
6.858625e+07 9.530029e-01 1.220093e-01 -5.080178e-05 -2.621114e-05 -1.833588e-05 -4.319847e-05 9.570923e-01 1.605835e-01
6.880406e+07 9.525146e-01 1.239624e-01 -1.210906e-05 9.481795e-06 9.300187e-06 -1.382735e-05 9.570923e-01 1.610718e-01
6.902188e+07 9.536133e-01 1.241455e-01 -1.336634e-05 -1.107436e-05 2.162997e-05 -1.072977e-05 9.558716e-01 1.626587e-01
6.923969e+07 9.532471e-01 1.246338e-01 -1.272187e-06 -2.055243e-05 -4.940107e-05 9.108335e-06 9.562988e-01 1.631470e-01
6.945750e+07 9.519653e-01 1.266479e-01 -3.842264e-05 2.062134e-05 -3.097765e-05 3.685616e-05 9.560547e-01 1.641235e-01
6.967531e+07 9.528809e-01 1.271362e-01 4.464015e-05 2.820045e-06 1.546461e-05 -9.207986e-06 9.563599e-01 1.657715e-01
6.989312e+07 9.523926e-01 1.284790e-01 3.959611e-05 2.299249e-05 -2.154149e-05 -1.706276e-05 9.571533e-01 1.665039e-01
7.011094e+07 9.530029e-01 1.295166e-01 -5.416572e-06 -3.623031e-05 3.682822e-05 6.500632e-05 9.562988e-01 1.672974e-01
7.032875e+07 9.528198e-01 1.306152e-01 1.692399e-05 1.645833e-05 -2.167467e-05 9.183772e-06 9.567871e-01 1.687012e-01
7.054656e+07 9.534912e-01 1.301270e-01 1.071114e-05 -7.028691e-06 3.076158e-06 6.195158e-06 9.567871e-01 1.694946e-01
7.076438e+07 9.533691e-01 1.312866e-01 1.295470e-05 -2.228282e-05 -6.295741e-06 3.555976e-05 9.561768e-01 1.710205e-01
7.098219e+07 9.526978e-01 1.326904e-01 5.101785e-06 -2.022833e-05 2.159923e-05 1.245085e-05 9.566650e-01 1.710815e-01
7.120000e+07 9.530640e-01 1.331787e-01 -3.673136e-06 1.774821e-05 -1.240335e-05 6.140210e-06 9.562378e-01 1.723022e-01
7.141781e+07 9.525757e-01 1.345825e-01 5.119666e-05 3.155321e-06 1.248159e-05 -2.625398e-05 9.564819e-01 1.730957e-01
7.163562e+07 9.537354e-01 1.347046e-01 -1.920853e-05 -1.199543e-06 -3.412925e-05 1.227483e-05 9.570312e-01 1.742554e-01
7.185344e+07 9.532471e-01 1.352539e-01 -4.690719e-10 1.241460e-10 1.231022e-05 2.482720e-05 9.573975e-01 1.752319e-01
7.207125e+07 9.542236e-01 1.359253e-01 -2.613291e-05 -3.507361e-05 -7.751584e-05 -3.349036e-06 9.570923e-01 1.755371e-01
7.228906e+07 9.537354e-01 1.369629e-01 -4.551932e-05 -1.310557e-05 -2.478249e-05 -4.718080e-06 9.570312e-01 1.760864e-01
7.250688e+07 9.528809e-01 1.390991e-01 -1.298636e-05 2.236478e-05 -4.650280e-05 1.363456e-06 9.572754e-01 1.781006e-01
7.272469e+07 9.530029e-01 1.390991e-01 1.203828e-05 1.362711e-05 -3.087521e-05 -3.111362e-05 9.575806e-01 1.782837e-01
7.294250e+07 9.544067e-01 1.397705e-01 -3.111362e-05 -3.802031e-05 2.477132e-05 2.180412e-05 9.570312e-01 1.796875e-01
7.316031e+07 9.530029e-01 1.416626e-01 -1.268089e-05 -2.400577e-05 -6.223097e-06 4.624482e-06 9.575806e-01 1.812134e-01
7.337812e+07 9.546509e-01 1.420898e-01 7.225201e-06 -1.244340e-05 2.788939e-05 2.028793e-05 9.572754e-01 1.821289e-01
7.359594e+07 9.541016e-01 1.425171e-01 1.299940e-05 -2.240948e-05 -6.137416e-06 -2.331473e-05 9.574585e-01 1.824341e-01
7.381375e+07 9.544678e-01 1.438599e-01 2.315268e-05 -3.986433e-05 -1.238845e-05 -1.403503e-05 9.580078e-01 1.839600e-01
7.403156e+07 9.543457e-01 1.447144e-01 4.149973e-05 -2.592802e-06 -9.248033e-06 -2.490170e-05 9.583740e-01 1.845703e-01
7.424938e+07 9.544067e-01 1.453857e-01 1.898408e-05 -5.563349e-05 6.217975e-06 1.573469e-06 9.579468e-01 1.859741e-01
7.446719e+07 9.553833e-01 1.463623e-01 4.808232e-05 -2.541021e-05 2.485700e-05 1.409650e-05 9.578857e-01 1.867676e-01
7.468500e+07 9.553833e-01 1.468506e-01 -1.448905e-06 2.494780e-06 3.145076e-06 -9.331852e-06 9.584961e-01 1.876831e-01
7.490281e+07 9.555054e-01 1.470337e-01 6.599352e-06 -2.286769e-05 -3.054738e-06 -2.336688e-05 9.584961e-01 1.883545e-01
7.512062e+07 9.549561e-01 1.484985e-01 2.864003e-05 -3.414229e-06 -2.142042e-08 6.227754e-06 9.578247e-01 1.885986e-01
7.533844e+07 9.558105e-01 1.494751e-01 -1.129135e-05 -2.656132e-05 3.733300e-05 2.037920e-05 9.581299e-01 1.902466e-01
7.555625e+07 9.562988e-01 1.501465e-01 -3.588945e-05 1.587905e-05 3.069639e-06 1.560245e-05 9.580078e-01 1.908569e-01
7.577406e+07 9.559937e-01 1.510010e-01 -2.367795e-05 6.301329e-06 -3.138557e-06 7.785857e-06 9.587402e-01 1.915894e-01
7.599188e+07 9.567261e-01 1.513672e-01 -3.079697e-05 -4.500151e-06 2.187304e-05 -1.398474e-05 9.592285e-01 1.926880e-01
7.620969e+07 9.573975e-01 1.522827e-01 -5.161017e-05 -3.192574e-06 1.880340e-05 -2.492592e-05 9.594727e-01 1.938477e-01
7.642750e+07 9.564819e-01 1.539307e-01 -2.500974e-05 -1.449883e-05 1.559127e-05 1.614913e-06 9.592285e-01 1.945190e-01
7.664531e+07 9.577026e-01 1.539917e-01 3.870018e-05 2.410263e-06 -3.218651e-06 3.278069e-05 9.588013e-01 1.953735e-01
7.686312e+07 9.574585e-01 1.544189e-01 3.437884e-05 9.903684e-06 -2.807751e-05 -1.413003e-05 9.594116e-01 1.957397e-01
7.708094e+07 9.579468e-01 1.553955e-01 4.352070e-06 -7.511582e-06 -1.236796e-05 -4.845485e-05 9.596558e-01 1.962891e-01
7.729875e+07 9.583740e-01 1.555786e-01 -4.209578e-06 -1.583155e-05 -6.242190e-06 -4.700851e-06 9.602051e-01 1.976929e-01
7.751656e+07 9.580688e-01 1.569824e-01 -1.292862e-05 -8.037314e-07 -1.250952e-05 3.095716e-06 9.603271e-01 1.990356e-01
7.773438e+07 9.588623e-01 1.580200e-01 2.731383e-05 -9.071082e-07 -3.186055e-06 1.876149e-05 9.602051e-01 1.992798e-01
7.795219e+07 9.586182e-01 1.592407e-01 -4.205853e-06 -1.585484e-05 -2.824515e-05 2.649426e-05 9.610596e-01 2.005615e-01
7.817000e+07 9.595947e-01 1.591797e-01 -3.868900e-05 -2.579764e-05 3.024936e-06 3.599375e-05 9.608154e-01 2.011108e-01
7.838781e+07 9.589844e-01 1.605225e-01 -3.410503e-06 -2.881512e-05 -4.367158e-05 -3.613532e-05 9.611816e-01 2.023926e-01
7.860562e+07 9.598389e-01 1.606445e-01 1.055375e-05 3.967062e-05 2.499297e-05 2.354011e-05 9.616699e-01 2.025757e-01
7.882344e+07 9.606323e-01 1.621094e-01 -1.668651e-05 1.717359e-05 -4.071184e-05 -3.276393e-06 9.617310e-01 2.041016e-01
7.904125e+07 9.609985e-01 1.622314e-01 -2.658740e-05 -1.205690e-05 3.159046e-06 -9.396579e-06 9.621582e-01 2.043457e-01
7.925906e+07 9.605103e-01 1.635132e-01 -4.101545e-05 -1.034513e-05 3.767386e-05 -2.966449e-05 9.622803e-01 2.052002e-01
7.947688e+07 9.616089e-01 1.641846e-01 -1.019519e-05 1.759641e-05 3.119465e-06 6.279908e-06 9.620361e-01 2.059326e-01
7.969469e+07 9.621582e-01 1.640625e-01 2.676621e-05 -1.136586e-05 1.574494e-05 -2.977811e-05 9.632568e-01 2.073364e-01
7.991250e+07 9.619751e-01 1.653442e-01 3.425404e-05 -4.742295e-05 3.174879e-06 -1.567416e-05 9.639893e-01 2.084351e-01
8.013031e+07 9.631958e-01 1.649170e-01 -1.125038e-05 -5.028397e-05 -1.567509e-05 -1.258962e-05 9.647217e-01 2.086182e-01
8.034812e+07 9.631348e-01 1.659546e-01 1.510885e-05 8.761883e-06 -3.155787e-06 6.271061e-06 9.641113e-01 2.093506e-01
8.056594e+07 9.636230e-01 1.671143e-01 6.867200e-05 -1.407042e-05 -3.766641e-05 -1.737103e-05 9.642334e-01 2.093506e-01
8.078375e+07 9.633789e-01 1.679688e-01 2.000667e-05 3.517233e-05 6.375834e-06 -3.453530e-05 9.645996e-01 2.112427e-01
8.100156e+07 9.644165e-01 1.689453e-01 3.731810e-06 -1.804251e-05 -6.296672e-06 3.125053e-06 9.646606e-01 2.116089e-01
8.121938e+07 9.640503e-01 1.680908e-01 -2.243556e-05 3.837049e-06 6.984919e-09 -3.142282e-06 9.649658e-01 2.120972e-01
8.143719e+07 9.646606e-01 1.692505e-01 -9.153038e-06 -4.239380e-05 1.250580e-05 2.675876e-05 9.658813e-01 2.131348e-01
8.165500e+07 9.643555e-01 1.708374e-01 7.169321e-06 1.090113e-05 -3.119931e-06 -7.870141e-06 9.658203e-01 2.135010e-01
8.187281e+07 9.655151e-01 1.707153e-01 -9.723008e-06 5.169585e-05 2.199039e-05 2.051145e-05 9.661255e-01 2.138672e-01
8.209062e+07 9.660645e-01 1.718140e-01 2.928544e-06 -5.055219e-06 -6.287824e-06 -4.741829e-06 9.667969e-01 2.145386e-01
8.230844e+07 9.660034e-01 1.723022e-01 -2.130866e-06 -7.981900e-06 1.267530e-05 -2.988987e-05 9.668579e-01 2.144775e-01
8.252625e+07 9.671021e-01 1.726074e-01 3.552251e-05 -3.052875e-06 2.523139e-05 -3.108755e-06 9.667969e-01 2.156982e-01
8.274406e+07 9.677734e-01 1.729126e-01 -1.114607e-05 -7.404014e-05 6.355345e-06 -3.942288e-05 9.676514e-01 2.171021e-01
8.296188e+07 9.674072e-01 1.741333e-01 1.517218e-05 8.796342e-06 -2.194196e-05 -5.521998e-05 9.674072e-01 2.178345e-01
8.317969e+07 9.683838e-01 1.743164e-01 1.172908e-05 -2.024136e-05 1.261290e-05 4.758127e-06 9.680176e-01 2.182007e-01
8.339750e+07 9.687500e-01 1.750488e-01 -6.388873e-06 -2.400391e-05 -3.793463e-05 3.623590e-05 9.685669e-01 2.191162e-01
8.361531e+07 9.695435e-01 1.750488e-01 -1.453888e-05 1.737848e-06 -1.898594e-05 2.523512e-05 9.691162e-01 2.194214e-01
8.383312e+07 9.699097e-01 1.762695e-01 -2.106838e-05 1.337379e-06 -2.527796e-05 -1.633540e-06 9.690552e-01 2.196655e-01
8.405094e+07 9.707031e-01 1.764526e-01 -6.409362e-06 -2.402253e-05 -9.473879e-06 -6.339513e-06 9.699707e-01 2.212524e-01
8.426875e+07 9.699707e-01 1.771240e-01 3.204308e-05 -8.534640e-06 3.793277e-05 -1.488253e-06 9.704590e-01 2.219238e-01
8.448656e+07 9.699707e-01 1.770020e-01 -2.416596e-05 3.002211e-05 1.262501e-05 9.503216e-06 9.697876e-01 2.222900e-01
8.470438e+07 9.717407e-01 1.784058e-01 -2.321601e-05 -6.670132e-06 9.532087e-06 -1.581199e-05 9.695435e-01 2.224121e-01
8.492219e+07 9.708862e-01 1.782227e-01 -4.438311e-05 -5.315989e-06 -1.904555e-05 3.002211e-05 9.714355e-01 2.228394e-01
8.514000e+07 9.721069e-01 1.786499e-01 -1.242664e-05 9.754673e-06 1.676381e-08 -9.503681e-06 9.708862e-01 2.237549e-01
8.535781e+07 9.716797e-01 1.796875e-01 1.580641e-05 4.307181e-05 9.521842e-06 -1.106318e-05 9.722290e-01 2.243042e-01
8.557562e+07 9.729004e-01 1.802979e-01 -2.207048e-05 3.811158e-05 1.262873e-05 2.221577e-05 9.716187e-01 2.251587e-01
8.579344e+07 9.725952e-01 1.804199e-01 3.741123e-06 -1.819897e-05 -5.388632e-05 1.095608e-05 9.720459e-01 2.257080e-01
8.601125e+07 9.735107e-01 1.807861e-01 3.922731e-05 2.611615e-05 -1.267903e-05 -4.781410e-06 9.729004e-01 2.262573e-01
8.622906e+07 9.741211e-01 1.807861e-01 3.438815e-05 -2.428144e-05 -2.850592e-05 -3.967248e-05 9.730835e-01 2.256470e-01
8.644688e+07 9.743652e-01 1.813354e-01 1.471955e-06 -2.546236e-06 -3.490411e-05 1.542270e-06 9.730835e-01 2.264404e-01
8.666469e+07 9.750977e-01 1.820679e-01 -5.898997e-06 1.019146e-05 -1.268648e-05 -7.955357e-06 9.741821e-01 2.273560e-01
8.688250e+07 9.750977e-01 1.820679e-01 8.042902e-06 -2.145302e-06 6.339513e-06 9.528827e-06 9.736328e-01 2.277832e-01
8.710031e+07 9.755249e-01 1.827393e-01 -8.853152e-06 1.529977e-05 -6.372109e-06 1.269206e-05 9.747925e-01 2.280273e-01
8.731812e+07 9.764404e-01 1.834106e-01 4.093722e-05 -1.452863e-07 3.178231e-05 3.229827e-06 9.749146e-01 2.286377e-01
8.753594e+07 9.769897e-01 1.832275e-01 1.474982e-06 -2.552522e-06 3.197230e-06 -1.589675e-05 9.750366e-01 2.286987e-01
8.775375e+07 9.772949e-01 1.838379e-01 1.249369e-05 -9.808689e-06 -9.492040e-06 -5.090609e-05 9.758911e-01 2.299194e-01
8.797156e+07 9.769897e-01 1.848755e-01 -1.694169e-05 1.750328e-05 2.547354e-05 -1.266971e-05 9.771118e-01 2.302856e-01
8.818938e+07 9.780884e-01 1.842651e-01 2.770871e-05 2.285093e-05 1.273584e-05 -4.761852e-06 9.765015e-01 2.309570e-01
8.840719e+07 9.783325e-01 1.856079e-01 -3.727339e-05 -1.815706e-05 -9.576324e-06 9.532087e-06 9.769287e-01 2.315063e-01
8.862500e+07 9.787598e-01 1.852417e-01 -2.207793e-05 1.454167e-05 -6.332994e-08 3.981218e-05 9.775391e-01 2.320557e-01
8.884281e+07 9.789429e-01 1.855469e-01 1.388695e-05 1.144502e-05 3.503822e-05 4.831702e-06 9.783325e-01 2.319336e-01
8.906062e+07 9.802246e-01 1.854248e-01 -2.652593e-05 2.223626e-05 -6.383285e-06 3.181864e-06 9.779053e-01 2.323608e-01
8.927844e+07 9.801025e-01 1.865845e-01 4.178286e-05 1.049787e-05 3.132969e-06 2.711453e-05 9.781494e-01 2.332153e-01
8.949625e+07 9.804077e-01 1.860352e-01 -2.847984e-05 -3.352016e-05 -1.280755e-05 3.188103e-05 9.782715e-01 2.323608e-01
8.971406e+07 9.809570e-01 1.863403e-01 -4.411861e-05 5.282462e-06 -5.106255e-05 4.742295e-06 9.791870e-01 2.340088e-01
8.993188e+07 9.813232e-01 1.869507e-01 8.895993e-06 -1.538638e-05 -6.431714e-06 4.309043e-05 9.792480e-01 2.343140e-01
9.014969e+07 9.816284e-01 1.880493e-01 5.345792e-06 -4.483014e-05 -6.395392e-06 4.784204e-06 9.797363e-01 2.342529e-01
9.036750e+07 9.818726e-01 1.883545e-01 -8.913688e-06 1.539476e-05 -6.342307e-06 -3.036670e-05 9.798584e-01 2.353516e-01
9.058531e+07 9.824829e-01 1.882935e-01 1.461431e-05 2.216734e-05 6.410293e-06 -1.118146e-05 9.808350e-01 2.355347e-01
9.080312e+07 9.835815e-01 1.879883e-01 2.946518e-05 -3.525987e-06 -1.280289e-05 -7.450581e-09 9.803467e-01 2.360229e-01
9.102094e+07 9.833374e-01 1.879272e-01 -5.265698e-06 2.095103e-05 3.520586e-05 -2.077781e-05 9.801025e-01 2.363281e-01
9.123875e+07 9.839478e-01 1.892700e-01 4.452653e-06 -7.708557e-06 -3.170222e-06 -3.043190e-05 9.804688e-01 2.359009e-01
9.145656e+07 9.843140e-01 1.891479e-01 -1.690537e-05 -6.347895e-06 -4.163571e-05 -8.072704e-06 9.805298e-01 2.361450e-01
9.167438e+07 9.848633e-01 1.889648e-01 5.215406e-05 4.047155e-05 4.163571e-05 2.405979e-05 9.818726e-01 2.371826e-01
9.189219e+07 9.851074e-01 1.892700e-01 -8.129515e-06 2.164859e-06 -1.283269e-05 1.762621e-05 9.822998e-01 2.378540e-01
9.211000e+07 9.854736e-01 1.887817e-01 3.328361e-05 -2.197549e-05 2.886355e-05 1.443923e-05 9.818726e-01 2.369995e-01
9.232781e+07 9.861450e-01 1.900635e-01 -4.513934e-05 1.858920e-05 -6.441958e-06 1.924857e-05 9.830933e-01 2.382202e-01
9.254562e+07 9.855957e-01 1.899414e-01 4.418567e-05 1.869723e-05 3.209803e-06 -1.599547e-06 9.825439e-01 2.387085e-01
9.276344e+07 9.866943e-01 1.902466e-01 -7.438473e-06 1.289416e-05 1.769513e-08 -1.445226e-05 9.832153e-01 2.380371e-01
9.298125e+07 9.871826e-01 1.903687e-01 -8.024275e-06 -2.184138e-05 -2.565794e-05 -2.733991e-05 9.832764e-01 2.391968e-01
9.319906e+07 9.871216e-01 1.900635e-01 8.832198e-06 8.546282e-06 -1.303852e-08 1.926813e-05 9.835815e-01 2.393799e-01
9.341688e+07 9.873657e-01 1.908569e-01 -1.032185e-05 -5.963258e-06 1.583248e-08 -1.446065e-05 9.833374e-01 2.389526e-01
9.363469e+07 9.876709e-01 1.909180e-01 1.828745e-05 5.190447e-05 3.206078e-06 8.038711e-06 9.851074e-01 2.396851e-01
9.385250e+07 9.884644e-01 1.913452e-01 -1.930259e-05 9.533018e-06 -9.664334e-06 1.125131e-05 9.851685e-01 2.401733e-01
9.407031e+07 9.885864e-01 1.907959e-01 6.662682e-06 4.037283e-07 -1.929142e-05 -2.575852e-05 9.844971e-01 2.403564e-01
9.428812e+07 9.885864e-01 1.906128e-01 -2.180692e-06 -8.157920e-06 -2.573058e-05 -2.093241e-05 9.846802e-01 2.406006e-01
9.450594e+07 9.899292e-01 1.914062e-01 -1.171604e-05 -2.746098e-05 1.613423e-05 -3.865547e-05 9.841919e-01 2.406616e-01
9.472375e+07 9.894409e-01 1.912842e-01 2.059154e-05 3.604032e-05 9.669922e-06 -1.126900e-05 9.849243e-01 2.407227e-01
9.494156e+07 9.896240e-01 1.910400e-01 -1.495238e-06 2.587680e-06 9.660143e-06 4.839618e-06 9.849854e-01 2.413940e-01
9.515938e+07 9.905396e-01 1.919556e-01 1.772586e-05 1.715869e-05 1.613609e-05 -1.450442e-05 9.859619e-01 2.418823e-01
9.537719e+07 9.901123e-01 1.918945e-01 1.543202e-05 3.311783e-05 3.244728e-06 -1.611374e-05 9.861450e-01 2.418213e-01
9.559500e+07 9.905396e-01 1.911621e-01 -6.682705e-06 -4.041940e-07 -5.587935e-09 -1.934916e-05 9.862061e-01 2.422485e-01
9.581281e+07 9.912109e-01 1.925659e-01 1.267437e-05 -9.971671e-06 -9.697396e-06 9.674579e-06 9.868164e-01 2.420654e-01
9.603062e+07 9.911499e-01 1.910400e-01 -1.487415e-05 1.783483e-06 2.582744e-05 -4.842877e-06 9.869995e-01 2.426147e-01
9.624844e+07 9.916382e-01 1.918945e-01 1.856778e-05 3.807247e-06 -9.696931e-06 1.130719e-05 9.866333e-01 2.419434e-01
9.646625e+07 9.916382e-01 1.915894e-01 -4.844740e-05 2.395362e-05 1.614541e-05 4.039519e-05 9.868774e-01 2.424927e-01
9.668406e+07 9.920654e-01 1.921387e-01 2.588332e-05 3.914163e-05 1.292769e-05 1.619570e-06 9.866943e-01 2.422485e-01
9.690188e+07 9.925537e-01 1.918335e-01 2.890825e-06 1.899526e-05 -6.470829e-06 2.263673e-05 9.872437e-01 2.429199e-01
9.711969e+07 9.925537e-01 1.919556e-01 -4.971027e-05 -4.603341e-05 -3.725290e-09 6.467570e-06 9.876099e-01 2.429199e-01
9.733750e+07 9.927368e-01 1.920166e-01 -1.916848e-05 -3.882125e-05 6.472226e-06 -1.614913e-06 9.870605e-01 2.439575e-01
9.755531e+07 9.928589e-01 1.925049e-01 -4.899903e-10 1.314220e-10 3.237277e-05 -1.454353e-05 9.870605e-01 2.432251e-01
9.777312e+07 9.929810e-01 1.926880e-01 -1.630932e-05 -1.983717e-05 -2.591871e-05 1.131371e-05 9.874268e-01 2.441406e-01
9.799094e+07 9.929199e-01 1.921997e-01 6.421655e-05 -1.499429e-05 -1.942087e-05 -1.943298e-05 9.873657e-01 2.442627e-01
9.820875e+07 9.935913e-01 1.921997e-01 -3.946573e-05 -1.582876e-05 9.313226e-10 -6.481074e-06 9.873657e-01 2.435913e-01
9.842656e+07 9.929199e-01 1.921997e-01 3.707595e-06 5.612615e-06 -2.592802e-05 3.403053e-05 9.876709e-01 2.440186e-01
9.864438e+07 9.937744e-01 1.928711e-01 -2.166443e-05 1.404434e-06 3.892370e-05 -1.459010e-05 9.880981e-01 2.446289e-01
9.886219e+07 9.927368e-01 1.919556e-01 -2.158061e-05 -2.288260e-05 3.240816e-05 -1.944788e-05 9.885864e-01 2.445679e-01
9.908000e+07 9.942017e-01 1.930542e-01 -4.335865e-05 2.801418e-06 1.623016e-05 -8.111820e-06 9.879761e-01 2.448120e-01
9.929781e+07 9.937744e-01 1.926270e-01 5.082041e-05 8.426607e-06 -5.520135e-05 4.380196e-05 9.885864e-01 2.446899e-01
9.951562e+07 9.948730e-01 1.917114e-01 9.071082e-07 -3.775954e-05 2.793968e-08 2.923794e-05 9.882202e-01 2.452393e-01
9.973344e+07 9.951172e-01 1.922607e-01 2.205838e-06 8.234289e-06 -1.627579e-05 -2.763234e-05 9.876709e-01 2.453003e-01
9.995125e+07 9.950562e-01 1.929932e-01 4.405156e-06 1.650024e-05 2.276897e-05 -2.602674e-05 9.893799e-01 2.464600e-01
1.001691e+08 9.951172e-01 1.932373e-01 1.437403e-05 -3.699213e-05 4.556030e-05 -1.136959e-05 9.886475e-01 2.456055e-01
1.003869e+08 9.943237e-01 1.929321e-01 -2.613664e-05 -1.508929e-05 -1.625344e-05 1.462270e-05 9.886475e-01 2.458496e-01
1.006047e+08 9.948120e-01 1.929321e-01 -3.428198e-05 -3.718212e-05 1.627766e-05 2.927147e-05 9.876709e-01 2.458496e-01
1.008225e+08 9.946289e-01 1.925659e-01 2.033263e-05 -2.315268e-05 -1.626089e-05 6.521121e-06 9.890137e-01 2.467651e-01
1.010403e+08 9.953003e-01 1.921997e-01 1.968816e-05 -5.837157e-05 2.279505e-05 6.495044e-06 9.884033e-01 2.460327e-01
1.012581e+08 9.943237e-01 1.924438e-01 -3.535859e-05 2.495944e-05 -1.301337e-05 1.629815e-06 9.882202e-01 2.469482e-01
1.014759e+08 9.958496e-01 1.929321e-01 -3.245100e-05 4.412234e-05 3.239140e-06 -3.095716e-05 9.883423e-01 2.462769e-01
1.016938e+08 9.949951e-01 1.920166e-01 -8.262228e-06 2.217945e-06 1.958385e-05 5.209446e-05 9.885254e-01 2.460938e-01
1.019116e+08 9.954224e-01 1.926880e-01 -4.265085e-05 -3.505498e-05 9.786338e-06 3.259815e-05 9.884033e-01 2.462769e-01
1.021294e+08 9.954224e-01 1.921997e-01 5.101785e-05 8.463860e-06 -1.630560e-05 6.519258e-09 9.882812e-01 2.471924e-01
1.023472e+08 9.953003e-01 1.926880e-01 1.362339e-05 -2.360344e-05 9.773299e-06 -1.304969e-05 9.882812e-01 2.478027e-01
1.025650e+08 9.943237e-01 1.926270e-01 -3.460236e-05 1.151673e-05 -6.520655e-06 -1.628883e-06 9.879761e-01 2.470093e-01
1.027828e+08 9.950562e-01 1.926880e-01 -2.775900e-05 -1.248904e-05 -3.589690e-05 -8.143485e-06 9.879761e-01 2.470703e-01
1.030006e+08 9.942017e-01 1.926270e-01 -3.985316e-05 8.478761e-06 1.954660e-05 -4.729629e-05 9.876099e-01 2.474365e-01
1.032184e+08 9.944458e-01 1.929932e-01 2.057478e-05 -7.213280e-05 -1.305155e-05 2.611056e-05 9.882812e-01 2.474365e-01
1.034362e+08 9.946289e-01 1.925659e-01 -6.165355e-06 3.494881e-05 -4.898384e-05 -1.629069e-05 9.876099e-01 2.481689e-01
1.036541e+08 9.938354e-01 1.936035e-01 1.584552e-05 -1.536030e-05 3.261957e-06 9.794254e-06 9.871216e-01 2.478027e-01
1.038719e+08 9.950562e-01 1.932983e-01 -2.416037e-05 1.758337e-05 9.797979e-06 -6.543472e-06 9.878540e-01 2.484131e-01
1.040897e+08 9.949951e-01 1.923218e-01 2.942421e-05 -1.455471e-05 -4.249811e-05 -1.137704e-05 9.876709e-01 2.486572e-01
1.043075e+08 9.947510e-01 1.932373e-01 1.050998e-05 6.066635e-06 1.307670e-05 1.624227e-06 9.868774e-01 2.488403e-01
1.045253e+08 9.941406e-01 1.929932e-01 -1.423061e-06 -2.184696e-05 -2.946146e-05 -3.266893e-05 9.873657e-01 2.487183e-01
1.047431e+08 9.928589e-01 1.938477e-01 -6.056391e-06 1.052115e-05 -2.940930e-05 1.144595e-05 9.867554e-01 2.479248e-01
1.049609e+08 9.934082e-01 1.930542e-01 5.353242e-06 -2.145208e-05 -3.922731e-05 2.455525e-05 9.865723e-01 2.488403e-01
1.051788e+08 9.932861e-01 1.926880e-01 -1.802575e-05 -1.738686e-05 -1.635402e-05 3.282912e-06 9.862671e-01 2.493286e-01
1.053966e+08 9.934082e-01 1.929321e-01 -2.107024e-05 -1.214817e-05 1.962949e-05 -4.933216e-06 9.866943e-01 2.493896e-01
1.056144e+08 9.932251e-01 1.927490e-01 1.955405e-05 1.477730e-05 3.274716e-05 1.960807e-05 9.861450e-01 2.498169e-01
1.058322e+08 9.931641e-01 1.932983e-01 -5.349517e-05 -1.678243e-05 -3.275229e-06 -4.908768e-06 9.860229e-01 2.495728e-01
1.060500e+08 9.934082e-01 1.932373e-01 9.175390e-06 -4.032254e-05 1.638941e-05 1.801271e-05 9.851685e-01 2.492676e-01
1.062678e+08 9.928589e-01 1.931152e-01 5.270820e-06 3.040303e-06 -1.311023e-05 -4.898757e-06 9.855347e-01 2.506104e-01
1.064856e+08 9.932251e-01 1.932373e-01 1.581945e-05 9.123236e-06 1.971424e-05 2.620742e-05 9.852905e-01 2.500000e-01
1.067034e+08 9.921875e-01 1.939087e-01 -2.111867e-05 -1.215190e-05 -6.549992e-06 2.130494e-05 9.853516e-01 2.500610e-01
1.069212e+08 9.924316e-01 1.933594e-01 2.940744e-05 9.905547e-06 1.969188e-05 1.145527e-05 9.840698e-01 2.502441e-01
1.071391e+08 9.926758e-01 1.932983e-01 2.233777e-06 8.319505e-06 6.545335e-06 -1.477823e-05 9.843140e-01 2.510376e-01
1.073569e+08 9.927368e-01 1.939087e-01 3.474206e-05 1.298264e-05 -4.601851e-05 -3.768876e-05 9.844971e-01 2.511597e-01
1.075747e+08 9.910278e-01 1.947021e-01 1.719221e-05 5.564839e-05 -6.559305e-06 -1.636799e-06 9.837646e-01 2.517700e-01
1.077925e+08 9.906006e-01 1.943970e-01 -2.114289e-05 -1.218170e-05 -1.967326e-05 1.659617e-06 9.837036e-01 2.514648e-01
1.080103e+08 9.920044e-01 1.938477e-01 -1.818035e-05 7.139519e-06 -1.319498e-05 -2.790056e-05 9.840088e-01 2.508545e-01
1.082281e+08 9.914551e-01 1.947632e-01 7.268786e-05 -3.933907e-06 2.301671e-05 1.473911e-05 9.836426e-01 2.517700e-01
1.084459e+08 9.914551e-01 1.951294e-01 -7.529743e-06 -1.138356e-05 -4.270487e-05 2.305396e-05 9.830933e-01 2.522583e-01
1.086638e+08 9.908447e-01 1.947021e-01 -2.798252e-05 -1.259334e-05 -1.649931e-05 -3.941730e-05 9.830933e-01 2.522583e-01
1.088816e+08 9.906006e-01 1.953735e-01 2.941675e-05 3.456324e-05 -3.274530e-06 1.315214e-05 9.824829e-01 2.523804e-01
1.090994e+08 9.895630e-01 1.951904e-01 -9.801239e-06 -1.972914e-05 3.286265e-05 6.532297e-06 9.826050e-01 2.522583e-01
1.093172e+08 9.891968e-01 1.945801e-01 1.364015e-05 7.944182e-07 1.318380e-05 3.448129e-05 9.822998e-01 2.532349e-01
1.095350e+08 9.895630e-01 1.947632e-01 -2.575293e-05 -4.237518e-06 1.308881e-05 -3.783219e-05 9.812622e-01 2.530518e-01
1.097528e+08 9.888916e-01 1.944580e-01 7.547438e-06 1.139008e-05 3.216788e-06 -3.287755e-05 9.809570e-01 2.534790e-01
1.099706e+08 9.885864e-01 1.943359e-01 -1.524808e-06 2.649613e-06 -9.856187e-06 4.955567e-06 9.807129e-01 2.541504e-01
1.101884e+08 9.883423e-01 1.948853e-01 -1.814310e-05 -1.750607e-05 1.024455e-08 4.933914e-06 9.801636e-01 2.546997e-01
1.104062e+08 9.890137e-01 1.959229e-01 7.227063e-07 1.099706e-05 -3.293389e-06 3.958121e-09 9.796753e-01 2.546997e-01
1.106241e+08 9.884644e-01 1.963501e-01 -9.151176e-06 1.590233e-05 1.583248e-08 1.317263e-05 9.794312e-01 2.551270e-01
1.108419e+08 9.874268e-01 1.959229e-01 -3.485009e-05 -1.299754e-05 4.273653e-05 -1.488626e-05 9.785156e-01 2.548218e-01
1.110597e+08 9.884644e-01 1.962280e-01 -3.643334e-05 -1.034699e-05 -1.979806e-05 -9.841286e-06 9.794922e-01 2.546387e-01
1.112775e+08 9.877930e-01 1.961060e-01 1.294818e-05 -1.021940e-05 2.960674e-05 -1.983345e-05 9.790039e-01 2.556152e-01
1.114953e+08 9.862671e-01 1.966553e-01 3.191456e-05 -6.346032e-06 -9.867363e-06 4.956033e-06 9.779053e-01 2.560425e-01
1.117131e+08 9.870605e-01 1.973877e-01 2.274849e-05 9.551644e-06 3.294460e-05 -1.160055e-05 9.771118e-01 2.558594e-01
1.119309e+08 9.865723e-01 1.977539e-01 3.038719e-05 -3.689900e-06 1.640990e-05 -4.452467e-05 9.765625e-01 2.568359e-01
1.121488e+08 9.862671e-01 1.970825e-01 4.549325e-05 1.914427e-05 6.515533e-06 -3.628246e-05 9.765015e-01 2.565308e-01
1.123666e+08 9.852295e-01 1.976929e-01 3.704801e-06 3.041513e-05 -2.642721e-05 -3.290363e-05 9.766846e-01 2.572021e-01
1.125844e+08 9.860229e-01 1.979370e-01 7.635914e-06 -1.327880e-05 3.298745e-05 -5.027279e-06 9.760742e-01 2.568970e-01
1.128022e+08 9.847412e-01 1.990356e-01 -1.071207e-05 1.860131e-05 2.639927e-05 9.851530e-06 9.761963e-01 2.581787e-01
1.130200e+08 9.860229e-01 1.985474e-01 -1.451001e-06 -2.205372e-05 -1.657382e-05 -3.298931e-05 9.749756e-01 2.580566e-01
1.132378e+08 9.849243e-01 1.995239e-01 4.182756e-05 -1.129135e-05 -3.313646e-06 -1.320057e-05 9.742432e-01 2.579346e-01
1.134556e+08 9.842529e-01 1.989746e-01 -2.886541e-05 -2.367795e-05 1.977384e-05 -1.326017e-05 9.751587e-01 2.595825e-01
1.136734e+08 9.838867e-01 1.990967e-01 5.377457e-06 -2.168864e-05 -1.982413e-05 -6.561168e-06 9.747925e-01 2.593994e-01
1.138912e+08 9.833374e-01 1.992798e-01 6.055459e-06 1.409929e-05 3.329478e-06 1.319870e-05 9.739380e-01 2.600098e-01
1.141091e+08 9.833374e-01 1.998901e-01 2.281182e-05 9.585172e-06 -4.628673e-05 -1.974031e-05 9.733276e-01 2.606201e-01
1.143269e+08 9.832153e-01 2.000122e-01 -2.968125e-05 -9.972602e-06 9.919982e-06 3.279187e-06 9.730225e-01 2.606201e-01
1.145447e+08 9.825439e-01 2.005615e-01 1.682341e-05 -2.926774e-05 -9.940006e-06 -1.319498e-05 9.718018e-01 2.609863e-01
1.147625e+08 9.821777e-01 2.015381e-01 -5.321577e-06 -3.063120e-06 -1.982227e-05 8.309260e-06 9.714966e-01 2.622070e-01
1.149803e+08 9.816284e-01 2.013550e-01 -4.499778e-05 1.665577e-05 1.975451e-10 -1.987246e-10 9.714966e-01 2.617188e-01
1.151981e+08 9.815674e-01 2.018433e-01 -2.822094e-05 1.211837e-05 6.577000e-06 -1.655426e-05 9.707642e-01 2.623901e-01
1.154159e+08 9.804077e-01 2.023315e-01 -1.598708e-05 -9.194948e-06 -2.323836e-05 -3.796257e-05 9.709473e-01 2.633057e-01
1.156338e+08 9.809570e-01 2.020874e-01 -1.687929e-05 5.410984e-05 5.289912e-05 -1.838058e-05 9.705811e-01 2.628784e-01
1.158516e+08 9.811401e-01 2.020874e-01 -5.878508e-05 1.588091e-05 -9.961426e-06 -8.246861e-06 9.700317e-01 2.634888e-01
1.160694e+08 9.797974e-01 2.033691e-01 6.865710e-06 3.934838e-07 -2.643839e-05 1.827441e-05 9.697266e-01 2.632446e-01
1.162872e+08 9.801636e-01 2.036133e-01 6.865710e-06 3.995374e-07 -1.660362e-05 -1.485739e-05 9.689331e-01 2.645874e-01
1.165050e+08 9.786987e-01 2.045898e-01 5.394220e-06 -2.173521e-05 2.652220e-05 1.484156e-05 9.685059e-01 2.647705e-01
1.167228e+08 9.788818e-01 2.047119e-01 -2.066977e-05 2.361462e-05 2.654456e-05 1.650117e-05 9.681396e-01 2.655640e-01
1.169406e+08 9.781494e-01 2.052002e-01 7.602386e-06 1.148600e-05 -4.306622e-05 -3.213063e-06 9.680786e-01 2.670898e-01
1.171584e+08 9.792480e-01 2.053833e-01 8.359551e-06 2.254546e-05 -1.654681e-05 1.497846e-05 9.670410e-01 2.658691e-01
1.173762e+08 9.783936e-01 2.056274e-01 1.302082e-05 -1.029391e-05 2.327189e-05 1.651607e-05 9.672241e-01 2.667236e-01
1.175941e+08 9.782104e-01 2.066650e-01 -2.526306e-05 6.847084e-06 -3.339723e-06 -9.948388e-06 9.676514e-01 2.670898e-01
1.178119e+08 9.776001e-01 2.067871e-01 3.361888e-05 1.572818e-05 1.003593e-05 2.817251e-05 9.660034e-01 2.681274e-01
1.180297e+08 9.765015e-01 2.072754e-01 3.896840e-05 1.882389e-05 3.656559e-05 2.807565e-05 9.655762e-01 2.689209e-01
1.182475e+08 9.771729e-01 2.075195e-01 4.199520e-05 3.833696e-05 6.660353e-06 6.617978e-06 9.649048e-01 2.695923e-01
1.184653e+08 9.774780e-01 2.078247e-01 -9.117648e-06 -3.371201e-05 -9.935349e-06 1.000473e-05 9.653320e-01 2.700195e-01
1.186831e+08 9.765015e-01 2.078857e-01 -5.403534e-06 2.181344e-05 -9.875745e-06 2.990849e-05 9.644775e-01 2.706909e-01
1.189009e+08 9.760742e-01 2.081299e-01 -3.079884e-06 5.358364e-06 -1.639128e-07 -4.318170e-05 9.647217e-01 2.717896e-01
1.191188e+08 9.756470e-01 2.103271e-01 -2.216361e-05 -2.342090e-05 -4.652143e-05 3.434718e-06 9.636230e-01 2.721558e-01
1.193366e+08 9.756470e-01 2.102661e-01 -1.533516e-05 1.885928e-06 1.333188e-05 9.936281e-06 9.634399e-01 2.723999e-01
1.195544e+08 9.750977e-01 2.112427e-01 4.525855e-05 -1.678243e-05 3.661215e-05 1.321174e-05 9.627686e-01 2.728882e-01
1.197722e+08 9.747314e-01 2.109375e-01 -2.223998e-05 1.497567e-06 2.326444e-05 -3.399327e-06 9.623413e-01 2.733154e-01
1.199900e+08 9.746094e-01 2.112427e-01 -1.159683e-05 3.257766e-05 -9.499490e-08 -2.495758e-05 9.619751e-01 2.750854e-01
1.202078e+08 9.743042e-01 2.127686e-01 7.060915e-05 2.622604e-05 -1.667812e-05 -1.327135e-05 9.628906e-01 2.750854e-01
1.204256e+08 9.733887e-01 2.133179e-01 6.100163e-06 1.421943e-05 6.643590e-06 -5.008187e-06 9.618530e-01 2.763672e-01
1.206434e+08 9.727783e-01 2.134399e-01 -1.842622e-05 -1.773238e-05 1.993403e-05 -1.169927e-05 9.629517e-01 2.766724e-01
1.208612e+08 9.736938e-01 2.144775e-01 -4.374981e-05 -1.082942e-05 -3.325567e-05 3.008544e-05 9.604492e-01 2.762451e-01
1.210791e+08 9.744263e-01 2.149658e-01 -5.193055e-06 -2.402999e-05 1.497660e-05 -1.678430e-05 9.591064e-01 2.771606e-01
1.212969e+08 9.743042e-01 2.150269e-01 3.110617e-07 2.088770e-05 -2.293661e-05 -2.626143e-05 9.583130e-01 2.780151e-01
1.215147e+08 9.729004e-01 2.163696e-01 -1.130626e-05 -3.847294e-06 -2.911687e-05 -5.196780e-07 9.575195e-01 2.788086e-01
1.217325e+08 9.735107e-01 2.165527e-01 -5.041249e-06 -1.358613e-05 1.510046e-05 -3.921799e-06 9.577026e-01 2.788086e-01
1.219503e+08 9.728394e-01 2.171021e-01 3.300607e-06 5.576294e-06 -5.647074e-06 3.077555e-06 9.563599e-01 2.800293e-01
1.221681e+08 9.720459e-01 2.175293e-01 2.024695e-05 -4.215539e-05 -2.450310e-05 -3.231317e-05 9.572754e-01 2.809448e-01
1.223859e+08 9.713135e-01 2.195435e-01 -3.773719e-06 -3.692135e-05 -3.622845e-06 -2.645515e-05 9.556885e-01 2.819824e-01
1.226038e+08 9.716797e-01 2.193604e-01 1.760758e-05 -5.898997e-06 3.218278e-05 -2.849847e-07 9.558716e-01 2.824707e-01
1.228216e+08 9.716797e-01 2.200928e-01 -5.279854e-05 1.772121e-05 4.090369e-06 -9.124167e-06 9.551392e-01 2.828369e-01
1.230394e+08 9.710693e-01 2.210083e-01 4.382804e-06 -2.822094e-05 2.018362e-05 -3.422797e-05 9.545898e-01 2.841797e-01
1.232572e+08 9.708862e-01 2.213135e-01 3.301539e-06 5.582813e-06 -1.440383e-05 -4.305318e-05 9.540405e-01 2.847900e-01
1.234750e+08 9.703369e-01 2.228394e-01 -2.091937e-05 3.091991e-07 2.205558e-05 1.042522e-05 9.539185e-01 2.855225e-01
1.236928e+08 9.702148e-01 2.222290e-01 1.144409e-04 4.746020e-06 -5.493872e-06 -2.116337e-05 9.539795e-01 2.866211e-01
1.239106e+08 9.696655e-01 2.234497e-01 -8.918345e-06 -6.108359e-05 1.393259e-06 3.029592e-05 9.529419e-01 2.880249e-01
1.241284e+08 9.694214e-01 2.246704e-01 2.548285e-05 -1.810305e-05 -1.327414e-05 -1.410954e-06 9.523315e-01 2.873535e-01
1.243462e+08 9.694824e-01 2.247314e-01 5.443022e-05 -2.016127e-05 1.552794e-05 -2.410263e-06 9.517822e-01 2.881470e-01
1.245641e+08 9.686279e-01 2.263794e-01 3.273413e-05 3.493018e-05 9.758398e-06 -1.220033e-05 9.511719e-01 2.892456e-01
1.247819e+08 9.684448e-01 2.265015e-01 -2.629310e-05 -3.426522e-05 1.484714e-05 7.459894e-06 9.519653e-01 2.905884e-01
1.249997e+08 9.684448e-01 2.267456e-01 -6.407499e-07 -4.193932e-05 3.296882e-07 3.866851e-05 9.522095e-01 2.913208e-01
1.252175e+08 9.681396e-01 2.279663e-01 -3.041141e-05 1.494214e-05 -6.945804e-06 -1.435541e-05 9.509888e-01 2.922363e-01
1.254353e+08 9.681396e-01 2.291870e-01 1.308322e-05 1.188554e-05 2.531335e-06 3.487803e-05 9.508667e-01 2.921143e-01
1.256531e+08 9.681396e-01 2.299194e-01 -1.449231e-05 1.014210e-06 -2.424978e-05 6.262213e-06 9.494019e-01 2.940063e-01
1.258709e+08 9.680176e-01 2.305908e-01 9.621028e-06 -4.174188e-06 -1.868792e-05 -9.720214e-06 9.498291e-01 2.953491e-01
1.260888e+08 9.674683e-01 2.313232e-01 2.239458e-05 -1.322664e-05 4.634634e-05 4.176050e-06 9.492798e-01 2.958984e-01
1.263066e+08 9.666138e-01 2.323608e-01 6.912276e-06 3.215671e-05 1.318753e-05 -1.148414e-05 9.487915e-01 2.969971e-01
1.265244e+08 9.663696e-01 2.322998e-01 8.046161e-06 -1.729000e-06 2.120715e-05 -5.486421e-06 9.491577e-01 2.980347e-01
1.267422e+08 9.669800e-01 2.332764e-01 4.738569e-06 -7.336028e-06 6.172806e-06 1.135189e-05 9.488525e-01 2.985229e-01
1.269600e+08 9.663086e-01 2.342529e-01 -1.008436e-05 -2.728403e-05 -2.377853e-05 2.069771e-05 9.478760e-01 2.993164e-01
1.271778e+08 9.656982e-01 2.345581e-01 1.609884e-05 -3.465451e-06 -7.634517e-06 -4.496891e-06 9.481812e-01 3.004150e-01
1.273956e+08 9.656982e-01 2.359009e-01 -1.423992e-06 1.292769e-05 -1.908466e-05 -1.125876e-05 9.467163e-01 3.009644e-01
1.276134e+08 9.652710e-01 2.363281e-01 4.268438e-05 5.182624e-05 -3.277883e-05 -1.420081e-05 9.460449e-01 3.021851e-01
1.278312e+08 9.650269e-01 2.371216e-01 -2.303906e-05 -2.874993e-05 2.651103e-05 -1.007877e-05 9.470215e-01 3.032837e-01
1.280491e+08 9.660034e-01 2.380981e-01 4.183501e-05 -1.110137e-05 -6.963313e-05 -6.332994e-06 9.464111e-01 3.037109e-01
1.282669e+08 9.646606e-01 2.396240e-01 -2.447143e-05 -1.581199e-05 2.584234e-05 -1.825392e-07 9.464722e-01 3.051758e-01
1.284847e+08 9.645386e-01 2.404785e-01 2.732500e-05 -1.006760e-05 -3.573485e-05 -5.140901e-07 9.455566e-01 3.057251e-01
1.287025e+08 9.641113e-01 2.406616e-01 -3.237650e-05 -3.587455e-06 7.733703e-06 1.743436e-05 9.457397e-01 3.063354e-01
1.289203e+08 9.646606e-01 2.413940e-01 1.611654e-05 -3.462657e-06 2.606772e-05 -2.454780e-05 9.454956e-01 3.073730e-01
1.291381e+08 9.646606e-01 2.427368e-01 2.561137e-05 -1.816079e-05 2.062693e-05 -4.582107e-05 9.454956e-01 3.081665e-01
1.293559e+08 9.641724e-01 2.435913e-01 -1.107715e-05 1.714472e-05 -3.250316e-06 2.513826e-05 9.448853e-01 3.093872e-01
1.295738e+08 9.647217e-01 2.440796e-01 1.222640e-05 -5.113706e-05 3.353320e-05 4.330650e-06 9.445801e-01 3.107300e-01
1.297916e+08 9.642944e-01 2.454834e-01 -1.583993e-05 2.447516e-05 9.985641e-06 1.364015e-05 9.442749e-01 3.115234e-01
1.300094e+08 9.638672e-01 2.460327e-01 -1.928955e-05 8.361414e-06 2.197921e-07 -2.436154e-05 9.440918e-01 3.120117e-01
1.302272e+08 9.636230e-01 2.460327e-01 -9.359792e-06 2.522208e-05 5.206093e-06 -1.754519e-05 9.444580e-01 3.131714e-01
1.304450e+08 9.644165e-01 2.477417e-01 2.522394e-05 -4.971772e-05 -7.348135e-06 -1.594704e-05 9.439087e-01 3.145752e-01
1.306628e+08 9.637451e-01 2.481689e-01 3.906898e-05 1.483411e-05 -4.906207e-05 1.099333e-05 9.440308e-01 3.154907e-01
1.308806e+08 9.635620e-01 2.499390e-01 1.628790e-05 7.052906e-06 -1.686160e-05 -1.513399e-05 9.432983e-01 3.160400e-01
1.310984e+08 9.636841e-01 2.504883e-01 -3.561750e-05 1.264736e-06 2.452731e-05 1.965836e-05 9.429932e-01 3.177490e-01
1.313162e+08 9.626465e-01 2.520142e-01 1.788139e-05 4.606321e-06 3.290921e-05 2.723001e-05 9.431763e-01 3.175659e-01
1.315341e+08 9.643555e-01 2.518311e-01 1.932960e-05 -8.359551e-06 -3.163703e-05 3.270805e-06 9.426270e-01 3.193970e-01
1.317519e+08 9.628906e-01 2.528076e-01 -1.617055e-05 3.456138e-06 4.684553e-07 1.447555e-05 9.431152e-01 3.200684e-01
1.319697e+08 9.628906e-01 2.537231e-01 1.270790e-05 -1.961924e-05 -3.669411e-06 2.365559e-05 9.425659e-01 3.211670e-01
1.321875e+08 9.633179e-01 2.546387e-01 -1.803413e-05 -1.515914e-05 1.039263e-05 1.518894e-05 9.422607e-01 3.220825e-01
1.324053e+08 9.638672e-01 2.554932e-01 3.316440e-06 5.634502e-06 -1.266319e-05 -1.136586e-05 9.428711e-01 3.234863e-01
1.326231e+08 9.631348e-01 2.563477e-01 9.815209e-06 6.364193e-06 -2.383254e-05 -2.960861e-05 9.427490e-01 3.244629e-01
1.328409e+08 9.636230e-01 2.562866e-01 -1.140684e-05 -3.898516e-06 6.422400e-06 -6.337464e-05 9.419556e-01 3.249512e-01
1.330588e+08 9.628906e-01 2.579956e-01 -1.285970e-05 9.096228e-06 -1.492072e-05 -7.542782e-06 9.420166e-01 3.261719e-01
1.332766e+08 9.631958e-01 2.583008e-01 -1.459103e-05 1.010485e-06 7.014722e-06 -3.591925e-05 9.421387e-01 3.272705e-01
1.334944e+08 9.633789e-01 2.600098e-01 -3.370084e-05 3.047474e-05 -2.657180e-06 2.306071e-06 9.424438e-01 3.280640e-01
1.337122e+08 9.636230e-01 2.603149e-01 -4.265457e-06 4.959479e-05 -2.175570e-06 1.681410e-05 9.426270e-01 3.303223e-01
1.339300e+08 9.639282e-01 2.606812e-01 1.632795e-05 7.092021e-06 3.654510e-06 -2.370402e-05 9.420166e-01 3.301392e-01
1.341478e+08 9.641113e-01 2.622070e-01 -8.624047e-06 -4.047155e-05 -3.888458e-05 1.323223e-05 9.413452e-01 3.314819e-01
1.343656e+08 9.636841e-01 2.633667e-01 -1.432747e-05 2.210587e-05 -6.649643e-06 -2.593733e-05 9.415283e-01 3.320312e-01
1.345834e+08 9.638062e-01 2.641602e-01 2.628379e-05 2.403185e-05 9.315088e-06 -3.977679e-05 9.418335e-01 3.332520e-01
1.348012e+08 9.649048e-01 2.647705e-01 -2.630427e-05 -2.403930e-05 3.283843e-06 3.820285e-05 9.414673e-01 3.342896e-01
1.350191e+08 9.648438e-01 2.659912e-01 -2.402999e-05 2.628751e-05 -3.249757e-05 1.844019e-07 9.412231e-01 3.351440e-01
1.352369e+08 9.641113e-01 2.668457e-01 -1.954380e-05 -2.181157e-06 2.904981e-05 -9.220093e-07 9.423828e-01 3.359985e-01
1.354547e+08 9.644775e-01 2.668457e-01 -3.456138e-06 -1.621805e-05 -5.958602e-05 8.773059e-06 9.420776e-01 3.376465e-01
1.356725e+08 9.650269e-01 2.680664e-01 -6.646849e-06 -1.130346e-05 -4.603714e-05 4.924834e-05 9.419556e-01 3.391113e-01
1.358903e+08 9.641113e-01 2.698364e-01 5.426258e-05 4.564971e-05 2.334639e-05 2.181157e-06 9.419556e-01 3.388672e-01
1.361081e+08 9.642334e-01 2.708130e-01 -1.131836e-05 6.636605e-06 -6.556511e-06 -1.297705e-05 9.421997e-01 3.413086e-01
1.363259e+08 9.644775e-01 2.705078e-01 -6.647781e-06 -1.130346e-05 7.085502e-06 4.049763e-05 9.417725e-01 3.410645e-01
1.365438e+08 9.647217e-01 2.721558e-01 -9.838492e-06 -6.400980e-06 5.005393e-06 6.863847e-06 9.416504e-01 3.428345e-01
1.367616e+08 9.655762e-01 2.720337e-01 -1.183525e-05 -3.566779e-05 1.567882e-06 6.114598e-06 9.422607e-01 3.428345e-01
1.369794e+08 9.651489e-01 2.740479e-01 -2.448075e-05 -5.394220e-06 6.292015e-06 3.748573e-05 9.415894e-01 3.436279e-01
1.371972e+08 9.653931e-01 2.740479e-01 -2.302602e-05 -1.845323e-05 2.446771e-05 -6.243587e-06 9.423828e-01 3.450928e-01
1.374150e+08 9.658813e-01 2.760010e-01 -3.697351e-06 -3.740750e-05 -2.912618e-05 8.828938e-07 9.422607e-01 3.466797e-01
1.376328e+08 9.660645e-01 2.754517e-01 -2.153963e-05 -3.146566e-05 2.943724e-05 -1.240522e-05 9.416504e-01 3.465576e-01
1.378506e+08 9.660645e-01 2.764893e-01 -3.450550e-06 -1.624227e-05 -1.079403e-05 -1.680385e-05 9.422607e-01 3.478394e-01
1.380684e+08 9.669800e-01 2.770386e-01 -3.196299e-06 4.925765e-06 -1.218170e-05 1.615752e-05 9.427490e-01 3.486328e-01
1.382862e+08 9.665527e-01 2.787476e-01 -1.690164e-05 -4.951656e-05 -1.497753e-05 -7.598661e-06 9.428711e-01 3.499756e-01
1.385041e+08 9.675903e-01 2.794189e-01 -1.959782e-05 -2.211891e-06 -8.925796e-06 -2.220273e-05 9.434814e-01 3.510742e-01
1.387219e+08 9.673462e-01 2.799072e-01 -1.994893e-05 -3.403425e-05 -6.426126e-05 2.943352e-05 9.432983e-01 3.522949e-01
1.389397e+08 9.680176e-01 2.802734e-01 -9.860843e-06 -6.407499e-06 -3.182143e-05 3.226101e-06 9.434204e-01 3.524780e-01
1.391575e+08 9.685669e-01 2.817993e-01 2.145395e-05 2.096221e-05 -4.180893e-05 2.497807e-06 9.437866e-01 3.537598e-01
1.393753e+08 9.686279e-01 2.817993e-01 1.489185e-05 2.021715e-05 2.098270e-05 -2.006721e-05 9.428711e-01 3.553467e-01
1.395931e+08 9.677734e-01 2.829590e-01 -3.922544e-05 -4.459172e-06 -2.782419e-05 4.458800e-05 9.440918e-01 3.560181e-01
1.398109e+08 9.688721e-01 2.833252e-01 -1.357496e-05 -4.389137e-05 -1.265481e-05 1.594424e-06 9.440918e-01 3.562622e-01
1.400288e+08 9.689941e-01 2.846680e-01 2.605096e-05 -7.642433e-06 6.079674e-06 -1.460966e-05 9.454956e-01 3.584595e-01
1.402466e+08 9.688110e-01 2.843018e-01 3.069825e-05 -2.565421e-05 5.189702e-05 2.428144e-05 9.442749e-01 3.587036e-01
1.404644e+08 9.697876e-01 2.855225e-01 1.296308e-05 -9.121373e-06 4.420057e-06 4.297495e-05 9.445801e-01 3.603516e-01
1.406822e+08 9.696655e-01 2.871704e-01 -2.431311e-05 1.578592e-05 -1.656171e-05 -1.375936e-05 9.447632e-01 3.605957e-01
1.409000e+08 9.705811e-01 2.879639e-01 -5.242974e-05 -1.654029e-05 9.819865e-06 -3.845803e-05 9.450073e-01 3.612671e-01
1.411178e+08 9.705811e-01 2.883911e-01 5.257875e-05 2.716109e-05 -4.129484e-06 2.228469e-05 9.457397e-01 3.620605e-01
1.413356e+08 9.700928e-01 2.893066e-01 -3.088266e-05 1.506694e-05 2.287328e-06 -3.845431e-06 9.465332e-01 3.631592e-01
1.415534e+08 9.718018e-01 2.897339e-01 -4.088879e-05 -2.019107e-06 7.029623e-06 2.762675e-05 9.462891e-01 3.645630e-01
1.417712e+08 9.718628e-01 2.910156e-01 6.430782e-06 -9.874813e-06 -2.228469e-05 2.386048e-06 9.464111e-01 3.650513e-01
1.419891e+08 9.715576e-01 2.918091e-01 3.822893e-05 6.005168e-05 -5.117804e-05 -2.133846e-05 9.459839e-01 3.662109e-01
1.422069e+08 9.722290e-01 2.915649e-01 8.155592e-06 -1.724344e-06 -8.433592e-06 5.414709e-06 9.465942e-01 3.669434e-01
1.424247e+08 9.727783e-01 2.924194e-01 -2.942234e-05 1.963228e-06 2.178550e-05 -3.007799e-05 9.475098e-01 3.677979e-01
1.426425e+08 9.734497e-01 2.935181e-01 -8.154660e-06 1.721550e-06 -1.322851e-05 -3.917515e-05 9.470215e-01 3.688354e-01
1.428603e+08 9.733887e-01 2.937622e-01 -3.402866e-05 3.064983e-05 -1.653377e-05 -7.050112e-07 9.484253e-01 3.698730e-01
1.430781e+08 9.745483e-01 2.951050e-01 -1.321360e-05 -1.212116e-05 -6.498769e-06 1.309905e-05 9.479370e-01 3.698730e-01
1.432959e+08 9.743042e-01 2.957764e-01 -5.101040e-05 -2.972037e-05 -3.092736e-05 -4.449859e-05 9.479980e-01 3.712769e-01
1.435138e+08 9.747314e-01 2.968750e-01 -3.137067e-05 -2.750196e-05 -9.918585e-06 2.542138e-05 9.488525e-01 3.724365e-01
1.437316e+08 9.758301e-01 2.966309e-01 3.330410e-06 5.690381e-06 -2.319925e-05 -2.684258e-05 9.484253e-01 3.726196e-01
1.439494e+08 9.759521e-01 2.968140e-01 -2.827868e-05 -4.309788e-05 -2.471916e-05 -1.990795e-05 9.494019e-01 3.737793e-01
1.441672e+08 9.763184e-01 2.980957e-01 -4.836824e-06 7.418916e-06 -2.417527e-05 2.087653e-05 9.498291e-01 3.745728e-01
1.443850e+08 9.769287e-01 2.986450e-01 -1.312234e-05 -1.513399e-06 -7.720198e-06 -4.597008e-06 9.502563e-01 3.762207e-01
1.446028e+08 9.769897e-01 2.997437e-01 2.117828e-05 -1.087412e-05 -4.181638e-06 2.233870e-05 9.507446e-01 3.759155e-01
1.448206e+08 9.774780e-01 2.995605e-01 3.109127e-05 -4.421920e-06 -2.349168e-05 -2.235174e-06 9.515381e-01 3.767090e-01
1.450384e+08 9.788208e-01 2.999268e-01 1.924485e-05 -4.032254e-05 -1.819059e-05 -1.996756e-05 9.514771e-01 3.778076e-01
1.452562e+08 9.793091e-01 3.004150e-01 2.451614e-05 -5.185604e-06 1.392886e-05 1.613889e-05 9.522095e-01 3.779297e-01
1.454741e+08 9.793701e-01 3.011475e-01 1.715962e-06 8.182134e-06 -2.693944e-05 1.010485e-05 9.526978e-01 3.799438e-01
1.456919e+08 9.799194e-01 3.018188e-01 1.501292e-06 -1.312513e-05 1.229160e-05 -1.622736e-05 9.522705e-01 3.797607e-01
1.459097e+08 9.805908e-01 3.031006e-01 1.999177e-05 3.419071e-05 5.459413e-06 2.158061e-05 9.519653e-01 3.801880e-01
1.461275e+08 9.794922e-01 3.032837e-01 -4.848931e-06 7.424969e-06 2.229773e-05 -1.545623e-05 9.536743e-01 3.818359e-01
1.463453e+08 9.812622e-01 3.042603e-01 -1.798384e-05 5.912036e-06 2.307631e-05 -2.551265e-05 9.539185e-01 3.823853e-01
1.465631e+08 9.818726e-01 3.038330e-01 -1.131836e-05 1.734588e-05 2.387539e-05 -9.335577e-06 9.552612e-01 3.833618e-01
1.467809e+08 9.827881e-01 3.049927e-01 3.284588e-05 3.769994e-06 -1.393724e-05 -1.616776e-05 9.550171e-01 3.837280e-01
1.469988e+08 9.834595e-01 3.052979e-01 1.939386e-05 -2.972409e-05 1.386460e-05 -1.007505e-05 9.554443e-01 3.845825e-01
1.472166e+08 9.830933e-01 3.061523e-01 4.268065e-05 -4.172325e-07 2.599135e-05 5.087629e-05 9.566650e-01 3.852539e-01
1.474344e+08 9.835815e-01 3.062744e-01 -5.606562e-05 -2.244115e-05 1.432654e-05 1.770537e-05 9.563599e-01 3.862915e-01
1.476522e+08 9.843140e-01 3.065186e-01 -3.101490e-05 1.507066e-05 -1.585763e-05 -1.075864e-05 9.561157e-01 3.862305e-01
1.478700e+08 9.853516e-01 3.069458e-01 -3.276020e-05 6.899238e-06 -2.660789e-06 1.544319e-05 9.573364e-01 3.869019e-01
1.480878e+08 9.862061e-01 3.074341e-01 -6.470829e-06 9.908341e-06 1.085550e-05 1.696218e-05 9.573975e-01 3.883057e-01
1.483056e+08 9.859009e-01 3.078613e-01 -1.142640e-05 6.680377e-06 -9.924173e-06 3.862754e-05 9.581909e-01 3.882446e-01
1.485234e+08 9.861450e-01 3.082886e-01 -5.258247e-06 -3.527291e-05 -2.927147e-05 2.709590e-05 9.593506e-01 3.889771e-01
1.487412e+08 9.869995e-01 3.092041e-01 8.113682e-06 -1.240056e-05 -1.781154e-05 -1.849700e-05 9.598389e-01 3.905640e-01
1.489591e+08 9.876709e-01 3.095093e-01 -3.581680e-05 3.318116e-05 -1.128577e-05 -3.164448e-05 9.597168e-01 3.898926e-01
1.491769e+08 9.884644e-01 3.096313e-01 8.115545e-06 -1.240429e-05 -1.733378e-05 2.245791e-05 9.612427e-01 3.914185e-01
1.493947e+08 9.893188e-01 3.096313e-01 8.394942e-06 1.965091e-05 -3.716536e-05 -3.002957e-05 9.607544e-01 3.919067e-01
1.496125e+08 9.901123e-01 3.099976e-01 2.492778e-05 2.688356e-05 1.505762e-05 -5.451031e-06 9.616089e-01 3.916016e-01
1.498303e+08 9.904175e-01 3.109741e-01 9.736978e-06 -1.488905e-05 -6.569177e-05 1.329556e-05 9.620972e-01 3.929443e-01
1.500481e+08 9.909058e-01 3.117065e-01 -1.144875e-05 6.680377e-06 4.131347e-05 -3.175251e-05 9.621582e-01 3.931885e-01
1.502659e+08 9.910889e-01 3.113403e-01 1.173466e-05 2.537854e-05 2.639368e-06 -2.860650e-05 9.628906e-01 3.938599e-01
1.504838e+08 9.914551e-01 3.109741e-01 -1.010112e-05 -2.786703e-05 -1.232978e-05 1.626462e-05 9.635010e-01 3.946533e-01
1.507016e+08 9.929199e-01 3.117065e-01 1.691282e-05 4.994124e-05 -2.213754e-05 -3.554858e-05 9.632568e-01 3.937988e-01
1.509194e+08 9.929810e-01 3.126221e-01 -2.454594e-05 1.584552e-05 -1.429766e-05 8.540228e-06 9.652710e-01 3.949585e-01
1.511372e+08 9.933472e-01 3.128662e-01 -8.213334e-06 1.712237e-06 -1.349300e-05 2.478249e-05 9.649658e-01 3.959351e-01
1.513550e+08 9.938965e-01 3.125610e-01 3.771670e-05 -1.429953e-05 -1.086574e-05 -1.699477e-05 9.652100e-01 3.960571e-01
1.515728e+08 9.945068e-01 3.132935e-01 -3.311783e-05 -2.523512e-05 -2.633221e-05 -1.310930e-05 9.656372e-01 3.967285e-01
1.517906e+08 9.959717e-01 3.130493e-01 -4.967675e-06 -3.243797e-06 -7.778406e-06 -1.779012e-05 9.665527e-01 3.960571e-01
1.520084e+08 9.960327e-01 3.140259e-01 9.739771e-06 -1.490209e-05 2.829917e-05 2.084859e-05 9.671021e-01 3.966675e-01
1.522262e+08 9.965820e-01 3.135376e-01 1.300313e-05 -1.987815e-05 1.630932e-05 2.551265e-05 9.682617e-01 3.978271e-01
1.524441e+08 9.971313e-01 3.142700e-01 -2.954528e-05 1.258403e-05 -3.948808e-05 5.960464e-08 9.681396e-01 3.984985e-01
1.526619e+08 9.976196e-01 3.144531e-01 -3.810413e-05 -2.851337e-05 6.601214e-06 1.316518e-05 9.689941e-01 3.989868e-01
1.528797e+08 9.984741e-01 3.144531e-01 -4.656240e-05 -4.821271e-05 -1.702644e-05 1.087133e-05 9.699707e-01 3.992920e-01
1.530975e+08 9.984741e-01 3.147583e-01 -2.801605e-05 -5.792826e-07 -4.376099e-05 -3.855675e-06 9.700928e-01 3.988647e-01
1.533153e+08 9.991455e-01 3.147583e-01 -1.156889e-05 -4.025176e-06 2.554804e-05 -1.631305e-05 9.707031e-01 4.006348e-01
1.535331e+08 1.000244e+00 3.151245e-01 -2.803467e-05 -5.904585e-07 1.707673e-05 1.548138e-05 9.718628e-01 4.000854e-01
1.537509e+08 9.996338e-01 3.140259e-01 -1.713634e-07 -2.142973e-05 -2.903864e-05 2.371147e-06 9.718018e-01 4.006958e-01
1.539688e+08 1.001038e+00 3.148804e-01 -1.499802e-05 -2.049841e-05 -4.266761e-05 -2.553686e-05 9.725342e-01 4.014893e-01
1.541866e+08 1.001404e+00 3.152466e-01 4.139170e-05 2.354011e-05 -1.896732e-05 2.948008e-05 9.724121e-01 4.005737e-01
1.544044e+08 1.001892e+00 3.156738e-01 -2.136081e-05 1.088344e-05 -8.128583e-06 2.016500e-05 9.736328e-01 4.019775e-01
1.546222e+08 1.003052e+00 3.155518e-01 4.952773e-05 4.172325e-07 -1.433026e-05 2.172682e-05 9.750977e-01 4.021606e-01
1.548400e+08 1.002380e+00 3.155518e-01 1.636706e-05 -1.415797e-05 -1.083873e-05 3.566220e-05 9.739990e-01 4.013672e-01
1.550578e+08 1.004333e+00 3.148193e-01 -1.443550e-06 2.394617e-05 1.089275e-05 3.025308e-05 9.755859e-01 4.015503e-01
1.552756e+08 1.003784e+00 3.150024e-01 -3.449805e-05 2.006628e-05 -1.823064e-05 -6.964430e-06 9.756470e-01 4.028320e-01
1.554934e+08 1.004883e+00 3.153687e-01 3.482401e-05 2.281740e-05 2.091564e-05 -3.495254e-05 9.760742e-01 4.025879e-01
1.557112e+08 1.005249e+00 3.153687e-01 1.158845e-05 4.037283e-06 3.414601e-05 -8.566305e-06 9.771729e-01 4.032593e-01
1.559291e+08 1.005554e+00 3.151855e-01 -3.948435e-05 1.681596e-05 4.426762e-05 3.177300e-05 9.772949e-01 4.028931e-01
1.561469e+08 1.005859e+00 3.149414e-01 -3.965944e-05 -4.630536e-06 -3.799796e-07 1.163594e-05 9.780273e-01 4.027710e-01
1.563647e+08 1.007263e+00 3.155518e-01 1.143385e-05 -1.741108e-05 -2.212264e-05 1.710281e-05 9.780273e-01 4.035034e-01
1.565825e+08 1.007446e+00 3.146362e-01 2.000667e-05 2.380088e-05 1.087505e-05 3.866386e-06 9.789429e-01 4.033813e-01
1.568003e+08 1.007812e+00 3.148193e-01 -2.477318e-07 -3.220513e-05 -4.578754e-05 1.478568e-05 9.788818e-01 4.034424e-01
1.570181e+08 1.008362e+00 3.158569e-01 -1.827162e-05 -1.556706e-05 -1.398753e-05 -3.112480e-06 9.789429e-01 4.044189e-01
1.572359e+08 1.008423e+00 3.152466e-01 -1.976639e-05 8.400530e-06 2.136361e-05 -6.994233e-06 9.798584e-01 4.038696e-01
1.574538e+08 1.008789e+00 3.151245e-01 -4.478171e-05 -1.870468e-05 -3.108056e-06 7.778872e-07 9.810791e-01 4.045410e-01
1.576716e+08 1.009705e+00 3.143921e-01 -1.714099e-06 -8.259900e-06 2.176501e-05 2.097245e-05 9.822388e-01 4.042358e-01
1.578894e+08 1.009888e+00 3.145752e-01 -2.319925e-05 -8.098781e-06 -4.662201e-05 -2.796575e-05 9.821167e-01 4.042969e-01
1.581072e+08 1.011108e+00 3.136597e-01 4.328415e-05 4.262850e-05 -3.965944e-05 -1.318753e-05 9.821777e-01 4.039917e-01
1.583250e+08 1.010437e+00 3.150024e-01 3.187358e-05 6.008521e-05 2.175756e-05 -3.186241e-05 9.824829e-01 4.038696e-01
1.585428e+08 1.011780e+00 3.140259e-01 -7.823110e-08 -1.074374e-05 -1.204293e-05 1.789164e-05 9.829102e-01 4.034424e-01
1.587606e+08 1.012695e+00 3.140259e-01 8.178875e-06 -1.246855e-05 -1.672935e-05 -7.674098e-07 9.838257e-01 4.038086e-01
1.589784e+08 1.012329e+00 3.134155e-01 -2.322160e-05 -8.091331e-06 -1.710374e-05 1.089368e-05 9.844360e-01 4.031372e-01
1.591962e+08 1.011902e+00 3.142700e-01 2.166443e-05 2.135150e-05 2.256967e-05 -2.876855e-05 9.848633e-01 4.036255e-01
1.594141e+08 1.012695e+00 3.129883e-01 1.015700e-05 2.804399e-05 2.643466e-05 2.643839e-05 9.855347e-01 4.025879e-01
1.596319e+08 1.014160e+00 3.132324e-01 -5.450472e-05 1.775101e-05 -8.176547e-06 7.009134e-06 9.858398e-01 4.041138e-01
1.598497e+08 1.014099e+00 3.126831e-01 3.322028e-05 1.469627e-05 5.525723e-05 -1.715124e-05 9.864502e-01 4.046021e-01
1.600675e+08 1.013611e+00 3.125000e-01 6.606802e-05 -2.447888e-05 2.373010e-05 -2.411380e-05 9.869995e-01 4.044800e-01
1.602853e+08 1.015015e+00 3.123169e-01 4.817545e-05 2.449006e-05 -1.907349e-05 1.635309e-05 9.865723e-01 4.046021e-01
1.605031e+08 1.014587e+00 3.126221e-01 -1.131929e-05 3.897026e-05 -3.502145e-05 -7.797033e-06 9.869385e-01 4.040527e-01
1.607209e+08 1.014404e+00 3.121948e-01 1.556240e-06 -1.325738e-05 6.613322e-06 0.000000e+00 9.875488e-01 4.036255e-01
1.609388e+08 1.015320e+00 3.120117e-01 -1.654308e-05 3.424473e-06 5.099177e-05 5.457550e-06 9.882812e-01 4.036865e-01
1.611566e+08 1.015747e+00 3.114624e-01 3.159046e-06 -2.653524e-05 2.842024e-05 -1.867674e-05 9.888916e-01 4.047241e-01
1.613744e+08 1.015564e+00 3.109131e-01 1.778826e-06 1.903530e-05 3.116205e-06 -1.401547e-05 9.887085e-01 4.033813e-01
1.615922e+08 1.015259e+00 3.106079e-01 -2.162158e-05 -1.063012e-05 2.719462e-06 1.089554e-05 9.898071e-01 4.030762e-01
1.618100e+08 1.016296e+00 3.102417e-01 2.495944e-05 1.637824e-05 -1.172069e-06 8.566771e-06 9.891968e-01 4.020996e-01
1.620278e+08 1.016907e+00 3.096313e-01 1.803786e-05 -2.747215e-05 -3.896654e-06 -2.338318e-06 9.894409e-01 4.025269e-01
1.622456e+08 1.016541e+00 3.092651e-01 3.546476e-06 3.810227e-05 1.518242e-05 2.104510e-05 9.896240e-01 4.029541e-01
1.624634e+08 1.016663e+00 3.088379e-01 4.997011e-06 3.284309e-06 -3.426522e-05 -4.441664e-05 9.904785e-01 4.028931e-01
1.626812e+08 1.016907e+00 3.089600e-01 -2.483837e-05 5.135313e-06 2.762862e-05 1.795217e-05 9.904175e-01 4.022217e-01
1.628991e+08 1.017639e+00 3.085327e-01 -1.014397e-05 -2.809241e-05 -6.227754e-06 -1.169275e-05 9.906006e-01 4.012451e-01
1.631169e+08 1.018066e+00 3.082886e-01 -1.021288e-05 -3.889389e-05 5.890802e-05 -4.284456e-05 9.913330e-01 4.019775e-01
1.633347e+08 1.016968e+00 3.085938e-01 -2.982281e-05 1.853332e-06 1.953356e-05 -4.127435e-05 9.909058e-01 4.015503e-01
1.635525e+08 1.017151e+00 3.075562e-01 8.409843e-06 1.986139e-05 -1.441874e-05 -4.692003e-06 9.919434e-01 4.018555e-01
1.637703e+08 1.017761e+00 3.068237e-01 -6.776303e-06 -2.235733e-05 8.571427e-06 7.802155e-06 9.918213e-01 4.012451e-01
1.639881e+08 1.018188e+00 3.074951e-01 -1.848489e-05 -3.723800e-05 7.408205e-06 3.132038e-06 9.924316e-01 4.008789e-01
1.642059e+08 1.018188e+00 3.066406e-01 3.354158e-06 5.785841e-06 -3.627501e-05 7.376075e-07 9.920044e-01 4.002686e-01
1.644238e+08 1.018250e+00 3.064575e-01 1.000520e-05 6.580725e-06 -2.654083e-05 1.322292e-05 9.929810e-01 4.006348e-01
1.646416e+08 1.017883e+00 3.052979e-01 1.013465e-05 2.814084e-05 -2.808124e-05 6.979331e-06 9.922485e-01 3.997192e-01
1.648594e+08 1.019104e+00 3.044434e-01 6.718561e-06 1.157913e-05 1.213327e-05 -5.774945e-05 9.933472e-01 3.992310e-01
1.650772e+08 1.018250e+00 3.040771e-01 -4.820153e-05 -2.991408e-06 -1.911353e-05 3.107823e-06 9.936523e-01 3.989868e-01
1.652950e+08 1.019287e+00 3.037109e-01 1.494959e-05 -9.136274e-07 2.068467e-05 3.142282e-06 9.935913e-01 3.999023e-01
1.655128e+08 1.019226e+00 3.032837e-01 -5.060807e-06 -1.408160e-05 -3.085658e-05 2.261996e-05 9.930420e-01 3.988037e-01
1.657306e+08 1.019653e+00 3.034058e-01 -1.918525e-07 -3.239512e-05 1.833960e-05 3.361516e-05 9.934082e-01 3.983154e-01
1.659484e+08 1.018738e+00 3.026733e-01 -4.807115e-05 1.851842e-05 1.249555e-05 -3.110617e-06 9.932251e-01 3.986206e-01
1.661662e+08 1.018494e+00 3.028564e-01 -8.482486e-06 -3.070012e-05 2.341717e-05 8.177012e-07 9.940186e-01 3.978882e-01
1.663841e+08 1.018921e+00 3.016357e-01 -1.658779e-05 3.406778e-06 -2.463534e-05 3.433041e-05 9.928589e-01 3.974609e-01
1.666019e+08 1.018921e+00 3.013306e-01 3.229827e-06 -1.581851e-05 -3.397651e-05 -3.159046e-06 9.945679e-01 3.970337e-01
1.668197e+08 1.018982e+00 3.015137e-01 3.815070e-05 -1.435354e-05 -1.247227e-05 -2.346188e-05 9.942627e-01 3.969727e-01
1.670375e+08 1.018616e+00 3.006592e-01 1.303852e-07 2.161972e-05 1.915731e-05 -1.639314e-05 9.945679e-01 3.964233e-01
1.672553e+08 1.019165e+00 2.999878e-01 3.361143e-06 5.802140e-06 -2.189353e-05 5.450100e-06 9.946899e-01 3.960571e-01
1.674731e+08 1.018738e+00 2.993164e-01 -1.705717e-06 -8.304603e-06 -4.258193e-05 2.307817e-06 9.931030e-01 3.966675e-01
1.676909e+08 1.018066e+00 2.992554e-01 -2.169423e-05 -1.068227e-05 5.492941e-06 -1.796056e-05 9.940186e-01 3.955688e-01
1.679088e+08 1.017822e+00 2.991943e-01 -1.028553e-05 -4.987419e-05 2.302602e-05 1.254864e-05 9.946289e-01 3.957520e-01
1.681266e+08 1.018066e+00 2.984009e-01 1.668464e-05 7.385388e-06 3.660098e-07 1.485366e-05 9.946289e-01 3.946533e-01
1.683444e+08 1.018250e+00 2.976685e-01 5.324185e-05 -4.470348e-06 -7.417053e-06 -1.642946e-05 9.948730e-01 3.941040e-01
1.685622e+08 1.017029e+00 2.975464e-01 -1.498219e-05 9.080395e-07 5.088281e-06 -6.245449e-06 9.946899e-01 3.944092e-01
1.687800e+08 1.017761e+00 2.972412e-01 -1.655985e-05 1.424272e-05 -3.205985e-05 -8.655712e-06 9.943848e-01 3.930054e-01
1.689978e+08 1.017273e+00 2.969971e-01 1.834333e-05 4.891306e-06 -1.135189e-05 7.807277e-06 9.940796e-01 3.933105e-01
1.692156e+08 1.016968e+00 2.968750e-01 -1.687557e-05 -3.990903e-05 2.380461e-06 -1.720805e-05 9.942017e-01 3.933105e-01
1.694334e+08 1.017151e+00 2.958984e-01 1.173187e-05 1.493096e-05 8.979812e-06 9.403098e-06 9.932861e-01 3.932495e-01
1.696512e+08 1.016663e+00 2.952271e-01 6.727874e-06 1.162942e-05 -3.325194e-05 -6.146729e-08 9.937134e-01 3.922729e-01
1.698691e+08 1.017151e+00 2.952271e-01 4.968115e-10 -1.019771e-10 -1.757592e-05 -3.056228e-05 9.925537e-01 3.920288e-01
1.700869e+08 1.015991e+00 2.940063e-01 -3.598630e-06 -4.916266e-05 2.110563e-05 1.802668e-05 9.936523e-01 3.915405e-01
1.703047e+08 1.016296e+00 2.937622e-01 2.517365e-05 3.820844e-05 -1.171045e-05 -3.370456e-05 9.925537e-01 3.919678e-01
1.705225e+08 1.015198e+00 2.940674e-01 -2.837554e-05 -1.150183e-05 -3.460795e-06 -2.741814e-05 9.927368e-01 3.905029e-01
1.707403e+08 1.014648e+00 2.929077e-01 -3.514066e-05 -3.400818e-05 -6.654300e-06 -1.257285e-08 9.922485e-01 3.909302e-01
1.709581e+08 1.015076e+00 2.922363e-01 1.649559e-05 -3.593229e-05 8.210074e-06 6.280839e-06 9.930420e-01 3.898926e-01
1.711759e+08 1.015320e+00 2.915649e-01 3.177300e-05 1.735799e-05 -2.272800e-05 2.318993e-06 9.924316e-01 3.895874e-01
1.713938e+08 1.014221e+00 2.913818e-01 6.716698e-06 1.164246e-05 1.579989e-06 -7.047318e-06 9.912109e-01 3.897705e-01
1.716116e+08 1.014465e+00 2.913818e-01 -1.335703e-05 -1.602806e-06 3.078952e-06 2.587400e-05 9.920654e-01 3.888550e-01
1.718294e+08 1.013855e+00 2.907715e-01 -1.163222e-05 6.734394e-06 1.718104e-05 2.904050e-05 9.909058e-01 3.874512e-01
1.720472e+08 1.013672e+00 2.896118e-01 -1.518056e-05 -3.162026e-05 2.819486e-05 1.964532e-05 9.910278e-01 3.877563e-01
1.722650e+08 1.012451e+00 2.899780e-01 3.427267e-06 1.667626e-05 1.768954e-05 -2.269633e-05 9.914551e-01 3.872070e-01
1.724828e+08 1.012451e+00 2.898560e-01 -1.335330e-05 -1.601875e-06 -6.640330e-06 -1.334958e-05 9.901123e-01 3.867798e-01
1.727006e+08 1.011536e+00 2.893677e-01 -5.025789e-05 -3.311038e-05 -2.351590e-05 -8.400530e-07 9.904785e-01 3.862305e-01
1.729184e+08 1.011475e+00 2.882690e-01 -1.851283e-05 -2.662651e-05 2.080202e-05 -1.015235e-05 9.897461e-01 3.862305e-01
1.731362e+08 1.012024e+00 2.886963e-01 -1.010578e-05 -1.749117e-05 3.297627e-05 -1.495704e-06 9.896240e-01 3.862305e-01
1.733541e+08 1.009583e+00 2.886353e-01 1.662411e-05 -1.427252e-05 -1.562200e-05 -2.277456e-05 9.890137e-01 3.849487e-01
1.735719e+08 1.009888e+00 2.874756e-01 -2.668425e-05 7.648021e-06 -2.545305e-05 -2.200715e-05 9.887085e-01 3.848877e-01
1.737897e+08 1.009216e+00 2.879639e-01 -8.480623e-06 -3.086589e-05 -1.416254e-10 2.347917e-10 9.882812e-01 3.856201e-01
1.740075e+08 1.009094e+00 2.872314e-01 6.684102e-06 8.032657e-07 -7.421710e-06 -1.650117e-05 9.878540e-01 3.848267e-01
1.742253e+08 1.008484e+00 2.871704e-01 -1.851469e-06 -4.093722e-05 -4.732981e-06 7.836148e-06 9.876709e-01 3.845825e-01
1.744431e+08 1.007019e+00 2.865601e-01 1.762994e-06 1.922064e-05 -1.647975e-05 7.320195e-07 9.876099e-01 3.842773e-01
1.746609e+08 1.007019e+00 2.853394e-01 -4.859269e-05 -2.484396e-05 -2.700090e-05 -4.165247e-05 9.864502e-01 3.834839e-01
1.748788e+08 1.007141e+00 2.860718e-01 2.848729e-05 1.158006e-05 5.474314e-06 8.659903e-06 9.863892e-01 3.835449e-01
1.750966e+08 1.006470e+00 2.846680e-01 1.682620e-05 1.831446e-05 -4.635006e-05 1.482666e-06 9.862061e-01 3.828735e-01
1.753144e+08 1.006287e+00 2.848511e-01 -1.334213e-05 9.258278e-06 -4.126504e-05 -4.831702e-06 9.849854e-01 3.829956e-01
1.755322e+08 1.005127e+00 2.839355e-01 1.503993e-05 -9.145588e-07 -6.370619e-05 1.245737e-05 9.846802e-01 3.818359e-01
1.757500e+08 1.004883e+00 2.847290e-01 -1.707580e-06 -8.354429e-06 -1.141801e-05 7.838942e-06 9.840088e-01 3.823853e-01
1.759678e+08 1.004700e+00 2.849731e-01 3.462657e-06 2.758764e-05 3.257021e-05 2.369471e-05 9.838867e-01 3.817749e-01
1.761856e+08 1.002441e+00 2.844849e-01 2.175383e-05 -9.499490e-08 -2.041738e-05 -1.639128e-06 9.833984e-01 3.815308e-01
1.764034e+08 1.003113e+00 2.839355e-01 2.169423e-05 -1.097471e-05 -3.434718e-06 -4.090555e-05 9.824219e-01 3.808594e-01
1.766212e+08 1.001038e+00 2.830200e-01 -6.700866e-06 -8.079223e-07 -1.378730e-05 1.175143e-05 9.816895e-01 3.807983e-01
1.768391e+08 1.000061e+00 2.836304e-01 1.843832e-05 4.946254e-06 -1.451001e-06 -3.302656e-05 9.812012e-01 3.809204e-01
1.770569e+08 9.999390e-01 2.830811e-01 9.834766e-06 -4.773960e-05 6.217510e-06 2.518483e-05 9.799194e-01 3.800049e-01
1.772747e+08 1.000793e+00 2.825317e-01 3.023632e-05 1.996011e-05 3.659539e-05 1.268648e-05 9.800415e-01 3.795166e-01
1.774925e+08 9.982910e-01 2.825317e-01 1.337565e-05 -9.270385e-06 -3.144890e-05 -5.600974e-06 9.800415e-01 3.803101e-01
1.777103e+08 9.983521e-01 2.827759e-01 -5.042646e-06 -3.329478e-06 2.840720e-05 -2.036616e-05 9.791260e-01 3.793335e-01
1.779281e+08 9.978638e-01 2.812500e-01 2.503954e-05 -2.692826e-05 -2.042204e-05 -1.500174e-05 9.788818e-01 3.796997e-01
1.781459e+08 9.966431e-01 2.832031e-01 4.537404e-06 2.843514e-05 -1.117587e-05 9.388663e-06 9.783325e-01 3.789062e-01
1.783638e+08 9.959717e-01 2.810669e-01 -2.409890e-05 -1.594052e-05 -3.270991e-05 5.720183e-06 9.765625e-01 3.779297e-01
1.785816e+08 9.954224e-01 2.810669e-01 2.523884e-05 -3.550947e-05 -1.849979e-05 6.231293e-05 9.768066e-01 3.786621e-01
1.787994e+08 9.950562e-01 2.819824e-01 3.352016e-05 -1.845881e-06 6.588176e-06 2.490729e-05 9.760742e-01 3.784180e-01
1.790172e+08 9.938965e-01 2.815552e-01 1.075491e-05 -2.038665e-05 -6.409828e-06 -5.325768e-06 9.760132e-01 3.782959e-01
1.792350e+08 9.928589e-01 2.805786e-01 2.114661e-05 3.394485e-05 -5.798880e-06 7.887371e-06 9.745483e-01 3.776855e-01
1.794528e+08 9.920044e-01 2.806396e-01 -2.469681e-05 9.758398e-06 -1.695007e-07 3.573298e-05 9.738770e-01 3.776855e-01
1.796706e+08 9.912109e-01 2.794800e-01 4.718080e-05 2.164766e-05 -1.933798e-05 -2.575479e-05 9.728394e-01 3.776855e-01
1.798884e+08 9.904175e-01 2.810669e-01 -1.896173e-06 2.831966e-05 -1.715031e-05 -2.296641e-06 9.732666e-01 3.769531e-01
1.801062e+08 9.893188e-01 2.818604e-01 3.546476e-06 -4.372746e-05 -3.647432e-05 -2.808310e-05 9.715576e-01 3.770752e-01
1.803241e+08 9.891357e-01 2.811279e-01 3.786385e-05 -2.237037e-05 -1.194138e-10 -2.337401e-10 9.710083e-01 3.767700e-01
1.805419e+08 9.880981e-01 2.804565e-01 4.048645e-05 3.441051e-05 -2.375990e-05 -2.720580e-05 9.699097e-01 3.767700e-01
1.807597e+08 9.870605e-01 2.804565e-01 -2.229214e-05 1.757033e-05 1.439080e-05 2.092961e-05 9.693604e-01 3.758545e-01
1.809775e+08 9.864502e-01 2.801514e-01 -2.145022e-05 -2.111867e-05 1.133606e-05 -4.517660e-05 9.685669e-01 3.771362e-01
1.811953e+08 9.857788e-01 2.797852e-01 -9.430572e-06 1.785625e-05 5.070493e-05 -2.595037e-05 9.684448e-01 3.766479e-01
1.814131e+08 9.848022e-01 2.799683e-01 3.330223e-05 1.105480e-05 2.973340e-05 -1.644902e-05 9.672241e-01 3.761597e-01
1.816309e+08 9.843140e-01 2.801514e-01 1.056120e-06 1.034047e-05 -5.649403e-06 2.750754e-05 9.655762e-01 3.765869e-01
1.818488e+08 9.830322e-01 2.803345e-01 1.424551e-05 -2.265908e-06 1.012161e-05 3.913417e-05 9.661255e-01 3.764038e-01
1.820666e+08 9.819336e-01 2.801514e-01 -2.868474e-07 1.290254e-05 4.504807e-06 1.123361e-05 9.654541e-01 3.764648e-01
1.822844e+08 9.815674e-01 2.799072e-01 1.723133e-05 -2.027676e-05 -4.183315e-05 -1.678616e-05 9.644165e-01 3.765869e-01
1.825022e+08 9.801636e-01 2.800903e-01 -4.515797e-05 -9.909272e-07 -1.597777e-05 7.953495e-05 9.633179e-01 3.759155e-01
1.827200e+08 9.801636e-01 2.796631e-01 -3.758352e-06 -5.250331e-06 -3.707781e-05 -3.155693e-05 9.633179e-01 3.762207e-01
1.829378e+08 9.793091e-01 2.803955e-01 -2.398342e-05 3.305636e-05 2.875365e-05 -2.330728e-05 9.622192e-01 3.766479e-01
1.831556e+08 9.783325e-01 2.802124e-01 -2.744235e-05 1.488440e-05 -3.941357e-05 -1.928583e-05 9.606323e-01 3.759766e-01
1.833734e+08 9.771729e-01 2.810059e-01 1.608580e-05 3.137812e-05 -4.479289e-05 -1.779199e-05 9.603271e-01 3.769531e-01
1.835912e+08 9.766235e-01 2.801514e-01 1.367368e-05 2.354756e-05 8.087605e-06 -2.999790e-05 9.588623e-01 3.766479e-01
1.838091e+08 9.755859e-01 2.797852e-01 1.049228e-05 -7.519498e-06 1.154467e-05 -2.561882e-05 9.583130e-01 3.754272e-01
1.840269e+08 9.749146e-01 2.813110e-01 -3.123097e-05 9.628013e-06 4.181638e-05 -4.846230e-05 9.578857e-01 3.767090e-01
1.842447e+08 9.740601e-01 2.816162e-01 7.512979e-06 1.050811e-05 1.142174e-05 -4.526228e-05 9.570312e-01 3.761597e-01
1.844625e+08 9.736938e-01 2.811890e-01 -2.408866e-06 -7.812865e-06 7.740222e-06 -1.382455e-05 9.566650e-01 3.765869e-01
1.846803e+08 9.730835e-01 2.809448e-01 5.303696e-05 -1.374632e-06 1.877453e-05 1.261290e-05 9.557495e-01 3.764648e-01
1.848981e+08 9.716187e-01 2.805176e-01 8.683652e-06 -4.115328e-05 1.729000e-05 1.211092e-05 9.539185e-01 3.763428e-01
1.851159e+08 9.710693e-01 2.818604e-01 -2.315268e-05 -5.690381e-06 -3.309548e-05 -2.381578e-05 9.542236e-01 3.764038e-01
1.853338e+08 9.699707e-01 2.811279e-01 -4.554912e-05 1.189485e-05 -8.512288e-06 -1.907256e-05 9.531250e-01 3.767090e-01
1.855516e+08 9.690552e-01 2.810059e-01 -8.383766e-06 2.825633e-05 5.752593e-05 8.840114e-06 9.517822e-01 3.763428e-01
1.857694e+08 9.686279e-01 2.822876e-01 1.669489e-05 5.555339e-06 -2.877321e-06 8.866657e-06 9.509277e-01 3.772583e-01
1.859872e+08 9.679565e-01 2.819214e-01 1.816079e-06 3.366172e-05 9.275973e-07 5.256757e-05 9.496460e-01 3.771362e-01
1.862050e+08 9.660645e-01 2.824097e-01 -4.823320e-06 -1.562946e-05 1.944602e-06 5.939975e-05 9.490356e-01 3.768921e-01
1.864228e+08 9.657593e-01 2.821655e-01 1.352746e-06 -2.556713e-06 -1.382083e-06 -4.617497e-05 9.482422e-01 3.776245e-01
1.866406e+08 9.646606e-01 2.835083e-01 1.351815e-06 -2.556713e-06 -1.980830e-05 -1.950841e-05 9.470215e-01 3.775635e-01
1.868584e+08 9.647217e-01 2.832031e-01 3.631413e-05 5.514547e-05 1.122802e-05 -9.439886e-06 9.467163e-01 3.773193e-01
1.870762e+08 9.628906e-01 2.832031e-01 -1.487322e-05 2.813153e-05 2.033636e-05 2.293102e-05 9.455566e-01 3.780518e-01
1.872941e+08 9.627075e-01 2.840576e-01 -2.828985e-05 -8.419156e-06 -1.568254e-05 7.985160e-06 9.447632e-01 3.781738e-01
1.875119e+08 9.613647e-01 2.830811e-01 -3.129616e-05 9.642914e-06 2.461858e-05 4.718080e-06 9.440918e-01 3.786621e-01
1.877297e+08 9.609375e-01 2.838135e-01 -4.788488e-05 -5.808845e-05 -4.023686e-05 1.310743e-05 9.434814e-01 3.787842e-01
1.879475e+08 9.600220e-01 2.843018e-01 3.642775e-05 -6.927177e-06 5.050749e-05 -1.960620e-05 9.426880e-01 3.797607e-01
1.881653e+08 9.584961e-01 2.853394e-01 -4.814938e-06 -1.565460e-05 -2.751313e-05 4.125759e-06 9.414062e-01 3.794556e-01
1.883831e+08 9.580688e-01 2.847290e-01 4.665181e-05 -1.508743e-06 3.647059e-06 2.407283e-05 9.404297e-01 3.796997e-01
1.886009e+08 9.579468e-01 2.852783e-01 -1.129135e-05 -1.580548e-05 -7.713214e-06 -4.178658e-05 9.395752e-01 3.800049e-01
1.888188e+08 9.570923e-01 2.859497e-01 2.786145e-05 -2.786890e-05 -7.770956e-06 1.384877e-05 9.395142e-01 3.796997e-01
1.890366e+08 9.555054e-01 2.870483e-01 -7.618219e-07 -2.334453e-05 -3.132224e-05 2.583116e-05 9.382324e-01 3.803101e-01
1.892544e+08 9.551392e-01 2.868652e-01 2.514757e-05 -2.272800e-05 -2.029166e-05 -1.314934e-05 9.368286e-01 3.806763e-01
1.894722e+08 9.539185e-01 2.863770e-01 9.492040e-06 -1.793727e-05 -4.961854e-06 -4.881527e-06 9.370117e-01 3.812256e-01
1.896900e+08 9.530029e-01 2.869263e-01 3.932789e-05 3.718212e-05 3.329478e-05 -2.192892e-05 9.357300e-01 3.809814e-01
1.899078e+08 9.521484e-01 2.872925e-01 -2.002344e-05 2.547354e-05 -1.961365e-05 1.000892e-05 9.351196e-01 3.813477e-01
1.901256e+08 9.515991e-01 2.877197e-01 -1.912843e-05 -1.342688e-05 8.880626e-06 2.880115e-06 9.338989e-01 3.824463e-01
1.903434e+08 9.505615e-01 2.885132e-01 2.861395e-05 -4.511327e-06 -3.308244e-05 -1.403317e-05 9.326782e-01 3.822021e-01
1.905612e+08 9.498291e-01 2.889404e-01 -2.711546e-06 5.122274e-06 -3.783591e-05 1.060776e-05 9.320679e-01 3.825073e-01
1.907791e+08 9.486084e-01 2.891846e-01 -2.321601e-05 -5.718321e-06 -1.592189e-05 4.391372e-05 9.315796e-01 3.827515e-01
1.909969e+08 9.470825e-01 2.899170e-01 8.959323e-07 -3.888831e-05 3.853813e-06 -1.183432e-05 9.301147e-01 3.832397e-01
1.912147e+08 9.483032e-01 2.902832e-01 -2.126396e-05 -3.423169e-05 -4.372094e-06 8.413102e-06 9.296265e-01 3.839722e-01
1.914325e+08 9.471436e-01 2.907104e-01 -2.127700e-05 -3.424101e-05 -2.170634e-05 -3.782101e-06 9.291992e-01 3.839111e-01
1.916503e+08 9.455566e-01 2.915039e-01 1.447275e-05 4.706159e-05 3.451109e-05 4.675239e-06 9.277954e-01 3.848877e-01
1.918681e+08 9.453125e-01 2.912598e-01 -1.659244e-05 4.374608e-05 -1.506321e-05 -3.436580e-05 9.273071e-01 3.851929e-01
1.920859e+08 9.436646e-01 2.929077e-01 1.359731e-06 -2.563931e-06 5.305931e-05 5.332753e-05 9.260254e-01 3.859253e-01
1.923038e+08 9.436035e-01 2.921753e-01 -4.078727e-06 7.695518e-06 6.206334e-06 -2.419204e-05 9.256592e-01 3.858032e-01
1.925216e+08 9.426270e-01 2.929688e-01 -1.842063e-05 9.932555e-06 2.000947e-06 3.926689e-06 9.241333e-01 3.867188e-01
1.927394e+08 9.418945e-01 2.937012e-01 3.348291e-05 1.119263e-05 -3.246218e-05 9.112060e-06 9.232178e-01 3.871460e-01
1.929572e+08 9.407959e-01 2.946167e-01 6.897375e-06 3.651157e-05 -1.855195e-06 1.578033e-05 9.222412e-01 3.875122e-01
1.931750e+08 9.401245e-01 2.948608e-01 6.172806e-06 1.313444e-05 3.042072e-05 -2.287887e-05 9.218140e-01 3.880005e-01
1.933928e+08 9.392090e-01 2.951050e-01 -8.476898e-06 2.837181e-05 -2.206862e-05 -5.309284e-05 9.214478e-01 3.886719e-01
1.936106e+08 9.384155e-01 2.960815e-01 1.841970e-05 -9.951182e-06 -1.160242e-05 3.558211e-05 9.204102e-01 3.889160e-01
1.938284e+08 9.373779e-01 2.966919e-01 2.732128e-05 -1.937151e-06 3.357232e-05 7.672235e-06 9.192505e-01 3.900757e-01
1.940462e+08 9.370728e-01 2.972412e-01 -2.082810e-05 2.097338e-06 5.867332e-07 1.331046e-05 9.182129e-01 3.900757e-01
1.942641e+08 9.364014e-01 2.974243e-01 -2.995133e-05 5.646423e-05 -1.199112e-10 -2.355733e-10 9.182739e-01 3.911133e-01
1.944819e+08 9.359741e-01 2.985840e-01 5.706400e-05 3.956258e-06 -4.444644e-05 -4.637986e-06 9.171753e-01 3.910522e-01
1.946997e+08 9.354858e-01 2.990112e-01 -2.461299e-05 -3.190711e-06 -9.290874e-06 1.338683e-05 9.163818e-01 3.919067e-01
1.949175e+08 9.340820e-01 2.999878e-01 -3.893487e-05 -9.220093e-07 2.552383e-05 -1.793168e-05 9.152222e-01 3.916016e-01
1.951353e+08 9.338379e-01 2.996826e-01 2.628192e-05 -1.236610e-05 -5.039386e-06 -1.476984e-05 9.147949e-01 3.926392e-01
1.953531e+08 9.331055e-01 3.005371e-01 1.361594e-06 -2.565561e-06 8.447096e-06 9.317882e-06 9.137573e-01 3.933716e-01
1.955709e+08 9.323120e-01 3.013306e-01 -1.669861e-06 1.556426e-05 -6.384216e-06 4.481059e-06 9.138794e-01 3.939209e-01
1.957888e+08 9.313354e-01 3.020020e-01 2.641045e-05 3.702566e-05 3.781170e-07 -1.628231e-05 9.125366e-01 3.943481e-01
1.960066e+08 9.302368e-01 3.029785e-01 -9.290874e-06 -4.443526e-05 5.867798e-06 -7.932074e-06 9.113159e-01 3.952637e-01
1.962244e+08 9.307251e-01 3.041382e-01 1.844671e-05 -9.958632e-06 -1.910888e-05 2.333336e-05 9.108887e-01 3.953857e-01
1.964422e+08 9.301147e-01 3.040161e-01 2.535619e-05 2.661161e-05 -6.575137e-07 -2.320111e-05 9.096680e-01 3.960571e-01
1.966600e+08 9.283447e-01 3.048096e-01 5.808473e-05 -3.495440e-05 -2.470054e-05 -4.781410e-06 9.087524e-01 3.972168e-01
1.968778e+08 9.279785e-01 3.051758e-01 5.470216e-05 -3.863126e-06 -3.026240e-05 -2.298877e-05 9.080811e-01 3.973999e-01
1.970956e+08 9.275513e-01 3.057251e-01 4.490837e-06 2.872199e-05 -1.246482e-05 -1.718570e-05 9.075317e-01 3.981934e-01
1.973134e+08 9.271851e-01 3.070679e-01 1.765788e-06 3.386661e-05 1.181662e-05 -6.002374e-06 9.069824e-01 3.989868e-01
1.975312e+08 9.257812e-01 3.070679e-01 -1.404900e-05 -1.075678e-05 -2.463162e-05 -7.042289e-05 9.062500e-01 3.995972e-01
1.977491e+08 9.246826e-01 3.080444e-01 1.781899e-05 1.604855e-05 -3.028661e-06 -1.083687e-05 9.055786e-01 3.998413e-01
1.979669e+08 9.246826e-01 3.089600e-01 -2.405606e-06 -7.869210e-06 2.968125e-06 9.692740e-07 9.047241e-01 4.010620e-01
1.981847e+08 9.241333e-01 3.091431e-01 2.464093e-05 3.203750e-06 -7.524341e-05 4.444271e-05 9.038696e-01 4.013672e-01
1.984025e+08 9.232788e-01 3.101196e-01 -2.663396e-05 2.536364e-05 -2.316944e-05 5.576760e-06 9.027100e-01 4.015503e-01
1.986203e+08 9.227905e-01 3.109131e-01 3.051758e-05 2.936460e-05 -3.681146e-05 3.727339e-05 9.025879e-01 4.024048e-01
1.988381e+08 9.216309e-01 3.114014e-01 -4.760921e-05 -2.197549e-05 -3.072247e-05 -1.661666e-05 9.016113e-01 4.028931e-01
1.990559e+08 9.212036e-01 3.120117e-01 4.269928e-05 -4.318357e-05 -1.148600e-05 -2.018455e-05 9.011841e-01 4.046021e-01
1.992738e+08 9.204712e-01 3.123779e-01 -1.851469e-05 -3.949180e-05 9.598210e-06 3.598817e-05 9.001465e-01 4.055786e-01
1.994916e+08 9.202881e-01 3.136597e-01 2.021715e-05 2.391264e-05 -4.970003e-06 -4.914124e-06 8.992920e-01 4.057617e-01
1.997094e+08 9.197998e-01 3.139648e-01 -4.794449e-05 -9.004027e-06 1.460128e-05 -3.469735e-05 8.994751e-01 4.069214e-01
1.999272e+08 9.187012e-01 3.149414e-01 4.805624e-06 1.573283e-05 -2.649613e-05 3.080443e-05 8.981323e-01 4.070435e-01
2.001450e+08 9.180908e-01 3.153687e-01 4.431233e-06 -2.071634e-05 -1.950189e-05 -3.594346e-05 8.979492e-01 4.084473e-01
2.003628e+08 9.172974e-01 3.174438e-01 -1.680851e-05 -5.509704e-05 -2.905168e-05 2.337247e-05 8.969116e-01 4.089966e-01
2.005806e+08 9.174194e-01 3.176880e-01 1.704320e-06 -1.558382e-05 4.103407e-06 2.765097e-05 8.966064e-01 4.099121e-01
2.007984e+08 9.165649e-01 3.180542e-01 4.274026e-05 -4.315749e-05 2.160296e-05 -2.582185e-05 8.954468e-01 4.100952e-01
2.010162e+08 9.161987e-01 3.186035e-01 2.433173e-05 1.623109e-05 1.720153e-05 -1.740735e-05 8.955078e-01 4.106445e-01
2.012341e+08 9.162598e-01 3.195190e-01 -2.734363e-06 5.135313e-06 -4.105084e-05 -2.626330e-07 8.937378e-01 4.112549e-01
2.014519e+08 9.155273e-01 3.196411e-01 -4.071370e-05 1.458824e-05 1.358986e-05 -4.163198e-05 8.935547e-01 4.121704e-01
2.016697e+08 9.147339e-01 3.203125e-01 3.724359e-05 -3.289618e-05 1.525693e-05 -1.146086e-05 8.923340e-01 4.120483e-01
2.018875e+08 9.137573e-01 3.219604e-01 2.672151e-05 2.411008e-05 -6.811693e-06 2.079736e-05 8.918457e-01 4.136353e-01
2.021053e+08 9.134521e-01 3.220215e-01 7.874332e-06 -2.400018e-06 -4.912494e-06 4.972564e-06 8.915405e-01 4.149170e-01
2.023231e+08 9.130249e-01 3.232422e-01 -8.191913e-06 1.542550e-05 -1.383759e-05 2.056360e-06 8.914795e-01 4.146729e-01
2.025409e+08 9.129028e-01 3.244019e-01 -8.519739e-06 2.843514e-05 -4.753843e-05 -5.677342e-06 8.907471e-01 4.153442e-01
2.027588e+08 9.114380e-01 3.245850e-01 2.917647e-05 3.201701e-05 -1.291465e-05 -1.080520e-05 8.908081e-01 4.166260e-01
2.029766e+08 9.111938e-01 3.251953e-01 -3.632903e-05 -6.133690e-06 -3.652275e-05 1.109205e-05 8.896484e-01 4.173584e-01
2.031944e+08 9.103394e-01 3.261719e-01 -8.590519e-06 -2.105907e-05 1.793541e-05 2.561323e-05 8.887939e-01 4.179688e-01
2.034122e+08 9.106445e-01 3.278198e-01 3.908575e-05 1.013279e-06 1.969561e-05 -1.988094e-05 8.888550e-01 4.193726e-01
2.036300e+08 9.096680e-01 3.289185e-01 -9.945594e-06 -1.848955e-05 -2.188049e-05 -2.363324e-05 8.874512e-01 4.193726e-01
2.038478e+08 9.088745e-01 3.284912e-01 4.661083e-05 -3.790483e-05 7.230788e-06 5.830452e-05 8.876343e-01 4.205933e-01
2.040656e+08 9.091797e-01 3.296509e-01 -3.768131e-06 -5.311798e-06 -1.860596e-05 3.672577e-05 8.863525e-01 4.216919e-01
2.042834e+08 9.092407e-01 3.312378e-01 -4.135072e-06 -4.180893e-05 6.657094e-06 -5.054101e-05 8.859253e-01 4.220581e-01
2.045012e+08 9.079590e-01 3.316040e-01 -6.176531e-06 -1.319312e-05 3.162585e-05 -6.109476e-06 8.856201e-01 4.227295e-01
2.047191e+08 9.082031e-01 3.321533e-01 -5.477108e-06 1.028180e-05 3.474019e-05 1.468323e-05 8.848267e-01 4.237671e-01
2.049369e+08 9.074097e-01 3.331299e-01 7.164106e-05 1.844019e-06 -1.302175e-05 -3.062747e-05 8.845215e-01 4.243774e-01
2.051547e+08 9.074707e-01 3.338013e-01 6.789714e-05 -3.401190e-06 3.572367e-05 1.171790e-05 8.840942e-01 4.261475e-01
2.053725e+08 9.067383e-01 3.345947e-01 1.062267e-05 -7.539056e-06 1.765974e-05 -3.376417e-05 8.830566e-01 4.264526e-01
2.055903e+08 9.063110e-01 3.352661e-01 2.640113e-05 -1.235120e-05 4.977919e-06 4.928093e-06 8.832397e-01 4.272461e-01
2.058081e+08 9.054565e-01 3.357544e-01 -3.466196e-05 -2.175756e-05 -1.918897e-05 2.334639e-05 8.829956e-01 4.276733e-01
2.060259e+08 9.053345e-01 3.376465e-01 1.336075e-05 -1.270231e-05 1.772121e-05 -2.384000e-05 8.823242e-01 4.282227e-01
2.062438e+08 9.044800e-01 3.377686e-01 -5.006790e-05 1.956522e-05 1.674425e-05 -2.086349e-05 8.816528e-01 4.294434e-01
2.064616e+08 9.051514e-01 3.382568e-01 -8.925796e-06 4.151091e-05 -8.834526e-06 1.688022e-05 8.814697e-01 4.307251e-01
2.066794e+08 9.046021e-01 3.388672e-01 -2.642907e-05 1.236610e-05 -1.215562e-05 4.215352e-05 8.815918e-01 4.310913e-01
2.068972e+08 9.049683e-01 3.400269e-01 -7.888302e-06 2.406538e-06 1.792237e-05 1.576822e-05 8.799438e-01 4.314575e-01
2.071150e+08 9.040527e-01 3.408813e-01 4.803762e-06 1.578219e-05 2.568960e-05 -1.794472e-05 8.793335e-01 4.329224e-01
2.073328e+08 9.038696e-01 3.414307e-01 -3.911555e-05 4.854798e-05 -2.619065e-05 1.448765e-05 8.790894e-01 4.334717e-01
2.075506e+08 9.032593e-01 3.433228e-01 -2.711453e-05 -1.115352e-05 -4.384667e-06 1.834892e-05 8.788452e-01 4.345093e-01
2.077684e+08 9.027710e-01 3.440552e-01 -3.292598e-05 -3.742799e-05 1.003593e-05 2.969429e-05 8.781128e-01 4.351196e-01
2.079862e+08 9.025879e-01 3.448486e-01 9.274576e-06 -4.981179e-06 -3.751367e-06 5.155429e-05 8.789062e-01 4.361572e-01
2.082041e+08 9.022217e-01 3.448486e-01 -9.275042e-06 4.980713e-06 -1.848117e-05 -2.915785e-05 8.784180e-01 4.367676e-01
2.084219e+08 9.013062e-01 3.457031e-01 3.812462e-05 -9.419397e-06 4.716218e-06 -5.450472e-05 8.773193e-01 4.379272e-01
2.086397e+08 9.019165e-01 3.469849e-01 -2.400577e-05 -2.940185e-05 7.061288e-06 2.872199e-05 8.769531e-01 4.390259e-01
2.088575e+08 9.004517e-01 3.474731e-01 1.237728e-05 -2.317131e-05 -2.517179e-05 2.139620e-05 8.764648e-01 4.392700e-01
2.090753e+08 9.016724e-01 3.472290e-01 -6.200746e-06 3.641099e-05 -1.715310e-05 3.727525e-05 8.762817e-01 4.401855e-01
2.092931e+08 9.003906e-01 3.488159e-01 -8.248724e-06 1.544971e-05 -2.466142e-05 2.489425e-05 8.757935e-01 4.407959e-01
2.095109e+08 9.005737e-01 3.499146e-01 4.977360e-05 -6.519258e-06 3.333390e-05 2.414174e-05 8.751831e-01 4.411011e-01
2.097288e+08 8.998413e-01 3.505249e-01 -1.751259e-05 2.041645e-05 4.629046e-05 -7.058308e-05 8.744507e-01 4.417114e-01
2.099466e+08 8.995972e-01 3.510742e-01 8.250587e-06 -1.547299e-05 -7.851049e-05 -4.224852e-05 8.754883e-01 4.429321e-01
2.101644e+08 9.000244e-01 3.526611e-01 3.056973e-05 -2.010539e-05 8.941628e-06 2.942048e-06 8.744507e-01 4.431152e-01
2.103822e+08 8.994141e-01 3.534546e-01 -1.237541e-05 2.318434e-05 -9.487383e-06 -1.633074e-05 8.740845e-01 4.443970e-01
2.106000e+08 9.001465e-01 3.530884e-01 -3.352761e-07 -3.661215e-05 -3.574975e-05 -1.819804e-06 8.744507e-01 4.458618e-01
2.108178e+08 8.994751e-01 3.540039e-01 2.131611e-05 -1.511909e-05 -1.771934e-05 3.381819e-05 8.737183e-01 4.468994e-01
2.110356e+08 8.988037e-01 3.550415e-01 2.543256e-05 -2.282858e-05 -1.842622e-05 -1.927465e-05 8.727417e-01 4.472046e-01
2.112534e+08 8.989258e-01 3.555908e-01 -3.458932e-06 3.129430e-05 -2.047047e-05 -3.314577e-05 8.735352e-01 4.486084e-01
2.114712e+08 8.983154e-01 3.572998e-01 2.131611e-05 -1.513399e-05 -3.966317e-05 1.006573e-05 8.732300e-01 4.486694e-01
2.116891e+08 8.983154e-01 3.575439e-01 -4.023314e-05 -1.157448e-05 -2.471264e-06 2.490589e-06 8.729248e-01 4.500732e-01
2.119069e+08 8.984375e-01 3.584595e-01 3.644824e-05 6.213784e-06 3.284588e-05 2.072938e-05 8.725586e-01 4.503784e-01
2.121247e+08 8.989258e-01 3.588867e-01 4.641712e-05 2.478063e-05 -3.924593e-06 1.193490e-05 8.718872e-01 4.511108e-01
2.123425e+08 8.979492e-01 3.603516e-01 1.445133e-05 -2.223067e-06 -2.630614e-05 4.563481e-06 8.717651e-01 4.519653e-01
2.125603e+08 8.978882e-01 3.603516e-01 -1.097843e-05 -2.909265e-05 -3.091991e-07 4.618242e-05 8.713379e-01 4.529419e-01
2.127781e+08 8.980713e-01 3.616943e-01 2.062880e-05 1.103245e-05 2.790987e-05 2.572872e-05 8.708496e-01 4.536743e-01
2.129959e+08 8.977051e-01 3.619995e-01 -3.339350e-05 2.523139e-05 3.162026e-05 -4.580617e-05 8.698730e-01 4.544067e-01
2.132138e+08 8.969116e-01 3.630371e-01 1.482666e-05 -1.531653e-05 2.477318e-05 -1.498312e-05 8.714600e-01 4.556274e-01
2.134316e+08 8.964844e-01 3.634033e-01 1.102313e-05 -2.065115e-05 5.414337e-05 1.121685e-05 8.707275e-01 4.558105e-01
2.136494e+08 8.973389e-01 3.641968e-01 -4.580617e-05 -1.251698e-06 3.888085e-05 3.265031e-05 8.706665e-01 4.567261e-01
2.138672e+08 8.970337e-01 3.645020e-01 -4.451722e-06 -2.890825e-05 2.541207e-05 1.827069e-05 8.695679e-01 4.572754e-01
2.140850e+08 8.970337e-01 3.656616e-01 1.475215e-05 3.443845e-05 -4.179589e-05 -1.376122e-05 8.693237e-01 4.582520e-01
2.143028e+08 8.970337e-01 3.668213e-01 -1.272932e-05 -1.345295e-05 -6.464869e-05 -4.746020e-06 8.697510e-01 4.594116e-01
2.145206e+08 8.969116e-01 3.669434e-01 -7.556751e-06 -1.068879e-05 2.495944e-05 2.475083e-05 8.690796e-01 4.603271e-01
2.147384e+08 8.967285e-01 3.681641e-01 4.854053e-06 -3.392622e-05 8.452684e-06 -5.261973e-07 8.690796e-01 4.606323e-01
2.149562e+08 8.963013e-01 3.677368e-01 8.592382e-06 2.118759e-05 2.683885e-05 -1.087785e-06 8.688965e-01 4.609985e-01
2.151741e+08 8.966064e-01 3.682861e-01 -1.380593e-05 2.581999e-05 1.352653e-05 2.429821e-05 8.683472e-01 4.618530e-01
2.153919e+08 8.963623e-01 3.693848e-01 1.099333e-05 2.913363e-05 1.246389e-05 7.403083e-06 8.688965e-01 4.626465e-01
2.156097e+08 8.962402e-01 3.707886e-01 4.407391e-05 1.697242e-05 1.843553e-05 9.383075e-06 8.682861e-01 4.635620e-01
2.158275e+08 8.965454e-01 3.712158e-01 -1.069810e-05 7.561408e-06 -1.081452e-05 3.288314e-05 8.680420e-01 4.644775e-01
2.160453e+08 8.964233e-01 3.713989e-01 -6.587058e-05 1.126900e-05 8.843839e-06 -2.689287e-05 8.684692e-01 4.646606e-01
2.162631e+08 8.965454e-01 3.732300e-01 -2.686679e-05 -2.434477e-05 -3.927015e-05 2.350658e-05 8.686523e-01 4.656372e-01
2.164809e+08 8.967896e-01 3.735352e-01 -1.374260e-05 -2.397038e-05 -3.977679e-06 2.003973e-06 8.674316e-01 4.661865e-01
2.166988e+08 8.958130e-01 3.738403e-01 4.583970e-05 1.274049e-06 1.055375e-05 3.330782e-05 8.674316e-01 4.667969e-01
2.169166e+08 8.964844e-01 3.743896e-01 -8.678064e-06 2.860092e-05 3.828108e-05 -2.053753e-05 8.671875e-01 4.682007e-01
2.171344e+08 8.957520e-01 3.749390e-01 -1.754425e-05 -2.937205e-05 -2.780184e-05 2.396852e-05 8.679199e-01 4.690552e-01
2.173522e+08 8.958130e-01 3.759155e-01 3.800541e-05 -4.617125e-05 -1.094304e-05 3.023073e-06 8.671265e-01 4.690552e-01
2.175700e+08 8.963013e-01 3.756714e-01 1.791492e-05 1.623947e-05 2.088025e-06 2.390146e-05 8.670654e-01 4.698486e-01
2.177878e+08 8.960571e-01 3.760986e-01 4.209206e-05 -4.097819e-06 2.696924e-05 1.882575e-05 8.665161e-01 4.701538e-01
2.180056e+08 8.959351e-01 3.778076e-01 -7.525086e-06 -6.063655e-05 1.400523e-05 1.789629e-05 8.676147e-01 4.714966e-01
2.182234e+08 8.960571e-01 3.781128e-01 -6.917864e-06 1.293514e-05 -4.589558e-06 -3.138743e-05 8.668213e-01 4.714966e-01
2.184412e+08 8.959351e-01 3.791504e-01 1.136679e-05 1.607928e-05 1.608580e-05 4.183128e-05 8.667603e-01 4.728394e-01
2.186591e+08 8.953247e-01 3.790283e-01 -2.319366e-05 3.087521e-05 3.337301e-05 -5.582348e-06 8.665161e-01 4.735107e-01
2.188769e+08 8.958130e-01 3.794556e-01 2.449378e-05 1.643784e-05 -5.322322e-05 3.557652e-05 8.662109e-01 4.735107e-01
2.190947e+08 8.948364e-01 3.800049e-01 3.495067e-05 -2.794154e-05 -2.297573e-05 -2.085418e-05 8.668823e-01 4.747314e-01
2.193125e+08 8.955078e-01 3.813477e-01 3.797375e-05 3.689900e-06 -3.125519e-06 -4.089251e-05 8.656006e-01 4.748535e-01
2.195303e+08 8.950806e-01 3.822021e-01 -1.452211e-05 2.206303e-06 1.379848e-05 -5.190447e-05 8.663330e-01 4.760132e-01
2.197481e+08 8.959351e-01 3.822632e-01 -2.246536e-05 4.619360e-06 -3.202818e-05 -2.386235e-05 8.663330e-01 4.763184e-01
2.199659e+08 8.951416e-01 3.834229e-01 7.413328e-07 -2.627261e-05 1.297519e-05 9.648502e-07 8.668213e-01 4.770508e-01
2.201838e+08 8.952026e-01 3.833008e-01 -2.423115e-05 2.034195e-05 -3.739819e-05 7.607043e-06 8.660889e-01 4.775391e-01
2.204016e+08 8.956299e-01 3.837280e-01 1.301616e-05 5.034730e-05 2.044253e-06 1.397263e-05 8.663330e-01 4.788208e-01
2.206194e+08 8.955078e-01 3.840332e-01 2.766959e-05 -1.832843e-06 1.004804e-05 1.993682e-05 8.662109e-01 4.790039e-01
2.208372e+08 8.954468e-01 3.853760e-01 -9.618700e-06 -3.183261e-05 1.937896e-05 -3.351830e-05 8.660278e-01 4.791260e-01
2.210550e+08 8.949585e-01 3.854370e-01 -1.554284e-05 -8.335337e-06 -1.049461e-05 -3.464520e-06 8.657837e-01 4.799194e-01
2.212728e+08 8.953857e-01 3.865356e-01 -1.897849e-05 -2.685189e-05 3.466383e-06 -1.549162e-05 8.660889e-01 4.804688e-01
2.214906e+08 8.952026e-01 3.867188e-01 -1.554657e-05 -8.340925e-06 1.242571e-05 -2.250075e-05 8.656006e-01 4.809570e-01
2.217084e+08 8.955078e-01 3.865967e-01 1.490675e-05 -1.536869e-05 -3.791042e-05 1.410022e-05 8.656616e-01 4.812622e-01
2.219262e+08 8.953857e-01 3.873901e-01 6.709620e-05 -7.562339e-07 2.085790e-05 -5.300716e-05 8.655396e-01 4.813232e-01
2.221441e+08 8.952026e-01 3.873901e-01 -1.251325e-05 2.334267e-05 -3.990717e-05 3.008917e-05 8.659668e-01 4.826050e-01
2.223619e+08 8.957520e-01 3.880615e-01 5.226210e-05 1.464784e-05 2.544932e-05 -2.156198e-05 8.660278e-01 4.835815e-01
2.225797e+08 8.959351e-01 3.884888e-01 -2.112985e-05 2.032146e-06 1.351349e-05 4.464760e-06 8.652954e-01 4.837646e-01
2.227975e+08 8.955688e-01 3.888550e-01 -1.631025e-05 1.796521e-05 -3.995141e-06 2.010725e-06 8.649902e-01 4.840088e-01
2.230153e+08 8.952026e-01 3.895874e-01 -6.890297e-05 -3.357604e-05 3.103167e-05 1.694448e-05 8.656006e-01 4.850464e-01
2.232331e+08 8.955078e-01 3.909302e-01 -1.594704e-05 4.827976e-06 -2.799369e-05 1.406670e-05 8.654175e-01 4.848022e-01
2.234509e+08 8.948364e-01 3.902588e-01 -4.545599e-05 2.240017e-05 -3.844500e-05 3.059208e-05 8.649902e-01 4.862061e-01
2.236688e+08 8.957520e-01 3.914185e-01 1.316797e-05 3.762543e-07 -1.648907e-05 1.455098e-05 8.651123e-01 4.862061e-01
2.238866e+08 8.959351e-01 3.919067e-01 4.372001e-05 -6.653368e-06 -6.543472e-06 -1.550838e-05 8.654175e-01 4.868164e-01
2.241044e+08 8.956299e-01 3.920288e-01 -2.281182e-05 -3.231689e-05 -1.551956e-05 1.535751e-06 8.654175e-01 4.871216e-01
2.243222e+08 8.954468e-01 3.922729e-01 -4.183035e-06 7.795636e-06 -1.404062e-05 -7.983297e-06 8.654175e-01 4.876099e-01
2.245400e+08 8.955078e-01 3.929443e-01 1.660641e-05 1.896545e-05 1.947023e-05 -3.360398e-05 8.652954e-01 4.887085e-01
2.247578e+08 8.947754e-01 3.931885e-01 -5.822629e-06 -2.656132e-05 -3.154390e-05 -4.433095e-07 8.650513e-01 4.887695e-01
2.249756e+08 8.950806e-01 3.930664e-01 6.139651e-05 2.288446e-05 -3.805570e-05 4.103407e-06 8.654175e-01 4.891357e-01
2.251934e+08 8.950806e-01 3.941040e-01 2.600625e-05 1.395680e-05 -1.806486e-05 -1.600012e-05 8.652954e-01 4.897461e-01
2.254112e+08 8.952026e-01 3.934937e-01 -3.298000e-05 -9.518117e-07 -2.359413e-05 -1.445599e-05 8.650513e-01 4.895630e-01
2.256291e+08 8.950806e-01 3.944092e-01 -3.515184e-05 2.808496e-05 3.148802e-05 -3.965944e-05 8.657227e-01 4.900513e-01
2.258469e+08 8.955078e-01 3.950806e-01 -1.077354e-05 7.614493e-06 -1.485925e-06 9.528827e-06 8.641968e-01 4.899902e-01
2.260647e+08 8.955078e-01 3.962402e-01 7.991213e-06 -2.416782e-06 1.904089e-05 -1.707859e-05 8.651123e-01 4.902954e-01
2.262825e+08 8.947144e-01 3.948975e-01 -7.993542e-06 2.410263e-06 1.453795e-05 1.467764e-06 8.644409e-01 4.907837e-01
2.265003e+08 8.955688e-01 3.961182e-01 2.791639e-06 -5.206559e-06 1.031905e-06 1.705531e-05 8.649902e-01 4.913330e-01
2.267181e+08 8.960571e-01 3.966675e-01 -3.277138e-05 3.605522e-05 2.702698e-05 -5.123392e-05 8.643799e-01 4.920044e-01
2.269359e+08 8.953857e-01 3.972778e-01 -8.002389e-06 2.415385e-06 3.534369e-06 1.454819e-05 8.645630e-01 4.922485e-01
2.271538e+08 8.948364e-01 3.967896e-01 -2.019294e-05 1.264364e-05 -3.820471e-05 -3.604777e-05 8.645020e-01 4.923096e-01
2.273716e+08 8.949585e-01 3.969116e-01 -4.409999e-05 -3.045425e-05 1.756381e-05 2.464280e-06 8.647461e-01 4.940186e-01
2.275894e+08 8.952637e-01 3.975830e-01 5.251542e-05 1.476705e-05 2.207607e-05 -6.068498e-06 8.649902e-01 4.932251e-01
2.278072e+08 8.946533e-01 3.984375e-01 6.223097e-06 1.341011e-05 -1.058169e-05 -2.358109e-05 8.641968e-01 4.939575e-01
2.280250e+08 8.955078e-01 3.970947e-01 3.304891e-05 9.723008e-07 -2.479181e-06 1.256447e-05 8.638306e-01 4.943237e-01
2.282428e+08 8.946533e-01 3.991089e-01 1.944602e-06 -6.614253e-05 -2.763420e-05 -2.486631e-06 8.637695e-01 4.950562e-01
2.284606e+08 8.951416e-01 3.988647e-01 6.513670e-05 -8.709729e-06 2.565607e-05 1.855753e-05 8.640137e-01 4.946899e-01
2.286784e+08 8.953857e-01 3.991089e-01 2.926774e-05 -4.453585e-06 -5.036360e-06 -5.022855e-06 8.641357e-01 4.953003e-01
2.288962e+08 8.949585e-01 3.998413e-01 2.787448e-05 -1.834705e-06 2.170354e-05 8.095056e-05 8.638306e-01 4.957275e-01
2.291141e+08 8.952026e-01 3.997803e-01 4.315004e-05 1.981109e-05 -2.158992e-05 2.970733e-05 8.639526e-01 4.959717e-01
2.293319e+08 8.945312e-01 3.991699e-01 -1.705438e-05 -5.790032e-06 1.017936e-06 7.036142e-06 8.634033e-01 4.956665e-01
2.295497e+08 8.945312e-01 4.000854e-01 -2.444908e-05 2.047233e-05 -3.982335e-06 3.219768e-05 8.630981e-01 4.960938e-01
2.297675e+08 8.948364e-01 3.994141e-01 5.781278e-05 1.764297e-05 3.042631e-06 1.106039e-05 8.632812e-01 4.974365e-01
2.299853e+08 8.947754e-01 4.003906e-01 -1.796521e-06 1.586694e-05 5.497597e-06 -2.165698e-05 8.632812e-01 4.974976e-01
2.302031e+08 8.953857e-01 4.003296e-01 2.648495e-05 7.841736e-07 2.574548e-05 2.864562e-05 8.623047e-01 4.968872e-01
2.304209e+08 8.948975e-01 4.008789e-01 -3.193691e-05 4.684925e-05 -1.211617e-10 -2.412577e-10 8.637695e-01 4.984741e-01
2.306388e+08 8.942871e-01 4.016113e-01 9.438023e-06 -5.034264e-06 -1.612306e-05 -1.997687e-06 8.630981e-01 4.978027e-01
2.308566e+08 8.945923e-01 4.008789e-01 8.028932e-06 -2.420042e-06 2.447516e-06 -4.282035e-05 8.625488e-01 4.973755e-01
2.310744e+08 8.934937e-01 4.018555e-01 8.432195e-06 -1.568347e-05 4.682690e-05 5.476177e-06 8.629761e-01 4.978638e-01
2.312922e+08 8.936768e-01 4.017944e-01 -8.840114e-06 2.893433e-05 1.114421e-05 3.725477e-05 8.621826e-01 4.982910e-01
2.315100e+08 8.941040e-01 4.019775e-01 -3.822614e-06 -5.424488e-06 -4.496425e-06 1.865998e-05 8.625488e-01 4.983521e-01
2.317278e+08 8.935547e-01 4.022827e-01 3.457256e-05 -1.631677e-06 -1.461152e-05 -1.492910e-06 8.621216e-01 4.983521e-01
2.319456e+08 8.935547e-01 4.024048e-01 -2.716295e-05 -2.471171e-05 -1.513050e-06 -5.018665e-07 8.621216e-01 4.987793e-01
2.321634e+08 8.939819e-01 4.022827e-01 1.067668e-05 4.284084e-05 3.825501e-05 -4.444271e-05 8.619995e-01 4.993286e-01
2.323812e+08 8.941650e-01 4.034424e-01 -1.710188e-05 -5.826354e-06 -7.605180e-06 -2.270006e-05 8.618774e-01 4.992676e-01
2.325991e+08 8.931274e-01 4.030762e-01 1.186877e-05 3.007241e-06 3.073364e-08 2.017058e-05 8.613892e-01 4.991455e-01
2.328169e+08 8.927002e-01 4.036255e-01 -2.337247e-05 -1.930073e-05 3.004447e-06 -2.925843e-05 8.618164e-01 4.991455e-01
2.330347e+08 8.927612e-01 4.033813e-01 5.394220e-06 -4.770607e-05 -3.529340e-05 1.516938e-05 8.610840e-01 4.995728e-01
2.332525e+08 8.926392e-01 4.031982e-01 -9.051058e-06 -8.250121e-06 5.546957e-06 -1.523644e-06 8.596191e-01 5.002441e-01
2.334703e+08 8.923340e-01 4.027710e-01 3.603287e-05 -4.228204e-06 -2.824329e-05 4.088506e-06 8.597412e-01 5.008545e-01
2.336881e+08 8.926392e-01 4.036865e-01 3.966317e-05 -3.606454e-05 6.062910e-06 2.013054e-06 8.600464e-01 5.011597e-01
2.339059e+08 8.922119e-01 4.045410e-01 1.329929e-05 3.920868e-07 -1.061521e-05 -2.373569e-05 8.601685e-01 5.008545e-01
2.341238e+08 8.920288e-01 4.041138e-01 2.903119e-05 8.858740e-06 -3.686920e-05 1.467764e-05 8.601074e-01 5.014038e-01
2.343416e+08 8.920288e-01 4.041138e-01 -1.876429e-05 -4.050508e-05 -1.009228e-05 1.011882e-05 8.594360e-01 5.014648e-01
2.345594e+08 8.913574e-01 4.040527e-01 2.417527e-05 -7.275492e-06 2.169609e-05 -2.983771e-05 8.590088e-01 5.012207e-01
2.347772e+08 8.912964e-01 4.037476e-01 -2.481788e-05 -1.670793e-05 -3.633276e-05 3.845617e-05 8.591309e-01 5.009766e-01
2.349950e+08 8.912964e-01 4.042969e-01 4.801154e-05 -1.210719e-06 -2.524233e-06 2.531451e-06 8.591309e-01 5.018921e-01
2.352128e+08 8.903198e-01 4.047241e-01 -1.896452e-05 1.009554e-05 2.625957e-05 -1.823902e-05 8.590088e-01 5.019531e-01
2.354306e+08 8.908691e-01 4.045410e-01 2.622977e-05 1.410581e-05 -6.072689e-06 -2.013985e-06 8.584595e-01 5.015869e-01
2.356484e+08 8.901978e-01 4.052124e-01 -3.024936e-06 -3.206730e-05 -4.043570e-06 2.026325e-06 8.574829e-01 5.021362e-01
2.358662e+08 8.893433e-01 4.044800e-01 -3.831089e-05 3.350526e-05 -1.514237e-05 1.518615e-05 8.574829e-01 5.018311e-01
2.360841e+08 8.892212e-01 4.050903e-01 -2.905168e-05 -8.853152e-06 1.618359e-05 1.998618e-06 8.568726e-01 5.015259e-01
2.363019e+08 8.892212e-01 4.047241e-01 1.676381e-05 1.917314e-05 -7.132068e-06 -2.933480e-05 8.572388e-01 5.023804e-01
2.365197e+08 8.890991e-01 4.057007e-01 3.818050e-05 1.713075e-05 -1.822691e-05 -6.058253e-06 8.571167e-01 5.022583e-01
2.367375e+08 8.887939e-01 4.063110e-01 -2.846122e-05 1.515821e-05 1.529232e-06 2.076104e-05 8.565674e-01 5.023804e-01
2.369553e+08 8.884277e-01 4.061890e-01 2.282299e-05 -4.647300e-06 3.725290e-08 5.061552e-05 8.558350e-01 5.030518e-01
2.371731e+08 8.879395e-01 4.060059e-01 5.534664e-05 2.301484e-05 2.529006e-06 -2.532965e-06 8.556519e-01 5.028076e-01
2.373909e+08 8.877563e-01 4.058228e-01 -5.860999e-05 -4.392117e-06 1.112465e-05 -1.317915e-05 8.556519e-01 5.025635e-01
2.376088e+08 8.869629e-01 4.063721e-01 1.859292e-05 3.235415e-06 -1.264364e-05 1.266319e-05 8.550415e-01 5.031128e-01
2.378266e+08 8.872070e-01 4.055176e-01 2.912246e-05 8.881092e-06 -1.519267e-05 5.090609e-06 8.554688e-01 5.029907e-01
2.380444e+08 8.861694e-01 4.055176e-01 1.174025e-05 -3.438629e-05 -4.047528e-06 2.032379e-06 8.546753e-01 5.042114e-01
2.382622e+08 8.864746e-01 4.060059e-01 -2.527423e-05 -3.419816e-06 1.068786e-05 3.393926e-05 8.541260e-01 5.026855e-01
2.384800e+08 8.856812e-01 4.064941e-01 -3.477372e-05 1.627952e-06 6.584451e-06 -4.567206e-06 8.530273e-01 5.032959e-01
2.386978e+08 8.856201e-01 4.065552e-01 3.862008e-05 3.831461e-06 -1.671538e-05 1.472421e-05 8.526001e-01 5.035400e-01
2.389156e+08 8.848877e-01 4.072266e-01 -1.599267e-05 4.230067e-05 -9.598210e-06 2.383627e-05 8.530273e-01 5.036011e-01
2.391334e+08 8.843384e-01 4.071045e-01 8.910894e-06 -2.912059e-05 4.108436e-05 1.364201e-05 8.513794e-01 5.037231e-01
2.393512e+08 8.843994e-01 4.067993e-01 -2.913177e-05 -8.875504e-06 -4.565809e-06 -1.514331e-06 8.513794e-01 5.034180e-01
2.395691e+08 8.836060e-01 4.066162e-01 2.774037e-05 1.153909e-05 -1.824182e-05 1.423154e-05 8.514404e-01 5.045166e-01
2.397869e+08 8.836670e-01 4.073486e-01 -2.286583e-05 4.652888e-06 -1.675729e-05 -5.561858e-06 8.502808e-01 5.042725e-01
2.400047e+08 8.820801e-01 4.075928e-01 -2.957322e-05 4.457310e-06 -2.077594e-05 3.702939e-05 8.505249e-01 5.047607e-01
2.402225e+08 8.827515e-01 4.069824e-01 -8.106232e-06 2.431218e-06 -3.598630e-05 3.203563e-05 8.504639e-01 5.049438e-01
2.404403e+08 8.818359e-01 4.075928e-01 -8.916482e-06 2.916716e-05 4.898757e-07 -1.675077e-05 8.497314e-01 5.052490e-01
2.406581e+08 8.814697e-01 4.074097e-01 2.954714e-05 -4.446134e-06 -9.723008e-07 4.365295e-05 8.485107e-01 5.048218e-01
2.408759e+08 8.809204e-01 4.076538e-01 -2.309494e-05 -3.280677e-05 -2.033263e-05 -2.028700e-05 8.484497e-01 5.050659e-01
2.410938e+08 8.801880e-01 4.076538e-01 3.116392e-05 3.039464e-05 1.522712e-05 -5.095266e-06 8.473511e-01 5.057373e-01
2.413116e+08 8.806763e-01 4.082642e-01 -1.863856e-05 -3.241003e-06 3.505126e-05 1.488253e-06 8.474731e-01 5.050659e-01
2.415294e+08 8.795776e-01 4.087524e-01 -2.777204e-05 -1.152046e-05 2.336316e-05 -9.164214e-06 8.475342e-01 5.045166e-01
2.417472e+08 8.788452e-01 4.091187e-01 1.903530e-05 -1.013651e-05 -1.676194e-05 2.489984e-05 8.460693e-01 5.048218e-01
2.419650e+08 8.788452e-01 4.086914e-01 7.489696e-06 -2.657436e-05 -3.811717e-05 -2.503395e-06 8.468018e-01 5.052490e-01
2.421828e+08 8.780518e-01 4.089966e-01 1.763552e-05 -7.517636e-06 -1.422875e-05 -2.844259e-05 8.460693e-01 5.054321e-01
2.424006e+08 8.772583e-01 4.093018e-01 4.072487e-05 2.534315e-05 -4.065689e-06 -8.127186e-06 8.442993e-01 5.062256e-01
2.426184e+08 8.768311e-01 4.100342e-01 6.467104e-06 -3.732368e-05 -8.639414e-06 1.067249e-05 8.448486e-01 5.056763e-01
2.428362e+08 8.765869e-01 4.097290e-01 -8.232892e-07 2.675503e-05 -1.270510e-05 2.552755e-06 8.434448e-01 5.056763e-01
2.430541e+08 8.757935e-01 4.102173e-01 -2.717786e-05 1.256727e-05 -1.396984e-09 -1.016678e-05 8.431396e-01 5.061035e-01
2.432719e+08 8.753052e-01 4.097290e-01 -3.165565e-05 -1.705252e-05 -2.389401e-05 -4.552305e-06 8.430176e-01 5.062256e-01
2.434897e+08 8.750610e-01 4.097290e-01 1.239125e-05 -1.033954e-05 -1.373980e-05 -1.473445e-05 8.419800e-01 5.072632e-01
2.437075e+08 8.746338e-01 4.098511e-01 -5.315989e-05 -1.500919e-05 -1.172069e-05 -2.083741e-05 8.412476e-01 5.063477e-01
2.439253e+08 8.742065e-01 4.105835e-01 1.843087e-06 -1.604389e-05 -1.627486e-05 8.150004e-06 8.406372e-01 5.077515e-01
2.441431e+08 8.732910e-01 4.108887e-01 -6.053597e-07 -2.416410e-05 4.579313e-06 1.523411e-06 8.403320e-01 5.068970e-01
2.443609e+08 8.725586e-01 4.108276e-01 1.440477e-05 1.115724e-05 -3.255904e-05 -4.043803e-06 8.389893e-01 5.063477e-01
2.445788e+08 8.721924e-01 4.110718e-01 9.954907e-06 -1.847185e-05 -2.239458e-05 -1.422502e-05 8.385010e-01 5.070190e-01
2.447966e+08 8.716431e-01 4.119263e-01 -3.855303e-05 3.365427e-05 -1.782365e-05 -2.289750e-05 8.369751e-01 5.068970e-01
2.450144e+08 8.708496e-01 4.118042e-01 5.651265e-06 7.798895e-05 -3.560446e-06 5.600043e-06 8.373413e-01 5.081177e-01
2.452322e+08 8.702393e-01 4.118042e-01 -1.422362e-06 2.639135e-06 6.102957e-06 -8.146744e-06 8.364868e-01 5.083008e-01
2.454500e+08 8.692017e-01 4.112549e-01 3.837980e-05 1.728721e-05 3.306940e-05 7.607043e-06 8.358765e-01 5.086670e-01
2.456678e+08 8.699341e-01 4.125366e-01 1.399405e-05 2.457947e-05 5.088747e-06 -2.548285e-05 8.347168e-01 5.084839e-01
2.458856e+08 8.682251e-01 4.126587e-01 7.901341e-06 4.854053e-05 8.655712e-06 -2.087932e-05 8.344727e-01 5.081787e-01
2.461034e+08 8.682251e-01 4.117432e-01 1.015235e-05 1.909956e-05 -3.413111e-05 -4.550442e-06 8.338623e-01 5.087891e-01
2.463212e+08 8.673706e-01 4.125366e-01 1.685135e-05 1.931470e-05 1.171790e-05 1.068506e-05 8.331299e-01 5.093994e-01
2.465391e+08 8.666992e-01 4.132690e-01 4.079193e-07 -1.341011e-05 -9.674579e-06 3.412738e-05 8.324585e-01 5.086670e-01
2.467569e+08 8.656616e-01 4.143677e-01 -5.277339e-06 -2.850313e-06 -3.719144e-05 -5.608425e-06 8.313599e-01 5.090332e-01
2.469747e+08 8.656616e-01 4.146118e-01 -5.703419e-06 1.057517e-05 7.644296e-06 -2.804212e-05 8.319702e-01 5.093994e-01
2.471925e+08 8.645630e-01 4.136353e-01 -1.544319e-05 -2.196804e-05 7.626601e-06 -1.783017e-05 8.306885e-01 5.096436e-01
2.474103e+08 8.641968e-01 4.146729e-01 2.684444e-05 8.288771e-07 -1.426600e-05 2.039596e-06 8.299561e-01 5.100098e-01
2.476281e+08 8.629761e-01 4.143677e-01 1.627300e-05 -4.871748e-06 -1.069391e-05 6.618910e-06 8.291626e-01 5.100098e-01
2.478459e+08 8.626099e-01 4.147339e-01 4.537404e-05 -3.351644e-05 2.444722e-05 -2.242811e-05 8.284302e-01 5.104980e-01
2.480638e+08 8.618774e-01 4.155884e-01 -2.499297e-05 -1.687557e-05 1.375563e-05 -5.606562e-06 8.269653e-01 5.100098e-01
2.482816e+08 8.621826e-01 4.156494e-01 4.107133e-07 -1.342408e-05 4.084781e-06 8.157454e-06 8.270874e-01 5.108032e-01
2.484994e+08 8.609619e-01 4.152222e-01 -8.137897e-06 2.430752e-06 2.700277e-05 -4.613772e-06 8.259277e-01 5.114136e-01
2.487172e+08 8.604126e-01 4.165649e-01 1.241639e-05 -1.036189e-05 5.605631e-06 -1.173001e-05 8.250732e-01 5.118408e-01
2.489350e+08 8.592529e-01 4.166870e-01 5.289167e-05 2.850220e-05 -1.427904e-05 4.282221e-05 8.244629e-01 5.114746e-01
2.491528e+08 8.580933e-01 4.168091e-01 5.111098e-06 -3.479421e-05 -1.783110e-05 -2.547167e-06 8.234253e-01 5.121460e-01
2.493706e+08 8.580933e-01 4.179688e-01 2.828613e-05 -1.795590e-06 -8.665957e-06 -9.695068e-06 8.223877e-01 5.126953e-01
2.495884e+08 8.569946e-01 4.174805e-01 2.418458e-05 4.375353e-05 -1.121592e-05 -7.138588e-06 8.217163e-01 5.121460e-01
2.498062e+08 8.569336e-01 4.171753e-01 9.567942e-06 -5.074311e-06 2.344884e-05 -9.201467e-06 8.203735e-01 5.128174e-01
2.500241e+08 8.555908e-01 4.185181e-01 6.292947e-06 1.364294e-05 4.075933e-06 8.158851e-06 8.200073e-01 5.132446e-01
2.502419e+08 8.549805e-01 4.190063e-01 3.214926e-05 3.699213e-06 2.752990e-05 9.184703e-06 8.189697e-01 5.136108e-01
2.504597e+08 8.548584e-01 4.191284e-01 -4.801899e-05 -1.224503e-05 -7.657334e-06 2.806075e-05 8.182373e-01 5.139771e-01
2.506775e+08 8.532104e-01 4.202271e-01 -1.358055e-05 -3.808178e-05 -1.172442e-05 -1.072139e-05 8.176880e-01 5.137939e-01
2.508953e+08 8.533936e-01 4.202881e-01 4.567206e-06 -5.907193e-05 -4.030950e-05 1.378171e-05 8.173828e-01 5.151978e-01
2.511131e+08 8.528442e-01 4.203491e-01 -1.157355e-05 -1.651514e-05 2.245791e-05 -1.633912e-05 8.158569e-01 5.158081e-01
2.513309e+08 8.518677e-01 4.216309e-01 -3.300607e-05 2.317689e-05 1.538545e-06 -9.699259e-06 8.156128e-01 5.150757e-01
2.515488e+08 8.508301e-01 4.214478e-01 1.343619e-05 4.274771e-07 -3.057532e-06 -1.123082e-05 8.145752e-01 5.155640e-01
2.517666e+08 8.497314e-01 4.213257e-01 3.074855e-05 6.349757e-06 1.277030e-05 -2.295151e-05 8.140869e-01 5.162354e-01
2.519844e+08 8.493042e-01 4.223633e-01 2.346374e-05 -1.810119e-05 -1.380034e-05 3.622845e-05 8.132324e-01 5.169067e-01
2.522022e+08 8.492432e-01 4.226074e-01 -1.916569e-05 1.017377e-05 1.378637e-05 -5.614944e-06 8.129272e-01 5.170288e-01
2.524200e+08 8.484497e-01 4.236450e-01 -1.818128e-05 2.095103e-05 -1.006760e-06 -1.737010e-05 8.113403e-01 5.180664e-01
2.526378e+08 8.471680e-01 4.245605e-01 2.546981e-05 3.509223e-06 -2.539530e-05 -7.662922e-05 8.108521e-01 5.184326e-01
2.528556e+08 8.467407e-01 4.247437e-01 1.244061e-05 -1.038238e-05 2.805330e-05 2.300739e-05 8.101807e-01 5.180054e-01
2.530734e+08 8.459473e-01 4.249878e-01 2.850592e-05 3.588758e-05 -3.530085e-05 5.968660e-05 8.093872e-01 5.181274e-01
2.532912e+08 8.449097e-01 4.255371e-01 8.156057e-06 -2.435874e-06 -1.380127e-05 1.580641e-05 8.084106e-01 5.190430e-01
2.535091e+08 8.444824e-01 4.257202e-01 -7.731840e-06 -1.101941e-05 -1.427345e-05 -2.860650e-05 8.074951e-01 5.196533e-01
2.537269e+08 8.436890e-01 4.260254e-01 6.292947e-06 1.365785e-05 -1.175422e-05 1.989771e-05 8.060913e-01 5.196533e-01
2.539447e+08 8.431396e-01 4.274902e-01 1.158472e-05 1.651701e-05 -1.374260e-05 -3.525987e-05 8.052979e-01 5.200806e-01
2.541625e+08 8.429565e-01 4.272461e-01 -2.833083e-05 1.791865e-06 -1.226552e-05 1.633912e-05 8.048706e-01 5.204468e-01
2.543803e+08 8.416748e-01 4.270630e-01 -1.059286e-05 -5.726703e-06 -1.326855e-05 -1.123361e-05 8.035278e-01 5.216064e-01
2.545981e+08 8.406982e-01 4.287720e-01 -4.295725e-06 7.946044e-06 3.168359e-05 -1.323596e-05 8.032227e-01 5.217896e-01
2.548159e+08 8.399048e-01 4.292603e-01 -2.362765e-05 -1.960807e-05 4.053116e-06 2.860278e-05 8.021851e-01 5.222778e-01
2.550338e+08 8.383179e-01 4.297485e-01 -3.221259e-05 -3.749505e-06 -1.017004e-05 -3.063679e-05 8.009644e-01 5.230713e-01
2.552516e+08 8.382568e-01 4.299316e-01 1.601875e-05 4.634634e-05 -8.659437e-06 -1.992378e-05 8.006592e-01 5.236816e-01
2.554694e+08 8.380737e-01 4.308472e-01 -1.488719e-05 2.198853e-06 -2.142414e-05 -4.804134e-05 7.985229e-01 5.241089e-01
2.556872e+08 8.371582e-01 4.315186e-01 -1.564622e-06 -3.506988e-05 -1.990236e-05 -2.708845e-05 7.983398e-01 5.240479e-01
2.559050e+08 8.357544e-01 4.322510e-01 -1.832005e-05 -1.677312e-05 7.684343e-06 -1.786556e-05 7.978516e-01 5.252075e-01
2.561228e+08 8.360596e-01 4.330444e-01 2.063066e-05 -1.282431e-05 -1.640618e-05 3.883801e-05 7.974854e-01 5.253296e-01
2.563406e+08 8.348389e-01 4.338379e-01 -6.854534e-06 -3.796630e-05 -8.620322e-06 -5.061552e-05 7.960815e-01 5.258789e-01
2.565584e+08 8.342896e-01 4.342651e-01 2.064183e-05 -1.278892e-05 2.084300e-06 -2.657063e-05 7.946167e-01 5.277100e-01
2.567762e+08 8.337402e-01 4.341431e-01 -4.433468e-05 -4.451722e-05 5.621929e-06 -1.529697e-06 7.933960e-01 5.267944e-01
2.569941e+08 8.326416e-01 4.351196e-01 1.532771e-05 -1.567975e-05 -4.136935e-06 3.270432e-05 7.934570e-01 5.278320e-01
2.572119e+08 8.325195e-01 4.362793e-01 -4.005805e-05 -5.249307e-05 -1.587346e-05 1.173932e-05 7.921143e-01 5.283813e-01
2.574297e+08 8.309326e-01 4.368896e-01 3.220886e-05 3.717840e-06 2.767332e-05 -3.163703e-05 7.913208e-01 5.285034e-01
2.576475e+08 8.303223e-01 4.361572e-01 1.532864e-05 -1.567788e-05 1.428928e-05 1.842063e-05 7.908325e-01 5.293579e-01
2.578653e+08 8.299561e-01 4.374390e-01 -4.829466e-05 -5.010143e-05 6.617978e-06 1.585856e-05 7.905884e-01 5.302734e-01
2.580831e+08 8.293457e-01 4.378052e-01 2.163276e-05 -2.000481e-06 -2.504699e-05 -1.572073e-06 7.894287e-01 5.307617e-01
2.583009e+08 8.284302e-01 4.391479e-01 2.793223e-05 1.169182e-05 -2.328306e-08 1.022825e-05 7.882690e-01 5.315552e-01
2.585188e+08 8.278198e-01 4.402466e-01 -1.967140e-05 2.362952e-05 2.307631e-05 -3.320351e-05 7.877808e-01 5.329590e-01
2.587366e+08 8.272705e-01 4.412231e-01 -1.302175e-05 -1.391489e-05 -9.707641e-06 -6.668270e-06 7.862549e-01 5.327759e-01
2.589544e+08 8.251343e-01 4.412231e-01 -1.633167e-05 4.863366e-06 -1.987442e-06 -2.452359e-05 7.857056e-01 5.326538e-01
2.591722e+08 8.253174e-01 4.420776e-01 -1.192093e-07 -3.774464e-05 -1.433957e-05 1.224875e-05 7.849731e-01 5.334473e-01
2.593900e+08 8.251343e-01 4.421387e-01 -2.406538e-05 -6.200746e-06 9.730458e-06 -1.379941e-05 7.838135e-01 5.348511e-01
2.596078e+08 8.243408e-01 4.430542e-01 3.469363e-05 1.192838e-05 2.000481e-05 -4.446507e-05 7.832031e-01 5.354614e-01
2.598256e+08 8.234863e-01 4.439697e-01 -4.095957e-05 -2.563745e-05 -4.405901e-05 5.003437e-05 7.817383e-01 5.361328e-01
2.600434e+08 8.229370e-01 4.448853e-01 -3.523193e-05 -3.622659e-05 -2.354197e-05 9.166077e-06 7.811890e-01 5.366211e-01
2.602612e+08 8.220215e-01 4.447021e-01 8.613802e-06 -1.589581e-05 4.598172e-06 1.539011e-06 7.803345e-01 5.369873e-01
2.604791e+08 8.222046e-01 4.462891e-01 -4.885976e-10 1.452349e-10 -9.714626e-06 -6.667338e-06 7.798462e-01 5.383911e-01
2.606969e+08 8.211060e-01 4.467163e-01 -8.501112e-06 5.368143e-05 1.124199e-05 7.174909e-06 7.788086e-01 5.385132e-01
2.609147e+08 8.212280e-01 4.470215e-01 -1.060124e-05 -5.741604e-06 3.070943e-05 2.607703e-08 7.776489e-01 5.391235e-01
2.611325e+08 8.187866e-01 4.485474e-01 7.183291e-06 -1.325924e-05 1.735892e-05 9.236857e-06 7.776489e-01 5.404663e-01
2.613503e+08 8.185425e-01 4.488525e-01 4.098937e-05 2.565607e-05 -3.554858e-06 -1.483597e-05 7.769775e-01 5.413208e-01
2.615681e+08 8.180542e-01 4.501343e-01 1.435401e-06 -2.653571e-06 -1.380313e-05 -4.638918e-06 7.765503e-01 5.415039e-01
2.617859e+08 8.178711e-01 4.503784e-01 2.253987e-05 -2.894923e-05 -2.581626e-06 1.278706e-05 7.749634e-01 5.422363e-01
2.620038e+08 8.171387e-01 4.512939e-01 5.302019e-06 2.869871e-06 -5.071983e-06 -2.559274e-05 7.740479e-01 5.426025e-01
2.622216e+08 8.162231e-01 4.517212e-01 3.802776e-05 -6.826594e-06 -3.481470e-05 2.244674e-05 7.732544e-01 5.449219e-01
2.624394e+08 8.157959e-01 4.531860e-01 -2.740137e-05 1.257099e-05 3.118627e-05 1.386181e-05 7.720947e-01 5.448608e-01
2.626572e+08 8.150635e-01 4.541016e-01 -1.196377e-05 3.468059e-05 -5.119294e-05 -1.154840e-07 7.714844e-01 5.458984e-01
2.628750e+08 8.139038e-01 4.548340e-01 3.225915e-05 3.779307e-06 -2.965331e-05 -3.146008e-06 7.708740e-01 5.466309e-01
2.630928e+08 8.138428e-01 4.555664e-01 -8.183997e-06 2.427027e-06 7.735565e-06 -2.812035e-05 7.707520e-01 5.475464e-01
2.633106e+08 8.138428e-01 4.560547e-01 8.049607e-05 5.403906e-05 -1.587160e-05 1.503155e-06 7.691650e-01 5.486450e-01
2.635284e+08 8.120117e-01 4.576416e-01 2.400205e-05 -3.159605e-05 -1.940690e-05 -1.335703e-05 7.690430e-01 5.488892e-01
2.637462e+08 8.118286e-01 4.588013e-01 -1.543388e-05 -2.212077e-05 -3.499910e-06 -2.508797e-05 7.672119e-01 5.499268e-01
2.639641e+08 8.114624e-01 4.589233e-01 -4.582107e-07 1.348089e-05 1.839083e-05 1.642294e-05 7.670288e-01 5.506592e-01
2.641819e+08 8.105469e-01 4.597778e-01 -1.257099e-05 -2.742931e-05 1.383200e-05 -5.587004e-06 7.661743e-01 5.517578e-01
2.643997e+08 8.104248e-01 4.613647e-01 -2.355687e-05 1.811236e-05 1.324620e-05 2.154708e-05 7.657471e-01 5.516968e-01
2.646175e+08 8.096313e-01 4.619751e-01 5.533546e-05 -8.493662e-07 3.660098e-06 -2.609938e-05 7.641602e-01 5.526733e-01
2.648353e+08 8.085327e-01 4.622803e-01 -2.796762e-05 -1.172349e-05 -1.232326e-05 1.633633e-05 7.637939e-01 5.532837e-01
2.650531e+08 8.082275e-01 4.637451e-01 -3.422797e-05 -2.545305e-05 3.629364e-06 -1.585670e-05 7.622681e-01 5.545044e-01
2.652709e+08 8.085327e-01 4.639282e-01 2.077781e-05 2.499856e-05 -2.655946e-05 -3.283285e-05 7.624512e-01 5.551147e-01
2.654888e+08 8.074951e-01 4.653320e-01 -3.668293e-05 -3.362447e-05 -1.481455e-05 -1.181848e-05 7.613525e-01 5.558472e-01
2.657066e+08 8.074341e-01 4.660645e-01 -1.835078e-05 -1.682155e-05 -3.121793e-06 1.945626e-05 7.610474e-01 5.570679e-01
2.659244e+08 8.067017e-01 4.661865e-01 1.787022e-05 3.030524e-05 1.841877e-05 6.180257e-06 7.596436e-01 5.577393e-01
2.661422e+08 8.060913e-01 4.680786e-01 1.302734e-05 1.395307e-05 -7.174443e-06 1.006760e-06 7.590332e-01 5.590210e-01
2.663600e+08 8.051758e-01 4.691162e-01 5.155429e-05 -6.336719e-06 4.603527e-06 1.549255e-06 7.585449e-01 5.596924e-01
2.665778e+08 8.045654e-01 4.700317e-01 -1.446996e-05 -1.128856e-05 1.534121e-06 5.167676e-07 7.575684e-01 5.601196e-01
2.667956e+08 8.037720e-01 4.702759e-01 -4.380941e-06 -2.985448e-05 -6.046519e-05 2.747402e-05 7.568359e-01 5.611572e-01
2.670134e+08 8.034668e-01 4.721680e-01 -4.241988e-05 -2.307445e-05 9.592623e-06 3.742054e-05 7.559814e-01 5.620117e-01
2.672312e+08 8.030396e-01 4.727173e-01 1.905486e-06 -1.614634e-05 3.845058e-05 -1.781248e-05 7.555542e-01 5.631714e-01
2.674491e+08 8.025513e-01 4.735718e-01 -3.083609e-05 -6.441027e-06 -1.117401e-05 -2.769381e-05 7.550049e-01 5.630493e-01
2.676669e+08 8.020020e-01 4.743042e-01 5.774572e-05 -3.046542e-05 -4.099309e-05 1.012534e-05 7.540283e-01 5.642700e-01
2.678847e+08 8.020630e-01 4.755859e-01 -9.628478e-06 5.073380e-06 7.712282e-06 -7.663853e-06 7.532959e-01 5.654907e-01
2.681025e+08 8.011475e-01 4.757690e-01 -3.276393e-05 9.668991e-06 -2.613477e-05 1.169555e-05 7.526855e-01 5.674438e-01
2.683203e+08 8.013306e-01 4.770508e-01 4.684553e-07 -1.350045e-05 2.771243e-05 -2.144091e-05 7.520752e-01 5.685425e-01
2.685381e+08 7.996826e-01 4.780884e-01 1.107063e-05 -7.716939e-06 6.136484e-06 2.069399e-06 7.508545e-01 5.686646e-01
2.687559e+08 7.996826e-01 4.793091e-01 -5.360693e-06 -4.071370e-05 -1.131929e-05 1.326855e-05 7.507324e-01 5.698242e-01
2.689738e+08 7.997437e-01 4.794312e-01 -1.399592e-05 -2.480112e-05 -2.308935e-05 1.274422e-05 7.496948e-01 5.705566e-01
2.691916e+08 7.990112e-01 4.807739e-01 2.654642e-05 1.441501e-05 -9.821728e-06 2.404116e-05 7.497559e-01 5.717163e-01
2.694094e+08 7.980347e-01 4.818115e-01 2.023578e-05 6.910414e-07 3.524683e-05 2.216175e-05 7.484741e-01 5.720215e-01
2.696272e+08 7.980957e-01 4.832764e-01 9.238720e-07 -2.699904e-05 -5.564652e-06 -1.898408e-05 7.482300e-01 5.734863e-01
2.698450e+08 7.971191e-01 4.837646e-01 -5.304813e-06 -2.888031e-06 -2.554990e-05 -1.546182e-05 7.472534e-01 5.744629e-01
2.700628e+08 7.971802e-01 4.856567e-01 -4.633144e-05 -2.863258e-05 -3.847852e-05 7.521361e-06 7.466431e-01 5.755615e-01
2.702806e+08 7.966919e-01 4.862671e-01 1.595542e-05 4.650280e-05 -7.218681e-06 1.124665e-05 7.460938e-01 5.758667e-01
2.704984e+08 7.966919e-01 4.874268e-01 5.448982e-05 2.620742e-05 -1.993962e-06 -1.436658e-05 7.451782e-01 5.767822e-01
2.707162e+08 7.962646e-01 4.875488e-01 1.060870e-05 5.779788e-06 3.571389e-06 4.623318e-06 7.445068e-01 5.781860e-01
2.709341e+08 7.951660e-01 4.888916e-01 2.265722e-05 8.901581e-06 -5.177036e-05 6.470829e-06 7.437744e-01 5.792236e-01
2.711519e+08 7.950439e-01 4.897461e-01 -4.242733e-05 1.477823e-05 -4.725531e-06 2.918765e-05 7.442017e-01 5.798950e-01
2.713697e+08 7.952271e-01 4.904175e-01 -1.061987e-05 -5.789101e-06 1.746789e-05 -1.121871e-05 7.433472e-01 5.818481e-01
2.715875e+08 7.935181e-01 4.919434e-01 -7.224269e-06 1.325738e-05 -6.044284e-06 -2.256595e-05 7.416992e-01 5.818481e-01
2.718053e+08 7.943115e-01 4.933472e-01 3.616139e-05 -2.850033e-05 -5.652755e-05 2.538413e-05 7.422485e-01 5.830078e-01
2.720231e+08 7.940674e-01 4.932251e-01 8.197967e-06 -2.419110e-06 -2.214685e-05 3.016368e-05 7.413330e-01 5.839844e-01
2.722409e+08 7.938232e-01 4.949341e-01 3.864057e-06 5.543232e-06 -8.719042e-06 4.777685e-07 7.407227e-01 5.848999e-01
2.724588e+08 7.933960e-01 4.951782e-01 6.277114e-06 5.157664e-05 2.507307e-05 1.187623e-05 7.391357e-01 5.861206e-01
2.726766e+08 7.929688e-01 4.967041e-01 2.798997e-05 1.180172e-05 -3.370643e-05 -3.192015e-05 7.395020e-01 5.870361e-01
2.728944e+08 7.926025e-01 4.975586e-01 -6.232411e-06 6.199628e-05 -1.957640e-05 2.761185e-05 7.391357e-01 5.880127e-01
2.731122e+08 7.927246e-01 4.989014e-01 4.053116e-05 1.437962e-06 2.989359e-05 -3.783591e-05 7.385254e-01 5.892944e-01
2.733300e+08 7.922974e-01 4.994507e-01 -1.544692e-05 -2.217107e-05 3.128499e-05 -6.547198e-06 7.377930e-01 5.894165e-01
2.735478e+08 7.915649e-01 5.006104e-01 -5.774200e-06 1.061708e-05 -8.618459e-06 -2.002344e-05 7.376099e-01 5.905762e-01
2.737656e+08 7.915649e-01 5.020142e-01 4.310161e-06 -4.587322e-05 1.282804e-05 -2.506189e-06 7.376709e-01 5.926514e-01
2.739834e+08 7.909546e-01 5.025024e-01 -1.351163e-05 -4.712492e-07 1.220033e-05 2.464652e-05 7.366333e-01 5.931396e-01
2.742012e+08 7.908325e-01 5.032349e-01 1.976825e-05 1.422130e-05 4.677102e-06 -1.894403e-05 7.351074e-01 5.940552e-01
2.744191e+08 7.911377e-01 5.050049e-01 -4.338101e-06 7.960014e-06 1.848768e-05 -4.027970e-06 7.353516e-01 5.951538e-01
2.746369e+08 7.904663e-01 5.058594e-01 1.447555e-05 1.133513e-05 1.585577e-06 -9.738840e-06 7.350464e-01 5.963745e-01
2.748547e+08 7.905273e-01 5.070801e-01 4.544854e-07 -5.137920e-05 6.645918e-06 5.670357e-06 7.345581e-01 5.968018e-01
2.750725e+08 7.897339e-01 5.073242e-01 -2.459809e-05 7.243827e-06 2.077315e-06 -6.142538e-06 7.336426e-01 5.979004e-01
2.752903e+08 7.896729e-01 5.096436e-01 -1.937151e-06 -2.170540e-05 4.280359e-06 -3.281049e-05 7.326660e-01 5.991211e-01
2.755081e+08 7.897339e-01 5.097046e-01 -8.217990e-06 -3.547594e-05 -1.961552e-05 2.761185e-05 7.329712e-01 6.001587e-01
2.757259e+08 7.893066e-01 5.109863e-01 7.241964e-06 2.462789e-05 1.601689e-05 -2.198294e-05 7.325439e-01 6.016235e-01
2.759438e+08 7.886353e-01 5.119629e-01 6.655231e-05 2.941117e-05 1.392607e-05 -1.582596e-05 7.312012e-01 6.019897e-01
2.761616e+08 7.894897e-01 5.117798e-01 -5.308539e-06 -4.079938e-05 3.085099e-05 -2.040714e-05 7.314453e-01 6.036987e-01
2.763794e+08 7.883301e-01 5.139771e-01 4.776940e-05 2.606213e-05 3.971159e-06 2.873689e-05 7.307129e-01 6.041260e-01
2.765972e+08 7.886963e-01 5.151367e-01 1.977570e-05 1.423247e-05 -5.107606e-06 -5.155802e-06 7.299194e-01 6.049805e-01
2.768150e+08 7.879639e-01 5.154419e-01 2.024695e-05 -3.714673e-05 7.590279e-06 2.311729e-05 7.297363e-01 6.055908e-01
2.770328e+08 7.875366e-01 5.160522e-01 -1.109764e-05 -3.017671e-05 -1.129881e-05 3.025867e-06 7.296143e-01 6.074829e-01
2.772506e+08 7.877808e-01 5.177612e-01 2.751686e-05 -1.255237e-05 -2.225675e-05 4.042871e-05 7.290039e-01 6.086426e-01
2.774684e+08 7.879028e-01 5.183716e-01 -7.244758e-06 1.326948e-05 2.776459e-05 -1.117401e-05 7.284546e-01 6.091919e-01
2.776862e+08 7.877197e-01 5.189819e-01 -2.752058e-05 -2.535246e-05 -6.148592e-06 -2.080109e-06 7.285156e-01 6.107178e-01
2.779041e+08 7.871704e-01 5.208740e-01 2.604723e-05 -4.781410e-05 -3.595091e-05 4.963949e-06 7.283936e-01 6.111450e-01
2.781219e+08 7.861938e-01 5.205078e-01 2.218969e-05 2.245791e-05 2.113171e-06 -1.639407e-05 7.275391e-01 6.123047e-01
2.783397e+08 7.865601e-01 5.225830e-01 1.400523e-05 -1.302548e-05 6.101094e-06 1.234002e-05 7.271729e-01 6.134033e-01
2.785575e+08 7.867432e-01 5.237427e-01 1.208298e-05 -3.475323e-05 -5.059876e-06 -1.541618e-05 7.268677e-01 6.143799e-01
2.787753e+08 7.866821e-01 5.241699e-01 -1.497194e-05 4.006922e-05 4.925206e-05 -3.900379e-06 7.268066e-01 6.151123e-01
2.789931e+08 7.867432e-01 5.256958e-01 -5.939975e-05 -4.275516e-05 -1.899339e-05 4.209578e-07 7.265015e-01 6.162720e-01
2.792109e+08 7.865601e-01 5.257568e-01 -2.221391e-05 -2.248213e-05 2.006255e-05 -1.377054e-05 7.263184e-01 6.178589e-01
2.794288e+08 7.855225e-01 5.277100e-01 -1.208019e-05 -3.140420e-06 -7.621944e-06 -1.286529e-05 7.264404e-01 6.182251e-01
2.796466e+08 7.858887e-01 5.277710e-01 1.545809e-05 2.221763e-05 2.413057e-05 -5.535781e-06 7.257080e-01 6.195068e-01
2.798644e+08 7.860107e-01 5.294189e-01 -1.497194e-05 2.169982e-06 -8.339062e-06 2.458692e-05 7.250977e-01 6.207275e-01
2.800822e+08 7.860718e-01 5.298462e-01 -1.448765e-05 2.657063e-05 -9.443611e-06 3.792346e-05 7.252808e-01 6.215820e-01
2.803000e+08 7.855835e-01 5.302734e-01 -1.918525e-06 -2.175197e-05 -2.030982e-06 -4.112488e-06 7.248535e-01 6.237183e-01
2.805178e+08 7.861938e-01 5.324707e-01 1.111999e-05 -7.729977e-06 -3.916398e-05 2.443790e-05 7.242432e-01 6.242065e-01
2.807356e+08 7.860107e-01 5.327759e-01 1.641642e-05 -4.823320e-06 -2.975576e-05 -3.229827e-06 7.233276e-01 6.243896e-01
2.809534e+08 7.853394e-01 5.343628e-01 -2.416596e-05 3.163144e-05 7.803552e-06 -1.791585e-05 7.233887e-01 6.257935e-01
2.811712e+08 7.865601e-01 5.354004e-01 1.207460e-05 3.144145e-06 1.757685e-05 -2.149306e-05 7.228394e-01 6.268921e-01
2.813891e+08 7.863770e-01 5.364990e-01 -1.063384e-05 -5.807728e-06 -7.145107e-06 -9.286683e-06 7.231445e-01 6.284180e-01
2.816069e+08 7.860107e-01 5.369263e-01 -3.672205e-05 -3.385358e-05 -1.137704e-05 1.328997e-05 7.224731e-01 6.292725e-01
2.818247e+08 7.861938e-01 5.379028e-01 -1.738314e-05 -6.047077e-06 5.900860e-06 -5.288795e-05 7.222290e-01 6.296387e-01
2.820425e+08 7.860107e-01 5.391235e-01 -9.052455e-07 -4.877895e-05 -1.455285e-05 3.280491e-05 7.217407e-01 6.310425e-01
2.822603e+08 7.860718e-01 5.405884e-01 -5.312730e-06 -2.906192e-06 -3.186055e-06 1.951121e-05 7.219849e-01 6.320801e-01
2.824781e+08 7.858887e-01 5.411377e-01 -1.062732e-05 -5.809590e-06 -2.703443e-05 -3.662333e-05 7.219238e-01 6.329956e-01
2.826959e+08 7.855225e-01 5.419312e-01 2.129190e-05 -2.633408e-05 2.580578e-06 -2.554385e-06 7.220459e-01 6.340942e-01
2.829138e+08 7.855225e-01 5.430298e-01 1.257658e-05 -1.037307e-05 -9.983778e-06 -5.142763e-05 7.211914e-01 6.351929e-01
2.831316e+08 7.860107e-01 5.436401e-01 6.811693e-05 2.688915e-05 3.638305e-05 1.919456e-05 7.211914e-01 6.359253e-01
2.833494e+08 7.863770e-01 5.445557e-01 -4.735589e-05 3.621727e-05 -1.330581e-05 -1.137704e-05 7.210083e-01 6.363525e-01
2.835672e+08 7.861938e-01 5.462646e-01 -2.900325e-05 1.520850e-05 -1.083454e-05 6.621238e-06 7.208862e-01 6.375122e-01
2.837850e+08 7.857666e-01 5.464478e-01 1.941808e-06 -1.619197e-05 -1.592934e-05 1.445413e-06 7.208252e-01 6.386719e-01
2.840028e+08 7.865601e-01 5.466309e-01 -3.772788e-05 3.112853e-05 -1.041917e-06 3.077555e-06 7.201538e-01 6.396484e-01
2.842206e+08 7.864380e-01 5.482788e-01 -3.861729e-06 -5.559996e-06 -2.044346e-05 -2.066512e-05 7.200317e-01 6.405029e-01
2.844384e+08 7.858887e-01 5.491943e-01 8.180737e-06 3.555045e-05 2.977252e-05 3.246590e-06 7.199707e-01 6.420288e-01
2.846562e+08 7.863159e-01 5.500488e-01 -5.316921e-06 -2.902001e-06 1.968443e-05 -2.763420e-05 7.200928e-01 6.425171e-01
2.848741e+08 7.870483e-01 5.512695e-01 1.694076e-05 -1.836475e-05 -9.235460e-06 -3.137160e-06 7.199707e-01 6.438599e-01
2.850919e+08 7.868652e-01 5.515137e-01 -1.498777e-05 2.155080e-06 1.478568e-05 2.218038e-05 7.192383e-01 6.448364e-01
2.853097e+08 7.869263e-01 5.521851e-01 -3.840774e-06 -4.350394e-05 -2.201647e-06 2.671406e-05 7.192993e-01 6.456299e-01
2.855275e+08 7.866821e-01 5.531616e-01 5.815178e-06 -1.063012e-05 3.402121e-05 -1.934730e-05 7.189941e-01 6.469116e-01
2.857453e+08 7.867432e-01 5.546875e-01 3.368594e-06 1.909956e-05 -6.267801e-06 1.846999e-05 7.190552e-01 6.475220e-01
2.859631e+08 7.866211e-01 5.551758e-01 -1.398474e-05 -2.490915e-05 -4.339963e-07 -1.388229e-05 7.184448e-01 6.483154e-01
2.861809e+08 7.875366e-01 5.571289e-01 -1.499429e-05 2.149493e-06 -1.606531e-06 9.767711e-06 7.181396e-01 6.495972e-01
2.863988e+08 7.872314e-01 5.573730e-01 2.756529e-05 -1.252256e-05 2.119318e-05 -1.685321e-05 7.177124e-01 6.499634e-01
2.866166e+08 7.875977e-01 5.582275e-01 2.754480e-05 2.541952e-05 1.700595e-05 -4.530884e-06 7.185669e-01 6.511230e-01
2.868344e+08 7.876587e-01 5.584717e-01 2.081320e-05 -1.278333e-05 5.052425e-06 1.546275e-05 7.178345e-01 6.519775e-01
2.870522e+08 7.882080e-01 5.594482e-01 -9.187497e-06 -8.480158e-06 8.748844e-06 -4.661269e-07 7.185059e-01 6.535034e-01
2.872700e+08 7.880859e-01 5.606079e-01 3.919192e-05 4.163012e-06 8.080155e-06 2.681091e-05 7.182617e-01 6.542358e-01
2.874878e+08 7.886353e-01 5.609741e-01 -3.191456e-05 -1.745485e-05 -3.405474e-05 1.938269e-05 7.178955e-01 6.548462e-01
2.877056e+08 7.881470e-01 5.620117e-01 3.521144e-05 7.447228e-05 3.752671e-05 5.869195e-06 7.172241e-01 6.552734e-01
2.879234e+08 7.883301e-01 5.628052e-01 -6.773509e-06 -2.551824e-07 -7.580966e-06 -2.320856e-05 7.171021e-01 6.571655e-01
2.881412e+08 7.888184e-01 5.630493e-01 -3.530271e-05 -3.659539e-05 -1.484994e-06 -1.081731e-05 7.179565e-01 6.578369e-01
2.883591e+08 7.889404e-01 5.641479e-01 2.517737e-05 1.720153e-05 3.644451e-05 1.925789e-05 7.186890e-01 6.583252e-01
2.885769e+08 7.887573e-01 5.651245e-01 1.164339e-05 -2.129003e-05 -3.032945e-05 -6.867573e-06 7.178345e-01 6.594849e-01
2.887947e+08 7.890015e-01 5.659790e-01 1.994893e-05 -6.172433e-05 -3.285520e-05 -1.462363e-05 7.179565e-01 6.605835e-01
2.890125e+08 7.899170e-01 5.661621e-01 9.737909e-06 -4.307553e-05 -4.570931e-06 -1.186505e-05 7.175903e-01 6.610107e-01
2.892303e+08 7.899780e-01 5.673218e-01 5.625188e-07 -5.156919e-05 -1.338124e-05 -1.108274e-06 7.173462e-01 6.621094e-01
2.894481e+08 7.898560e-01 5.687866e-01 -4.368834e-06 7.992145e-06 2.214499e-05 6.612390e-07 7.183838e-01 6.630249e-01
2.896659e+08 7.894287e-01 5.693359e-01 1.989305e-05 -2.370030e-05 2.092496e-05 -5.134568e-05 7.174072e-01 6.641235e-01
2.898838e+08 7.907715e-01 5.697021e-01 -5.186349e-05 6.213784e-06 -1.484063e-06 -1.082802e-05 7.179565e-01 6.646729e-01
2.901016e+08 7.904053e-01 5.701904e-01 2.325512e-05 -4.574656e-06 -1.047039e-06 3.083842e-06 7.178345e-01 6.648560e-01
2.903194e+08 7.907715e-01 5.720215e-01 2.913177e-06 -5.324371e-06 2.826191e-05 1.305901e-05 7.176514e-01 6.657104e-01
2.905372e+08 7.911377e-01 5.723267e-01 1.800805e-05 -4.553422e-05 -1.345854e-05 9.195879e-06 7.181396e-01 6.671143e-01
2.907550e+08 7.910156e-01 5.729980e-01 1.166388e-05 -2.131425e-05 -6.110407e-06 -1.240335e-05 7.180176e-01 6.680908e-01
2.909728e+08 7.919922e-01 5.736084e-01 -1.410022e-06 -3.539771e-05 1.346413e-05 -9.203330e-06 7.183228e-01 6.688232e-01
2.911906e+08 7.918091e-01 5.741577e-01 9.641051e-06 3.297813e-05 -1.834705e-05 -3.720820e-05 7.172241e-01 6.699829e-01
2.914084e+08 7.913208e-01 5.749512e-01 -6.014854e-05 8.638948e-06 -6.665010e-06 -5.710404e-06 7.175293e-01 6.707153e-01
2.916262e+08 7.919922e-01 5.753174e-01 -2.708472e-05 -3.908016e-05 -8.959323e-06 3.139116e-05 7.175293e-01 6.712036e-01
2.918441e+08 7.921753e-01 5.766602e-01 -1.221523e-05 3.490411e-05 -7.792842e-06 7.685274e-06 7.171631e-01 6.731567e-01
2.920619e+08 7.924194e-01 5.770264e-01 -1.498498e-05 -3.591925e-05 1.340359e-05 1.117587e-06 7.174072e-01 6.728516e-01
2.922797e+08 7.928467e-01 5.775757e-01 -6.281771e-06 -1.384784e-05 4.829839e-06 -2.937205e-05 7.177124e-01 6.744995e-01
2.924975e+08 7.926636e-01 5.781250e-01 -2.715923e-05 -1.039356e-06 9.262003e-06 3.157184e-06 7.167358e-01 6.747437e-01
2.927153e+08 7.930908e-01 5.790405e-01 3.300607e-05 -9.633601e-06 -2.596993e-06 2.562650e-06 7.172241e-01 6.755371e-01
2.929331e+08 7.929688e-01 5.797729e-01 4.822388e-06 1.650862e-05 -3.016554e-06 -1.137052e-05 7.175293e-01 6.763306e-01
2.931509e+08 7.937622e-01 5.797729e-01 2.134591e-05 1.167506e-05 3.226101e-06 -1.959223e-05 7.181396e-01 6.766968e-01
2.933688e+08 7.940674e-01 5.813599e-01 2.280064e-05 9.020790e-06 4.908070e-07 3.618188e-06 7.176514e-01 6.776123e-01
2.935866e+08 7.943115e-01 5.819092e-01 1.213420e-05 3.189780e-06 -8.581206e-06 -3.052130e-05 7.173462e-01 6.793213e-01
2.938044e+08 7.943726e-01 5.822144e-01 -6.800517e-06 -2.542511e-07 -3.070757e-05 -4.150160e-05 7.184448e-01 6.790771e-01
2.940222e+08 7.949219e-01 5.829468e-01 4.209578e-07 2.452917e-05 -4.446134e-06 -3.257766e-05 7.178345e-01 6.803589e-01
2.942400e+08 7.951050e-01 5.834351e-01 -2.376363e-05 -1.996197e-05 -9.345822e-06 7.166062e-06 7.182007e-01 6.804199e-01
2.944578e+08 7.948608e-01 5.852661e-01 4.082546e-05 1.557171e-06 -2.686866e-06 1.289230e-05 7.181396e-01 6.819458e-01
2.946756e+08 7.954102e-01 5.841064e-01 -6.279908e-06 -1.386460e-05 -5.014613e-05 1.053512e-05 7.178345e-01 6.823730e-01
2.948934e+08 7.954712e-01 5.846558e-01 -1.318194e-05 2.402999e-05 -2.523325e-05 -1.203828e-05 7.182617e-01 6.828613e-01
2.951112e+08 7.964478e-01 5.858765e-01 -3.363006e-06 -1.919363e-05 -1.195073e-05 9.737909e-06 7.179565e-01 6.828613e-01
2.953291e+08 7.958984e-01 5.863647e-01 2.040528e-05 7.674098e-07 -2.304465e-05 -2.857484e-05 7.180176e-01 6.837158e-01
2.955469e+08 7.963867e-01 5.865479e-01 1.558568e-05 -1.576077e-05 -7.092953e-06 -1.967978e-05 7.180786e-01 6.844482e-01
2.957647e+08 7.960815e-01 5.880737e-01 -1.946744e-05 1.017936e-05 -1.310557e-05 2.316013e-05 7.186279e-01 6.854248e-01
2.959825e+08 7.970581e-01 5.879517e-01 6.808434e-06 2.561137e-07 1.610722e-05 -1.178030e-05 7.188721e-01 6.860352e-01
2.962003e+08 7.962036e-01 5.878906e-01 -5.591661e-06 1.449604e-05 -1.483597e-05 1.364201e-05 7.199097e-01 6.877441e-01
2.964181e+08 7.960205e-01 5.870972e-01 -2.942607e-05 -4.873052e-05 -2.698600e-05 1.641549e-05 7.193604e-01 6.891479e-01
2.966359e+08 7.962646e-01 5.889893e-01 2.335757e-05 2.280250e-05 -4.019588e-05 -9.382144e-06 7.194824e-01 6.895752e-01
2.968538e+08 7.960205e-01 5.883179e-01 -1.150742e-05 3.019348e-06 1.782924e-05 -3.323145e-05 7.192383e-01 6.899414e-01
2.970716e+08 7.961426e-01 5.892944e-01 -4.003942e-05 3.220886e-05 2.170727e-05 5.300157e-06 7.194824e-01 6.909180e-01
2.972894e+08 7.967529e-01 5.899658e-01 1.782551e-05 4.308298e-05 1.332629e-05 -3.825873e-06 7.197876e-01 6.909180e-01
2.975072e+08 7.974243e-01 5.901489e-01 1.752190e-05 1.711771e-05 1.204945e-05 2.683513e-05 7.199707e-01 6.917114e-01
2.977250e+08 7.976074e-01 5.909424e-01 2.298504e-05 -8.929521e-06 3.277883e-05 3.578141e-06 7.191772e-01 6.922607e-01
2.979428e+08 7.978516e-01 5.913086e-01 -1.434237e-07 -1.154933e-05 9.722076e-06 3.700145e-06 7.196655e-01 6.926880e-01
2.981606e+08 7.976685e-01 5.922241e-01 -3.457814e-05 6.200746e-06 -3.837794e-05 -5.323440e-05 7.197876e-01 6.931152e-01
2.983784e+08 7.982788e-01 5.927124e-01 2.961606e-07 2.598017e-05 2.096500e-05 -2.418645e-06 7.190552e-01 6.942139e-01
2.985962e+08 7.977905e-01 5.932617e-01 6.367639e-05 1.079589e-05 -9.170733e-06 -1.685321e-05 7.196655e-01 6.943970e-01
2.988141e+08 7.982788e-01 5.934448e-01 5.812943e-05 2.817810e-05 3.426336e-06 -3.148336e-06 7.199707e-01 6.950684e-01
2.990319e+08 7.990112e-01 5.942993e-01 -3.482960e-05 -1.113676e-05 -4.062988e-05 -6.463379e-07 7.205811e-01 6.961060e-01
2.992497e+08 7.988892e-01 5.942993e-01 5.537644e-06 -2.029166e-05 5.918555e-06 1.562294e-05 7.199097e-01 6.961060e-01
2.994675e+08 7.989502e-01 5.942993e-01 -1.170300e-05 -1.142826e-05 -1.163408e-05 -1.037307e-05 7.205811e-01 6.970215e-01
2.996853e+08 7.997437e-01 5.946655e-01 1.710095e-05 -2.044998e-05 1.509208e-06 -9.822659e-06 7.205811e-01 6.975098e-01
2.999031e+08 8.000488e-01 5.954590e-01 -2.900511e-05 -8.342788e-06 1.515262e-06 -9.826850e-06 7.200317e-01 6.978149e-01
3.001209e+08 8.003540e-01 5.952759e-01 4.631281e-05 5.256385e-06 2.828427e-05 3.304332e-05 7.199707e-01 6.984253e-01
3.003388e+08 8.004761e-01 5.964355e-01 -1.173094e-05 -1.431257e-05 -7.839873e-06 -2.231821e-05 7.199707e-01 6.985474e-01
3.005566e+08 8.004761e-01 5.968018e-01 2.346002e-05 2.861954e-05 -1.909304e-05 -1.619570e-05 7.201538e-01 6.994629e-01
3.007744e+08 8.009033e-01 5.963745e-01 -2.067536e-07 -1.734775e-05 -2.329797e-05 -2.077036e-05 7.205811e-01 6.997681e-01
3.009922e+08 8.009033e-01 5.972290e-01 2.275966e-05 -3.208965e-05 -6.368011e-05 5.007163e-05 7.203979e-01 7.006836e-01
3.012100e+08 8.013306e-01 5.977173e-01 1.726300e-05 -8.890405e-06 -1.564436e-05 5.935319e-06 7.214355e-01 7.015381e-01
3.014278e+08 8.015137e-01 5.973511e-01 3.472716e-05 -4.079193e-07 -8.152798e-06 3.703497e-05 7.207031e-01 7.020264e-01
3.016456e+08 8.018188e-01 5.979614e-01 -1.694635e-05 3.493391e-05 -2.044626e-05 -1.075119e-05 7.211304e-01 7.019653e-01
3.018634e+08 8.022461e-01 5.975952e-01 -1.737010e-05 2.151355e-07 1.563877e-05 -5.944632e-06 7.215576e-01 7.025757e-01
3.020812e+08 8.019409e-01 5.982666e-01 -6.504357e-06 -6.071851e-05 1.641642e-05 1.780689e-06 7.208862e-01 7.031250e-01
3.022991e+08 8.026733e-01 5.993652e-01 5.889684e-06 8.619390e-06 2.403744e-05 -2.210401e-05 7.210083e-01 7.041016e-01
3.025169e+08 8.027954e-01 5.997925e-01 -1.758616e-05 -1.716707e-05 -1.263153e-05 -1.374260e-05 7.213135e-01 7.042236e-01
3.027347e+08 8.022461e-01 6.002808e-01 1.184270e-05 2.302229e-05 -1.311302e-06 3.075600e-05 7.207031e-01 7.048340e-01
3.029525e+08 8.029175e-01 6.002197e-01 5.621463e-06 -1.454912e-05 4.293397e-05 -5.212426e-05 7.215576e-01 7.050171e-01
3.031703e+08 8.032837e-01 6.004639e-01 3.466383e-05 -9.089708e-06 -7.645693e-06 -1.423527e-06 7.211914e-01 7.058716e-01
3.033881e+08 8.037720e-01 6.011963e-01 -1.773238e-05 -2.877973e-05 4.571304e-05 1.293793e-05 7.214355e-01 7.062378e-01
3.036059e+08 8.037109e-01 6.007690e-01 -5.617738e-06 1.454912e-05 4.062429e-06 3.429689e-05 7.213135e-01 7.053223e-01
3.038238e+08 8.032837e-01 6.014404e-01 -6.038696e-06 -2.022833e-05 -2.318993e-06 -2.321601e-05 7.216187e-01 7.066650e-01
3.040416e+08 8.038330e-01 6.009521e-01 -2.902746e-05 -5.465001e-06 -9.613577e-07 -3.344147e-06 7.202148e-01 7.068481e-01
3.042594e+08 8.028564e-01 6.019897e-01 -5.922280e-06 -1.152884e-05 1.902692e-06 -1.863576e-05 7.203979e-01 7.075195e-01
3.044772e+08 8.048706e-01 6.020508e-01 2.272800e-05 -4.085526e-05 4.956499e-06 -1.301710e-05 7.211304e-01 7.080078e-01
3.046950e+08 8.045044e-01 6.021118e-01 4.661828e-05 1.975521e-05 4.213303e-06 4.584901e-06 7.209473e-01 7.080688e-01
3.049128e+08 8.033447e-01 6.018677e-01 5.230308e-05 8.068979e-06 1.737289e-05 -2.017338e-05 7.212524e-01 7.084961e-01
3.051306e+08 8.048706e-01 6.024170e-01 -1.136400e-05 2.043322e-05 1.450628e-05 -3.023259e-05 7.211304e-01 7.088013e-01
3.053484e+08 8.053589e-01 6.038818e-01 -5.181134e-05 3.540888e-05 -1.319684e-05 2.479926e-05 7.213135e-01 7.097168e-01
3.055662e+08 8.049927e-01 6.043701e-01 -3.456697e-05 2.359040e-05 4.804134e-05 -1.446158e-05 7.209473e-01 7.109985e-01
3.057841e+08 8.051147e-01 6.037598e-01 -2.911687e-05 -8.368865e-06 7.348880e-05 8.642673e-06 7.211914e-01 7.105103e-01
3.060019e+08 8.056030e-01 6.045532e-01 2.925657e-05 1.999922e-05 4.978478e-05 -3.397465e-06 7.210693e-01 7.114868e-01
3.062197e+08 8.054199e-01 6.035767e-01 1.147576e-05 -1.174957e-05 -3.784336e-05 3.479049e-05 7.214966e-01 7.112427e-01
3.064375e+08 8.056030e-01 6.048584e-01 2.914295e-05 1.128949e-05 1.651049e-05 5.255267e-05 7.202148e-01 7.119751e-01
3.066553e+08 8.049927e-01 6.048584e-01 5.899929e-06 8.643139e-06 1.726672e-06 1.110137e-05 7.205200e-01 7.121582e-01
3.068731e+08 8.059082e-01 6.052246e-01 -6.075948e-06 -2.316572e-05 -1.628511e-05 -6.216578e-06 7.212524e-01 7.121582e-01
3.070909e+08 8.054810e-01 6.052856e-01 -1.145154e-05 1.465715e-05 -8.983538e-06 2.938882e-05 7.216797e-01 7.126465e-01
3.073088e+08 8.053589e-01 6.047974e-01 1.151487e-05 -8.846633e-06 1.798291e-05 -8.058734e-06 7.214966e-01 7.123413e-01
3.075266e+08 8.056030e-01 6.052246e-01 -2.323277e-05 2.477318e-07 -2.065301e-05 4.434586e-05 7.205811e-01 7.131958e-01
3.077444e+08 8.062134e-01 6.055298e-01 1.126342e-05 -3.207475e-05 -1.417939e-05 -3.912486e-06 7.204590e-01 7.133179e-01
3.079622e+08 8.057251e-01 6.059570e-01 1.145061e-05 -1.465157e-05 -2.563372e-05 3.201701e-05 7.205200e-01 7.132568e-01
3.081800e+08 8.064575e-01 6.067505e-01 -3.434764e-10 3.510365e-10 1.783576e-05 2.175011e-05 7.210083e-01 7.144775e-01
3.083978e+08 8.062134e-01 6.061401e-01 3.531948e-05 4.030392e-05 -2.989732e-05 2.022833e-06 7.207031e-01 7.145386e-01
3.086156e+08 8.065796e-01 6.066284e-01 -1.792982e-05 -4.340336e-05 2.589822e-05 1.437962e-05 7.210693e-01 7.142944e-01
3.088334e+08 8.062134e-01 6.063232e-01 -3.967434e-07 -3.779493e-05 1.647510e-05 -2.358854e-05 7.205811e-01 7.152100e-01
3.090512e+08 8.062744e-01 6.062012e-01 -6.273389e-06 -4.353747e-05 -2.414547e-05 2.215616e-05 7.199097e-01 7.153931e-01
3.092691e+08 8.064575e-01 6.078491e-01 -3.480352e-05 6.204471e-06 -6.712973e-06 1.919921e-06 7.199707e-01 7.151489e-01
3.094869e+08 8.064575e-01 6.080322e-01 -1.150463e-05 1.175888e-05 -1.170579e-05 -1.045503e-05 7.203979e-01 7.157593e-01
3.097047e+08 8.063965e-01 6.077271e-01 -3.213063e-08 -2.908288e-06 1.918431e-05 -9.116717e-06 7.196045e-01 7.161865e-01
3.099225e+08 8.067627e-01 6.069946e-01 1.746137e-05 -1.927838e-07 -3.129989e-05 -4.333444e-05 7.200317e-01 7.167969e-01
3.101403e+08 8.063965e-01 6.071777e-01 -3.566965e-05 -6.654486e-05 2.532452e-05 2.186745e-06 7.202148e-01 7.166748e-01
3.103581e+08 8.062134e-01 6.087036e-01 -2.885237e-05 2.356432e-05 -1.017749e-05 3.051758e-05 7.188110e-01 7.175293e-01
3.105759e+08 8.059082e-01 6.086426e-01 6.318092e-06 4.649907e-05 6.620586e-05 -2.254173e-05 7.194214e-01 7.178955e-01
3.107938e+08 8.074341e-01 6.090088e-01 1.746137e-05 -1.825392e-07 1.019333e-05 2.036057e-05 7.194824e-01 7.177124e-01
3.110116e+08 8.067627e-01 6.087036e-01 2.321601e-05 -6.057322e-06 1.382735e-05 -1.268089e-05 7.188110e-01 7.176514e-01
3.112294e+08 8.060913e-01 6.080933e-01 5.405396e-06 -4.080683e-05 3.165565e-05 -1.630373e-05 7.184448e-01 7.185059e-01
3.114472e+08 8.061523e-01 6.090088e-01 1.834705e-07 1.746695e-05 -1.151813e-06 1.055596e-06 7.188721e-01 7.185669e-01
3.116650e+08 8.063354e-01 6.084595e-01 -1.217052e-05 -4.936755e-05 -1.074607e-05 -7.101800e-06 7.184448e-01 7.188721e-01
3.118828e+08 8.057861e-01 6.090698e-01 5.977228e-06 1.450721e-05 -2.840906e-05 1.753867e-05 7.186279e-01 7.194824e-01
3.121006e+08 8.069458e-01 6.091919e-01 -5.353242e-06 4.374981e-05 -5.184859e-05 -3.337860e-06 7.191772e-01 7.190552e-01
3.123184e+08 8.061523e-01 6.090698e-01 -1.716241e-05 3.222376e-05 9.614974e-06 -4.271418e-05 7.180786e-01 7.202148e-01
3.125362e+08 8.063354e-01 6.094360e-01 -2.886541e-05 2.652220e-05 -2.285279e-05 -8.743256e-06 7.183228e-01 7.200317e-01
3.127541e+08 8.068848e-01 6.100464e-01 2.901070e-05 -1.196563e-05 4.187785e-05 2.950989e-05 7.183838e-01 7.199707e-01
3.129719e+08 8.067627e-01 6.103516e-01 -1.853332e-07 -1.748092e-05 5.497411e-05 -1.643971e-05 7.179565e-01 7.200317e-01
3.131897e+08 8.060303e-01 6.097412e-01 -5.858950e-06 -2.854969e-06 -1.733191e-06 1.430605e-05 7.174683e-01 7.209473e-01
3.134075e+08 8.062134e-01 6.105347e-01 5.589798e-06 -2.337433e-05 -1.153676e-06 1.056876e-06 7.172241e-01 7.208862e-01
3.136253e+08 8.054199e-01 6.101685e-01 1.703948e-05 -4.099309e-05 1.633912e-05 -1.920201e-05 7.178345e-01 7.205811e-01
3.138431e+08 8.067017e-01 6.110840e-01 -5.448237e-06 3.795512e-05 7.696450e-06 -2.404116e-05 7.169800e-01 7.213135e-01
3.140609e+08 8.063354e-01 6.108398e-01 6.126240e-06 2.910011e-05 4.808418e-06 1.682434e-05 7.169189e-01 7.218018e-01
3.142788e+08 8.052979e-01 6.110840e-01 -4.111230e-05 -2.582744e-05 -8.450821e-06 -9.230804e-06 7.170410e-01 7.219238e-01
3.144966e+08 8.060303e-01 6.115112e-01 -3.493950e-05 6.172806e-06 4.227739e-06 4.618196e-06 7.165527e-01 7.221069e-01
3.147144e+08 8.057251e-01 6.111450e-01 -6.036833e-06 -2.034754e-05 -1.422875e-05 -2.942048e-05 7.162476e-01 7.218018e-01
3.149322e+08 8.057251e-01 6.109619e-01 1.145527e-05 -2.051704e-05 -5.884096e-05 -2.250448e-05 7.158813e-01 7.219238e-01
3.151500e+08 8.051758e-01 6.119385e-01 5.804468e-06 -2.977904e-06 1.461897e-05 -4.890375e-06 7.160645e-01 7.232056e-01
3.153678e+08 8.047485e-01 6.109619e-01 -1.771934e-05 -2.315268e-05 -1.808256e-05 3.352202e-05 7.153320e-01 7.227173e-01
3.155856e+08 8.042603e-01 6.125488e-01 2.907962e-05 -9.065494e-06 4.421687e-06 1.986045e-07 7.155762e-01 7.231445e-01
3.158034e+08 8.051147e-01 6.118164e-01 -4.068762e-05 2.080202e-05 1.385808e-05 -3.817491e-05 7.146606e-01 7.246704e-01
3.160212e+08 8.052368e-01 6.112061e-01 1.207367e-05 4.072860e-05 -2.058130e-05 -1.085922e-05 7.144775e-01 7.239380e-01
3.162391e+08 8.043213e-01 6.117554e-01 -3.515743e-05 -1.423620e-05 3.574044e-05 4.363805e-05 7.141724e-01 7.239380e-01
3.164569e+08 8.044434e-01 6.119385e-01 4.085153e-05 -3.319234e-06 -7.191673e-05 -2.034009e-06 7.141113e-01 7.251587e-01
3.166747e+08 8.048096e-01 6.127319e-01 -1.729652e-05 2.351962e-05 1.674704e-05 2.290681e-05 7.135620e-01 7.250366e-01
3.168925e+08 8.035889e-01 6.128540e-01 2.943911e-05 2.596341e-05 -1.349486e-06 5.479902e-06 7.130737e-01 7.246094e-01
3.171103e+08 8.033447e-01 6.135254e-01 -6.102026e-06 -2.620183e-05 -3.255904e-06 -2.674386e-05 7.127686e-01 7.246094e-01
3.173281e+08 8.030396e-01 6.134644e-01 1.175702e-05 8.644536e-06 -5.538017e-05 -2.495944e-07 7.121582e-01 7.256470e-01
3.175459e+08 8.032227e-01 6.137695e-01 2.282113e-05 -5.567446e-05 -4.440174e-05 -2.301857e-05 7.120361e-01 7.257690e-01
3.177638e+08 8.037109e-01 6.135254e-01 8.154660e-05 -2.119690e-05 -3.096834e-05 -1.367182e-06 7.113037e-01 7.264404e-01
3.179816e+08 8.029175e-01 6.140137e-01 5.723909e-06 -1.174584e-05 -3.072433e-06 -5.677342e-06 7.124634e-01 7.265015e-01
3.181994e+08 8.036499e-01 6.148071e-01 -1.794472e-05 -4.654005e-05 1.943484e-05 1.195911e-05 7.110596e-01 7.261963e-01
3.184172e+08 8.035889e-01 6.146851e-01 -1.777150e-05 -2.903119e-05 5.193055e-06 7.998198e-06 7.104492e-01 7.262573e-01
3.186350e+08 8.026733e-01 6.145020e-01 -2.936460e-05 -1.726672e-05 9.250361e-06 -8.454081e-06 7.107544e-01 7.271729e-01
3.188528e+08 8.023682e-01 6.141357e-01 1.181010e-05 1.449604e-05 -3.445707e-05 2.728403e-05 7.100220e-01 7.271729e-01
3.190706e+08 8.029175e-01 6.153564e-01 -1.169089e-05 1.033768e-07 -1.596846e-05 -1.514051e-05 7.104492e-01 7.282104e-01
3.192884e+08 8.030396e-01 6.152954e-01 2.339296e-05 2.708286e-06 -3.793091e-05 -2.055056e-05 7.097168e-01 7.278442e-01
3.195062e+08 8.024902e-01 6.153564e-01 2.954528e-05 3.480166e-05 3.246590e-06 2.676994e-05 7.095947e-01 7.286377e-01
3.197241e+08 8.016357e-01 6.158447e-01 -1.825392e-07 -2.044812e-05 -1.539756e-05 -2.916902e-06 7.088013e-01 7.284546e-01
3.199419e+08 8.010254e-01 6.161499e-01 4.661828e-05 -1.506135e-05 2.153404e-05 1.428090e-05 7.088013e-01 7.288208e-01
3.201597e+08 8.010254e-01 6.157227e-01 1.171045e-05 2.808869e-06 -3.038906e-05 -1.466461e-05 7.079468e-01 7.291870e-01
3.203775e+08 8.007202e-01 6.163940e-01 -3.458069e-10 3.521734e-10 -9.418465e-06 -1.262035e-05 7.075806e-01 7.293091e-01
3.205953e+08 8.002319e-01 6.164551e-01 1.182500e-05 1.449604e-05 1.516193e-05 3.282912e-05 7.075195e-01 7.299194e-01
3.208131e+08 8.001709e-01 6.171265e-01 1.757126e-05 5.687587e-06 -2.732687e-05 -8.996576e-06 7.063599e-01 7.300415e-01
3.210309e+08 8.002319e-01 6.170654e-01 5.817413e-05 -2.392754e-05 9.576324e-07 3.370922e-06 7.064819e-01 7.297974e-01
3.212488e+08 7.994995e-01 6.170654e-01 -3.498606e-05 9.078532e-06 -6.738584e-06 1.914799e-06 7.060547e-01 7.307129e-01
3.214666e+08 7.999268e-01 6.184082e-01 3.516302e-05 1.427718e-05 -1.882762e-05 -2.527423e-05 7.045898e-01 7.303467e-01
3.216844e+08 7.991333e-01 6.180420e-01 -4.135072e-07 -4.673749e-05 3.715977e-06 -3.310852e-05 7.046509e-01 7.309570e-01
3.219022e+08 7.988281e-01 6.181641e-01 -1.730770e-05 2.645515e-05 -1.670793e-05 -2.293475e-05 7.046509e-01 7.315674e-01
3.221200e+08 7.994385e-01 6.190186e-01 -2.359040e-05 -2.609566e-05 1.113862e-06 2.446771e-05 7.037964e-01 7.315674e-01
3.223378e+08 7.984009e-01 6.181641e-01 1.755636e-05 2.771616e-06 3.920496e-05 4.055910e-05 7.039795e-01 7.318726e-01
3.225556e+08 7.984009e-01 6.192627e-01 1.149438e-05 -2.053380e-05 2.812408e-05 -8.724630e-06 7.025757e-01 7.311401e-01
3.227734e+08 7.985229e-01 6.193237e-01 5.948357e-06 1.163874e-05 -2.617203e-05 -1.005270e-05 7.029419e-01 7.327881e-01
3.229912e+08 7.976685e-01 6.195679e-01 -2.952293e-05 -3.191270e-05 -2.772734e-05 -1.396984e-07 7.029419e-01 7.332764e-01
3.232091e+08 7.974243e-01 6.201172e-01 3.506243e-05 -3.091991e-07 -1.812633e-05 8.053146e-06 7.019043e-01 7.327271e-01
3.234269e+08 7.973633e-01 6.206055e-01 1.171883e-05 2.820976e-06 2.057478e-05 1.093186e-05 7.017822e-01 7.337036e-01
3.236447e+08 7.974854e-01 6.207275e-01 1.773052e-05 2.323464e-05 1.022080e-05 -5.081296e-06 7.011108e-01 7.341309e-01
3.238625e+08 7.969360e-01 6.206665e-01 2.216548e-07 2.631731e-05 1.368672e-05 -8.245930e-06 7.012939e-01 7.346191e-01
3.240803e+08 7.961426e-01 6.216431e-01 2.561137e-08 2.923422e-06 1.087785e-06 -4.765764e-05 7.010498e-01 7.344971e-01
3.242981e+08 7.962646e-01 6.213379e-01 -2.337433e-05 2.011657e-07 3.582425e-05 -7.247552e-06 7.000122e-01 7.346191e-01
3.245159e+08 7.960205e-01 6.213989e-01 5.917158e-06 8.719973e-06 -1.915917e-05 5.570427e-05 6.992798e-01 7.355347e-01
3.247338e+08 7.958984e-01 6.223145e-01 -4.104152e-05 -1.423061e-05 -1.832191e-05 1.247600e-05 6.991577e-01 7.350464e-01
3.249516e+08 7.964478e-01 6.224365e-01 -2.937205e-05 -1.729466e-05 1.631118e-05 3.182516e-05 6.985474e-01 7.361450e-01
3.251694e+08 7.955322e-01 6.232300e-01 -1.746230e-05 8.905306e-06 -3.213063e-06 -2.678297e-05 6.975098e-01 7.367554e-01
3.253872e+08 7.951660e-01 6.231689e-01 1.155678e-05 -1.761969e-05 1.403969e-05 8.412637e-06 6.972046e-01 7.373657e-01
3.256050e+08 7.944946e-01 6.240234e-01 4.657730e-05 -2.666935e-05 -3.345311e-06 -4.787371e-05 6.970825e-01 7.381592e-01
3.258228e+08 7.941895e-01 6.245728e-01 5.912036e-06 8.716714e-06 -4.842877e-06 8.653384e-06 6.964111e-01 7.375488e-01
3.260406e+08 7.937622e-01 6.248169e-01 2.905168e-05 -2.070703e-05 -7.700175e-06 -1.466833e-06 6.965942e-01 7.379761e-01
3.262584e+08 7.939453e-01 6.247559e-01 -4.678965e-05 -2.536923e-06 1.764856e-06 -1.434423e-05 6.958008e-01 7.385254e-01
3.264762e+08 7.937622e-01 6.253052e-01 -6.413832e-05 2.387911e-05 7.973984e-06 -2.849288e-05 6.953125e-01 7.393799e-01
3.266941e+08 7.933960e-01 6.259766e-01 -2.317689e-05 2.647191e-05 2.064835e-05 -1.458358e-05 6.944580e-01 7.395630e-01
3.269119e+08 7.932129e-01 6.259766e-01 5.937181e-06 1.163967e-05 -1.383387e-05 -1.284573e-05 6.942139e-01 7.395020e-01
3.271297e+08 7.930298e-01 6.259766e-01 -2.931431e-05 -1.146086e-05 -1.048297e-05 3.503263e-05 6.935425e-01 7.399292e-01
3.273475e+08 7.929688e-01 6.269531e-01 -5.798414e-06 5.890615e-06 -1.779944e-05 2.471358e-05 6.927490e-01 7.402954e-01
3.275653e+08 7.920532e-01 6.275635e-01 8.847564e-08 1.168717e-05 3.742240e-05 -1.713261e-05 6.923828e-01 7.408447e-01
3.277831e+08 7.921143e-01 6.286621e-01 4.114583e-05 2.596900e-05 -6.266311e-05 1.041964e-05 6.925659e-01 7.412109e-01
3.280009e+08 7.910767e-01 6.272583e-01 -2.349354e-05 -1.443923e-05 -2.533197e-05 -2.779439e-05 6.912231e-01 7.422485e-01
3.282188e+08 7.915039e-01 6.289062e-01 1.180451e-05 1.452118e-05 6.210990e-06 -1.414400e-05 6.908569e-01 7.427979e-01
3.284366e+08 7.913208e-01 6.287842e-01 2.918020e-05 -6.072223e-06 4.633795e-06 -4.225876e-06 6.908569e-01 7.427979e-01
3.286544e+08 7.910767e-01 6.293945e-01 -4.076585e-05 1.783296e-05 1.072511e-05 -3.947131e-05 6.896973e-01 7.430420e-01
3.288722e+08 7.901001e-01 6.298828e-01 -4.106387e-05 -2.011657e-05 -4.093722e-05 -2.632849e-05 6.894531e-01 7.432251e-01
3.290900e+08 7.906494e-01 6.295776e-01 2.350844e-05 1.736917e-05 4.143454e-05 -8.078292e-06 6.893311e-01 7.443848e-01
3.293078e+08 7.905273e-01 6.306152e-01 3.352761e-07 4.676729e-05 -2.857670e-05 1.754239e-05 6.890869e-01 7.445679e-01
3.295256e+08 7.893677e-01 6.310425e-01 -2.344511e-05 -8.584931e-06 2.361275e-05 1.663528e-05 6.885376e-01 7.447510e-01
3.297434e+08 7.893066e-01 6.312866e-01 -1.740456e-05 1.764111e-05 -2.025813e-05 -4.089065e-05 6.874390e-01 7.451782e-01
3.299612e+08 7.889404e-01 6.322021e-01 1.146831e-05 -2.929941e-05 1.275260e-05 -1.160242e-05 6.870728e-01 7.461548e-01
3.301791e+08 7.897339e-01 6.322021e-01 -2.316386e-05 2.937578e-05 -4.804879e-05 3.106520e-05 6.865234e-01 7.467041e-01
3.303969e+08 7.887573e-01 6.327515e-01 -2.918765e-05 3.119931e-06 4.377216e-07 3.774464e-05 6.854858e-01 7.473145e-01
3.306147e+08 7.885742e-01 6.331787e-01 2.338365e-05 2.747402e-06 -1.137890e-05 6.124377e-06 6.854248e-01 7.473145e-01
3.308325e+08 7.883911e-01 6.337280e-01 6.139278e-06 3.793836e-05 -1.381617e-05 -1.285225e-05 6.857910e-01 7.478638e-01
3.310503e+08 7.882080e-01 6.339111e-01 1.740735e-05 -1.766626e-05 1.729466e-05 9.682961e-06 6.849976e-01 7.492065e-01
3.312681e+08 7.882080e-01 6.347046e-01 -3.508665e-05 -2.667308e-06 2.377667e-05 3.772043e-05 6.846313e-01 7.493286e-01
3.314859e+08 7.869873e-01 6.354370e-01 2.903864e-05 -2.653338e-05 4.149973e-05 -3.353320e-05 6.849976e-01 7.500610e-01
3.317038e+08 7.875977e-01 6.364136e-01 -2.348237e-05 -1.444668e-05 -1.004338e-05 -4.598126e-05 6.837769e-01 7.507324e-01
3.319216e+08 7.860107e-01 6.361694e-01 -4.090741e-05 2.942979e-07 -9.377487e-06 -1.263991e-05 6.831665e-01 7.509155e-01
3.321394e+08 7.871704e-01 6.372070e-01 1.730770e-05 -2.935342e-05 -3.418885e-05 -2.824701e-05 6.831665e-01 7.512207e-01
3.323572e+08 7.868652e-01 6.373901e-01 -1.770630e-05 -2.324954e-05 -4.963577e-05 4.094094e-05 6.825562e-01 7.519531e-01
3.325750e+08 7.866821e-01 6.376953e-01 -5.964190e-06 -1.748838e-05 1.485460e-05 -9.289011e-06 6.816406e-01 7.528687e-01
3.327928e+08 7.854614e-01 6.382446e-01 -6.113201e-06 -4.378706e-05 3.166497e-07 1.664180e-05 6.808472e-01 7.536011e-01
3.330106e+08 7.869263e-01 6.394043e-01 -2.346374e-05 -1.446344e-05 4.748255e-05 -1.772866e-05 6.807251e-01 7.539062e-01
3.332284e+08 7.858887e-01 6.397095e-01 -5.945563e-06 -1.457520e-05 -1.899432e-06 -6.747898e-06 6.810303e-01 7.543335e-01
3.334462e+08 7.854614e-01 6.400146e-01 -5.980954e-06 -2.331845e-05 -2.550520e-05 -2.341345e-05 6.788330e-01 7.542725e-01
3.336641e+08 7.856445e-01 6.403809e-01 1.149252e-05 -3.219768e-05 1.602434e-05 -1.033396e-05 6.789551e-01 7.552490e-01
3.338819e+08 7.850952e-01 6.409912e-01 -1.171976e-05 -5.769543e-06 -1.908373e-05 4.638918e-06 6.784058e-01 7.560425e-01
3.340997e+08 7.846680e-01 6.412964e-01 -4.095212e-05 -5.558133e-06 4.036725e-05 -3.246590e-05 6.788330e-01 7.563477e-01
3.343175e+08 7.850952e-01 6.416016e-01 6.414205e-05 -2.089515e-05 5.168840e-06 8.011237e-06 6.781006e-01 7.570801e-01
3.345353e+08 7.845459e-01 6.424561e-01 -5.997717e-06 -2.334081e-05 2.897903e-05 -2.636015e-05 6.777954e-01 7.579346e-01
3.347531e+08 7.846069e-01 6.430054e-01 -5.649403e-06 2.923608e-05 -2.657063e-05 -1.262873e-06 6.768799e-01 7.578735e-01
3.349709e+08 7.842407e-01 6.432495e-01 -1.157541e-05 1.760852e-05 1.158332e-06 -1.054199e-06 6.770020e-01 7.595215e-01
3.351888e+08 7.843628e-01 6.434326e-01 5.920418e-06 1.164898e-05 -3.817119e-05 -3.726967e-05 6.763916e-01 7.602539e-01
3.354066e+08 7.836914e-01 6.452026e-01 2.338924e-05 2.777204e-06 3.688969e-06 -7.588882e-06 6.756592e-01 7.608032e-01
3.356244e+08 7.839355e-01 6.452026e-01 2.307445e-05 -4.398078e-05 1.411512e-05 2.950057e-05 6.756592e-01 7.610474e-01
3.358422e+08 7.833252e-01 6.457520e-01 5.842000e-05 -3.308058e-06 5.055219e-06 -5.962327e-05 6.751099e-01 7.623291e-01
3.360600e+08 7.836914e-01 6.466675e-01 -1.766905e-05 -2.032891e-05 6.532762e-06 2.528541e-06 6.750488e-01 7.624512e-01
3.362778e+08 7.833252e-01 6.459961e-01 -8.102506e-08 -1.460500e-05 5.271286e-06 2.905540e-05 6.738281e-01 7.631836e-01
3.364956e+08 7.827759e-01 6.475220e-01 -5.747192e-06 1.755077e-05 -1.894590e-05 -2.086535e-05 6.733398e-01 7.636719e-01
3.367134e+08 7.834473e-01 6.488647e-01 3.512017e-05 1.146272e-05 -1.295283e-05 -3.057532e-05 6.738281e-01 7.640381e-01
3.369312e+08 7.832031e-01 6.489258e-01 -2.920628e-05 3.095716e-06 -6.270036e-05 -1.077726e-05 6.732788e-01 7.655029e-01
3.371491e+08 7.823486e-01 6.490479e-01 -6.432831e-05 -1.421943e-05 5.591288e-05 1.264364e-05 6.723633e-01 7.653809e-01
3.373669e+08 7.832642e-01 6.502686e-01 1.750421e-05 -3.011897e-06 -8.118805e-06 7.377937e-06 6.721191e-01 7.662354e-01
3.375847e+08 7.831421e-01 6.499634e-01 -5.858950e-06 -2.881046e-06 2.004206e-06 2.781674e-05 6.721191e-01 7.663574e-01
3.378025e+08 7.820435e-01 6.511841e-01 -5.881768e-06 -5.804468e-06 5.662441e-07 -3.434345e-05 6.722412e-01 7.673340e-01
3.380203e+08 7.825928e-01 6.519165e-01 2.321601e-05 -2.643093e-05 -1.061335e-05 -3.268942e-05 6.714478e-01 7.685547e-01
3.382381e+08 7.822266e-01 6.518555e-01 -2.938695e-05 -2.899393e-05 4.973263e-06 -3.412366e-05 6.715698e-01 7.678833e-01
3.384559e+08 7.821045e-01 6.531372e-01 -1.583248e-08 -2.920395e-06 2.220273e-05 2.215803e-05 6.699829e-01 7.697754e-01
3.386738e+08 7.827759e-01 6.531982e-01 -2.942421e-05 -3.784150e-05 1.033023e-05 -3.056787e-05 6.701660e-01 7.710571e-01
3.388916e+08 7.817993e-01 6.541748e-01 -2.922677e-05 -2.728775e-06 -3.697537e-05 8.188188e-06 6.705933e-01 7.703247e-01
3.391094e+08 7.822266e-01 6.545410e-01 -3.489293e-05 2.064370e-05 1.844391e-05 -3.793463e-05 6.695557e-01 7.708740e-01
3.393272e+08 7.817383e-01 6.547241e-01 -5.841255e-06 3.213063e-08 -5.454943e-05 -1.813099e-05 6.689453e-01 7.723999e-01
3.395450e+08 7.817383e-01 6.561279e-01 5.651265e-06 -2.925470e-05 7.310882e-07 7.798895e-06 6.690063e-01 7.725220e-01
3.397628e+08 7.819824e-01 6.559448e-01 -2.360344e-05 -4.073977e-05 -3.034249e-05 -1.474656e-05 6.682129e-01 7.736206e-01
3.399806e+08 7.819824e-01 6.567383e-01 2.340972e-05 8.620322e-06 1.148134e-05 1.496449e-05 6.684570e-01 7.741089e-01
3.401984e+08 7.821655e-01 6.575928e-01 -1.157261e-05 2.051331e-05 1.401454e-05 8.435920e-06 6.680908e-01 7.754517e-01
3.404162e+08 7.822266e-01 6.581421e-01 -4.111975e-05 -3.485754e-05 8.964911e-06 -2.507493e-05 6.680298e-01 7.767944e-01
3.406341e+08 7.815552e-01 6.582642e-01 -3.500655e-05 8.970499e-06 1.232140e-05 -2.735294e-06 6.677856e-01 7.766724e-01
3.408519e+08 7.819214e-01 6.594238e-01 2.334267e-05 -5.980954e-06 -3.175810e-06 1.980923e-05 6.674805e-01 7.774048e-01
3.410697e+08 7.821655e-01 6.596680e-01 -1.152046e-05 2.928264e-05 5.345792e-07 -3.435276e-05 6.669312e-01 7.781982e-01
3.412875e+08 7.823486e-01 6.601562e-01 3.508106e-05 2.752990e-06 1.254026e-05 -7.162802e-06 6.664429e-01 7.794800e-01
3.415053e+08 7.821045e-01 6.616821e-01 1.145899e-05 -3.805198e-05 4.293397e-06 2.573058e-05 6.666870e-01 7.793579e-01
3.417231e+08 7.822266e-01 6.610107e-01 1.742505e-05 -1.762249e-05 -1.800247e-06 1.432188e-05 6.659546e-01 7.800293e-01
3.419409e+08 7.821045e-01 6.614380e-01 -2.354383e-05 -2.906471e-05 8.632429e-06 4.847534e-06 6.660156e-01 7.804565e-01
3.421588e+08 7.814331e-01 6.634521e-01 -1.734868e-05 2.929196e-05 -2.752058e-06 1.095235e-05 6.653442e-01 7.807617e-01
3.423766e+08 7.823486e-01 6.635742e-01 -3.213063e-08 -5.842187e-06 1.275353e-05 -1.158193e-05 6.654053e-01 7.821045e-01
3.425944e+08 7.813110e-01 6.646729e-01 -1.169927e-05 7.078052e-08 -6.221235e-06 -5.352497e-05 6.663208e-01 7.833862e-01
3.428122e+08 7.824707e-01 6.653442e-01 2.928823e-05 1.442246e-05 -1.379102e-05 5.479902e-05 6.649780e-01 7.827759e-01
3.430300e+08 7.821045e-01 6.649780e-01 4.669651e-05 -1.485646e-05 1.211651e-05 1.699664e-06 6.651001e-01 7.850952e-01
3.432478e+08 7.826538e-01 6.657715e-01 -1.743063e-05 1.761783e-05 -1.770724e-05 -8.679926e-07 6.644897e-01 7.846680e-01
3.434656e+08 7.830811e-01 6.674805e-01 2.328306e-05 -1.473539e-05 -2.183020e-06 4.429743e-05 6.643677e-01 7.854614e-01
3.436834e+08 7.826538e-01 6.674194e-01 -4.095957e-05 -8.568168e-06 -6.135926e-05 5.134568e-05 6.643677e-01 7.867432e-01
3.439012e+08 7.825317e-01 6.671753e-01 -4.684925e-05 -1.142919e-05 4.697219e-05 3.776327e-05 6.652222e-01 7.872314e-01
3.441191e+08 7.832642e-01 6.684570e-01 -2.359971e-05 -4.956871e-05 1.982227e-05 3.188848e-06 6.636353e-01 7.879639e-01
3.443369e+08 7.829590e-01 6.686401e-01 1.166388e-05 -5.904585e-06 -6.233342e-06 1.411885e-05 6.643677e-01 7.888794e-01
3.445547e+08 7.835083e-01 6.690063e-01 3.536046e-05 5.826727e-05 1.990981e-05 2.426654e-05 6.638184e-01 7.894897e-01
3.447725e+08 7.837524e-01 6.690674e-01 -7.035583e-05 -2.886727e-05 -4.502758e-05 -9.935349e-06 6.640015e-01 7.908936e-01
3.449903e+08 7.830811e-01 6.691895e-01 2.330914e-05 -1.180172e-05 2.125744e-07 -4.424481e-06 6.629639e-01 7.905273e-01
3.452081e+08 7.833862e-01 6.705322e-01 -5.865004e-06 -2.896413e-06 1.581665e-05 -5.885027e-06 6.632690e-01 7.920532e-01
3.454259e+08 7.837524e-01 6.712036e-01 -1.160428e-05 2.053753e-05 9.586103e-06 8.234754e-06 6.634521e-01 7.933960e-01
3.456438e+08 7.839966e-01 6.723022e-01 -2.339482e-05 1.098961e-07 3.190711e-06 -1.982786e-05 6.625366e-01 7.937622e-01
3.458616e+08 7.844238e-01 6.730347e-01 5.912967e-06 1.167506e-05 4.321337e-07 -8.863397e-06 6.632690e-01 7.945557e-01
3.460794e+08 7.839355e-01 6.729126e-01 -5.887356e-06 -8.743256e-06 -5.587935e-06 8.386560e-07 6.622314e-01 7.945557e-01
3.462972e+08 7.839966e-01 6.738892e-01 -5.858950e-06 -2.898742e-06 -1.154654e-05 3.161654e-05 6.618652e-01 7.955933e-01
3.465150e+08 7.846680e-01 6.747437e-01 3.497489e-05 -2.356060e-05 1.618639e-05 -3.585964e-05 6.621094e-01 7.962646e-01
3.467328e+08 7.839966e-01 6.743774e-01 2.897158e-05 -5.861744e-05 -2.024695e-06 1.876522e-05 6.618652e-01 7.968140e-01
3.469506e+08 7.849731e-01 6.756592e-01 1.166947e-05 -5.908310e-06 2.331845e-05 3.911555e-08 6.625366e-01 7.971191e-01
3.471684e+08 7.847290e-01 6.758423e-01 -1.749862e-05 1.178589e-05 -3.296882e-05 -2.936460e-05 6.622314e-01 7.986450e-01
3.473862e+08 7.852173e-01 6.760254e-01 -2.917834e-05 1.476333e-05 -1.779944e-05 -2.197735e-05 6.621704e-01 7.985229e-01
3.476041e+08 7.856445e-01 6.763306e-01 1.156889e-05 -2.637319e-05 -4.947186e-06 -1.246016e-05 6.622314e-01 7.988281e-01
3.478219e+08 7.859497e-01 6.768188e-01 6.239861e-08 1.461245e-05 -4.430069e-06 -2.183951e-07 6.614380e-01 7.992554e-01
3.480397e+08 7.861938e-01 6.767578e-01 2.332218e-05 -1.474284e-05 -1.444947e-05 4.004687e-07 6.624756e-01 8.001709e-01
3.482575e+08 7.871094e-01 6.785278e-01 -1.825392e-07 -4.095957e-05 5.085021e-07 1.225062e-05 6.620483e-01 8.014526e-01
3.484753e+08 7.865601e-01 6.790161e-01 -1.739524e-05 3.225729e-05 -7.922761e-06 2.937391e-06 6.618652e-01 8.015747e-01
3.486931e+08 7.865601e-01 6.783447e-01 2.919510e-05 -1.767650e-05 -4.938804e-06 -1.245644e-05 6.619873e-01 8.029175e-01
3.489109e+08 7.869263e-01 6.790771e-01 1.181662e-05 2.627075e-05 -1.445599e-05 3.939494e-07 6.621704e-01 8.027954e-01
3.491288e+08 7.878418e-01 6.793823e-01 1.760386e-05 1.454912e-05 -1.010764e-05 -2.049003e-05 6.613770e-01 8.034058e-01
3.493466e+08 7.884521e-01 6.795044e-01 3.502890e-05 -2.062321e-05 -9.903684e-06 -2.492405e-05 6.615601e-01 8.046265e-01
3.495644e+08 7.879639e-01 6.804810e-01 2.350099e-05 1.746789e-05 -6.189570e-06 -3.253110e-05 6.620483e-01 8.054810e-01
3.497822e+08 7.875977e-01 6.815796e-01 -1.174863e-05 -8.722767e-06 3.707968e-05 -8.156523e-06 6.622314e-01 8.058472e-01
3.500000e+08 7.882080e-01 6.815796e-01 -2.920069e-05 1.478009e-05 -1.679081e-05 2.503395e-06 6.624756e-01 8.063965e-01
