# Hz S RI R 50
! RAW DATA - UNCALIBRATED
1.500000e+06 -1.011169e+00 1.733398e-02 -6.612390e-06 -2.722256e-05 -2.030632e-06 1.943903e-06 9.766846e-01 -2.075195e-02
1.717812e+06 -1.013000e+00 1.867676e-02 -1.236331e-05 9.090640e-06 -2.976507e-06 1.373980e-05 9.768066e-01 -1.940918e-02
1.935625e+06 -1.014160e+00 1.513672e-02 2.970546e-05 1.093186e-05 9.790063e-06 1.252629e-05 9.755249e-01 -1.812744e-02
2.153438e+06 -1.014648e+00 1.263428e-02 -2.372265e-05 -3.414974e-05 -1.176493e-06 4.115747e-06 9.763794e-01 -1.568604e-02
2.371250e+06 -1.016052e+00 9.460449e-03 -1.784321e-05 5.587004e-06 -8.398667e-06 -2.435409e-06 9.757690e-01 -1.080322e-02
2.589062e+06 -1.016418e+00 7.751465e-03 -1.553819e-05 -2.418086e-05 -2.283789e-05 1.641735e-05 9.761963e-01 -7.019043e-03
2.806875e+06 -1.017822e+00 4.394531e-03 1.550931e-05 1.916662e-06 9.354670e-06 2.680812e-06 9.768677e-01 -2.929688e-03
3.024688e+06 -1.018982e+00 2.075195e-03 1.741573e-07 -1.885556e-05 1.351070e-05 2.454966e-06 9.763794e-01 1.342773e-03
3.242500e+06 -1.019775e+00 -1.831055e-03 -6.920192e-06 -1.211651e-06 7.337425e-06 5.598646e-06 9.775391e-01 5.371094e-03
3.460312e+06 -1.016663e+00 -2.746582e-03 -6.785151e-06 -1.004431e-06 -7.987022e-06 -2.297200e-05 9.802246e-01 1.232910e-02
3.678125e+06 -1.016235e+00 -6.103516e-04 -1.415424e-05 6.021932e-06 1.178775e-05 4.930422e-06 9.801025e-01 1.251221e-02
3.895938e+06 -1.017944e+00 -3.051758e-04 2.081506e-05 2.764165e-06 9.459909e-07 -3.060792e-06 9.794312e-01 1.385498e-02
4.113750e+06 -1.017334e+00 7.934570e-04 -1.466088e-05 -4.885718e-06 5.824957e-06 1.028925e-05 9.796753e-01 1.367188e-02
4.331562e+06 -1.016724e+00 1.403809e-03 2.017990e-05 -4.952773e-06 5.163252e-06 1.341943e-05 9.791260e-01 1.550293e-02
4.549375e+06 -1.016907e+00 2.319336e-03 -1.442432e-05 -9.645708e-06 1.235213e-05 1.144782e-05 9.793091e-01 1.556396e-02
4.767188e+06 -1.016907e+00 3.051758e-03 1.112744e-05 -9.067357e-06 6.049871e-06 -3.934838e-06 9.785156e-01 1.751709e-02
4.985000e+06 -1.016357e+00 3.051758e-03 -8.987263e-06 5.363952e-06 -1.762901e-05 1.055188e-06 9.773560e-01 1.861572e-02
5.202812e+06 -1.017029e+00 4.150391e-03 -1.543760e-05 2.660789e-06 -1.089182e-05 -1.764391e-05 9.785156e-01 2.026367e-02
5.420625e+06 -1.016052e+00 4.821777e-03 4.434958e-06 -3.209524e-05 5.686190e-06 -6.586779e-06 9.791870e-01 2.319336e-02
5.638438e+06 -1.016113e+00 5.737305e-03 1.963601e-05 -1.044199e-05 4.053116e-06 -6.917398e-07 9.785156e-01 2.380371e-02
5.856250e+06 -1.015625e+00 7.263184e-03 2.013519e-06 -2.531707e-05 1.686160e-06 -5.753245e-06 9.782104e-01 2.520752e-02
6.074062e+06 -1.015015e+00 6.958008e-03 -2.464280e-05 -7.404014e-06 -6.183982e-07 1.318171e-06 9.794922e-01 2.685547e-02
6.291875e+06 -1.014709e+00 7.263184e-03 -1.907256e-05 6.073155e-06 5.089678e-06 -1.329230e-06 9.801636e-01 2.838135e-02
6.509688e+06 -1.015381e+00 7.385254e-03 1.809560e-06 -1.449883e-05 -1.034699e-05 -6.986316e-06 9.806519e-01 2.862549e-02
6.727500e+06 -1.014587e+00 7.263184e-03 -5.569309e-06 2.055615e-05 -7.961411e-06 -6.914604e-06 9.812622e-01 3.094482e-02
6.945312e+06 -1.014160e+00 7.019043e-03 8.198898e-06 -5.836133e-06 -2.472661e-07 1.023849e-05 9.817505e-01 3.375244e-02
7.163125e+06 -1.013977e+00 7.446289e-03 7.109717e-06 4.689209e-07 1.694541e-06 2.805842e-06 9.832153e-01 3.509521e-02
7.380938e+06 -1.014038e+00 7.385254e-03 -2.941117e-06 2.153590e-05 3.391644e-06 2.387911e-06 9.851685e-01 3.631592e-02
7.598750e+06 -1.013489e+00 8.911133e-03 -4.367903e-07 -3.545079e-06 -2.570450e-06 1.287181e-05 9.849854e-01 3.643799e-02
7.816562e+06 -1.012878e+00 8.483887e-03 1.899805e-05 3.144145e-06 1.049927e-05 -5.458482e-06 9.859619e-01 3.784180e-02
8.034375e+06 -1.011475e+00 8.728027e-03 2.264977e-05 4.414469e-07 -1.325679e-06 6.319606e-07 9.877930e-01 3.948975e-02
8.252188e+06 -1.011292e+00 7.995605e-03 -2.310117e-10 5.607603e-10 2.027117e-05 1.708977e-05 9.891357e-01 4.016113e-02
8.470000e+06 -1.011292e+00 9.033203e-03 -9.834766e-06 -1.918618e-05 -1.402199e-05 -4.384667e-06 9.899902e-01 4.089355e-02
8.687812e+06 -1.011047e+00 8.483887e-03 -3.042864e-06 1.918525e-06 5.742535e-06 -6.872229e-06 9.906616e-01 4.235840e-02
8.905625e+06 -1.009949e+00 8.911133e-03 3.103167e-05 1.715124e-05 -7.248949e-06 3.194902e-06 9.907837e-01 4.315186e-02
9.123438e+06 -1.009644e+00 8.728027e-03 -3.264844e-05 -9.516254e-06 -6.416347e-06 9.986572e-06 9.929810e-01 4.309082e-02
9.341250e+06 -1.009033e+00 8.117676e-03 1.310650e-05 1.237541e-05 7.129740e-06 1.036096e-05 9.928589e-01 4.418945e-02
9.559062e+06 -1.008362e+00 7.751465e-03 6.779563e-06 -8.445233e-06 2.762303e-06 -1.797453e-06 9.943237e-01 4.425049e-02
9.776875e+06 -1.008301e+00 7.873535e-03 -2.184883e-06 1.603272e-05 -1.593214e-05 -7.673167e-06 9.962158e-01 4.534912e-02
9.994688e+06 -1.007385e+00 7.690430e-03 6.264076e-06 3.624242e-06 1.166575e-05 -1.761038e-05 9.971924e-01 4.486084e-02
1.021250e+07 -1.006531e+00 7.934570e-03 -1.000427e-05 -2.090260e-05 4.323665e-07 -1.409324e-06 9.977417e-01 4.583740e-02
1.043031e+07 -1.006531e+00 6.958008e-03 9.560958e-06 1.536030e-05 1.450907e-05 9.327196e-06 9.983521e-01 4.504395e-02
1.064812e+07 -1.006714e+00 7.385254e-03 3.535300e-06 -3.678724e-05 -1.793075e-05 2.831221e-07 9.989624e-01 4.644775e-02
1.086594e+07 -1.004822e+00 6.774902e-03 2.515689e-05 -1.298264e-05 -5.556270e-06 1.733657e-05 1.000488e+00 4.705811e-02
1.108375e+07 -1.005188e+00 7.263184e-03 1.638755e-05 -1.229253e-05 8.890871e-06 4.273374e-06 9.997559e-01 4.766846e-02
1.130156e+07 -1.004089e+00 6.469727e-03 -7.444993e-06 3.201887e-06 -1.114979e-05 7.003546e-06 1.000671e+00 4.693604e-02
1.151938e+07 -1.003296e+00 5.920410e-03 3.499445e-06 -7.315073e-06 -6.309245e-06 -1.878478e-06 1.000671e+00 4.754639e-02
1.173719e+07 -1.002808e+00 5.065918e-03 -1.657009e-05 -2.026372e-05 2.846820e-06 -7.345807e-07 1.002014e+00 4.840088e-02
1.195500e+07 -1.002014e+00 4.760742e-03 -1.296960e-05 9.771436e-06 -5.848240e-06 9.883661e-06 1.002258e+00 4.724121e-02
1.217281e+07 -1.000977e+00 4.272461e-03 9.560026e-07 3.502239e-06 -1.243316e-07 3.287103e-06 1.001953e+00 4.772949e-02
1.239062e+07 -1.000671e+00 3.234863e-03 -4.306901e-06 9.323470e-06 7.837079e-07 -1.058402e-05 1.001892e+00 4.718018e-02
1.260844e+07 -9.997559e-01 4.394531e-03 6.225891e-06 1.314934e-05 5.717389e-06 3.231224e-06 1.003052e+00 4.766846e-02
1.282625e+07 -9.989014e-01 2.746582e-03 -7.326715e-06 -1.257472e-05 1.792330e-06 -7.127877e-06 1.003296e+00 4.858398e-02
1.304406e+07 -9.987793e-01 2.929688e-03 2.505258e-06 1.608487e-05 4.045665e-06 1.251325e-05 1.003235e+00 4.870605e-02
1.326188e+07 -9.982910e-01 1.586914e-03 7.499941e-06 3.185123e-06 -4.939735e-06 3.513414e-06 1.003113e+00 4.968262e-02
1.347969e+07 -9.973755e-01 1.403809e-03 -5.411915e-06 -1.537148e-05 -6.139278e-06 1.902226e-05 1.003052e+00 4.901123e-02
1.369750e+07 -9.963379e-01 5.493164e-04 1.822226e-05 6.128103e-07 -5.285721e-06 4.016329e-07 1.003723e+00 4.901123e-02
1.391531e+07 -9.955444e-01 -7.934570e-04 -4.911795e-06 1.420267e-05 -3.281282e-06 1.508743e-07 1.002380e+00 5.084229e-02
1.413312e+07 -9.956055e-01 -1.281738e-03 -2.002344e-07 1.632050e-05 3.841706e-07 -6.043352e-06 1.002747e+00 5.084229e-02
1.435094e+07 -9.942627e-01 -2.807617e-03 1.505762e-05 2.161600e-05 9.234063e-06 -1.068693e-06 1.003113e+00 5.004883e-02
1.456875e+07 -9.945679e-01 -2.441406e-03 -8.018687e-06 1.573004e-06 -1.368858e-05 -1.032837e-05 1.003052e+00 5.175781e-02
1.478656e+07 -9.942017e-01 -4.211426e-03 1.318660e-05 9.663403e-06 -2.999790e-06 1.175236e-05 1.002014e+00 5.371094e-02
1.500438e+07 -9.934082e-01 -4.821777e-03 -1.395587e-05 -1.181383e-05 1.023849e-05 -1.034699e-06 1.001587e+00 5.291748e-02
1.522219e+07 -9.923096e-01 -5.615234e-03 1.793634e-05 -8.214265e-06 6.059650e-06 1.867302e-07 1.002930e+00 5.364990e-02
1.544000e+07 -9.926147e-01 -6.347656e-03 -5.709007e-07 -3.623776e-06 5.119247e-06 1.387671e-06 1.003174e+00 5.468750e-02
1.565781e+07 -9.915161e-01 -7.385254e-03 6.803311e-06 -1.704972e-05 -9.620562e-06 1.421943e-05 1.002930e+00 5.603027e-02
1.587562e+07 -9.920044e-01 -8.544922e-03 -1.365691e-05 5.444512e-06 3.358349e-06 8.304603e-06 1.002808e+00 5.529785e-02
1.609344e+07 -9.926147e-01 -9.887695e-03 -3.916025e-05 -2.178177e-05 3.804686e-06 1.921086e-06 1.003235e+00 6.164551e-02
1.631125e+07 -9.927368e-01 -9.643555e-03 -7.262453e-06 -6.173737e-06 -4.309416e-05 -4.404038e-05 1.003113e+00 6.182861e-02
1.652906e+07 -9.920654e-01 -9.399414e-03 -4.947186e-05 3.948808e-07 2.670847e-05 1.346134e-05 1.003723e+00 6.274414e-02
1.674688e+07 -9.910278e-01 -9.704590e-03 4.585832e-05 -1.312047e-05 -3.570504e-05 -2.026558e-06 1.002930e+00 6.378174e-02
1.696469e+07 -9.916382e-01 -1.025391e-02 -2.991408e-05 -4.662573e-05 -5.226210e-05 -3.268942e-05 1.003052e+00 6.475830e-02
1.718250e+07 -9.903564e-01 -1.019287e-02 7.305294e-06 6.194692e-06 7.642433e-06 1.982599e-05 1.003174e+00 6.530762e-02
1.740031e+07 -9.904785e-01 -1.116943e-02 -9.520911e-06 -1.386553e-05 1.662318e-05 1.476053e-05 1.003174e+00 6.597900e-02
1.761812e+07 -9.897461e-01 -1.086426e-02 -7.359777e-07 -2.561370e-06 2.522022e-06 3.334135e-05 1.004089e+00 6.732178e-02
1.783594e+07 -9.890137e-01 -1.104736e-02 5.716830e-05 5.759299e-06 -1.676008e-05 5.259737e-05 1.004333e+00 6.768799e-02
1.805375e+07 -9.889526e-01 -1.239014e-02 5.798414e-05 2.770871e-05 -2.955645e-05 -3.087148e-05 1.004089e+00 6.811523e-02
1.827156e+07 -9.885254e-01 -1.251221e-02 1.240335e-05 -3.413856e-05 -3.600866e-05 -8.380041e-06 1.003967e+00 6.982422e-02
1.848938e+07 -9.872437e-01 -1.220703e-02 4.333630e-05 -4.127622e-06 1.286622e-06 7.079449e-06 1.004639e+00 7.128906e-02
1.870719e+07 -9.880371e-01 -1.202393e-02 5.207956e-06 1.799967e-05 -5.156733e-06 -1.869909e-05 1.005554e+00 7.159424e-02
1.892500e+07 -9.874268e-01 -1.263428e-02 2.276152e-06 2.725422e-05 -5.808473e-05 6.496906e-06 1.006592e+00 7.330322e-02
1.914281e+07 -9.868774e-01 -1.385498e-02 -3.724359e-06 -1.289137e-05 -4.391372e-05 1.683086e-05 1.006287e+00 7.354736e-02
1.936062e+07 -9.861450e-01 -1.348877e-02 -4.876032e-05 -1.384690e-05 4.269369e-05 4.071929e-05 1.006958e+00 7.427979e-02
1.957844e+07 -9.860840e-01 -1.391602e-02 1.040474e-05 1.656264e-05 -1.270324e-06 2.200343e-05 1.007080e+00 7.489014e-02
1.979625e+07 -9.855347e-01 -1.477051e-02 1.639500e-05 3.727153e-05 1.346692e-06 4.275888e-05 1.007874e+00 7.659912e-02
2.001406e+07 -9.856567e-01 -1.513672e-02 5.763024e-06 -3.810972e-05 4.540384e-05 -1.626462e-05 1.007385e+00 7.672119e-02
2.023188e+07 -9.846191e-01 -1.507568e-02 -1.477636e-05 7.096678e-06 -1.418218e-05 6.429851e-05 1.008362e+00 7.781982e-02
2.044969e+07 -9.839478e-01 -1.544189e-02 -5.646050e-05 -2.012402e-05 -7.843599e-06 -2.340972e-05 1.009888e+00 7.751465e-02
2.066750e+07 -9.836426e-01 -1.629639e-02 -4.434027e-06 4.105503e-06 9.112060e-06 1.280103e-06 1.010559e+00 7.928467e-02
2.088531e+07 -9.839478e-01 -1.605225e-02 1.470372e-05 -2.685748e-05 1.693796e-05 -1.348555e-06 1.011353e+00 7.897949e-02
2.110312e+07 -9.828491e-01 -1.684570e-02 3.871694e-05 -2.820045e-06 -3.781915e-05 1.706928e-05 1.012695e+00 8.032227e-02
2.132094e+07 -9.822388e-01 -1.727295e-02 -1.993775e-05 2.842396e-05 -1.046900e-05 -5.193520e-06 1.013000e+00 8.013916e-02
2.153875e+07 -9.816284e-01 -1.763916e-02 -3.976747e-05 -3.929064e-05 -1.945719e-05 5.893037e-05 1.013733e+00 8.111572e-02
2.175656e+07 -9.816284e-01 -1.861572e-02 -1.210906e-05 -2.195500e-05 3.654510e-06 -6.681308e-05 1.015259e+00 8.081055e-02
2.197438e+07 -9.807129e-01 -1.806641e-02 -5.895644e-05 1.160428e-05 3.877096e-06 -1.443550e-05 1.014709e+00 8.184814e-02
2.219219e+07 -9.804688e-01 -1.849365e-02 1.385063e-05 -4.949421e-05 2.493523e-05 -7.487833e-07 1.016479e+00 8.166504e-02
2.241000e+07 -9.800415e-01 -1.959229e-02 -3.738515e-05 8.150935e-06 2.887845e-05 -8.650124e-06 1.016846e+00 8.203125e-02
2.262781e+07 -9.803467e-01 -1.947021e-02 -6.886199e-05 1.737103e-05 2.894737e-05 1.197681e-06 1.017883e+00 8.264160e-02
2.284562e+07 -9.791260e-01 -2.075195e-02 -1.295470e-05 -2.466887e-05 2.511963e-05 1.898222e-05 1.018555e+00 8.245850e-02
2.306344e+07 -9.790039e-01 -2.111816e-02 -1.895800e-05 -2.576411e-05 -2.590008e-06 8.583069e-06 1.018860e+00 8.386230e-02
2.328125e+07 -9.780273e-01 -2.111816e-02 -7.405877e-06 1.360197e-05 -1.973007e-05 1.331326e-05 1.020691e+00 8.276367e-02
2.349906e+07 -9.776611e-01 -2.215576e-02 3.798679e-05 -4.548207e-05 1.186877e-05 -4.027039e-06 1.020813e+00 8.355713e-02
2.371688e+07 -9.780273e-01 -2.264404e-02 3.104098e-06 1.051649e-05 2.243929e-05 -5.427748e-06 1.021240e+00 8.355713e-02
2.393469e+07 -9.770508e-01 -2.325439e-02 4.486647e-06 -4.191184e-06 -2.677785e-06 -4.618894e-06 1.022949e+00 8.331299e-02
2.415250e+07 -9.768066e-01 -2.343750e-02 2.228841e-05 -4.097074e-05 3.044493e-05 -4.831702e-06 1.023804e+00 8.355713e-02
2.437031e+07 -9.763184e-01 -2.435303e-02 -3.377162e-05 2.148375e-05 1.197681e-06 -1.925044e-05 1.023804e+00 8.325195e-02
2.458812e+07 -9.751587e-01 -2.478027e-02 1.369510e-05 7.431954e-06 -1.067016e-05 -8.553732e-06 1.024841e+00 8.355713e-02
2.480594e+07 -9.755859e-01 -2.502441e-02 9.005424e-06 -8.421019e-06 -1.614541e-05 -2.779625e-05 1.025940e+00 8.380127e-02
2.502375e+07 -9.752197e-01 -2.563477e-02 3.714580e-06 -6.861985e-06 -1.335703e-05 -6.554648e-06 1.026245e+00 8.245850e-02
2.524156e+07 -9.741211e-01 -2.630615e-02 1.295283e-05 4.793517e-06 -1.974218e-05 3.010780e-05 1.027405e+00 8.312988e-02
2.545938e+07 -9.740601e-01 -2.691650e-02 7.667113e-06 6.363261e-06 -1.856405e-05 1.081545e-05 1.027466e+00 8.270264e-02
2.567719e+07 -9.740601e-01 -2.783203e-02 3.022887e-05 -1.478195e-05 -1.212955e-05 -1.590885e-05 1.028748e+00 8.294678e-02
2.589500e+07 -9.730225e-01 -2.844238e-02 8.754432e-07 -5.514920e-05 -2.390333e-05 1.487881e-05 1.029297e+00 8.306885e-02
2.611281e+07 -9.724731e-01 -2.923584e-02 -7.187948e-05 -2.766773e-05 3.355183e-05 1.641922e-05 1.029419e+00 8.215332e-02
2.633062e+07 -9.724121e-01 -3.009033e-02 2.015382e-05 2.871267e-05 1.683086e-05 -6.500632e-05 1.030151e+00 8.276367e-02
2.654844e+07 -9.718018e-01 -3.039551e-02 -2.073124e-05 -1.117773e-05 1.464039e-06 1.404528e-05 1.030884e+00 8.184814e-02
2.676625e+07 -9.714966e-01 -3.143311e-02 -8.255243e-06 1.117494e-05 1.725275e-05 -1.826230e-05 1.031677e+00 8.154297e-02
2.698406e+07 -9.714355e-01 -3.216553e-02 3.515929e-05 1.069158e-06 1.877546e-05 -8.512288e-07 1.031616e+00 8.129883e-02
2.720188e+07 -9.700317e-01 -3.210449e-02 3.305078e-05 -4.481152e-05 -6.712973e-06 6.752089e-08 1.032349e+00 8.117676e-02
2.741969e+07 -9.705200e-01 -3.314209e-02 1.334585e-06 -1.493935e-05 3.385730e-05 2.318621e-05 1.032471e+00 8.062744e-02
2.763750e+07 -9.701538e-01 -3.405762e-02 2.729520e-05 3.256090e-05 7.690862e-06 -3.979914e-05 1.033813e+00 8.001709e-02
2.785531e+07 -9.705811e-01 -3.503418e-02 3.369339e-05 -4.306436e-06 -1.018867e-05 5.197152e-05 1.033997e+00 8.001709e-02
2.807312e+07 -9.695435e-01 -3.527832e-02 -1.907349e-06 -2.570450e-05 2.968684e-05 1.039356e-06 1.034851e+00 7.995605e-02
2.829094e+07 -9.699707e-01 -3.607178e-02 6.164610e-05 1.059473e-05 -1.348834e-05 1.490116e-07 1.035339e+00 7.867432e-02
2.850875e+07 -9.694824e-01 -3.680420e-02 7.182360e-06 -3.434345e-05 -8.549541e-06 -4.112907e-05 1.035522e+00 7.873535e-02
2.872656e+07 -9.697266e-01 -3.784180e-02 -3.838725e-05 8.676201e-06 5.035847e-05 2.787262e-05 1.036255e+00 7.836914e-02
2.894438e+07 -9.688721e-01 -3.851318e-02 -4.021451e-05 -5.526841e-05 -3.234483e-05 1.120567e-05 1.036682e+00 7.781982e-02
2.916219e+07 -9.697266e-01 -3.955078e-02 4.690140e-05 -5.820021e-05 2.276339e-05 -2.264418e-05 1.035828e+00 7.751465e-02
2.938000e+07 -9.688721e-01 -4.040527e-02 -1.825579e-05 1.727976e-05 8.996576e-07 -4.005246e-05 1.037109e+00 7.727051e-02
2.959781e+07 -9.685669e-01 -4.046631e-02 -7.590279e-05 4.062057e-05 1.502410e-05 7.285737e-06 1.037537e+00 7.714844e-02
2.981562e+07 -9.688110e-01 -4.125977e-02 4.803389e-05 3.077090e-06 -4.058890e-05 1.410022e-05 1.037781e+00 7.684326e-02
3.003344e+07 -9.696045e-01 -4.333496e-02 8.209608e-07 2.695713e-06 1.951866e-05 3.646500e-05 1.037476e+00 7.562256e-02
3.025125e+07 -9.685669e-01 -4.290771e-02 -2.324022e-05 1.179054e-06 5.935133e-05 -4.572794e-05 1.039001e+00 7.543945e-02
3.046906e+07 -9.683838e-01 -4.455566e-02 1.610816e-05 3.347360e-05 -4.727393e-06 -4.628673e-05 1.038940e+00 7.470703e-02
3.068688e+07 -9.690552e-01 -4.528809e-02 -1.741573e-06 3.302656e-05 -2.378412e-05 -4.197843e-05 1.039001e+00 7.440186e-02
3.090469e+07 -9.689331e-01 -4.620361e-02 3.660657e-05 3.626570e-06 1.906510e-05 -4.375353e-06 1.039307e+00 7.482910e-02
3.112250e+07 -9.696045e-01 -4.766846e-02 -4.546717e-06 2.752431e-05 -9.369105e-06 -5.429238e-05 1.040222e+00 7.452393e-02
3.134031e+07 -9.689331e-01 -4.779053e-02 -1.328159e-05 1.193956e-05 1.069345e-05 -1.910143e-05 1.039612e+00 7.403564e-02
3.155812e+07 -9.690552e-01 -4.974365e-02 1.192931e-05 -3.690831e-06 -2.225116e-05 -3.309362e-05 1.039978e+00 7.421875e-02
3.177594e+07 -9.682617e-01 -5.029297e-02 -6.420538e-06 4.602596e-06 3.097579e-05 -2.648681e-05 1.039917e+00 7.373047e-02
3.199375e+07 -9.685059e-01 -5.230713e-02 4.572794e-06 -2.759136e-05 -2.347678e-05 6.310642e-06 1.040222e+00 7.403564e-02
3.221156e+07 -9.683838e-01 -5.310059e-02 -2.391078e-05 7.368624e-06 2.449006e-05 9.683892e-06 1.039795e+00 7.385254e-02
3.242938e+07 -9.685059e-01 -5.383301e-02 -2.164207e-05 -6.435439e-06 2.237223e-05 1.182407e-05 1.039917e+00 7.403564e-02
3.264719e+07 -9.682007e-01 -5.468750e-02 4.148576e-06 9.205658e-06 2.686679e-05 -4.793331e-05 1.039795e+00 7.354736e-02
3.286500e+07 -9.682007e-01 -5.609131e-02 -4.236773e-05 4.978478e-05 3.216043e-05 -1.911074e-05 1.039734e+00 7.318115e-02
3.308281e+07 -9.685669e-01 -5.761719e-02 -1.198426e-05 3.682449e-06 8.668751e-06 -2.562255e-05 1.039490e+00 7.324219e-02
3.330062e+07 -9.685059e-01 -5.883789e-02 -1.832843e-06 -2.307445e-05 2.143066e-05 -4.178844e-06 1.039490e+00 7.336426e-02
3.351844e+07 -9.678345e-01 -5.950928e-02 2.862886e-05 -9.275973e-07 1.833588e-05 -3.525242e-05 1.039612e+00 7.257080e-02
3.373625e+07 -9.685669e-01 -6.060791e-02 -7.114932e-05 -5.174801e-05 6.525218e-05 2.491847e-05 1.039612e+00 7.305908e-02
3.395406e+07 -9.682617e-01 -6.176758e-02 -1.201965e-05 3.701076e-06 -1.069624e-05 -6.486196e-06 1.039734e+00 7.244873e-02
3.417188e+07 -9.681396e-01 -6.347656e-02 3.839843e-05 9.262934e-06 1.191348e-05 -2.462231e-05 1.039124e+00 7.250977e-02
3.438969e+07 -9.685669e-01 -6.445312e-02 -8.359551e-06 4.995614e-05 4.178472e-05 1.415238e-05 1.038269e+00 7.269287e-02
3.460750e+07 -9.684448e-01 -6.536865e-02 -3.331341e-05 2.873689e-05 -6.331131e-06 -2.366491e-05 1.038391e+00 7.135010e-02
3.482531e+07 -9.692993e-01 -6.597900e-02 1.297146e-05 -9.270385e-06 7.444061e-06 1.830515e-05 1.039001e+00 7.171631e-02
3.504312e+07 -9.691772e-01 -6.805420e-02 -2.969056e-05 6.444752e-06 6.468035e-06 -2.122950e-06 1.038269e+00 7.299805e-02
3.526094e+07 -9.697266e-01 -6.890869e-02 1.902133e-05 -1.111254e-05 -1.297519e-05 1.284759e-05 1.037598e+00 7.238770e-02
3.547875e+07 -9.682617e-01 -7.019043e-02 2.367795e-05 -4.634261e-06 1.299568e-05 -1.714937e-05 1.037781e+00 7.147217e-02
3.569656e+07 -9.692993e-01 -7.037354e-02 -4.643109e-06 -6.509013e-06 2.142414e-05 2.166443e-05 1.037964e+00 7.122803e-02
3.591438e+07 -9.695435e-01 -7.177734e-02 2.513081e-05 -4.742295e-05 1.632422e-05 -3.332272e-05 1.037903e+00 7.183838e-02
3.613219e+07 -9.696045e-01 -7.354736e-02 3.905781e-05 6.534159e-06 1.188647e-05 -3.181398e-06 1.037170e+00 7.177734e-02
3.635000e+07 -9.700317e-01 -7.409668e-02 -3.119558e-05 1.485832e-05 7.479452e-06 1.407135e-05 1.036926e+00 7.147217e-02
3.656781e+07 -9.693604e-01 -7.482910e-02 2.094917e-05 1.213700e-05 -1.171976e-05 -3.137812e-05 1.037354e+00 7.189941e-02
3.678562e+07 -9.700317e-01 -7.641602e-02 3.821403e-05 1.212955e-05 1.735985e-05 -1.286529e-05 1.036255e+00 7.122803e-02
3.700344e+07 -9.702759e-01 -7.714844e-02 -2.304092e-06 -2.053939e-05 -4.240312e-05 4.196912e-05 1.037231e+00 7.165527e-02
3.722125e+07 -9.708252e-01 -7.934570e-02 -6.064773e-06 1.859386e-06 -1.197867e-05 1.183152e-05 1.035400e+00 7.086182e-02
3.743906e+07 -9.708252e-01 -7.897949e-02 -3.268197e-05 -1.127087e-05 -1.519360e-05 6.409362e-06 1.036133e+00 7.135010e-02
3.765688e+07 -9.707642e-01 -8.068848e-02 -2.357177e-06 1.402386e-05 4.564598e-05 -1.924857e-05 1.035583e+00 7.147217e-02
3.787469e+07 -9.709473e-01 -8.190918e-02 -8.857809e-06 -1.590699e-05 1.481920e-05 5.864725e-05 1.034363e+00 7.073975e-02
3.809250e+07 -9.719238e-01 -8.288574e-02 2.150424e-05 9.391457e-06 1.640897e-05 -2.051517e-05 1.033997e+00 7.067871e-02
3.831031e+07 -9.722900e-01 -8.343506e-02 -3.697723e-05 1.397543e-05 -3.453717e-05 -3.058836e-05 1.033508e+00 7.012939e-02
3.852812e+07 -9.717407e-01 -8.459473e-02 1.875777e-05 -8.407049e-06 2.311543e-06 -2.388470e-05 1.033936e+00 7.031250e-02
3.874594e+07 -9.722290e-01 -8.520508e-02 1.491606e-05 4.873425e-05 9.484589e-06 4.679710e-05 1.032288e+00 7.000732e-02
3.896375e+07 -9.724731e-01 -8.734131e-02 -8.387491e-06 -1.878291e-05 1.609139e-05 3.597885e-05 1.032104e+00 7.122803e-02
3.918156e+07 -9.721680e-01 -8.813477e-02 3.187731e-05 1.695566e-05 3.676303e-05 3.285892e-05 1.031921e+00 7.006836e-02
3.939938e+07 -9.731445e-01 -8.813477e-02 4.036725e-05 1.035631e-06 2.173800e-05 4.494563e-06 1.031311e+00 7.073975e-02
3.961719e+07 -9.738159e-01 -8.953857e-02 6.580725e-06 -4.679430e-06 -1.843553e-05 -1.210626e-05 1.030090e+00 7.025146e-02
3.983500e+07 -9.741211e-01 -9.130859e-02 -9.845942e-06 -1.036748e-05 5.206466e-05 3.085285e-05 1.030457e+00 7.073975e-02
4.005281e+07 -9.745483e-01 -9.136963e-02 2.200902e-05 4.144385e-05 -1.192093e-07 1.744367e-05 1.029968e+00 6.988525e-02
4.027062e+07 -9.750977e-01 -9.307861e-02 1.989678e-05 -4.892424e-05 -2.750382e-05 3.144704e-05 1.029663e+00 7.043457e-02
4.048844e+07 -9.757080e-01 -9.368896e-02 1.884531e-05 -8.409843e-06 -9.895302e-06 9.756535e-06 1.028015e+00 7.104492e-02
4.070625e+07 -9.752197e-01 -9.405518e-02 5.273148e-06 -3.107078e-05 1.035631e-06 7.658731e-06 1.028076e+00 7.116699e-02
4.092406e+07 -9.763794e-01 -9.539795e-02 2.213381e-05 6.671995e-06 4.243106e-06 1.751911e-05 1.027710e+00 7.086182e-02
4.114188e+07 -9.764404e-01 -9.552002e-02 2.311356e-05 1.018867e-06 1.627859e-05 1.869537e-05 1.026855e+00 7.116699e-02
4.135969e+07 -9.771118e-01 -9.667969e-02 -6.629620e-06 4.696660e-06 2.113543e-05 -4.253909e-05 1.026794e+00 7.159424e-02
4.157750e+07 -9.768677e-01 -9.759521e-02 -3.108755e-05 -2.277642e-05 1.188181e-05 2.307259e-05 1.025879e+00 7.147217e-02
4.179531e+07 -9.775391e-01 -9.869385e-02 -1.923181e-06 1.133420e-05 9.993091e-06 -1.855008e-05 1.025269e+00 7.073975e-02
4.201312e+07 -9.776611e-01 -9.960938e-02 -3.679283e-05 -2.375245e-05 3.176555e-05 3.511086e-06 1.023804e+00 7.080078e-02
4.223094e+07 -9.784546e-01 -1.009521e-01 -3.756210e-05 4.909188e-05 -2.178247e-06 -2.211193e-06 1.023926e+00 7.104492e-02
4.244875e+07 -9.795532e-01 -1.015015e-01 -2.824888e-05 -3.989413e-05 -6.469898e-06 -1.541711e-05 1.023499e+00 7.232666e-02
4.266656e+07 -9.793091e-01 -1.021118e-01 2.770685e-06 1.798943e-05 -4.743412e-05 2.048165e-05 1.022034e+00 7.189941e-02
4.288438e+07 -9.799805e-01 -1.029053e-01 5.066395e-05 1.158193e-05 1.951866e-05 3.750063e-05 1.021912e+00 7.208252e-02
4.310219e+07 -9.789429e-01 -1.038208e-01 4.030392e-05 3.956258e-06 -3.186613e-05 -3.546476e-06 1.021606e+00 7.208252e-02
4.332000e+07 -9.810181e-01 -1.042480e-01 -2.765097e-06 -1.805741e-05 -1.084059e-05 -1.989957e-05 1.021179e+00 7.299805e-02
4.353781e+07 -9.810791e-01 -1.051025e-01 1.612119e-05 8.607283e-06 3.990158e-05 -3.051944e-05 1.020508e+00 7.208252e-02
4.375562e+07 -9.818726e-01 -1.049805e-01 -1.189392e-05 9.005889e-07 3.650784e-06 -4.733354e-05 1.020142e+00 7.287598e-02
4.397344e+07 -9.829102e-01 -1.072388e-01 -3.436580e-05 2.930313e-05 5.482230e-06 3.353227e-06 1.018372e+00 7.330322e-02
4.419125e+07 -9.828491e-01 -1.078491e-01 2.937391e-06 -1.712609e-05 7.566996e-06 1.881737e-05 1.018311e+00 7.318115e-02
4.440906e+07 -9.826660e-01 -1.079712e-01 1.810025e-05 -2.766959e-06 -1.292117e-05 -3.985688e-05 1.017029e+00 7.336426e-02
4.462688e+07 -9.826660e-01 -1.090088e-01 4.056841e-06 4.480779e-05 7.653143e-06 1.000101e-05 1.016724e+00 7.409668e-02
4.484469e+07 -9.843140e-01 -1.097412e-01 -2.909452e-05 -2.071261e-06 2.089608e-05 1.454633e-05 1.016541e+00 7.470703e-02
4.506250e+07 -9.851685e-01 -1.105347e-01 -1.094490e-05 -4.827045e-06 5.770475e-06 -2.763234e-05 1.015198e+00 7.446289e-02
4.528031e+07 -9.850464e-01 -1.112061e-01 -3.257766e-05 1.796335e-05 2.210215e-05 4.619360e-06 1.015198e+00 7.501221e-02
4.549812e+07 -9.859619e-01 -1.113281e-01 7.016584e-06 2.774596e-05 -2.312288e-05 -1.682341e-05 1.014099e+00 7.507324e-02
4.571594e+07 -9.862671e-01 -1.121826e-01 -1.246575e-05 3.766268e-06 3.443286e-05 -7.433817e-06 1.014404e+00 7.513428e-02
4.593375e+07 -9.873047e-01 -1.127930e-01 2.442487e-05 -4.656613e-06 -1.540501e-05 -1.567230e-05 1.012451e+00 7.507324e-02
4.615156e+07 -9.868774e-01 -1.140747e-01 -9.786338e-06 -4.601479e-05 9.061769e-07 2.110377e-05 1.012146e+00 7.586670e-02
4.636938e+07 -9.885254e-01 -1.140747e-01 -3.872812e-05 -1.556985e-05 -2.999417e-05 -1.391396e-06 1.011658e+00 7.604980e-02
4.658719e+07 -9.887695e-01 -1.152954e-01 2.694875e-05 -1.901388e-05 -5.691312e-06 1.439918e-05 1.010193e+00 7.666016e-02
4.680500e+07 -9.895020e-01 -1.155396e-01 -1.875684e-05 5.650334e-06 -1.102034e-05 -1.121871e-05 1.010437e+00 7.714844e-02
4.702281e+07 -9.896240e-01 -1.166382e-01 5.958602e-06 -3.451295e-05 3.245845e-05 -2.304837e-05 1.008484e+00 7.702637e-02
4.724062e+07 -9.906616e-01 -1.174927e-01 6.480142e-06 -3.740750e-05 5.403534e-06 1.676288e-05 1.008301e+00 7.788086e-02
4.745844e+07 -9.915161e-01 -1.177368e-01 2.777204e-05 1.074001e-05 3.669411e-06 -3.453344e-05 1.006470e+00 7.818604e-02
4.767625e+07 -9.912109e-01 -1.179199e-01 2.766959e-06 1.829118e-05 -2.478063e-05 2.872571e-05 1.006714e+00 7.879639e-02
4.789406e+07 -9.917603e-01 -1.186523e-01 2.055801e-05 1.844205e-05 3.320910e-05 2.487376e-05 1.006287e+00 7.958984e-02
4.811188e+07 -9.924927e-01 -1.186523e-01 -5.467609e-05 -2.734363e-05 3.898144e-05 1.045875e-05 1.004822e+00 7.965088e-02
4.832969e+07 -9.926147e-01 -1.184692e-01 4.264060e-06 9.659678e-06 -3.911927e-05 2.974644e-06 1.004089e+00 8.020020e-02
4.854750e+07 -9.934692e-01 -1.200562e-01 -1.505949e-06 8.668285e-06 2.902746e-05 2.518296e-06 1.004456e+00 8.111572e-02
4.876531e+07 -9.937134e-01 -1.204834e-01 4.426762e-05 1.956895e-05 -5.424023e-06 -1.683924e-05 1.003906e+00 8.093262e-02
4.898312e+07 -9.948120e-01 -1.203003e-01 -2.607703e-07 3.571995e-05 3.121234e-05 9.266660e-06 1.002930e+00 8.203125e-02
4.920094e+07 -9.950562e-01 -1.207275e-01 4.019588e-06 -2.313778e-05 2.365373e-05 -1.431629e-05 1.001038e+00 8.233643e-02
4.941875e+07 -9.959106e-01 -1.214600e-01 1.359079e-05 -9.556301e-06 -5.610287e-06 1.065899e-06 1.000793e+00 8.300781e-02
4.963656e+07 -9.954224e-01 -1.211548e-01 3.426895e-05 8.951873e-06 2.224743e-05 1.369230e-05 1.001038e+00 8.367920e-02
4.985438e+07 -9.970093e-01 -1.232300e-01 2.721511e-05 -1.913495e-05 8.730218e-06 2.251193e-05 9.994507e-01 8.398438e-02
5.007219e+07 -9.971924e-01 -1.235962e-01 4.567206e-06 -2.610683e-05 -7.742550e-06 -1.017749e-05 9.990234e-01 8.538818e-02
5.029000e+07 -9.975586e-01 -1.234741e-01 -7.085502e-06 4.061311e-05 -2.685934e-05 -9.261072e-06 9.979248e-01 8.514404e-02
5.050781e+07 -9.981689e-01 -1.237183e-01 3.330410e-05 1.478381e-05 -3.437512e-05 -3.742240e-05 9.976196e-01 8.593750e-02
5.072562e+07 -9.985962e-01 -1.245117e-01 -2.678111e-05 1.628697e-05 2.691895e-05 4.801899e-06 9.974976e-01 8.605957e-02
5.094344e+07 -9.988403e-01 -1.248779e-01 4.119053e-05 4.217029e-06 5.327165e-06 2.589449e-05 9.960938e-01 8.764648e-02
5.116125e+07 -9.988403e-01 -1.239624e-01 -6.239116e-05 -1.989305e-05 2.373196e-05 -9.873882e-06 9.948730e-01 8.752441e-02
5.137906e+07 -1.000366e+00 -1.251221e-01 2.622977e-05 5.552173e-05 -2.353638e-05 -8.143485e-06 9.940796e-01 8.825684e-02
5.159688e+07 -1.000854e+00 -1.255493e-01 4.908070e-05 -6.392598e-06 1.025014e-05 -1.002522e-05 9.933472e-01 8.886719e-02
5.181469e+07 -1.000977e+00 -1.262817e-01 -5.818438e-06 -1.022127e-06 6.213784e-05 -1.620129e-05 9.929199e-01 9.027100e-02
5.203250e+07 -1.001831e+00 -1.266479e-01 4.654750e-05 8.165836e-06 -1.548976e-05 -2.494268e-05 9.915771e-01 9.027100e-02
5.225031e+07 -1.002075e+00 -1.267090e-01 -1.862645e-07 -3.305823e-05 2.433918e-05 3.858842e-05 9.915161e-01 9.130859e-02
5.246812e+07 -1.002014e+00 -1.268921e-01 -3.496930e-05 -6.152317e-06 2.378784e-05 -9.860843e-06 9.909058e-01 9.197998e-02
5.268594e+07 -1.002991e+00 -1.270142e-01 -5.827751e-06 -1.025386e-06 1.004757e-05 8.015893e-06 9.894409e-01 9.301758e-02
5.290375e+07 -1.003235e+00 -1.276855e-01 2.658181e-05 1.970679e-05 2.033077e-05 -2.007931e-06 9.891968e-01 9.350586e-02
5.312156e+07 -1.003845e+00 -1.279907e-01 3.428757e-05 -2.401136e-05 -8.968636e-06 -4.617963e-06 9.880371e-01 9.393311e-02
5.333938e+07 -1.004700e+00 -1.281128e-01 1.527648e-05 -1.836661e-05 -3.264658e-05 -8.286908e-06 9.880981e-01 9.503174e-02
5.355719e+07 -1.005493e+00 -1.284790e-01 -9.952113e-06 2.232380e-05 -4.675239e-06 1.349952e-05 9.868774e-01 9.570312e-02
5.377500e+07 -1.005737e+00 -1.290283e-01 -2.009049e-05 1.150370e-05 3.119931e-05 4.106574e-05 9.859619e-01 9.613037e-02
5.399281e+07 -1.005432e+00 -1.282959e-01 1.203083e-05 -3.398769e-05 -1.998618e-05 -2.962165e-05 9.852295e-01 9.716797e-02
5.421062e+07 -1.006531e+00 -1.281128e-01 -1.528859e-05 1.838990e-05 2.860464e-05 -2.792291e-05 9.851074e-01 9.729004e-02
5.442844e+07 -1.007080e+00 -1.284180e-01 -1.753401e-05 -3.088266e-06 7.506460e-06 3.290735e-05 9.837646e-01 9.808350e-02
5.464625e+07 -1.007263e+00 -1.287842e-01 2.596714e-05 -1.049228e-05 -1.135562e-05 2.108514e-06 9.835205e-01 1.001587e-01
5.486406e+07 -1.007324e+00 -1.290894e-01 -5.779043e-05 1.991913e-05 1.542456e-05 3.419258e-05 9.823608e-01 1.004639e-01
5.508188e+07 -1.008179e+00 -1.294556e-01 -4.416332e-05 -2.291426e-05 1.474191e-05 -9.424984e-07 9.815674e-01 1.015625e-01
5.529969e+07 -1.008118e+00 -1.287231e-01 2.597645e-05 -1.047365e-05 3.141910e-05 2.305768e-05 9.806519e-01 1.022339e-01
5.551750e+07 -1.009644e+00 -1.292114e-01 -6.074086e-05 -3.192574e-05 7.913914e-06 1.231674e-06 9.806519e-01 1.036377e-01
5.573531e+07 -1.007874e+00 -1.294556e-01 2.220273e-06 2.151914e-05 1.877360e-05 3.990531e-05 9.795532e-01 1.035767e-01
5.595312e+07 -1.009033e+00 -1.299438e-01 -1.068320e-05 -7.932074e-06 4.842877e-06 -2.262555e-05 9.797363e-01 1.040039e-01
5.617094e+07 -1.009399e+00 -1.293945e-01 2.665631e-05 1.983158e-05 -2.384186e-07 1.813844e-05 9.776611e-01 1.055908e-01
5.638875e+07 -1.011047e+00 -1.289673e-01 -1.706462e-05 -6.069429e-06 -1.119263e-05 -1.150556e-05 9.785156e-01 1.069336e-01
5.660656e+07 -1.010254e+00 -1.298828e-01 -4.339591e-05 -6.212667e-05 -2.826564e-05 -8.314848e-06 9.773560e-01 1.073608e-01
5.682438e+07 -1.011292e+00 -1.297607e-01 -1.132302e-05 -3.831461e-05 3.762543e-06 -2.606399e-05 9.767456e-01 1.079712e-01
5.704219e+07 -1.011292e+00 -1.300049e-01 3.245845e-05 -1.238100e-05 -2.295524e-05 1.788512e-05 9.758301e-01 1.090088e-01
5.726000e+07 -1.011719e+00 -1.291504e-01 3.311411e-05 1.800247e-05 3.630482e-05 5.042180e-06 9.755859e-01 1.101685e-01
5.747781e+07 -1.011719e+00 -1.298828e-01 -5.865470e-06 -1.044944e-06 -1.152570e-06 1.120847e-06 9.742432e-01 1.109619e-01
5.769562e+07 -1.012573e+00 -1.298218e-01 3.520586e-05 6.228685e-06 1.908559e-05 1.732074e-05 9.738159e-01 1.106567e-01
5.791344e+07 -1.012146e+00 -1.295166e-01 -7.443130e-06 7.756054e-06 5.833805e-06 -1.015700e-05 9.725952e-01 1.125488e-01
5.813125e+07 -1.013123e+00 -1.296387e-01 1.928769e-05 2.769381e-05 1.141150e-05 -2.115034e-06 9.723511e-01 1.139526e-01
5.834906e+07 -1.013611e+00 -1.296997e-01 1.827814e-05 3.359094e-05 5.293265e-05 4.282221e-05 9.727783e-01 1.142578e-01
5.856688e+07 -1.013489e+00 -1.287842e-01 -1.452863e-06 4.223362e-05 1.368206e-05 1.946464e-07 9.724121e-01 1.149292e-01
5.878469e+07 -1.014160e+00 -1.295166e-01 2.141297e-05 1.596287e-05 -1.482479e-05 9.378418e-07 9.704590e-01 1.160889e-01
5.900250e+07 -1.014465e+00 -1.294556e-01 -1.607835e-05 -1.199730e-05 1.312420e-05 -3.974885e-05 9.708252e-01 1.179199e-01
5.922031e+07 -1.014160e+00 -1.292114e-01 9.032898e-06 -1.660176e-05 -3.515743e-05 -1.535565e-05 9.691772e-01 1.175537e-01
5.943812e+07 -1.014648e+00 -1.283569e-01 1.073442e-05 8.002855e-06 1.055188e-05 -1.925882e-05 9.700928e-01 1.193237e-01
5.965594e+07 -1.014587e+00 -1.298828e-01 3.422610e-05 -2.124719e-05 2.234615e-05 3.230013e-05 9.693604e-01 1.206055e-01
5.987375e+07 -1.015442e+00 -1.286621e-01 1.126714e-05 5.064532e-06 -4.091673e-05 -1.432560e-05 9.688721e-01 1.209717e-01
6.009156e+07 -1.015381e+00 -1.286621e-01 1.919083e-05 -3.916584e-05 -2.849847e-07 1.829490e-05 9.675293e-01 1.218872e-01
6.030938e+07 -1.015686e+00 -1.285400e-01 3.178604e-06 -1.771469e-05 -7.781200e-06 -1.498871e-05 9.681396e-01 1.231689e-01
6.052719e+07 -1.015991e+00 -1.289673e-01 -1.016445e-05 2.255291e-05 1.953263e-05 -5.430542e-06 9.665527e-01 1.251221e-01
6.074500e+07 -1.015808e+00 -1.290894e-01 2.149865e-05 1.607649e-05 1.858920e-05 -1.804996e-05 9.670410e-01 1.260376e-01
6.096281e+07 -1.016174e+00 -1.278076e-01 -1.182873e-05 -2.124347e-06 1.259148e-05 1.337379e-06 9.668579e-01 1.260986e-01
6.118062e+07 -1.017334e+00 -1.283569e-01 1.057982e-06 5.254894e-05 -1.094118e-05 -4.067272e-05 9.649048e-01 1.275635e-01
6.139844e+07 -1.017456e+00 -1.277466e-01 -2.059527e-05 2.380833e-05 2.076849e-05 -3.850088e-06 9.649048e-01 1.277466e-01
6.161625e+07 -1.017822e+00 -1.281128e-01 6.931834e-06 -1.568906e-05 8.271076e-06 1.896173e-05 9.654541e-01 1.297607e-01
6.183406e+07 -1.017883e+00 -1.275635e-01 -2.456829e-05 -6.284565e-06 4.968140e-06 5.758833e-06 9.638062e-01 1.303711e-01
6.205188e+07 -1.017578e+00 -1.279297e-01 2.576038e-05 3.571622e-05 -7.555820e-06 1.453981e-05 9.633789e-01 1.320190e-01
6.226969e+07 -1.018005e+00 -1.273804e-01 -4.115328e-05 2.442673e-05 -1.030788e-05 -2.127327e-05 9.628296e-01 1.321411e-01
6.248750e+07 -1.017822e+00 -1.270142e-01 1.653004e-05 -1.907628e-05 1.090206e-05 -1.351349e-06 9.627686e-01 1.331787e-01
6.270531e+07 -1.018188e+00 -1.264648e-01 3.554486e-05 9.078532e-06 -1.583993e-05 9.628013e-06 9.620972e-01 1.340942e-01
6.292312e+07 -1.018860e+00 -1.266479e-01 9.369105e-06 4.319847e-05 -1.812726e-05 2.567656e-05 9.621582e-01 1.350708e-01
6.314094e+07 -1.018066e+00 -1.260376e-01 7.927418e-06 6.032735e-05 -9.845942e-06 3.062934e-05 9.614868e-01 1.357422e-01
6.335875e+07 -1.018738e+00 -1.249390e-01 -1.508743e-05 1.985580e-06 5.912967e-06 -2.121367e-05 9.611206e-01 1.364746e-01
6.357656e+07 -1.019409e+00 -1.246338e-01 -5.401671e-08 1.164991e-05 -1.491513e-05 -3.270805e-06 9.607544e-01 1.373291e-01
6.379438e+07 -1.018250e+00 -1.253662e-01 8.164905e-06 1.375843e-05 -9.977259e-06 -1.156982e-05 9.612427e-01 1.381226e-01
6.401219e+07 -1.018127e+00 -1.251831e-01 -2.455898e-05 -2.961233e-05 1.748465e-05 -3.121607e-05 9.602661e-01 1.390991e-01
6.423000e+07 -1.018860e+00 -1.241455e-01 1.800805e-05 -3.627129e-05 -8.344650e-06 -1.904648e-05 9.596558e-01 1.400757e-01
6.444781e+07 -1.017700e+00 -1.243286e-01 -1.491979e-05 -4.473701e-05 2.216734e-05 -2.113543e-05 9.608154e-01 1.408081e-01
6.466562e+07 -1.018127e+00 -1.235962e-01 -2.965331e-06 4.602224e-05 -2.134591e-06 -4.463270e-05 9.600220e-01 1.423950e-01
6.488344e+07 -1.017822e+00 -1.225586e-01 -4.108623e-05 -3.388152e-05 -2.690963e-05 -3.084540e-06 9.598389e-01 1.436157e-01
6.510125e+07 -1.018311e+00 -1.230469e-01 2.611615e-05 8.177012e-07 1.091603e-05 -1.547113e-05 9.589233e-01 1.443481e-01
6.531906e+07 -1.017334e+00 -1.223755e-01 1.514610e-05 -1.967885e-06 2.760999e-05 8.566305e-06 9.588013e-01 1.468506e-01
6.553688e+07 -1.018005e+00 -1.219482e-01 -5.606562e-06 2.200343e-05 3.153086e-05 -1.507439e-05 9.592896e-01 1.461182e-01
6.575469e+07 -1.017761e+00 -1.222534e-01 -1.252070e-05 2.609007e-05 1.061056e-05 -1.117401e-05 9.584961e-01 1.474609e-01
6.597250e+07 -1.017700e+00 -1.225586e-01 -1.909211e-05 -4.005805e-05 3.558397e-05 -1.043640e-05 9.588623e-01 1.486206e-01
6.619031e+07 -1.017273e+00 -1.212158e-01 -7.037073e-06 2.752058e-05 2.453104e-05 -2.322346e-05 9.584351e-01 1.495972e-01
6.640812e+07 -1.017334e+00 -1.221924e-01 -2.203882e-05 -5.625188e-06 1.510233e-05 3.159046e-05 9.586182e-01 1.505737e-01
6.662594e+07 -1.017700e+00 -1.211548e-01 -1.639128e-06 6.408617e-05 -5.294569e-06 1.268182e-05 9.574585e-01 1.513062e-01
6.684375e+07 -1.016968e+00 -1.212158e-01 -2.168491e-05 -7.590652e-05 -2.124906e-05 2.241880e-05 9.565430e-01 1.528931e-01
6.706156e+07 -1.016602e+00 -1.203613e-01 5.623326e-06 -2.206117e-05 2.167560e-05 1.588836e-06 9.573975e-01 1.535034e-01
6.727938e+07 -1.016724e+00 -1.202393e-01 1.947396e-05 -3.026053e-05 7.767230e-06 2.781674e-05 9.566650e-01 1.547852e-01
6.749719e+07 -1.016663e+00 -1.185913e-01 -1.930539e-05 -4.929490e-06 -1.539849e-05 -1.312606e-05 9.572144e-01 1.555176e-01
6.771500e+07 -1.016113e+00 -1.193848e-01 -5.403534e-06 -2.490170e-05 2.359226e-05 -3.866293e-05 9.573364e-01 1.564331e-01
6.793281e+07 -1.015991e+00 -1.187744e-01 4.019588e-06 3.042817e-05 1.435447e-05 -2.219342e-06 9.573975e-01 1.572266e-01
6.815062e+07 -1.015747e+00 -1.187134e-01 -1.250301e-05 1.446903e-05 -2.363697e-05 2.449378e-05 9.572754e-01 1.575317e-01
6.836844e+07 -1.015747e+00 -1.181030e-01 2.079643e-05 -1.235679e-05 -2.407841e-05 4.116446e-07 9.569092e-01 1.586304e-01
6.858625e+07 -1.015442e+00 -1.184692e-01 -2.775528e-05 1.648627e-05 8.699484e-06 6.365590e-07 9.569092e-01 1.599121e-01
6.880406e+07 -1.014893e+00 -1.179810e-01 4.543737e-05 5.277991e-05 1.629815e-05 -2.830662e-05 9.561768e-01 1.607666e-01
6.902188e+07 -1.014221e+00 -1.176147e-01 -1.401640e-05 3.180467e-05 -8.277595e-06 2.347305e-05 9.569702e-01 1.624146e-01
6.923969e+07 -1.014221e+00 -1.174927e-01 1.513399e-05 2.154894e-05 -2.017128e-06 -2.334360e-06 9.566040e-01 1.630249e-01
6.945750e+07 -1.013672e+00 -1.165161e-01 -9.726267e-06 3.417023e-06 -2.825633e-06 -3.633089e-05 9.568481e-01 1.647339e-01
6.967531e+07 -1.014038e+00 -1.169434e-01 -2.651475e-05 3.455579e-05 -2.745166e-05 1.274049e-06 9.567261e-01 1.654053e-01
6.989312e+07 -1.013367e+00 -1.165771e-01 -2.825633e-06 1.108274e-05 -3.423728e-05 -1.128577e-05 9.564209e-01 1.661987e-01
7.011094e+07 -1.012939e+00 -1.170654e-01 1.946371e-05 -6.854534e-06 1.477543e-05 7.653609e-06 9.566650e-01 1.671753e-01
7.032875e+07 -1.012878e+00 -1.165161e-01 2.094544e-05 -2.419017e-05 5.749054e-06 1.138449e-05 9.563599e-01 1.686401e-01
7.054656e+07 -1.012878e+00 -1.154175e-01 -5.431473e-06 -2.504885e-05 -4.850328e-06 -3.873743e-05 9.569702e-01 1.699829e-01
7.076438e+07 -1.011658e+00 -1.166992e-01 -1.795962e-05 -2.232194e-05 1.120567e-05 2.714805e-05 9.564819e-01 1.707764e-01
7.098219e+07 -1.011414e+00 -1.158447e-01 -1.542270e-06 4.098564e-05 5.499646e-05 -1.686066e-05 9.562378e-01 1.707764e-01
7.120000e+07 -1.011108e+00 -1.157227e-01 -1.797825e-05 -2.232753e-05 -2.402812e-06 -1.225714e-05 9.564209e-01 1.725464e-01
7.141781e+07 -1.010437e+00 -1.156006e-01 -1.662411e-05 -1.606625e-05 1.930818e-05 3.657117e-05 9.563599e-01 1.733398e-01
7.163562e+07 -1.009583e+00 -1.154175e-01 -8.341856e-06 -2.127141e-06 2.549030e-05 -1.791678e-05 9.572144e-01 1.744385e-01
7.185344e+07 -1.009766e+00 -1.149292e-01 -1.310371e-06 -1.811143e-05 -1.451466e-05 -1.205876e-05 9.570923e-01 1.750488e-01
7.207125e+07 -1.009827e+00 -1.146240e-01 -1.108181e-05 -1.468509e-05 -2.299435e-06 1.632236e-05 9.573975e-01 1.760864e-01
7.228906e+07 -1.009460e+00 -1.138306e-01 3.338419e-05 8.484349e-06 -1.173373e-05 1.014024e-05 9.566650e-01 1.764526e-01
7.250688e+07 -1.008301e+00 -1.138306e-01 8.401927e-06 -9.717885e-06 -4.397333e-05 2.983585e-05 9.567871e-01 1.778564e-01
7.272469e+07 -1.007568e+00 -1.141968e-01 5.029142e-08 -1.185574e-05 -1.688395e-05 -1.004152e-05 9.573975e-01 1.787720e-01
7.294250e+07 -1.007507e+00 -1.132812e-01 2.792850e-05 -4.746020e-06 -3.827736e-07 -9.933487e-06 9.573364e-01 1.802368e-01
7.316031e+07 -1.006836e+00 -1.141968e-01 2.785772e-05 7.081777e-06 -3.883056e-05 -1.160055e-05 9.567871e-01 1.799927e-01
7.337812e+07 -1.006287e+00 -1.134033e-01 2.933666e-06 -3.487431e-05 -8.657575e-06 2.804957e-05 9.570923e-01 1.813965e-01
7.359594e+07 -1.006042e+00 -1.139526e-01 -2.519973e-05 1.734309e-05 1.933053e-05 -5.370006e-05 9.571533e-01 1.825562e-01
7.381375e+07 -1.005554e+00 -1.136475e-01 1.953822e-05 4.976057e-06 -4.709698e-06 4.077097e-06 9.578857e-01 1.838989e-01
7.403156e+07 -1.005432e+00 -1.130981e-01 1.554936e-05 -3.764033e-05 7.452443e-06 3.846828e-06 9.571533e-01 1.847534e-01
7.424938e+07 -1.005310e+00 -1.135864e-01 -5.168095e-05 -7.219613e-06 -2.872385e-05 1.378357e-07 9.575195e-01 1.856079e-01
7.446719e+07 -1.003662e+00 -1.137085e-01 -2.097711e-05 6.072223e-07 -1.844577e-05 -3.558025e-05 9.577026e-01 1.862183e-01
7.468500e+07 -1.003601e+00 -1.130981e-01 3.497489e-05 2.935529e-06 -1.943111e-05 3.948249e-05 9.583740e-01 1.870728e-01
7.490281e+07 -1.003357e+00 -1.132202e-01 -1.962949e-05 6.897375e-06 -4.203618e-05 4.670396e-05 9.581299e-01 1.890869e-01
7.512062e+07 -1.002319e+00 -1.137695e-01 -1.320615e-06 -1.820456e-05 -1.194049e-05 -1.854263e-05 9.581909e-01 1.895142e-01
7.533844e+07 -1.002197e+00 -1.134033e-01 2.747402e-06 1.261570e-05 -5.988404e-06 2.168119e-05 9.583740e-01 1.904907e-01
7.555625e+07 -1.000854e+00 -1.136475e-01 -1.272745e-05 2.655387e-05 2.213195e-05 -4.597008e-05 9.586182e-01 1.916504e-01
7.577406e+07 -1.000305e+00 -1.131592e-01 1.973845e-05 -3.074668e-05 -1.634844e-05 4.307739e-05 9.590454e-01 1.917114e-01
7.599188e+07 -1.000061e+00 -1.132812e-01 1.684763e-05 -7.655472e-06 3.333203e-05 2.896786e-05 9.592896e-01 1.925049e-01
7.620969e+07 -9.995728e-01 -1.134033e-01 4.068017e-06 3.085658e-05 2.272427e-07 4.323013e-05 9.589233e-01 1.941528e-01
7.642750e+07 -9.988403e-01 -1.130981e-01 1.005828e-07 -2.384745e-05 1.750886e-07 -3.323704e-05 9.594116e-01 1.951294e-01
7.664531e+07 -9.973145e-01 -1.131592e-01 -2.109446e-05 1.253188e-05 3.055111e-05 6.619841e-06 9.594116e-01 1.955566e-01
7.686312e+07 -9.981689e-01 -1.131592e-01 -1.132116e-05 2.099946e-05 3.900379e-05 -2.743676e-06 9.595337e-01 1.959839e-01
7.708094e+07 -9.972534e-01 -1.129761e-01 5.488098e-05 -2.788380e-05 -5.011261e-05 1.858920e-05 9.603271e-01 1.965332e-01
7.729875e+07 -9.966431e-01 -1.135864e-01 2.509356e-05 4.222989e-05 2.551079e-05 1.517311e-05 9.597168e-01 1.976318e-01
7.751656e+07 -9.961548e-01 -1.129150e-01 4.184898e-06 7.039402e-06 -2.685934e-06 6.464310e-06 9.598999e-01 1.983643e-01
7.773438e+07 -9.945679e-01 -1.132812e-01 -2.225116e-05 -5.351752e-05 4.282221e-06 -2.856180e-05 9.605103e-01 1.997070e-01
7.795219e+07 -9.949341e-01 -1.134644e-01 -1.971051e-05 6.943941e-06 2.091378e-05 -2.851523e-05 9.605713e-01 2.001343e-01
7.817000e+07 -9.938354e-01 -1.138306e-01 4.149042e-06 1.902506e-05 -2.529286e-05 -1.957826e-05 9.618530e-01 2.007446e-01
7.838781e+07 -9.933472e-01 -1.141968e-01 -2.674386e-05 -8.214265e-07 4.591420e-06 -3.300235e-05 9.611206e-01 2.021484e-01
7.860562e+07 -9.923706e-01 -1.135864e-01 5.496293e-05 -1.595914e-05 -1.572073e-06 -4.015863e-05 9.610596e-01 2.028809e-01
7.882344e+07 -9.915771e-01 -1.148682e-01 3.661588e-05 -2.682209e-06 -6.016344e-06 2.181157e-05 9.615479e-01 2.031250e-01
7.904125e+07 -9.912109e-01 -1.148682e-01 1.477078e-06 -1.761410e-05 -6.958842e-06 -2.720766e-05 9.621582e-01 2.043457e-01
7.925906e+07 -9.913940e-01 -1.146851e-01 2.110749e-05 1.134351e-05 1.777709e-05 -4.658476e-05 9.623413e-01 2.050781e-01
7.947688e+07 -9.898071e-01 -1.152344e-01 1.685973e-05 1.628138e-05 -3.016181e-05 3.234856e-05 9.625854e-01 2.059326e-01
7.969469e+07 -9.895020e-01 -1.154785e-01 1.285225e-07 -3.595650e-05 2.120063e-05 1.486205e-05 9.630127e-01 2.064209e-01
7.991250e+07 -9.892578e-01 -1.150513e-01 2.814457e-05 1.915917e-05 8.303672e-06 2.397224e-05 9.633789e-01 2.079468e-01
8.013031e+07 -9.876099e-01 -1.156006e-01 2.911314e-06 -2.326630e-05 -2.929755e-05 4.606321e-06 9.631348e-01 2.086792e-01
8.034812e+07 -9.869385e-01 -1.155396e-01 2.673641e-05 2.481975e-05 2.693385e-05 -2.523884e-06 9.643555e-01 2.092896e-01
8.056594e+07 -9.868774e-01 -1.148071e-01 2.825819e-05 -4.839152e-06 3.892928e-06 -3.875047e-05 9.639893e-01 2.097778e-01
8.078375e+07 -9.858398e-01 -1.168823e-01 -1.703948e-05 1.972355e-05 9.594020e-06 6.262679e-06 9.649658e-01 2.108154e-01
8.100156e+07 -9.848633e-01 -1.163940e-01 -2.255850e-05 -1.775101e-05 1.788698e-05 -3.217719e-05 9.651489e-01 2.111816e-01
8.121938e+07 -9.848022e-01 -1.161499e-01 -9.908341e-06 3.489666e-06 3.085472e-05 2.117828e-05 9.646606e-01 2.127686e-01
8.143719e+07 -9.843750e-01 -1.170654e-01 -1.144037e-05 3.319979e-05 -5.427003e-05 9.484589e-06 9.655151e-01 2.131958e-01
8.165500e+07 -9.833374e-01 -1.173706e-01 -4.265923e-06 4.935078e-06 -2.088025e-05 3.286637e-06 9.653931e-01 2.135010e-01
8.187281e+07 -9.833984e-01 -1.176147e-01 2.554432e-05 -1.759455e-05 1.375657e-05 -7.888302e-06 9.658203e-01 2.140503e-01
8.209062e+07 -9.821167e-01 -1.177979e-01 4.466623e-06 -6.512552e-05 1.210533e-05 2.237223e-05 9.662476e-01 2.144165e-01
8.230844e+07 -9.821167e-01 -1.177979e-01 -8.444302e-06 -1.420639e-05 -3.817677e-05 1.175702e-05 9.668579e-01 2.155762e-01
8.252625e+07 -9.810181e-01 -1.176758e-01 -1.983345e-05 -5.036592e-06 -1.580268e-05 -2.752244e-05 9.675293e-01 2.160645e-01
8.274406e+07 -9.797974e-01 -1.182251e-01 -2.832152e-06 -7.206108e-07 -1.137517e-05 3.725290e-07 9.670410e-01 2.171631e-01
8.296188e+07 -9.795532e-01 -1.190186e-01 2.415292e-05 -1.195073e-05 2.296641e-05 3.211759e-05 9.672852e-01 2.178345e-01
8.317969e+07 -9.788818e-01 -1.196899e-01 1.984276e-05 5.027279e-06 -2.424605e-05 9.564683e-06 9.678345e-01 2.175293e-01
8.339750e+07 -9.776611e-01 -1.200562e-01 -3.001094e-05 5.883723e-05 -7.164199e-06 -4.592352e-06 9.689941e-01 2.188110e-01
8.361531e+07 -9.777832e-01 -1.200562e-01 2.267957e-05 5.755574e-06 -1.598056e-05 2.115779e-05 9.676514e-01 2.195435e-01
8.383312e+07 -9.765625e-01 -1.210938e-01 1.990981e-05 -7.042661e-06 6.434508e-06 9.011012e-06 9.694824e-01 2.198486e-01
8.405094e+07 -9.762573e-01 -1.211548e-01 2.404675e-05 3.632158e-05 -6.824732e-06 -4.763529e-05 9.697876e-01 2.203369e-01
8.426875e+07 -9.760132e-01 -1.212158e-01 1.840293e-05 2.278201e-05 3.622845e-07 -1.583248e-05 9.694824e-01 2.208862e-01
8.448656e+07 -9.739380e-01 -1.215820e-01 -2.696365e-05 -1.288764e-05 2.595037e-05 1.452491e-05 9.698486e-01 2.220459e-01
8.470438e+07 -9.736938e-01 -1.219482e-01 -1.285784e-05 1.489557e-05 9.164214e-07 -2.596527e-05 9.709473e-01 2.228394e-01
8.492219e+07 -9.731445e-01 -1.220093e-01 -1.863018e-05 4.975498e-05 2.523139e-05 -8.298084e-06 9.711914e-01 2.224731e-01
8.514000e+07 -9.729004e-01 -1.227417e-01 -2.144091e-05 2.483279e-05 -1.069298e-05 -4.052185e-06 9.711914e-01 2.241211e-01
8.535781e+07 -9.730835e-01 -1.231079e-01 3.268197e-05 2.646074e-05 1.807045e-05 -1.293328e-05 9.719238e-01 2.246094e-01
8.557562e+07 -9.708862e-01 -1.245728e-01 2.277642e-05 5.785376e-06 2.416410e-05 -1.529604e-05 9.721680e-01 2.252808e-01
8.579344e+07 -9.716187e-01 -1.244507e-01 -1.838431e-05 -4.708394e-05 5.446747e-05 -5.755574e-06 9.724121e-01 2.250977e-01
8.601125e+07 -9.695435e-01 -1.248779e-01 -1.483597e-06 1.781061e-05 -4.252419e-06 -2.232008e-05 9.722900e-01 2.260742e-01
8.622906e+07 -9.697266e-01 -1.250000e-01 -2.132356e-05 -2.358481e-05 -2.768077e-05 1.590326e-05 9.727173e-01 2.262573e-01
8.644688e+07 -9.688110e-01 -1.260986e-01 1.706928e-05 1.646671e-05 -5.001202e-06 -1.790747e-05 9.733276e-01 2.266846e-01
8.666469e+07 -9.682617e-01 -1.272583e-01 1.429766e-05 -8.529052e-06 2.106279e-05 5.137548e-05 9.737549e-01 2.265625e-01
8.688250e+07 -9.676514e-01 -1.267090e-01 -1.486391e-06 1.783762e-05 3.154390e-06 1.533609e-05 9.734497e-01 2.279663e-01
8.710031e+07 -9.666138e-01 -1.280518e-01 -1.850910e-05 -2.291985e-05 6.579608e-05 -3.919750e-05 9.744873e-01 2.284546e-01
8.731812e+07 -9.669189e-01 -1.275024e-01 -2.707727e-05 -2.509914e-05 1.274329e-05 -1.500174e-05 9.746094e-01 2.290649e-01
8.753594e+07 -9.660645e-01 -1.286621e-01 9.990297e-06 8.610077e-06 -2.681278e-05 1.724251e-05 9.755859e-01 2.288818e-01
8.775375e+07 -9.658813e-01 -1.296387e-01 3.002211e-05 1.527369e-06 -3.258698e-05 3.112108e-05 9.753418e-01 2.297974e-01
8.797156e+07 -9.657593e-01 -1.295166e-01 3.572926e-05 1.513399e-05 3.244728e-05 1.793355e-05 9.755859e-01 2.304688e-01
8.818938e+07 -9.645386e-01 -1.301880e-01 3.859214e-05 1.583248e-05 2.421439e-06 1.982506e-05 9.756470e-01 2.301025e-01
8.840719e+07 -9.640503e-01 -1.295776e-01 4.312024e-06 -5.002599e-06 -1.296122e-05 9.289011e-06 9.769897e-01 2.310791e-01
8.862500e+07 -9.638672e-01 -1.314697e-01 2.727099e-05 -1.138262e-05 4.171953e-05 -2.396479e-05 9.772949e-01 2.321777e-01
8.884281e+07 -9.628906e-01 -1.315918e-01 1.152046e-05 -2.147071e-05 4.304945e-05 1.629256e-05 9.769287e-01 2.317505e-01
8.906062e+07 -9.629517e-01 -1.327515e-01 -2.732500e-06 -3.730506e-05 -8.709729e-06 3.175996e-05 9.776611e-01 2.331543e-01
8.927844e+07 -9.620361e-01 -1.333618e-01 4.593655e-05 -5.960464e-07 5.558133e-06 -1.968816e-05 9.785156e-01 2.327271e-01
8.949625e+07 -9.610596e-01 -1.341553e-01 3.741682e-05 -3.935397e-05 1.449045e-05 9.280629e-06 9.776611e-01 2.336426e-01
8.971406e+07 -9.609985e-01 -1.347656e-01 -3.000349e-05 -3.815629e-05 6.674789e-06 -1.264084e-05 9.779663e-01 2.344971e-01
8.993188e+07 -9.600830e-01 -1.351318e-01 -3.313832e-05 2.217293e-05 2.948567e-05 -4.668534e-05 9.796143e-01 2.346802e-01
9.014969e+07 -9.594727e-01 -1.362915e-01 -3.593415e-05 9.214506e-06 1.528487e-05 3.233179e-05 9.783325e-01 2.352295e-01
9.036750e+07 -9.588013e-01 -1.371460e-01 1.287460e-05 2.160855e-05 -2.114102e-05 5.842373e-05 9.795532e-01 2.353516e-01
9.058531e+07 -9.585571e-01 -1.373901e-01 -1.717918e-05 -2.881885e-05 1.934171e-05 -5.978160e-06 9.800415e-01 2.354126e-01
9.080312e+07 -9.581299e-01 -1.384277e-01 -1.441035e-05 8.589588e-06 6.332528e-06 3.344845e-06 9.799194e-01 2.357788e-01
9.102094e+07 -9.575806e-01 -1.384277e-01 -8.517876e-06 -3.888272e-05 -4.934520e-05 1.367554e-05 9.800415e-01 2.362671e-01
9.123875e+07 -9.571533e-01 -1.396484e-01 -1.579337e-05 -1.012068e-05 -2.869964e-05 -7.053837e-06 9.796753e-01 2.363281e-01
9.145656e+07 -9.573364e-01 -1.396484e-01 2.439879e-05 2.456643e-05 3.265589e-05 1.803599e-05 9.804688e-01 2.369995e-01
9.167438e+07 -9.561157e-01 -1.410522e-01 4.170835e-05 2.897158e-05 1.081731e-05 4.090369e-06 9.812622e-01 2.372437e-01
9.189219e+07 -9.562988e-01 -1.409302e-01 5.056709e-05 -3.011152e-05 -1.261756e-05 4.853681e-05 9.816895e-01 2.372437e-01
9.211000e+07 -9.545898e-01 -1.427612e-01 5.196035e-05 -1.141429e-05 -1.293607e-06 1.473445e-05 9.824829e-01 2.371216e-01
9.232781e+07 -9.555664e-01 -1.430054e-01 2.306700e-05 5.826354e-06 5.614012e-06 7.834751e-06 9.819336e-01 2.377319e-01
9.254562e+07 -9.546509e-01 -1.433716e-01 4.475936e-05 5.163252e-06 -2.315827e-05 7.729977e-07 9.833984e-01 2.378540e-01
9.276344e+07 -9.544067e-01 -1.437988e-01 7.310882e-06 -2.885237e-05 -3.850088e-05 -4.064292e-06 9.825439e-01 2.389526e-01
9.298125e+07 -9.531250e-01 -1.444702e-01 -2.891198e-05 4.986301e-06 5.587935e-08 2.764538e-05 9.835205e-01 2.388916e-01
9.319906e+07 -9.533081e-01 -1.463623e-01 -2.307445e-05 -1.811981e-05 -3.827736e-07 -1.159310e-05 9.830933e-01 2.390747e-01
9.341688e+07 -9.530640e-01 -1.461182e-01 1.581572e-05 3.477000e-05 -9.520445e-06 8.802861e-06 9.843750e-01 2.397461e-01
9.363469e+07 -9.530640e-01 -1.473389e-01 1.154002e-05 1.520663e-05 -3.904104e-06 1.665950e-05 9.837646e-01 2.390747e-01
9.385250e+07 -9.517212e-01 -1.487427e-01 5.837530e-06 -2.314523e-05 7.950515e-05 2.819672e-05 9.844360e-01 2.393799e-01
9.407031e+07 -9.512329e-01 -1.487427e-01 -2.894551e-06 -7.313211e-07 4.193559e-05 2.538040e-05 9.845581e-01 2.402954e-01
9.428812e+07 -9.505005e-01 -1.494751e-01 1.027808e-05 -5.285814e-05 -6.564427e-06 -9.157229e-06 9.849243e-01 2.408447e-01
9.450594e+07 -9.509277e-01 -1.503906e-01 -7.197261e-06 -2.029911e-05 2.999417e-05 1.419522e-05 9.846802e-01 2.406006e-01
9.472375e+07 -9.502563e-01 -1.507568e-01 -3.912300e-05 -3.717840e-06 5.429611e-07 -1.030369e-05 9.849243e-01 2.408447e-01
9.494156e+07 -9.500732e-01 -1.517334e-01 3.631786e-05 -2.166256e-05 4.049018e-05 6.694347e-06 9.855347e-01 2.412720e-01
9.515938e+07 -9.500732e-01 -1.533813e-01 -3.200024e-05 2.891943e-05 1.965649e-05 -2.797134e-05 9.851685e-01 2.420044e-01
9.537719e+07 -9.490967e-01 -1.527100e-01 8.699484e-06 2.202112e-06 -1.479127e-05 1.258217e-05 9.852905e-01 2.421265e-01
9.559500e+07 -9.490967e-01 -1.540527e-01 -2.324395e-05 6.472692e-06 8.974224e-06 -2.627820e-05 9.856567e-01 2.420044e-01
9.581281e+07 -9.483643e-01 -1.548462e-01 4.342757e-06 7.272232e-06 -1.986139e-05 2.216175e-05 9.865723e-01 2.417603e-01
9.603062e+07 -9.483032e-01 -1.544800e-01 -2.318248e-05 -3.058836e-05 -2.750382e-05 -4.386157e-05 9.871216e-01 2.426147e-01
9.624844e+07 -9.483032e-01 -1.564941e-01 3.346056e-05 -1.006015e-05 -9.958167e-06 -2.804212e-06 9.863281e-01 2.431030e-01
9.646625e+07 -9.476318e-01 -1.577148e-01 7.253606e-06 8.008443e-06 -2.439320e-05 2.143532e-05 9.864502e-01 2.421265e-01
9.668406e+07 -9.475708e-01 -1.579590e-01 2.628565e-05 -5.520135e-05 3.023073e-06 9.765849e-06 9.866333e-01 2.424316e-01
9.690188e+07 -9.467773e-01 -1.582642e-01 2.766959e-05 -1.156144e-05 1.704134e-05 -2.615526e-05 9.865723e-01 2.431641e-01
9.711969e+07 -9.464722e-01 -1.588135e-01 -3.059022e-05 1.086108e-05 -1.481641e-05 1.262035e-05 9.872437e-01 2.424927e-01
9.733750e+07 -9.466553e-01 -1.602783e-01 2.037734e-05 5.146489e-06 -2.634525e-05 -8.981675e-06 9.873657e-01 2.437134e-01
9.755531e+07 -9.465332e-01 -1.611328e-01 -5.821697e-06 -1.469161e-06 -8.688308e-06 -1.766719e-05 9.870605e-01 2.434082e-01
9.777312e+07 -9.467163e-01 -1.610718e-01 -7.275958e-06 -8.032657e-06 -3.163517e-05 -5.200505e-06 9.876099e-01 2.435303e-01
9.799094e+07 -9.456177e-01 -1.620483e-01 1.611933e-05 -2.694502e-05 3.316253e-05 2.402626e-05 9.874268e-01 2.448120e-01
9.820875e+07 -9.454346e-01 -1.625366e-01 1.014583e-05 3.357232e-05 -2.029724e-05 1.059193e-05 9.873657e-01 2.440186e-01
9.842656e+07 -9.451904e-01 -1.634521e-01 -2.923235e-05 1.744367e-05 5.399808e-06 -2.581999e-05 9.877930e-01 2.443848e-01
9.864438e+07 -9.450684e-01 -1.643066e-01 1.620129e-05 -6.419048e-05 7.427298e-07 -4.525529e-06 9.876709e-01 2.446899e-01
9.886219e+07 -9.456177e-01 -1.649780e-01 -2.044439e-05 -5.161390e-06 8.648727e-06 -1.020590e-05 9.881592e-01 2.446899e-01
9.908000e+07 -9.453125e-01 -1.664429e-01 -2.930127e-05 2.989359e-05 2.364069e-05 3.297627e-05 9.882202e-01 2.450562e-01
9.929781e+07 -9.448242e-01 -1.679077e-01 1.896173e-05 2.342463e-05 4.714727e-05 -1.779199e-05 9.880981e-01 2.449341e-01
9.951562e+07 -9.448853e-01 -1.683960e-01 -1.318567e-05 1.533329e-05 -2.152007e-05 3.441237e-06 9.881592e-01 2.450562e-01
9.973344e+07 -9.439087e-01 -1.687622e-01 -4.369766e-06 -7.316936e-06 2.698041e-05 -1.383945e-06 9.874268e-01 2.453003e-01
9.995125e+07 -9.438477e-01 -1.699829e-01 2.202019e-05 -3.799982e-05 -3.227405e-05 5.153939e-06 9.885254e-01 2.451172e-01
1.001691e+08 -9.440918e-01 -1.704712e-01 1.899153e-05 1.102220e-05 2.606399e-05 -2.700835e-06 9.880981e-01 2.459717e-01
1.003869e+08 -9.435425e-01 -1.713257e-01 3.224984e-05 -1.675636e-05 2.101529e-06 8.493196e-06 9.883423e-01 2.459106e-01
1.006047e+08 -9.440308e-01 -1.720581e-01 -3.017485e-06 4.905835e-05 1.171790e-05 -4.079193e-07 9.885864e-01 2.463379e-01
1.008225e+08 -9.433594e-01 -1.730957e-01 -1.610722e-05 2.172776e-06 8.061528e-06 -2.779998e-05 9.880981e-01 2.456665e-01
1.010403e+08 -9.429321e-01 -1.730957e-01 2.778135e-05 3.814325e-05 1.827814e-05 -1.914240e-05 9.884033e-01 2.464600e-01
1.012581e+08 -9.437866e-01 -1.740723e-01 -2.235174e-08 1.246203e-05 5.856529e-05 -3.003702e-05 9.885864e-01 2.462769e-01
1.014759e+08 -9.434204e-01 -1.752319e-01 3.078394e-05 1.395866e-05 9.429641e-06 -1.478009e-05 9.885254e-01 2.453613e-01
1.016938e+08 -9.421387e-01 -1.761475e-01 2.056174e-05 -1.977943e-05 -3.496557e-05 7.068738e-06 9.883423e-01 2.460327e-01
1.019116e+08 -9.424438e-01 -1.769409e-01 2.939627e-05 -4.251301e-05 -1.138542e-05 -1.586601e-05 9.879761e-01 2.462769e-01
1.021294e+08 -9.426880e-01 -1.770630e-01 2.970919e-06 -2.422370e-05 7.865950e-06 -3.371760e-05 9.882202e-01 2.466431e-01
1.023472e+08 -9.426270e-01 -1.779785e-01 4.695356e-05 1.182035e-05 -1.987908e-05 2.374873e-07 9.877319e-01 2.470093e-01
1.025650e+08 -9.425659e-01 -1.781616e-01 -3.233366e-05 1.684763e-05 -1.904555e-05 2.372265e-05 9.879150e-01 2.470703e-01
1.027828e+08 -9.420776e-01 -1.798096e-01 7.348135e-06 -4.388392e-06 -4.888512e-06 1.554098e-05 9.868164e-01 2.474976e-01
1.030006e+08 -9.426270e-01 -1.804199e-01 5.939975e-06 -3.600866e-05 1.365319e-05 -7.603317e-05 9.879150e-01 2.476807e-01
1.032184e+08 -9.420776e-01 -1.811523e-01 3.240630e-05 -4.183874e-05 1.566857e-05 -1.729000e-05 9.873657e-01 2.476807e-01
1.034362e+08 -9.424438e-01 -1.824951e-01 7.078052e-08 -4.998967e-05 8.562580e-06 1.192745e-05 9.873657e-01 2.478638e-01
1.036541e+08 -9.425659e-01 -1.825562e-01 -1.906790e-05 -2.355129e-05 -2.650358e-05 1.903810e-05 9.865723e-01 2.482910e-01
1.038719e+08 -9.410400e-01 -1.828003e-01 1.770072e-05 -2.056919e-05 3.225356e-05 1.694448e-05 9.876709e-01 2.486572e-01
1.040897e+08 -9.418945e-01 -1.841431e-01 3.238954e-05 -1.688488e-05 -6.917864e-06 3.509410e-05 9.871826e-01 2.478027e-01
1.043075e+08 -9.420776e-01 -1.853027e-01 2.207048e-05 1.181476e-05 -3.698468e-05 4.468486e-06 9.876709e-01 2.487793e-01
1.045253e+08 -9.414062e-01 -1.866455e-01 -8.819625e-06 -1.473073e-05 4.475936e-06 -2.733618e-05 9.871826e-01 2.479858e-01
1.047431e+08 -9.412842e-01 -1.870728e-01 2.879649e-06 3.831275e-05 7.816590e-06 1.649186e-05 9.872437e-01 2.492065e-01
1.049609e+08 -9.413452e-01 -1.882935e-01 1.032092e-05 -3.661960e-06 2.822652e-05 -2.227724e-05 9.865723e-01 2.499390e-01
1.051788e+08 -9.418335e-01 -1.882324e-01 -3.979728e-05 -3.740191e-06 1.360662e-05 -2.587214e-05 9.868774e-01 2.493896e-01
1.053966e+08 -9.414673e-01 -1.889038e-01 1.454726e-06 1.916103e-05 2.450682e-05 4.954636e-07 9.861450e-01 2.492065e-01
1.056144e+08 -9.419556e-01 -1.896362e-01 -5.898997e-06 -1.486391e-06 -5.517621e-06 -2.075452e-06 9.865112e-01 2.501221e-01
1.058322e+08 -9.419556e-01 -1.903076e-01 1.629069e-05 -5.232543e-05 -7.843599e-06 -1.651142e-05 9.857178e-01 2.496948e-01
1.060500e+08 -9.416504e-01 -1.912842e-01 -3.098883e-05 1.104362e-05 9.244308e-06 -2.074987e-05 9.855957e-01 2.490234e-01
1.062678e+08 -9.416504e-01 -1.912842e-01 1.326669e-05 9.600073e-06 -3.313273e-05 3.795139e-05 9.851685e-01 2.493286e-01
1.064856e+08 -9.411011e-01 -1.926270e-01 -2.363324e-05 6.608665e-06 -1.137704e-05 1.220033e-05 9.852295e-01 2.505493e-01
1.067034e+08 -9.418335e-01 -1.926270e-01 -2.657436e-05 1.842529e-05 1.988001e-05 -2.841838e-05 9.843140e-01 2.496338e-01
1.069212e+08 -9.414673e-01 -1.947021e-01 -2.065860e-05 -5.194917e-06 2.849475e-05 -1.643412e-05 9.840088e-01 2.507324e-01
1.071391e+08 -9.413452e-01 -1.954346e-01 -3.544055e-05 3.630295e-06 2.039224e-05 1.155399e-05 9.836426e-01 2.510376e-01
1.073569e+08 -9.413452e-01 -1.956177e-01 -2.514571e-08 1.256913e-05 1.433585e-05 1.992658e-05 9.843140e-01 2.517090e-01
1.075747e+08 -9.409180e-01 -1.965942e-01 5.925074e-06 -1.108274e-05 3.804080e-05 -3.172085e-06 9.837036e-01 2.512817e-01
1.077925e+08 -9.417725e-01 -1.986694e-01 2.955319e-06 7.427298e-07 1.794752e-05 1.937989e-05 9.827881e-01 2.516479e-01
1.080103e+08 -9.415894e-01 -1.975098e-01 1.184642e-05 -9.602867e-06 -2.199970e-05 -3.057159e-05 9.835205e-01 2.516479e-01
1.082281e+08 -9.418945e-01 -1.995850e-01 -1.491979e-06 1.848210e-05 -3.617955e-06 5.797483e-07 9.827271e-01 2.514038e-01
1.084459e+08 -9.417114e-01 -1.995850e-01 8.873176e-06 2.232380e-06 -2.499111e-05 -1.229718e-05 9.824219e-01 2.522583e-01
1.086638e+08 -9.412231e-01 -2.006226e-01 3.848970e-05 9.654090e-06 -1.234375e-05 1.089089e-05 9.830933e-01 2.520752e-01
1.088816e+08 -9.420166e-01 -2.006226e-01 7.443130e-06 -2.958998e-05 -3.729016e-06 2.288073e-05 9.816284e-01 2.529297e-01
1.090994e+08 -9.419556e-01 -2.008057e-01 -2.961420e-05 -7.424504e-06 -1.605973e-05 3.378838e-05 9.817505e-01 2.529297e-01
1.093172e+08 -9.423828e-01 -2.020874e-01 -3.256649e-05 -3.335625e-05 -1.803041e-06 -2.497248e-05 9.814453e-01 2.536011e-01
1.095350e+08 -9.423218e-01 -2.021484e-01 -1.481548e-05 -3.711320e-06 8.947216e-06 -4.414003e-06 9.809570e-01 2.530518e-01
1.097528e+08 -9.427490e-01 -2.026367e-01 -1.335517e-05 1.554471e-05 3.643520e-05 5.029142e-08 9.806519e-01 2.539062e-01
1.099706e+08 -9.428711e-01 -2.036743e-01 3.112480e-05 -2.369471e-05 3.783591e-05 -3.735535e-05 9.800415e-01 2.534790e-01
1.101884e+08 -9.431763e-01 -2.047119e-01 7.396564e-06 2.073869e-05 -7.459894e-06 -4.746020e-06 9.794312e-01 2.536011e-01
1.104062e+08 -9.425049e-01 -2.056885e-01 4.154071e-05 -4.000962e-05 -9.242445e-06 -2.974272e-05 9.794312e-01 2.547607e-01
1.106241e+08 -9.435425e-01 -2.059937e-01 2.672523e-05 -1.850910e-05 8.096918e-06 2.250262e-05 9.794312e-01 2.553101e-01
1.108419e+08 -9.434814e-01 -2.062378e-01 2.224371e-05 -7.264316e-07 -1.802295e-05 -1.940690e-05 9.782715e-01 2.546997e-01
1.110597e+08 -9.437866e-01 -2.067871e-01 1.484342e-05 -8.895062e-06 -2.197362e-05 -2.387911e-06 9.782104e-01 2.551270e-01
1.112775e+08 -9.439697e-01 -2.078857e-01 -4.425645e-06 -3.264658e-05 2.379529e-05 2.741814e-05 9.776611e-01 2.554321e-01
1.114953e+08 -9.447632e-01 -2.075806e-01 -7.413328e-06 -3.342703e-05 6.735791e-06 9.334181e-06 9.782715e-01 2.554932e-01
1.117131e+08 -9.434204e-01 -2.091675e-01 -3.560632e-05 -4.680082e-05 2.261996e-05 -3.042817e-05 9.771118e-01 2.561646e-01
1.119309e+08 -9.435425e-01 -2.094116e-01 5.643070e-05 -1.111627e-05 3.411435e-06 -6.507151e-06 9.769287e-01 2.562256e-01
1.121488e+08 -9.440918e-01 -2.110596e-01 2.377294e-05 5.971640e-06 1.526624e-05 -6.932765e-06 9.772949e-01 2.572632e-01
1.123666e+08 -9.447632e-01 -2.107544e-01 4.438683e-06 2.006069e-05 1.408812e-05 -1.420081e-05 9.762573e-01 2.569580e-01
1.125844e+08 -9.448242e-01 -2.120361e-01 -2.078339e-05 -1.786835e-05 3.093854e-06 9.934418e-06 9.760742e-01 2.583618e-01
1.128022e+08 -9.447632e-01 -2.123413e-01 2.677739e-05 -1.856685e-05 -5.668961e-06 2.029166e-05 9.757080e-01 2.578735e-01
1.130200e+08 -9.445801e-01 -2.122192e-01 -8.884817e-06 -4.017353e-05 -2.177060e-05 5.420297e-05 9.754639e-01 2.584839e-01
1.132378e+08 -9.445190e-01 -2.135620e-01 2.379157e-05 -6.668270e-06 -5.264953e-05 -1.683831e-05 9.744873e-01 2.587280e-01
1.134556e+08 -9.456177e-01 -2.147217e-01 2.977811e-05 -3.046915e-05 1.015374e-05 2.839603e-06 9.742432e-01 2.595215e-01
1.136734e+08 -9.462891e-01 -2.142944e-01 1.786090e-05 -2.082251e-05 -3.102049e-05 2.032146e-06 9.738770e-01 2.592773e-01
1.138912e+08 -9.460449e-01 -2.152710e-01 -5.949289e-06 -2.678297e-05 1.079403e-06 -2.106465e-05 9.734497e-01 2.595215e-01
1.141091e+08 -9.466553e-01 -2.155151e-01 1.191255e-05 2.981164e-06 8.683652e-06 -3.872998e-05 9.735107e-01 2.606201e-01
1.143269e+08 -9.458618e-01 -2.163086e-01 -3.872253e-05 2.985820e-06 1.464970e-05 -2.474897e-05 9.730225e-01 2.604370e-01
1.145447e+08 -9.464722e-01 -2.161865e-01 2.682395e-05 -5.949289e-06 1.829676e-05 2.539344e-05 9.727173e-01 2.614136e-01
1.147625e+08 -9.471436e-01 -2.169189e-01 -1.486391e-06 -4.469603e-05 -5.996600e-05 1.270324e-05 9.719849e-01 2.615356e-01
1.149803e+08 -9.466553e-01 -2.170410e-01 1.489371e-05 -4.694983e-05 3.111083e-06 9.951182e-06 9.716187e-01 2.617798e-01
1.151981e+08 -9.473267e-01 -2.188110e-01 -1.488812e-05 -1.641270e-05 7.499475e-07 -4.605157e-06 9.710083e-01 2.632446e-01
1.154159e+08 -9.470215e-01 -2.179565e-01 1.641270e-05 1.044013e-05 -4.998595e-05 9.614974e-06 9.716797e-01 2.627563e-01
1.156338e+08 -9.476318e-01 -2.192993e-01 1.640804e-05 -1.489464e-05 1.382176e-05 2.249144e-06 9.697876e-01 2.640381e-01
1.158516e+08 -9.479370e-01 -2.205200e-01 -1.939479e-05 1.417007e-05 2.080761e-05 -3.327243e-05 9.697876e-01 2.632446e-01
1.160694e+08 -9.481201e-01 -2.205200e-01 4.476868e-06 -5.221460e-06 -3.472902e-05 2.620742e-06 9.696655e-01 2.637329e-01
1.162872e+08 -9.481812e-01 -2.207642e-01 2.836064e-05 1.342036e-05 6.444752e-06 2.587773e-05 9.694214e-01 2.636719e-01
1.165050e+08 -9.488525e-01 -2.210693e-01 -1.493283e-05 2.164952e-05 -2.327561e-05 -9.700656e-06 9.690552e-01 2.648315e-01
1.167228e+08 -9.489136e-01 -2.216797e-01 2.390333e-05 -6.711110e-06 2.026558e-05 -2.275594e-05 9.688721e-01 2.655029e-01
1.169406e+08 -9.490356e-01 -2.223511e-01 -2.389774e-05 1.941994e-05 -6.330200e-06 2.521556e-06 9.683228e-01 2.655029e-01
1.171584e+08 -9.503784e-01 -2.229004e-01 1.942273e-05 -1.492910e-06 1.812354e-06 -2.578273e-05 9.673462e-01 2.661743e-01
1.173762e+08 -9.490356e-01 -2.238159e-01 2.544001e-05 -3.811531e-05 -1.394376e-05 -3.070198e-05 9.674683e-01 2.673950e-01
1.175941e+08 -9.501343e-01 -2.241821e-01 5.084649e-05 -2.545118e-05 1.009554e-05 2.535619e-05 9.670410e-01 2.675781e-01
1.178119e+08 -9.505005e-01 -2.235718e-01 -1.047179e-05 3.740191e-06 3.577210e-05 -1.307577e-06 9.663086e-01 2.685547e-01
1.180297e+08 -9.504395e-01 -2.241211e-01 1.945440e-05 -1.422595e-05 2.331845e-05 9.704381e-06 9.662476e-01 2.689209e-01
1.182475e+08 -9.509277e-01 -2.253418e-01 4.643574e-05 4.339218e-05 -5.374849e-05 -1.231208e-05 9.658203e-01 2.692261e-01
1.184653e+08 -9.513550e-01 -2.255859e-01 4.192442e-05 2.317876e-05 -1.205504e-05 2.296083e-05 9.649658e-01 2.698364e-01
1.186831e+08 -9.519653e-01 -2.254639e-01 -1.648813e-05 -2.319179e-05 3.098324e-05 -8.031726e-06 9.644165e-01 2.701416e-01
1.189009e+08 -9.520264e-01 -2.264404e-01 -2.246350e-05 7.506460e-07 -5.275942e-06 -1.867395e-05 9.639282e-01 2.712402e-01
1.191188e+08 -9.522705e-01 -2.259521e-01 2.397038e-05 5.997717e-06 4.994497e-05 6.910414e-06 9.636230e-01 2.723999e-01
1.193366e+08 -9.523926e-01 -2.261353e-01 -2.098083e-05 7.499009e-06 -3.438909e-06 6.569549e-06 9.630737e-01 2.725830e-01
1.195544e+08 -9.525757e-01 -2.273560e-01 1.199916e-05 2.994202e-06 3.004447e-05 -9.372830e-06 9.631958e-01 2.732544e-01
1.197722e+08 -9.526978e-01 -2.276001e-01 5.980954e-06 -2.400391e-05 -2.433360e-05 4.002638e-05 9.626465e-01 2.735596e-01
1.199900e+08 -9.530029e-01 -2.276611e-01 -4.351884e-05 3.377721e-05 -1.368858e-05 3.723428e-06 9.627686e-01 2.745972e-01
1.202078e+08 -9.523315e-01 -2.279053e-01 -1.510605e-06 -3.226474e-05 -2.800301e-05 -1.049787e-05 9.622803e-01 2.748413e-01
1.204256e+08 -9.535522e-01 -2.280884e-01 2.992153e-05 -9.457767e-05 2.814457e-05 -1.209415e-05 9.619141e-01 2.753296e-01
1.206434e+08 -9.543457e-01 -2.274780e-01 -4.475936e-06 3.079884e-05 5.614478e-06 2.093147e-06 9.617310e-01 2.756348e-01
1.208612e+08 -9.550781e-01 -2.296753e-01 -3.906339e-05 -9.777024e-06 -1.728069e-05 -1.831260e-05 9.610596e-01 2.772827e-01
1.210791e+08 -9.559937e-01 -2.304688e-01 3.493391e-06 1.105200e-05 2.191029e-05 4.133210e-06 9.588013e-01 2.782593e-01
1.212969e+08 -9.550171e-01 -2.299805e-01 -1.077540e-05 -1.481455e-05 1.131929e-05 6.765127e-06 9.582520e-01 2.775879e-01
1.215147e+08 -9.563599e-01 -2.302246e-01 2.673641e-05 -6.923825e-05 1.437962e-06 -4.531443e-05 9.578247e-01 2.792969e-01
1.217325e+08 -9.563599e-01 -2.297363e-01 9.791926e-06 2.121180e-05 2.862699e-05 -2.007000e-05 9.577026e-01 2.788086e-01
1.219503e+08 -9.569702e-01 -2.311401e-01 -4.310533e-05 -5.930290e-05 3.102235e-05 2.110004e-05 9.561768e-01 2.803955e-01
1.221681e+08 -9.563599e-01 -2.303467e-01 2.910197e-05 1.507625e-05 -4.383549e-05 -8.210540e-06 9.560547e-01 2.809448e-01
1.223859e+08 -9.559937e-01 -2.315674e-01 2.836622e-05 3.146008e-06 9.811018e-06 -5.677342e-06 9.556274e-01 2.810059e-01
1.226038e+08 -9.565430e-01 -2.316895e-01 -3.711507e-05 -3.083795e-05 5.276874e-06 -1.096539e-05 9.551392e-01 2.832642e-01
1.228216e+08 -9.573364e-01 -2.320557e-01 5.042180e-06 -3.204122e-05 -9.813346e-06 1.211464e-05 9.555054e-01 2.828979e-01
1.230394e+08 -9.575806e-01 -2.320557e-01 3.542937e-05 2.528913e-05 -1.590140e-05 -1.207925e-05 9.552612e-01 2.837524e-01
1.232572e+08 -9.574585e-01 -2.321777e-01 3.063120e-05 3.896467e-05 -1.895241e-05 -2.416223e-05 9.543457e-01 2.841187e-01
1.234750e+08 -9.578857e-01 -2.316284e-01 -4.148856e-05 1.312420e-05 -1.950935e-05 5.638599e-05 9.535522e-01 2.855225e-01
1.236928e+08 -9.583130e-01 -2.322388e-01 2.812408e-05 2.152473e-05 1.658313e-05 -2.991594e-05 9.534302e-01 2.857666e-01
1.239106e+08 -9.578857e-01 -2.329102e-01 -1.909677e-05 -1.222175e-05 1.815148e-05 -4.574656e-06 9.528198e-01 2.871704e-01
1.241284e+08 -9.578857e-01 -2.333374e-01 -5.268492e-06 -1.659524e-05 3.102235e-05 1.847744e-06 9.521484e-01 2.871094e-01
1.243462e+08 -9.577026e-01 -2.330933e-01 3.784895e-06 -7.291790e-06 -1.884252e-05 4.013814e-05 9.522095e-01 2.890625e-01
1.245641e+08 -9.583130e-01 -2.334595e-01 4.811212e-05 -2.130866e-05 1.061428e-05 1.020590e-05 9.519043e-01 2.899170e-01
1.247819e+08 -9.581299e-01 -2.331543e-01 1.484808e-05 -1.080334e-05 2.277642e-05 4.575402e-05 9.514160e-01 2.899780e-01
1.249997e+08 -9.585571e-01 -2.346191e-01 -3.250875e-05 2.244487e-05 -1.218542e-05 -6.134063e-05 9.506836e-01 2.915039e-01
1.252175e+08 -9.583130e-01 -2.344360e-01 1.762714e-05 -1.166668e-05 -3.023073e-06 7.197261e-06 9.501343e-01 2.919922e-01
1.254353e+08 -9.581299e-01 -2.343140e-01 -5.997717e-06 -2.859160e-05 -3.105216e-05 1.101196e-05 9.508667e-01 2.929077e-01
1.256531e+08 -9.581299e-01 -2.339478e-01 -6.007031e-06 -2.859533e-05 -1.816172e-05 1.100730e-05 9.499512e-01 2.938232e-01
1.258709e+08 -9.591064e-01 -2.357178e-01 -4.683807e-05 -3.460795e-06 2.046488e-05 -8.366071e-06 9.493408e-01 2.950439e-01
1.260888e+08 -9.587402e-01 -2.361450e-01 1.884438e-05 3.062747e-05 8.346513e-06 2.691522e-05 9.492188e-01 2.957764e-01
1.263066e+08 -9.591675e-01 -2.359619e-01 2.045929e-05 -1.256168e-05 1.440756e-05 3.184564e-05 9.498291e-01 2.976074e-01
1.265244e+08 -9.586792e-01 -2.355957e-01 3.898703e-05 3.646500e-05 -4.529953e-06 3.335811e-05 9.485474e-01 2.973022e-01
1.267422e+08 -9.589844e-01 -2.354126e-01 -3.948808e-06 -4.147366e-05 -1.532026e-06 -1.896545e-05 9.484253e-01 2.984009e-01
1.269600e+08 -9.594727e-01 -2.361450e-01 1.568347e-06 -4.324317e-05 2.050120e-05 4.548579e-06 9.484253e-01 2.990112e-01
1.271778e+08 -9.595947e-01 -2.363281e-01 4.366040e-06 7.184595e-05 -3.114343e-05 -1.888722e-06 9.472656e-01 3.002319e-01
1.273956e+08 -9.589844e-01 -2.356567e-01 -4.588068e-05 -9.916723e-06 -9.096228e-06 1.518987e-05 9.475098e-01 3.010254e-01
1.276134e+08 -9.595337e-01 -2.362061e-01 -1.534820e-05 -1.957826e-05 -1.901761e-05 -4.367530e-05 9.473877e-01 3.018799e-01
1.278312e+08 -9.598999e-01 -2.359009e-01 3.650226e-05 1.898222e-05 -1.063896e-05 -3.794208e-06 9.458008e-01 3.034668e-01
1.280491e+08 -9.592285e-01 -2.359619e-01 -1.157634e-05 -2.688915e-05 -9.126961e-06 -2.353638e-05 9.468384e-01 3.037109e-01
1.282669e+08 -9.594727e-01 -2.358398e-01 1.227111e-05 3.889389e-05 3.019348e-06 -1.367740e-05 9.462891e-01 3.051147e-01
1.284847e+08 -9.598389e-01 -2.369385e-01 5.350634e-05 -4.637986e-06 1.538545e-06 3.838353e-05 9.458008e-01 3.058472e-01
1.287025e+08 -9.595947e-01 -2.370605e-01 -4.180893e-05 -3.569201e-05 -2.285466e-06 1.673494e-05 9.454956e-01 3.065186e-01
1.289203e+08 -9.600220e-01 -2.369995e-01 -5.558599e-06 1.753215e-06 -1.673307e-05 1.712050e-05 9.453735e-01 3.076782e-01
1.291381e+08 -9.594727e-01 -2.372437e-01 3.059022e-05 -9.641051e-06 2.131797e-05 2.699904e-05 9.454956e-01 3.088379e-01
1.293559e+08 -9.595337e-01 -2.368164e-01 4.965812e-06 3.511272e-05 -1.540408e-06 -3.194995e-05 9.445190e-01 3.093262e-01
1.295738e+08 -9.589844e-01 -2.367554e-01 3.469922e-05 -3.541075e-05 -3.802357e-06 4.182570e-06 9.443970e-01 3.106079e-01
1.297916e+08 -9.595337e-01 -2.366333e-01 -4.349276e-05 7.599592e-06 4.108623e-05 2.652407e-06 9.448242e-01 3.116455e-01
1.300094e+08 -9.598389e-01 -2.376709e-01 -2.064742e-06 1.288578e-05 -1.294073e-05 -1.294725e-05 9.445801e-01 3.131104e-01
1.302272e+08 -9.595947e-01 -2.376099e-01 4.214793e-05 1.728535e-05 1.371466e-05 -1.637451e-05 9.439697e-01 3.131714e-01
1.304450e+08 -9.598389e-01 -2.374878e-01 1.948141e-05 -6.134622e-06 -2.665631e-05 2.933294e-05 9.438477e-01 3.146362e-01
1.306628e+08 -9.597778e-01 -2.379150e-01 -6.292947e-06 -1.025479e-05 -1.296587e-05 1.942553e-05 9.436035e-01 3.151855e-01
1.308806e+08 -9.591064e-01 -2.378540e-01 1.331978e-05 3.251620e-05 -1.523178e-06 -6.097369e-06 9.431763e-01 3.161011e-01
1.310984e+08 -9.584961e-01 -2.373047e-01 3.817491e-06 -7.322524e-06 9.894371e-06 -3.162213e-05 9.428711e-01 3.176880e-01
1.313162e+08 -9.591064e-01 -2.376709e-01 -1.035165e-06 6.442890e-06 -1.862645e-09 3.887899e-05 9.419556e-01 3.187866e-01
1.315341e+08 -9.595337e-01 -2.377930e-01 2.258644e-05 -2.550706e-05 1.449231e-05 1.907162e-05 9.430542e-01 3.188477e-01
1.317519e+08 -9.586792e-01 -2.373047e-01 1.158565e-06 -7.388741e-05 -3.050268e-05 -3.772601e-05 9.426270e-01 3.190918e-01
1.319697e+08 -9.583740e-01 -2.374268e-01 7.566065e-06 -6.362051e-05 2.211146e-05 -2.292916e-06 9.420166e-01 3.214722e-01
1.321875e+08 -9.584351e-01 -2.377319e-01 -2.589077e-05 -5.313382e-05 1.906883e-05 4.967675e-06 9.423218e-01 3.225098e-01
1.324053e+08 -9.588013e-01 -2.384033e-01 9.868294e-05 1.179427e-05 7.620547e-07 3.054272e-06 9.423828e-01 3.231201e-01
1.326231e+08 -9.582520e-01 -2.376099e-01 -5.723163e-05 -6.511807e-06 4.121475e-05 3.510714e-05 9.428711e-01 3.240967e-01
1.328409e+08 -9.588013e-01 -2.374268e-01 -2.925098e-05 3.372133e-05 -1.755729e-05 -5.344860e-06 9.421387e-01 3.258057e-01
1.330588e+08 -9.573364e-01 -2.374268e-01 2.128631e-05 -5.606562e-07 3.812835e-06 -2.365746e-05 9.419556e-01 3.268433e-01
1.332766e+08 -9.575806e-01 -2.387695e-01 2.474524e-06 1.762342e-05 1.540408e-06 -1.335982e-05 9.421387e-01 3.274536e-01
1.334944e+08 -9.573364e-01 -2.378540e-01 5.582813e-06 -1.753680e-06 3.805384e-06 2.825819e-05 9.419556e-01 3.283691e-01
1.337122e+08 -9.578857e-01 -2.377930e-01 -1.292769e-05 -2.083369e-06 -9.179115e-06 -2.369657e-05 9.424438e-01 3.300781e-01
1.339300e+08 -9.577637e-01 -2.385864e-01 -1.978129e-06 6.198883e-05 -1.835171e-05 -1.923181e-06 9.418335e-01 3.300781e-01
1.341478e+08 -9.574585e-01 -2.380981e-01 1.746882e-05 6.792136e-06 9.931624e-06 3.977492e-05 9.416504e-01 3.317261e-01
1.343656e+08 -9.566040e-01 -2.384033e-01 2.233498e-05 -7.025898e-06 2.366677e-05 4.933402e-05 9.415283e-01 3.319702e-01
1.345834e+08 -9.572144e-01 -2.384033e-01 -1.254864e-05 2.851337e-05 -1.304969e-05 5.201250e-05 9.423828e-01 3.336792e-01
1.348012e+08 -9.569092e-01 -2.383423e-01 -3.518537e-06 -1.118239e-05 -1.377147e-05 -3.069639e-06 9.419556e-01 3.341675e-01
1.350191e+08 -9.569092e-01 -2.388916e-01 2.761930e-05 9.745359e-06 -3.063865e-05 2.064183e-05 9.416504e-01 3.352661e-01
1.352369e+08 -9.556885e-01 -2.379761e-01 1.253188e-05 -2.849475e-05 -1.520850e-06 -1.913216e-05 9.412231e-01 3.361206e-01
1.354547e+08 -9.559937e-01 -2.385254e-01 2.796017e-05 -8.786097e-06 1.606718e-05 2.528727e-05 9.421387e-01 3.369141e-01
1.356725e+08 -9.555664e-01 -2.380371e-01 2.061389e-05 -1.261383e-05 -2.448261e-05 -2.645887e-05 9.416504e-01 3.384399e-01
1.358903e+08 -9.555664e-01 -2.389526e-01 -1.645461e-05 -1.326110e-05 6.143004e-06 -1.455471e-05 9.414062e-01 3.388672e-01
1.361081e+08 -9.547729e-01 -2.385864e-01 -7.487833e-07 -6.119162e-05 1.229905e-05 -3.559887e-05 9.415283e-01 3.403931e-01
1.363259e+08 -9.547119e-01 -2.382812e-01 1.043081e-06 -6.471761e-06 1.072604e-05 -2.673827e-06 9.417725e-01 3.403931e-01
1.365438e+08 -9.537354e-01 -2.387085e-01 -1.537614e-05 2.940930e-05 -3.218837e-05 1.451559e-05 9.417114e-01 3.421631e-01
1.367616e+08 -9.542236e-01 -2.388306e-01 3.150105e-05 2.419576e-06 4.830584e-05 -2.238899e-06 9.417725e-01 3.432007e-01
1.369794e+08 -9.543457e-01 -2.394409e-01 -3.711879e-05 -6.649643e-07 2.760999e-05 6.178394e-06 9.419556e-01 3.438721e-01
1.371972e+08 -9.537964e-01 -2.384644e-01 1.961831e-05 -6.138347e-06 3.084540e-06 -1.380593e-05 9.424438e-01 3.457642e-01
1.374150e+08 -9.525757e-01 -2.381592e-01 -1.716800e-05 -2.537481e-05 1.145527e-05 5.905703e-05 9.421387e-01 3.463745e-01
1.376328e+08 -9.530029e-01 -2.385254e-01 1.610629e-05 -1.736265e-05 1.535006e-05 2.701767e-06 9.431152e-01 3.471680e-01
1.378506e+08 -9.530029e-01 -2.389526e-01 3.198162e-06 2.976879e-05 3.910251e-05 3.919192e-05 9.428101e-01 3.475342e-01
1.380684e+08 -9.515991e-01 -2.393188e-01 -4.973635e-05 -7.060170e-05 9.984244e-06 -5.741138e-06 9.423828e-01 3.498535e-01
1.382862e+08 -9.511719e-01 -2.396851e-01 -3.329664e-05 -8.042902e-06 3.841892e-05 -3.562868e-05 9.427490e-01 3.499756e-01
1.385041e+08 -9.515991e-01 -2.392578e-01 2.979115e-05 -3.147870e-06 1.765881e-05 5.398877e-06 9.424438e-01 3.512573e-01
1.387219e+08 -9.505005e-01 -2.395020e-01 -3.052503e-05 -8.914620e-06 1.229160e-05 -3.054738e-06 9.433594e-01 3.513794e-01
1.389397e+08 -9.514160e-01 -2.391357e-01 4.138798e-05 2.403557e-05 2.283603e-06 4.842877e-05 9.431763e-01 3.530273e-01
1.391575e+08 -9.503174e-01 -2.393799e-01 7.365830e-06 3.859866e-06 -2.225861e-05 -3.038347e-05 9.432373e-01 3.542480e-01
1.393753e+08 -9.501343e-01 -2.401733e-01 -1.437031e-05 2.300367e-05 1.480803e-06 3.230013e-05 9.441528e-01 3.544312e-01
1.395931e+08 -9.496460e-01 -2.393799e-01 1.789536e-05 -1.174212e-05 -1.383852e-05 -3.096648e-06 9.432373e-01 3.562012e-01
1.398109e+08 -9.490356e-01 -2.404785e-01 8.424744e-06 -2.633780e-06 8.555129e-06 -3.805384e-05 9.443359e-01 3.570557e-01
1.400288e+08 -9.483032e-01 -2.390747e-01 -7.022172e-06 2.685376e-05 -1.385435e-05 1.651887e-05 9.448242e-01 3.582764e-01
1.402466e+08 -9.487305e-01 -2.402954e-01 -1.406297e-06 -2.423488e-05 3.844500e-06 2.315734e-06 9.447021e-01 3.593140e-01
1.404644e+08 -9.480591e-01 -2.396851e-01 -9.834766e-06 -2.157688e-05 -5.425885e-06 3.077276e-05 9.441528e-01 3.592529e-01
1.406822e+08 -9.476929e-01 -2.399902e-01 -2.107210e-05 -1.809373e-05 -7.722527e-06 1.500081e-05 9.450073e-01 3.610229e-01
1.409000e+08 -9.465942e-01 -2.406006e-01 6.318092e-06 -3.899261e-05 1.381524e-05 2.272986e-05 9.453735e-01 3.618164e-01
1.411178e+08 -9.463501e-01 -2.409058e-01 -2.809986e-05 -4.059076e-05 2.763234e-05 3.892370e-05 9.458008e-01 3.627319e-01
1.413356e+08 -9.461670e-01 -2.408447e-01 2.987683e-05 -3.157184e-06 -1.626834e-05 5.964562e-05 9.460449e-01 3.635864e-01
1.415534e+08 -9.459229e-01 -2.408447e-01 1.405552e-05 -4.389323e-06 -2.927333e-05 7.338822e-07 9.461060e-01 3.640747e-01
1.417712e+08 -9.453125e-01 -2.409058e-01 -1.404993e-05 4.373491e-06 1.078611e-05 3.871508e-06 9.451294e-01 3.654785e-01
1.419891e+08 -9.450684e-01 -2.412720e-01 6.956980e-07 1.212396e-05 -1.231115e-05 -1.660548e-05 9.455566e-01 3.660889e-01
1.422069e+08 -9.438477e-01 -2.409058e-01 3.094785e-05 -9.663403e-06 -7.539056e-07 -9.636395e-06 9.465332e-01 3.668823e-01
1.424247e+08 -9.431763e-01 -2.421265e-01 -3.706664e-07 1.864880e-05 2.307631e-05 2.048165e-05 9.473267e-01 3.686523e-01
1.426425e+08 -9.429932e-01 -2.416382e-01 -3.307126e-05 2.267212e-05 1.999922e-05 2.780929e-05 9.474487e-01 3.687134e-01
1.428603e+08 -9.426270e-01 -2.421265e-01 -4.779547e-05 -3.451481e-05 -9.262469e-06 2.291519e-06 9.473877e-01 3.699341e-01
1.430781e+08 -9.421997e-01 -2.418823e-01 -2.215616e-05 -1.160800e-05 2.243370e-05 -4.162267e-05 9.479370e-01 3.699341e-01
1.432959e+08 -9.421387e-01 -2.430420e-01 -1.231767e-05 1.002382e-05 1.924299e-05 2.473965e-05 9.485474e-01 3.709717e-01
1.435138e+08 -9.412231e-01 -2.429199e-01 1.553819e-05 -2.955645e-05 1.462549e-05 1.933333e-05 9.492188e-01 3.726196e-01
1.437316e+08 -9.409790e-01 -2.427979e-01 1.798104e-05 -1.177285e-05 1.461059e-05 3.245100e-05 9.495850e-01 3.731689e-01
1.439494e+08 -9.400024e-01 -2.429199e-01 -7.757917e-06 1.478754e-05 1.933519e-05 -1.463573e-05 9.496460e-01 3.737183e-01
1.441672e+08 -9.393311e-01 -2.432251e-01 -1.555122e-05 2.955832e-05 2.251938e-06 3.553182e-05 9.494629e-01 3.751831e-01
1.443850e+08 -9.389038e-01 -2.438354e-01 4.158914e-05 -2.532825e-05 -1.310371e-05 -1.317821e-05 9.502563e-01 3.754272e-01
1.446028e+08 -9.375610e-01 -2.434082e-01 -1.554564e-05 2.958439e-05 -7.740688e-06 8.473638e-06 9.510498e-01 3.760986e-01
1.448206e+08 -9.376831e-01 -2.437744e-01 1.762062e-05 6.890856e-06 -2.326444e-05 3.201142e-05 9.514771e-01 3.771973e-01
1.450384e+08 -9.372559e-01 -2.443237e-01 -6.390736e-06 3.910437e-05 -3.398955e-05 -4.738569e-06 9.514771e-01 3.781128e-01
1.452562e+08 -9.367676e-01 -2.434692e-01 1.059752e-05 -1.567323e-05 2.163276e-05 7.768162e-06 9.523315e-01 3.790894e-01
1.454741e+08 -9.365845e-01 -2.448730e-01 3.835931e-05 4.370883e-05 4.019402e-05 9.782612e-06 9.519653e-01 3.786011e-01
1.456919e+08 -9.356079e-01 -2.448730e-01 4.419860e-10 2.319780e-10 -8.307397e-07 2.319366e-05 9.523926e-01 3.795166e-01
1.459097e+08 -9.343262e-01 -2.446289e-01 3.278814e-05 -4.023314e-06 -3.317185e-05 -3.447384e-05 9.531250e-01 3.800659e-01
1.461275e+08 -9.337158e-01 -2.450562e-01 -2.326258e-05 -5.153939e-06 -2.312358e-06 -2.711313e-06 9.531250e-01 3.814697e-01
1.463453e+08 -9.332275e-01 -2.459717e-01 -1.022127e-05 -3.013760e-06 6.075948e-06 3.792159e-05 9.536133e-01 3.819580e-01
1.465631e+08 -9.330444e-01 -2.465210e-01 -3.103539e-05 9.642914e-06 1.244992e-05 -2.278946e-05 9.537354e-01 3.829956e-01
1.467809e+08 -9.322510e-01 -2.468262e-01 -2.046302e-05 -6.034970e-06 -1.693703e-05 -2.868287e-05 9.552612e-01 3.845825e-01
1.469988e+08 -9.324341e-01 -2.471313e-01 2.680719e-05 1.646020e-05 6.496534e-05 3.000721e-05 9.558716e-01 3.847656e-01
1.472166e+08 -9.315186e-01 -2.477417e-01 -1.513213e-05 -3.870204e-05 -1.941063e-05 1.464784e-05 9.566650e-01 3.855591e-01
1.474344e+08 -9.315796e-01 -2.479248e-01 -2.542883e-05 7.923692e-06 2.355780e-06 -1.045736e-05 9.563599e-01 3.853760e-01
1.476522e+08 -9.301758e-01 -2.478638e-01 6.863847e-07 1.217984e-05 2.092123e-05 -1.871958e-06 9.567871e-01 3.867798e-01
1.478700e+08 -9.296875e-01 -2.484131e-01 -3.001839e-05 3.123656e-06 -1.938920e-05 8.062460e-06 9.570923e-01 3.874512e-01
1.480878e+08 -9.288330e-01 -2.482300e-01 4.583970e-06 4.775357e-06 -1.849979e-05 -2.831779e-05 9.580078e-01 3.883057e-01
1.483056e+08 -9.285889e-01 -2.490845e-01 -1.453795e-05 2.311915e-05 -2.786703e-05 -1.287833e-05 9.587402e-01 3.893433e-01
1.485234e+08 -9.271240e-01 -2.490234e-01 2.261624e-05 -7.022172e-06 -1.401268e-05 2.320297e-05 9.589233e-01 3.885498e-01
1.487412e+08 -9.271851e-01 -2.497559e-01 -2.720207e-05 2.246350e-06 -6.146729e-06 -1.824088e-05 9.589844e-01 3.897705e-01
1.489591e+08 -9.265137e-01 -2.500000e-01 2.475269e-05 -2.011470e-05 -1.853704e-05 -2.176128e-05 9.600220e-01 3.895874e-01
1.491769e+08 -9.262695e-01 -2.501221e-01 -8.882955e-06 2.136268e-05 -2.943724e-05 -1.249462e-05 9.606323e-01 3.908691e-01
1.493947e+08 -9.251709e-01 -2.501221e-01 -1.278520e-05 2.877600e-05 -2.012867e-05 -8.190982e-06 9.603882e-01 3.914185e-01
1.496125e+08 -9.247437e-01 -2.509766e-01 3.964454e-05 -1.228973e-05 -7.450581e-07 -9.693671e-06 9.613647e-01 3.922729e-01
1.498303e+08 -9.235229e-01 -2.515259e-01 7.018447e-06 2.264604e-05 7.063150e-06 -2.477318e-05 9.615479e-01 3.928223e-01
1.500481e+08 -9.237061e-01 -2.513428e-01 -3.263541e-05 3.497861e-05 3.176928e-05 8.620322e-06 9.630737e-01 3.935547e-01
1.502659e+08 -9.228516e-01 -2.529297e-01 -2.644956e-07 -3.093295e-05 1.607463e-05 5.204231e-05 9.624634e-01 3.941040e-01
1.504838e+08 -9.221191e-01 -2.524414e-01 8.102506e-06 1.611095e-05 4.747882e-05 -4.797056e-05 9.637451e-01 3.941040e-01
1.507016e+08 -9.210815e-01 -2.531738e-01 2.128817e-05 -3.144518e-05 3.409572e-05 1.137145e-05 9.640503e-01 3.947754e-01
1.509194e+08 -9.199219e-01 -2.538452e-01 -1.767371e-05 -6.947666e-06 -3.102981e-05 1.065433e-06 9.647827e-01 3.949585e-01
1.511372e+08 -9.204102e-01 -2.540283e-01 1.499802e-05 -4.189461e-05 2.940930e-05 2.571195e-05 9.645996e-01 3.963623e-01
1.513550e+08 -9.195557e-01 -2.554321e-01 -6.750692e-06 8.301809e-06 -1.807511e-05 5.387515e-05 9.655762e-01 3.964233e-01
1.515728e+08 -9.191895e-01 -2.553101e-01 -6.337650e-06 -1.046620e-05 -1.322292e-05 6.553717e-06 9.656372e-01 3.970947e-01
1.517906e+08 -9.186401e-01 -2.561035e-01 1.958199e-05 -3.714673e-05 -4.737452e-05 1.780689e-06 9.670410e-01 3.973999e-01
1.520084e+08 -9.178467e-01 -2.568359e-01 -1.269393e-05 -2.095848e-05 4.582107e-06 1.865439e-05 9.679565e-01 3.981323e-01
1.522262e+08 -9.172363e-01 -2.572632e-01 1.876894e-05 4.107133e-07 6.901100e-06 2.138875e-05 9.675293e-01 3.977661e-01
1.524441e+08 -9.166870e-01 -2.573853e-01 -3.255531e-05 -1.482666e-05 -1.483504e-05 2.013985e-05 9.685669e-01 3.993530e-01
1.526619e+08 -9.153442e-01 -2.572632e-01 2.970360e-05 1.564622e-05 -1.020357e-05 3.218837e-05 9.689331e-01 3.983154e-01
1.528797e+08 -9.149780e-01 -2.584229e-01 -2.619997e-05 -4.317611e-06 -7.864088e-06 2.171565e-05 9.690552e-01 3.987427e-01
1.530975e+08 -9.144287e-01 -2.586670e-01 3.539771e-05 1.392327e-05 -2.327375e-05 -7.495284e-06 9.697876e-01 3.995361e-01
1.533153e+08 -9.140015e-01 -2.600708e-01 -1.086853e-06 6.551389e-06 2.175476e-05 1.274049e-06 9.702759e-01 4.005737e-01
1.535331e+08 -9.134521e-01 -2.604980e-01 -3.471039e-05 -1.717359e-06 -4.552305e-06 -2.528168e-05 9.705811e-01 4.005737e-01
1.537509e+08 -9.129028e-01 -2.603760e-01 -2.171844e-06 1.310464e-05 -1.640338e-05 2.053846e-05 9.714355e-01 4.004517e-01
1.539688e+08 -9.116211e-01 -2.614136e-01 -6.352551e-06 -1.048017e-05 -9.275042e-06 -1.092348e-05 9.725342e-01 4.007568e-01
1.541866e+08 -9.122925e-01 -2.617798e-01 -1.946930e-05 -1.267251e-05 -3.342517e-05 -8.320436e-06 9.732056e-01 4.022217e-01
1.544044e+08 -9.113770e-01 -2.622070e-01 -2.843095e-06 8.775387e-07 6.869435e-06 2.801605e-05 9.742432e-01 4.020386e-01
1.546222e+08 -9.113770e-01 -2.631226e-01 -2.014264e-05 -2.488308e-05 1.719408e-05 -1.743250e-05 9.736328e-01 4.011841e-01
1.548400e+08 -9.097290e-01 -2.622681e-01 2.515316e-05 1.091138e-05 9.337440e-06 -2.298970e-06 9.740601e-01 4.024658e-01
1.550578e+08 -9.083862e-01 -2.647095e-01 8.927658e-06 -2.144650e-05 -2.415478e-05 9.194016e-06 9.748535e-01 4.013672e-01
1.552756e+08 -9.080811e-01 -2.648315e-01 2.841093e-05 -8.769333e-06 7.651746e-06 2.453290e-05 9.752808e-01 4.024658e-01
1.554934e+08 -9.081421e-01 -2.653198e-01 3.653951e-05 7.394701e-06 2.508238e-05 -3.918074e-05 9.764404e-01 4.028320e-01
1.557112e+08 -9.069824e-01 -2.661743e-01 1.053140e-05 3.410503e-05 4.589185e-05 -1.318753e-06 9.765625e-01 4.027100e-01
1.559291e+08 -9.068604e-01 -2.668457e-01 -3.369898e-05 -8.290634e-06 2.966821e-05 -2.049468e-05 9.774780e-01 4.027710e-01
1.561469e+08 -9.071655e-01 -2.672119e-01 -1.094025e-05 -1.531281e-05 1.785066e-05 1.215190e-05 9.773560e-01 4.039307e-01
1.563647e+08 -9.061890e-01 -2.684326e-01 4.770607e-05 -2.719834e-05 -2.321973e-05 -2.736785e-05 9.790039e-01 4.030151e-01
1.565825e+08 -9.055176e-01 -2.689819e-01 -3.933907e-06 7.446855e-06 -1.971424e-05 4.778430e-05 9.788818e-01 4.033203e-01
1.568003e+08 -9.045410e-01 -2.686768e-01 1.733005e-05 2.583861e-05 2.249144e-05 1.759268e-05 9.800415e-01 4.036865e-01
1.570181e+08 -9.031982e-01 -2.706299e-01 4.181638e-06 2.364442e-05 2.026185e-05 -4.944392e-06 9.797363e-01 4.033813e-01
1.572359e+08 -9.035645e-01 -2.714233e-01 -4.928932e-05 -2.848357e-05 6.272923e-06 -8.145813e-06 9.800415e-01 4.046021e-01
1.574538e+08 -9.026489e-01 -2.716675e-01 -4.189089e-06 -2.366118e-05 -2.051145e-05 5.128235e-05 9.809570e-01 4.036255e-01
1.576716e+08 -9.016113e-01 -2.723389e-01 5.038455e-06 -1.402851e-05 7.974450e-07 -3.497815e-06 9.813843e-01 4.047241e-01
1.578894e+08 -9.016113e-01 -2.725220e-01 -1.181290e-05 2.233870e-05 -1.554750e-05 -2.799556e-06 9.813843e-01 4.039917e-01
1.581072e+08 -9.005127e-01 -2.735596e-01 6.787479e-06 -8.326955e-06 -2.283603e-06 -9.351876e-06 9.822998e-01 4.038696e-01
1.583250e+08 -9.005737e-01 -2.744141e-01 1.342408e-05 3.328919e-05 3.041886e-05 -1.074933e-05 9.829102e-01 4.033203e-01
1.585428e+08 -8.994141e-01 -2.751465e-01 -1.665391e-05 -1.359358e-05 -2.417900e-05 9.212643e-06 9.829102e-01 4.041748e-01
1.587606e+08 -8.994141e-01 -2.763062e-01 -2.740324e-05 2.203509e-06 1.878943e-05 -1.781620e-05 9.837036e-01 4.038086e-01
1.589784e+08 -8.986816e-01 -2.764893e-01 -4.077330e-05 -3.115460e-05 -5.407259e-06 -8.594245e-06 9.840088e-01 4.046021e-01
1.591962e+08 -8.988037e-01 -2.771606e-01 -3.771670e-05 -8.605421e-07 1.860410e-05 2.191775e-05 9.846191e-01 4.038696e-01
1.594141e+08 -8.978271e-01 -2.785645e-01 1.948327e-06 -4.429743e-05 2.946332e-05 2.586469e-05 9.851685e-01 4.033203e-01
1.596319e+08 -8.974609e-01 -2.794800e-01 7.458031e-06 3.947876e-06 3.613532e-07 -5.960464e-05 9.855347e-01 4.039307e-01
1.598497e+08 -8.967896e-01 -2.803955e-01 -2.986006e-05 -1.579709e-05 1.320615e-05 6.702729e-06 9.865723e-01 4.037476e-01
1.600675e+08 -8.961182e-01 -2.805176e-01 3.995374e-05 -1.226366e-05 3.725104e-05 2.395362e-05 9.867554e-01 4.046021e-01
1.602853e+08 -8.958130e-01 -2.821655e-01 -1.163036e-05 5.356595e-05 3.210455e-05 -2.435409e-05 9.870605e-01 4.042358e-01
1.605031e+08 -8.959351e-01 -2.825928e-01 1.842808e-05 1.929794e-05 -3.271736e-05 -5.260110e-06 9.865723e-01 4.039917e-01
1.607209e+08 -8.947144e-01 -2.833252e-01 -2.679788e-05 1.448207e-05 9.289011e-06 1.096074e-05 9.881592e-01 4.041138e-01
1.609388e+08 -8.946533e-01 -2.839355e-01 2.546236e-05 4.213303e-05 -1.024082e-05 1.904368e-05 9.881592e-01 4.029541e-01
1.611566e+08 -8.943481e-01 -2.849121e-01 -1.206715e-05 -8.784235e-06 1.374632e-05 4.958361e-05 9.877930e-01 4.036865e-01
1.613744e+08 -8.931274e-01 -2.855225e-01 -4.876778e-05 -1.624599e-05 -4.759058e-06 1.438614e-05 9.892578e-01 4.030762e-01
1.615922e+08 -8.922119e-01 -2.860718e-01 -2.063252e-05 -6.152317e-06 -2.201647e-06 -2.260692e-05 9.886475e-01 4.029541e-01
1.618100e+08 -8.922729e-01 -2.868042e-01 2.525747e-05 1.098588e-05 1.705624e-05 1.568347e-05 9.896851e-01 4.030151e-01
1.620278e+08 -8.922729e-01 -2.872925e-01 -2.064928e-05 -6.159768e-06 4.587322e-05 2.519786e-05 9.893799e-01 4.031372e-01
1.622456e+08 -8.916016e-01 -2.893677e-01 -4.216284e-05 2.547726e-05 8.507632e-07 -1.013605e-05 9.894409e-01 4.016724e-01
1.624634e+08 -8.906250e-01 -2.891235e-01 -1.538172e-05 1.097564e-05 2.729706e-05 -3.343448e-06 9.896240e-01 4.024658e-01
1.626812e+08 -8.906860e-01 -2.903442e-01 -2.461299e-05 1.324341e-06 2.101436e-05 4.811212e-06 9.905396e-01 4.016724e-01
1.628991e+08 -8.902588e-01 -2.908936e-01 2.857763e-06 -8.773059e-07 -1.794565e-05 1.065433e-06 9.907837e-01 4.025879e-01
1.631169e+08 -8.895874e-01 -2.929077e-01 -1.384597e-05 -1.450069e-05 1.825392e-07 -2.651103e-05 9.911499e-01 4.013672e-01
1.633347e+08 -8.895264e-01 -2.936401e-01 -2.813712e-05 -1.013093e-05 3.171153e-06 -7.389113e-06 9.916382e-01 4.019775e-01
1.635525e+08 -8.884888e-01 -2.944946e-01 3.539585e-05 -1.711026e-05 -2.095476e-06 -3.588572e-05 9.913940e-01 4.010620e-01
1.637703e+08 -8.883057e-01 -2.956543e-01 6.482005e-07 1.231022e-05 -1.013791e-05 -8.516945e-07 9.913330e-01 4.008179e-01
1.639881e+08 -8.879395e-01 -2.963867e-01 -1.958013e-05 -1.277123e-05 1.084711e-05 1.061289e-05 9.925537e-01 4.006958e-01
1.642059e+08 -8.878174e-01 -2.971802e-01 -1.763366e-05 2.419576e-05 -3.640354e-05 -4.083104e-05 9.927368e-01 4.011230e-01
1.644238e+08 -8.869629e-01 -2.976074e-01 -2.224557e-05 1.935288e-05 2.229586e-06 1.599919e-05 9.929199e-01 4.003296e-01
1.646416e+08 -8.871460e-01 -2.985229e-01 6.463379e-07 1.233257e-05 3.080815e-06 5.872920e-06 9.934692e-01 4.008789e-01
1.648594e+08 -8.861694e-01 -2.992554e-01 2.420321e-05 1.762435e-05 6.429851e-06 -2.803840e-05 9.930420e-01 3.995361e-01
1.650772e+08 -8.863525e-01 -3.004761e-01 2.022088e-05 2.512150e-05 -2.582557e-05 9.577721e-06 9.931641e-01 3.998413e-01
1.652950e+08 -8.856201e-01 -3.007812e-01 -2.753548e-05 2.190471e-06 -3.211014e-05 1.771562e-05 9.939575e-01 3.983154e-01
1.655128e+08 -8.851929e-01 -3.020630e-01 3.304519e-05 -3.516115e-05 -3.882917e-06 -2.366723e-06 9.932251e-01 3.988647e-01
1.657306e+08 -8.849487e-01 -3.027954e-01 -3.832579e-05 1.801364e-05 -6.165355e-06 -1.174398e-05 9.931641e-01 3.983765e-01
1.659484e+08 -8.842163e-01 -3.039551e-01 -5.897135e-06 -2.952293e-05 9.499490e-08 -1.325831e-05 9.934692e-01 3.983765e-01
1.661662e+08 -8.844604e-01 -3.049316e-01 1.275726e-05 2.116151e-05 2.274755e-06 9.379815e-06 9.940796e-01 3.975220e-01
1.663841e+08 -8.843994e-01 -3.060913e-01 -3.416836e-05 4.184246e-05 2.250634e-05 1.772121e-05 9.940796e-01 3.967285e-01
1.666019e+08 -8.842773e-01 -3.070068e-01 -4.155934e-05 -4.366040e-05 -2.939254e-06 -2.578087e-05 9.932861e-01 3.972778e-01
1.668197e+08 -8.839111e-01 -3.078003e-01 3.971625e-06 -7.485971e-06 6.183982e-07 2.303347e-05 9.938354e-01 3.969116e-01
1.670375e+08 -8.829956e-01 -3.084717e-01 1.544505e-05 -1.100078e-05 2.666749e-05 -1.971237e-05 9.943237e-01 3.970947e-01
1.672553e+08 -8.827515e-01 -3.104248e-01 -1.099985e-05 -1.544505e-05 5.463138e-05 2.980232e-08 9.940796e-01 3.966675e-01
1.674731e+08 -8.824463e-01 -3.114624e-01 -2.598949e-05 -2.340786e-05 1.564389e-06 -3.776513e-07 9.937744e-01 3.963623e-01
1.676909e+08 -8.829956e-01 -3.123169e-01 1.961365e-05 1.282897e-05 1.316611e-05 1.338124e-05 9.941406e-01 3.966675e-01
1.679088e+08 -8.818970e-01 -3.118896e-01 2.294406e-05 -7.033348e-06 1.582503e-05 -3.032200e-05 9.943848e-01 3.953857e-01
1.681266e+08 -8.816528e-01 -3.126221e-01 1.276098e-05 2.118759e-05 3.817491e-05 7.292256e-06 9.941406e-01 3.952637e-01
1.683444e+08 -8.814087e-01 -3.145752e-01 1.896545e-05 4.600734e-07 4.031509e-05 3.658980e-05 9.942017e-01 3.941650e-01
1.685622e+08 -8.814087e-01 -3.157349e-01 -4.081056e-05 -5.587935e-08 -5.348586e-06 -1.526996e-05 9.942627e-01 3.940430e-01
1.687800e+08 -8.811035e-01 -3.170776e-01 1.880154e-05 -3.083050e-05 -1.533702e-05 -3.604963e-05 9.931641e-01 3.937988e-01
1.689978e+08 -8.815918e-01 -3.176270e-01 -4.155561e-06 -2.384372e-05 1.737848e-05 -2.408959e-05 9.942017e-01 3.931885e-01
1.692156e+08 -8.810425e-01 -3.184814e-01 2.009049e-05 -6.152317e-06 -1.059845e-06 3.669970e-05 9.934082e-01 3.929443e-01
1.694334e+08 -8.801880e-01 -3.193359e-01 2.806820e-05 -2.114847e-05 -1.256168e-05 9.652227e-06 9.934692e-01 3.927612e-01
1.696512e+08 -8.811035e-01 -3.208008e-01 -5.569309e-06 3.310479e-05 2.650917e-05 6.858259e-06 9.931030e-01 3.920898e-01
1.698691e+08 -8.796997e-01 -3.204956e-01 4.325062e-05 1.816824e-05 -1.240801e-05 -1.023710e-05 9.930420e-01 3.921509e-01
1.700869e+08 -8.800049e-01 -3.228149e-01 1.612306e-05 1.356006e-06 -4.813075e-06 1.441315e-05 9.933472e-01 3.918457e-01
1.703047e+08 -8.807373e-01 -3.231812e-01 2.873829e-06 -8.794013e-07 2.621114e-05 4.671142e-05 9.931641e-01 3.911133e-01
1.705225e+08 -8.791504e-01 -3.237915e-01 1.102034e-05 1.547113e-05 -1.509674e-05 3.344752e-05 9.927979e-01 3.906860e-01
1.707403e+08 -8.800049e-01 -3.248901e-01 2.184883e-05 -4.097819e-07 3.673136e-06 2.896227e-05 9.919434e-01 3.897095e-01
1.709581e+08 -8.794556e-01 -3.261108e-01 1.119450e-06 -6.625429e-06 -1.721922e-05 4.152767e-06 9.924316e-01 3.902588e-01
1.711759e+08 -8.796387e-01 -3.278809e-01 -2.231449e-06 1.325272e-05 2.503395e-06 -1.718104e-05 9.919434e-01 3.891602e-01
1.713938e+08 -8.795166e-01 -3.283691e-01 5.636737e-05 -1.094118e-05 8.125789e-07 -3.509922e-06 9.915771e-01 3.890381e-01
1.716116e+08 -8.796387e-01 -3.289795e-01 3.673136e-06 4.289672e-05 1.219288e-05 3.684685e-05 9.917603e-01 3.886719e-01
1.718294e+08 -8.795166e-01 -3.298950e-01 3.515743e-06 1.149997e-05 1.150742e-05 2.707355e-05 9.913330e-01 3.877563e-01
1.720472e+08 -8.792725e-01 -3.316040e-01 4.999712e-05 -2.156198e-05 9.097159e-06 3.097765e-05 9.906006e-01 3.878784e-01
1.722650e+08 -8.786011e-01 -3.315430e-01 -1.981109e-05 -4.426017e-05 -1.737848e-06 2.031215e-05 9.906616e-01 3.870239e-01
1.724828e+08 -8.787231e-01 -3.328857e-01 -1.550373e-05 1.103990e-05 -4.852936e-05 5.051494e-06 9.909058e-01 3.865967e-01
1.727006e+08 -8.790894e-01 -3.336182e-01 1.263339e-05 -1.015514e-05 1.033489e-05 -1.906790e-05 9.902954e-01 3.867188e-01
1.729184e+08 -8.786621e-01 -3.345947e-01 -4.908070e-07 1.903623e-05 -2.670288e-05 1.304783e-05 9.896240e-01 3.870850e-01
1.731362e+08 -8.796387e-01 -3.358765e-01 5.596504e-05 8.050352e-06 7.150695e-06 -1.167692e-05 9.893799e-01 3.856812e-01
1.733541e+08 -8.782349e-01 -3.374023e-01 -3.515743e-06 -1.151673e-05 -3.487244e-05 4.815683e-05 9.891357e-01 3.854370e-01
1.735719e+08 -8.787842e-01 -3.381348e-01 3.355928e-05 2.751127e-05 7.902272e-06 -8.534640e-06 9.880981e-01 3.854980e-01
1.737897e+08 -8.789673e-01 -3.385010e-01 9.270385e-06 9.766314e-06 5.517155e-06 -4.647300e-06 9.881592e-01 3.853149e-01
1.740075e+08 -8.788452e-01 -3.401489e-01 1.601130e-05 -3.006682e-05 -2.700835e-06 3.715605e-05 9.874878e-01 3.850098e-01
1.742253e+08 -8.786621e-01 -3.406372e-01 8.780509e-06 2.882630e-05 -3.380701e-06 2.734922e-05 9.877930e-01 3.851929e-01
1.744431e+08 -8.782349e-01 -3.410034e-01 1.152605e-05 -3.518537e-06 2.293848e-05 -2.873503e-05 9.870605e-01 3.839722e-01
1.746609e+08 -8.781128e-01 -3.417969e-01 -1.681596e-05 -1.377705e-05 2.468005e-05 4.050322e-05 9.865723e-01 3.840332e-01
1.748788e+08 -8.786011e-01 -3.432007e-01 -2.897903e-05 -2.268702e-05 -6.640330e-06 4.141591e-05 9.859619e-01 3.836060e-01
1.750966e+08 -8.786011e-01 -3.448486e-01 -9.454787e-06 -4.126132e-05 1.167133e-05 7.159077e-06 9.859619e-01 3.831177e-01
1.753144e+08 -8.779297e-01 -3.446655e-01 2.885237e-06 -8.800998e-07 1.440756e-05 -3.663450e-05 9.853516e-01 3.827515e-01
1.755322e+08 -8.786621e-01 -3.461304e-01 -2.947077e-05 -3.628433e-06 -1.569558e-05 3.765337e-06 9.843750e-01 3.831177e-01
1.757500e+08 -8.789673e-01 -3.471069e-01 9.784009e-06 -9.285286e-06 -2.092682e-05 -2.485514e-05 9.841309e-01 3.824463e-01
1.759678e+08 -8.794556e-01 -3.483276e-01 4.138798e-06 2.396666e-05 6.901100e-07 9.795651e-06 9.838257e-01 3.821411e-01
1.761856e+08 -8.794556e-01 -3.486938e-01 4.309788e-05 -4.468858e-05 7.541385e-07 3.139256e-06 9.827881e-01 3.807373e-01
1.764034e+08 -8.792725e-01 -3.505249e-01 -9.797048e-06 9.285286e-06 1.577195e-05 -1.042243e-05 9.826660e-01 3.820190e-01
1.766212e+08 -8.787842e-01 -3.516846e-01 -8.029863e-06 1.507904e-05 -1.489185e-05 2.412125e-07 9.821777e-01 3.815308e-01
1.768391e+08 -8.789062e-01 -3.519287e-01 2.498180e-05 3.026053e-05 6.905757e-07 9.800307e-06 9.810181e-01 3.812256e-01
1.770569e+08 -8.788452e-01 -3.525391e-01 4.794449e-06 3.642403e-05 -1.256261e-05 3.011897e-06 9.809570e-01 3.801880e-01
1.772747e+08 -8.798218e-01 -3.540039e-01 1.141801e-05 -3.506802e-05 -2.164766e-05 4.841015e-05 9.804077e-01 3.801880e-01
1.774925e+08 -8.795776e-01 -3.541260e-01 1.781806e-05 -2.438016e-05 1.200475e-05 -2.614409e-05 9.792480e-01 3.795166e-01
1.777103e+08 -8.797607e-01 -3.552856e-01 2.184883e-05 -3.197230e-05 -1.715589e-05 -9.185635e-06 9.800415e-01 3.793945e-01
1.779281e+08 -8.804932e-01 -3.563843e-01 -2.790987e-05 -2.940558e-05 1.382828e-05 2.993084e-05 9.781494e-01 3.797607e-01
1.781459e+08 -8.797607e-01 -3.580933e-01 4.286846e-10 2.299032e-10 1.844019e-06 -8.515548e-06 9.776001e-01 3.795166e-01
1.783638e+08 -8.803101e-01 -3.580933e-01 -2.376735e-05 -2.888590e-05 -1.841225e-06 8.515082e-06 9.769897e-01 3.787842e-01
1.785816e+08 -8.804321e-01 -3.599243e-01 2.747215e-05 -3.835745e-05 3.388710e-05 -7.160008e-06 9.761963e-01 3.783569e-01
1.787994e+08 -8.800049e-01 -3.601685e-01 -2.175570e-06 1.268461e-05 8.311123e-06 -1.269113e-05 9.757690e-01 3.784790e-01
1.790172e+08 -8.807373e-01 -3.613892e-01 1.833215e-05 6.063282e-05 1.445785e-05 5.362555e-06 9.754028e-01 3.781128e-01
1.792350e+08 -8.804932e-01 -3.616943e-01 -2.371520e-05 1.158565e-06 -8.687377e-06 9.271316e-06 9.745483e-01 3.778687e-01
1.794528e+08 -8.809814e-01 -3.624878e-01 -3.040209e-05 -2.088025e-05 -1.074048e-05 3.260560e-06 9.739380e-01 3.774414e-01
1.796706e+08 -8.808594e-01 -3.634033e-01 -7.763505e-06 -1.570396e-05 1.984462e-05 4.220940e-05 9.733276e-01 3.773804e-01
1.798884e+08 -8.815308e-01 -3.638916e-01 2.211519e-05 2.341531e-05 1.629721e-05 -3.173947e-06 9.725342e-01 3.778687e-01
1.801062e+08 -8.816528e-01 -3.657227e-01 2.115965e-06 -4.278496e-05 -9.052455e-07 2.992712e-05 9.718018e-01 3.770752e-01
1.803241e+08 -8.813477e-01 -3.656006e-01 3.851950e-06 -7.182825e-06 -2.903119e-05 2.606027e-05 9.710083e-01 3.771362e-01
1.805419e+08 -8.817749e-01 -3.668823e-01 -2.713874e-05 -3.996491e-05 -8.352101e-06 -1.295656e-05 9.697876e-01 3.763428e-01
1.807597e+08 -8.826294e-01 -3.680420e-01 -5.298480e-05 3.959984e-06 -2.415106e-05 -4.317239e-05 9.689331e-01 3.766479e-01
1.809775e+08 -8.819580e-01 -3.686523e-01 9.386335e-06 -8.851755e-06 5.908683e-05 2.060831e-05 9.690552e-01 3.776245e-01
1.811953e+08 -8.824463e-01 -3.691406e-01 1.104083e-05 -3.327616e-06 -1.555681e-05 1.003034e-05 9.674072e-01 3.770142e-01
1.814131e+08 -8.827515e-01 -3.702393e-01 3.900379e-06 2.292916e-05 -1.241826e-05 6.621704e-07 9.675293e-01 3.768921e-01
1.816309e+08 -8.834229e-01 -3.713379e-01 -4.397705e-06 2.541952e-05 -4.136749e-05 1.561083e-05 9.661255e-01 3.769531e-01
1.818488e+08 -8.842163e-01 -3.715820e-01 1.775101e-05 4.887581e-05 -7.217750e-06 2.301671e-05 9.655762e-01 3.768921e-01
1.820666e+08 -8.845215e-01 -3.726807e-01 -2.589449e-05 4.395843e-05 -1.095608e-05 -1.131557e-05 9.642944e-01 3.763428e-01
1.822844e+08 -8.841553e-01 -3.731079e-01 -2.041087e-05 4.230067e-05 3.657117e-05 1.684017e-05 9.636841e-01 3.774414e-01
1.825022e+08 -8.845215e-01 -3.749390e-01 -1.213420e-05 9.696931e-06 6.847084e-06 7.636473e-05 9.628296e-01 3.758545e-01
1.827200e+08 -8.848267e-01 -3.750000e-01 1.596659e-05 -4.702061e-05 -1.950283e-05 -1.316331e-05 9.624023e-01 3.767090e-01
1.829378e+08 -8.852539e-01 -3.747559e-01 2.238899e-06 1.741294e-05 -4.601479e-05 1.127273e-05 9.614868e-01 3.767700e-01
1.831556e+08 -8.851318e-01 -3.761597e-01 2.324581e-05 1.710095e-05 3.822707e-05 -6.237999e-06 9.605103e-01 3.761597e-01
1.833734e+08 -8.857422e-01 -3.770142e-01 -2.771802e-05 -2.181716e-05 3.247336e-05 -2.091937e-05 9.608154e-01 3.769531e-01
1.835912e+08 -8.868408e-01 -3.771362e-01 1.739711e-06 3.569014e-05 -8.755364e-06 -1.642387e-05 9.600220e-01 3.761597e-01
1.838091e+08 -8.867798e-01 -3.786011e-01 1.160428e-05 -2.159551e-05 -5.748123e-06 1.105573e-05 9.585571e-01 3.772583e-01
1.840269e+08 -8.867188e-01 -3.793945e-01 3.875419e-05 1.846999e-05 1.669303e-05 -2.546236e-05 9.572754e-01 3.769531e-01
1.842447e+08 -8.876953e-01 -3.806763e-01 -4.488975e-06 -3.483519e-05 -3.704801e-06 1.710374e-05 9.562988e-01 3.754272e-01
1.844625e+08 -8.872681e-01 -3.810425e-01 -5.574897e-06 -2.848916e-05 1.877733e-05 3.203936e-05 9.558716e-01 3.761597e-01
1.846803e+08 -8.886108e-01 -3.821411e-01 -2.993457e-05 -3.925897e-05 1.302827e-05 1.738127e-05 9.551392e-01 3.764038e-01
1.848981e+08 -8.890381e-01 -3.818359e-01 -3.875606e-05 1.165830e-05 1.657195e-05 3.716350e-05 9.546509e-01 3.770142e-01
1.851159e+08 -8.892822e-01 -3.832397e-01 1.437031e-05 -2.244115e-05 -3.272854e-05 6.332994e-06 9.537964e-01 3.764648e-01
1.853338e+08 -8.892822e-01 -3.844604e-01 -4.103780e-05 -3.597513e-05 2.807565e-05 4.082359e-05 9.531250e-01 3.770752e-01
1.855516e+08 -8.897095e-01 -3.847656e-01 -1.881551e-05 1.775473e-05 -1.617428e-05 -7.997267e-06 9.523926e-01 3.767700e-01
1.857694e+08 -8.906860e-01 -3.850098e-01 1.998432e-05 3.628992e-05 4.302710e-06 2.668798e-05 9.511719e-01 3.776245e-01
1.859872e+08 -8.903809e-01 -3.854980e-01 -1.051743e-05 1.524761e-05 1.449138e-05 -4.612654e-05 9.499512e-01 3.774414e-01
1.862050e+08 -8.906860e-01 -3.862305e-01 8.247793e-06 -6.288290e-05 -9.854324e-06 -1.018867e-06 9.488525e-01 3.772583e-01
1.864228e+08 -8.912354e-01 -3.869019e-01 -9.977259e-06 -3.031455e-06 -4.687533e-05 4.384667e-06 9.479980e-01 3.773804e-01
1.866406e+08 -8.918457e-01 -3.881836e-01 -1.891330e-05 -4.263595e-05 2.921745e-05 -3.743917e-07 9.473267e-01 3.771973e-01
1.868584e+08 -8.928223e-01 -3.888550e-01 3.709830e-05 -1.723692e-05 -8.194242e-06 1.586042e-06 9.464111e-01 3.770752e-01
1.870762e+08 -8.932495e-01 -3.881226e-01 1.773611e-05 -1.138076e-05 2.256781e-05 4.074909e-05 9.456787e-01 3.785400e-01
1.872941e+08 -8.930054e-01 -3.893433e-01 -7.744879e-06 1.442339e-05 1.247972e-05 -2.643093e-05 9.447632e-01 3.781738e-01
1.875119e+08 -8.936768e-01 -3.902588e-01 -2.106652e-05 3.054738e-07 3.110245e-05 1.686625e-05 9.439697e-01 3.784790e-01
1.877297e+08 -8.934326e-01 -3.904419e-01 -1.331046e-05 -1.414400e-05 -1.730956e-05 7.446855e-06 9.428101e-01 3.800049e-01
1.879475e+08 -8.949585e-01 -3.912354e-01 3.664009e-05 3.128126e-05 4.152581e-05 -4.148856e-05 9.422607e-01 3.790894e-01
1.881653e+08 -8.952637e-01 -3.919678e-01 -2.053194e-05 -1.801364e-05 -2.459809e-05 -4.688278e-05 9.412231e-01 3.792114e-01
1.883831e+08 -8.954468e-01 -3.936157e-01 -1.443271e-05 -7.753260e-06 6.560236e-06 -3.001280e-05 9.407349e-01 3.793335e-01
1.886009e+08 -8.958740e-01 -3.933105e-01 -4.497543e-05 -2.885610e-05 1.921132e-05 -4.185736e-05 9.403076e-01 3.803711e-01
1.888188e+08 -8.969116e-01 -3.944092e-01 -3.331341e-05 -2.025254e-05 1.064688e-05 -4.374236e-05 9.393921e-01 3.803101e-01
1.890366e+08 -8.966064e-01 -3.939819e-01 -4.054233e-05 -5.437061e-05 -1.230463e-05 -1.053605e-05 9.381714e-01 3.809204e-01
1.892544e+08 -8.967896e-01 -3.947754e-01 -8.340925e-06 -2.776086e-05 1.249462e-05 -2.647378e-05 9.375610e-01 3.813477e-01
1.894722e+08 -8.979492e-01 -3.954468e-01 -2.555549e-05 -3.465079e-05 7.483177e-07 6.903429e-06 9.360352e-01 3.807983e-01
1.896900e+08 -8.988037e-01 -3.959961e-01 -3.328547e-06 1.916289e-05 4.013628e-05 7.389858e-05 9.359131e-01 3.818970e-01
1.899078e+08 -8.980103e-01 -3.956299e-01 -4.987232e-06 1.361128e-05 2.685003e-05 -9.886920e-06 9.350586e-01 3.815308e-01
1.901256e+08 -8.992920e-01 -3.969727e-01 -1.500174e-05 -1.972355e-05 -4.478544e-05 -7.674098e-07 9.342651e-01 3.826904e-01
1.903434e+08 -8.996582e-01 -3.970947e-01 4.332513e-05 2.327561e-05 3.041327e-05 9.991229e-06 9.329834e-01 3.820801e-01
1.905612e+08 -8.999023e-01 -3.972778e-01 1.776870e-05 -1.140777e-05 2.422929e-05 4.347228e-05 9.328003e-01 3.825684e-01
1.907791e+08 -9.006958e-01 -3.986816e-01 1.055188e-05 -1.528487e-05 1.495145e-05 -1.697894e-05 9.316406e-01 3.831787e-01
1.909969e+08 -9.018555e-01 -3.985596e-01 -3.112108e-05 -3.303401e-05 -1.195446e-05 4.464388e-05 9.298096e-01 3.837891e-01
1.912147e+08 -9.014282e-01 -3.987427e-01 2.110191e-05 -3.056042e-05 1.213327e-05 -4.103407e-06 9.291382e-01 3.840332e-01
1.914325e+08 -9.017334e-01 -3.995972e-01 -2.167746e-05 -1.166202e-05 -1.177005e-05 7.553026e-06 9.284058e-01 3.846436e-01
1.916503e+08 -9.026489e-01 -3.994141e-01 8.357689e-06 2.777390e-05 1.886114e-05 6.348826e-06 9.276123e-01 3.845825e-01
1.918681e+08 -9.029541e-01 -4.005127e-01 -2.060086e-05 -1.804903e-05 1.489185e-06 1.382455e-05 9.276123e-01 3.848877e-01
1.920859e+08 -9.037476e-01 -4.004517e-01 2.771616e-06 5.973503e-05 -1.326948e-05 -6.262213e-06 9.256592e-01 3.856201e-01
1.923038e+08 -9.043579e-01 -4.013672e-01 -2.168864e-05 1.861714e-05 1.140870e-05 -1.102872e-05 9.252930e-01 3.860474e-01
1.925216e+08 -9.035034e-01 -4.017334e-01 2.780464e-06 -8.356292e-07 4.203059e-05 1.366623e-05 9.248657e-01 3.861084e-01
1.927394e+08 -9.047241e-01 -4.023438e-01 -7.230788e-06 -3.887340e-06 -7.664785e-06 -6.173272e-06 9.234009e-01 3.868408e-01
1.929572e+08 -9.052734e-01 -4.031982e-01 -1.555495e-05 2.889521e-05 1.458358e-05 5.437061e-06 9.221191e-01 3.871460e-01
1.931750e+08 -9.048462e-01 -4.020996e-01 5.396828e-05 8.091331e-06 4.542619e-05 -6.984919e-06 9.224243e-01 3.883667e-01
1.933928e+08 -9.061279e-01 -4.030762e-01 -3.342517e-06 1.918990e-05 -2.639368e-06 2.759509e-05 9.212036e-01 3.894043e-01
1.936106e+08 -9.068604e-01 -4.040527e-01 -2.558157e-05 -6.507710e-05 -3.109686e-05 2.365373e-05 9.200439e-01 3.895874e-01
1.938284e+08 -9.064941e-01 -4.038086e-01 5.785376e-05 3.115088e-05 -5.479902e-06 4.051253e-05 9.193726e-01 3.897705e-01
1.940462e+08 -9.069214e-01 -4.033813e-01 -5.504116e-07 1.835078e-05 -4.020333e-05 -2.228096e-05 9.180908e-01 3.899536e-01
1.942641e+08 -9.077148e-01 -4.044800e-01 -2.114289e-05 2.719462e-07 -5.419366e-06 -1.132954e-05 9.177246e-01 3.909912e-01
1.944819e+08 -9.082031e-01 -4.044189e-01 2.170354e-05 -1.865067e-05 -1.488253e-06 -1.385529e-05 9.174805e-01 3.916016e-01
1.946997e+08 -9.083252e-01 -4.050293e-01 -8.918345e-06 -3.974140e-05 -3.566500e-06 5.989801e-06 9.154053e-01 3.909912e-01
1.949175e+08 -9.088135e-01 -4.055176e-01 -9.461306e-06 8.900184e-06 5.336106e-05 1.391768e-05 9.152222e-01 3.925171e-01
1.951353e+08 -9.097290e-01 -4.057007e-01 2.950244e-05 -2.762303e-06 1.178682e-05 1.837686e-05 9.146118e-01 3.938599e-01
1.953531e+08 -9.105835e-01 -4.058838e-01 -2.504140e-05 3.784336e-05 1.611840e-05 -6.636605e-06 9.138794e-01 3.932495e-01
1.955709e+08 -9.104004e-01 -4.055786e-01 -1.614261e-05 1.698360e-05 4.307181e-05 9.400770e-06 9.133911e-01 3.937378e-01
1.957888e+08 -9.108276e-01 -4.060059e-01 1.222827e-05 2.058595e-05 -4.708767e-06 4.748628e-05 9.116211e-01 3.945923e-01
1.960066e+08 -9.112549e-01 -4.067993e-01 -1.668371e-05 -2.532825e-05 1.772866e-05 7.383525e-05 9.112549e-01 3.948364e-01
1.962244e+08 -9.122314e-01 -4.063110e-01 1.667999e-06 5.569775e-06 -1.106597e-05 1.452491e-05 9.105225e-01 3.959351e-01
1.964422e+08 -9.115601e-01 -4.072266e-01 -1.446437e-05 -7.814728e-06 -2.134591e-05 -1.595449e-05 9.091797e-01 3.967896e-01
1.966600e+08 -9.130249e-01 -4.069214e-01 -4.287809e-05 1.892075e-05 -9.190291e-06 5.904119e-06 9.089355e-01 3.967896e-01
1.968778e+08 -9.129028e-01 -4.080200e-01 2.234243e-06 -1.279172e-05 1.896825e-05 -1.957174e-05 9.068604e-01 3.973999e-01
1.970956e+08 -9.136353e-01 -4.081421e-01 -5.350262e-05 3.855675e-06 1.877546e-05 -8.325092e-06 9.077759e-01 3.985596e-01
1.973134e+08 -9.133911e-01 -4.076538e-01 -1.894124e-05 1.782738e-05 -5.230308e-06 -2.260320e-05 9.069824e-01 3.983154e-01
1.975312e+08 -9.141235e-01 -4.085693e-01 5.348027e-05 -3.866851e-06 7.685740e-06 6.202608e-06 9.058228e-01 3.995972e-01
1.977491e+08 -9.145508e-01 -4.085693e-01 1.335796e-05 1.421198e-05 -1.086108e-05 -2.272800e-05 9.051514e-01 4.002075e-01
1.979669e+08 -9.150391e-01 -4.085083e-01 -9.479001e-06 8.912757e-06 3.509782e-05 -2.514571e-07 9.048462e-01 4.007568e-01
1.981847e+08 -9.154663e-01 -4.088135e-01 7.238705e-06 3.901310e-06 1.503341e-05 -1.707673e-05 9.034424e-01 4.012451e-01
1.984025e+08 -9.164429e-01 -4.088135e-01 3.511272e-05 -4.446134e-06 1.992844e-05 -2.394617e-05 9.035645e-01 4.014893e-01
1.986203e+08 -9.158936e-01 -4.088135e-01 1.173839e-05 -2.171658e-05 -3.946247e-06 2.531335e-06 9.023438e-01 4.030762e-01
1.988381e+08 -9.163208e-01 -4.088135e-01 4.070625e-05 -6.113201e-06 2.026558e-06 3.214553e-05 9.023438e-01 4.033813e-01
1.990559e+08 -9.160156e-01 -4.083862e-01 -3.788434e-05 5.273148e-06 -2.176501e-05 -1.946371e-05 9.008789e-01 4.049072e-01
1.992738e+08 -9.163208e-01 -4.087524e-01 -4.342198e-05 -2.342835e-05 7.324386e-06 2.732035e-06 9.001465e-01 4.050293e-01
1.994916e+08 -9.168701e-01 -4.083252e-01 -1.670979e-05 -2.535246e-05 3.585406e-05 3.272668e-05 8.997803e-01 4.055176e-01
1.997094e+08 -9.162598e-01 -4.091187e-01 6.124377e-06 1.031812e-05 1.971051e-05 1.335237e-05 8.995361e-01 4.069824e-01
1.999272e+08 -9.169922e-01 -4.100952e-01 7.860363e-06 -4.484877e-05 1.396425e-05 -2.752244e-05 8.982544e-01 4.076538e-01
2.001450e+08 -9.176636e-01 -4.095459e-01 9.484589e-06 -8.901581e-06 1.219474e-05 2.191961e-05 8.973389e-01 4.084473e-01
2.003628e+08 -9.180298e-01 -4.092407e-01 -6.115995e-06 -1.031533e-05 -2.087839e-05 2.239831e-06 8.969116e-01 4.082642e-01
2.005806e+08 -9.181519e-01 -4.104614e-01 3.863126e-06 2.312846e-05 -3.693625e-06 -3.480539e-05 8.963013e-01 4.093628e-01
2.007984e+08 -9.182129e-01 -4.102173e-01 1.893938e-05 1.257379e-05 -4.692469e-06 -4.425878e-06 8.958130e-01 4.104004e-01
2.010162e+08 -9.190063e-01 -4.104614e-01 -2.953224e-05 2.756715e-06 3.259629e-07 2.953224e-05 8.948975e-01 4.100342e-01
2.012341e+08 -9.186401e-01 -4.104004e-01 9.488780e-06 -8.901581e-06 -4.280359e-06 -2.699532e-05 8.941650e-01 4.114380e-01
2.014519e+08 -9.182129e-01 -4.100342e-01 1.282617e-05 2.247281e-06 4.866347e-05 2.084672e-05 8.944092e-01 4.123535e-01
2.016697e+08 -9.195557e-01 -4.102783e-01 5.577225e-06 -1.663808e-06 6.550923e-06 2.183206e-05 8.924561e-01 4.132080e-01
2.018875e+08 -9.197388e-01 -4.104614e-01 5.505979e-06 5.912036e-05 2.785586e-05 -2.970919e-06 8.923950e-01 4.135742e-01
2.021053e+08 -9.193115e-01 -4.105225e-01 -4.515797e-05 1.333654e-06 -2.183765e-05 6.537884e-06 8.914185e-01 4.144287e-01
2.023231e+08 -9.202271e-01 -4.105225e-01 -8.907635e-06 -9.492040e-06 5.852431e-06 -1.119170e-05 8.907471e-01 4.150391e-01
2.025409e+08 -9.205933e-01 -4.108887e-01 1.449138e-05 7.819384e-06 -4.329486e-06 -9.497162e-07 8.906250e-01 4.154663e-01
2.027588e+08 -9.207153e-01 -4.105835e-01 4.578382e-05 -1.974404e-05 -5.364418e-07 -1.826603e-05 8.901367e-01 4.171143e-01
2.029766e+08 -9.204712e-01 -4.104614e-01 3.349036e-05 -1.000240e-05 1.823157e-05 2.553128e-05 8.894043e-01 4.174194e-01
2.031944e+08 -9.208374e-01 -4.111938e-01 1.057889e-05 1.507625e-05 -3.053434e-05 4.647300e-06 8.890381e-01 4.177856e-01
2.034122e+08 -9.217529e-01 -4.108276e-01 4.405156e-06 3.515184e-05 -7.832423e-07 1.912750e-05 8.878784e-01 4.191284e-01
2.036300e+08 -9.209595e-01 -4.113159e-01 -3.853068e-05 2.363883e-05 1.679640e-05 -1.447927e-05 8.872681e-01 4.197388e-01
2.038478e+08 -9.219971e-01 -4.109497e-01 -2.617016e-05 -1.651794e-05 4.483759e-05 2.343953e-05 8.864136e-01 4.207153e-01
2.040656e+08 -9.227905e-01 -4.115601e-01 -3.325753e-06 -1.117308e-05 -6.439164e-06 1.905393e-05 8.868408e-01 4.213867e-01
2.042834e+08 -9.218750e-01 -4.111328e-01 -1.057144e-05 -1.510046e-05 1.036469e-05 4.541595e-06 8.863525e-01 4.223022e-01
2.045012e+08 -9.222412e-01 -4.108887e-01 1.127273e-05 -3.375858e-05 2.939627e-05 1.097098e-05 8.858643e-01 4.237061e-01
2.047191e+08 -9.225464e-01 -4.110718e-01 -1.289137e-05 2.816506e-05 -3.832206e-05 2.456456e-05 8.851318e-01 4.238892e-01
2.049369e+08 -9.224243e-01 -4.109497e-01 1.125503e-06 -6.421469e-06 -4.504807e-06 -1.576077e-05 8.849487e-01 4.244995e-01
2.051547e+08 -9.227295e-01 -4.108276e-01 3.844872e-05 3.719330e-05 -1.904741e-05 -6.450340e-06 8.840942e-01 4.255371e-01
2.053725e+08 -9.227905e-01 -4.111938e-01 -3.626943e-05 -1.958758e-05 -1.810491e-05 -1.079030e-05 8.839111e-01 4.255981e-01
2.055903e+08 -9.222412e-01 -4.111328e-01 -1.955777e-05 5.830079e-06 -1.623482e-05 6.670132e-06 8.834839e-01 4.271851e-01
2.058081e+08 -9.232178e-01 -4.116821e-01 2.515130e-05 -7.484108e-06 -1.631491e-05 3.281981e-05 8.826904e-01 4.283447e-01
2.060259e+08 -9.230957e-01 -4.108887e-01 2.191402e-06 1.759455e-05 -9.307638e-06 3.207102e-05 8.820190e-01 4.290161e-01
2.062438e+08 -9.233398e-01 -4.108887e-01 -6.178394e-06 2.008677e-05 -6.024167e-05 4.991889e-06 8.816528e-01 4.290161e-01
2.064616e+08 -9.233398e-01 -4.114380e-01 2.185814e-06 1.760479e-05 -2.354197e-05 -2.224557e-05 8.812256e-01 4.308472e-01
2.066794e+08 -9.230957e-01 -4.105225e-01 1.336727e-05 1.426972e-05 -2.191402e-05 6.573275e-06 8.804321e-01 4.310913e-01
2.068972e+08 -9.230957e-01 -4.108887e-01 1.613051e-06 3.602728e-05 -6.290153e-05 6.664544e-06 8.799438e-01 4.315186e-01
2.071150e+08 -9.232178e-01 -4.111938e-01 3.293902e-05 8.458272e-06 -3.544614e-06 -2.012402e-05 8.791504e-01 4.332275e-01
2.073328e+08 -9.237061e-01 -4.111328e-01 -1.171231e-05 -8.689240e-06 2.320856e-06 -3.136881e-05 8.791504e-01 4.335327e-01
2.075506e+08 -9.235229e-01 -4.118042e-01 -4.081801e-05 6.061047e-06 -8.853152e-06 -1.674518e-05 8.790283e-01 4.345703e-01
2.077684e+08 -9.235840e-01 -4.119263e-01 2.000853e-05 3.667362e-05 -9.033829e-07 -2.183393e-05 8.783569e-01 4.354248e-01
2.079862e+08 -9.238892e-01 -4.113159e-01 -2.735853e-05 -1.012161e-05 2.305768e-05 3.911555e-06 8.779297e-01 4.354858e-01
2.082041e+08 -9.238892e-01 -4.114380e-01 -1.626462e-05 1.700316e-05 2.848543e-05 4.154257e-05 8.773804e-01 4.372559e-01
2.084219e+08 -9.232178e-01 -4.114380e-01 -5.474687e-05 -2.030283e-05 2.941862e-05 3.721006e-05 8.772583e-01 4.381714e-01
2.086397e+08 -9.230957e-01 -4.111328e-01 1.618266e-05 1.345109e-05 1.208577e-05 7.199124e-06 8.770752e-01 4.376831e-01
2.088575e+08 -9.235229e-01 -4.116211e-01 -1.132488e-06 6.424263e-06 -7.000752e-06 7.450581e-07 8.762817e-01 4.384766e-01
2.090753e+08 -9.235840e-01 -4.118652e-01 -1.618266e-05 -1.345761e-05 1.221895e-05 4.826859e-05 8.762207e-01 4.396362e-01
2.092931e+08 -9.236450e-01 -4.122314e-01 -1.172349e-05 -8.707866e-06 4.824251e-06 4.550815e-05 8.760986e-01 4.411011e-01
2.095109e+08 -9.235229e-01 -4.118042e-01 -2.588704e-05 5.640462e-05 3.799424e-05 2.429634e-05 8.753052e-01 4.415283e-01
2.097288e+08 -9.235229e-01 -4.111938e-01 -4.923344e-05 8.549541e-06 -2.386607e-05 1.530349e-05 8.750000e-01 4.418945e-01
2.099466e+08 -9.229126e-01 -4.124756e-01 5.631149e-05 5.635992e-05 2.138689e-05 1.274981e-06 8.741455e-01 4.431763e-01
2.101644e+08 -9.237061e-01 -4.116211e-01 -2.125651e-05 2.309680e-07 4.888326e-05 -2.010167e-05 8.745117e-01 4.434204e-01
2.103822e+08 -9.235229e-01 -4.116821e-01 -2.799556e-05 8.294359e-06 3.213994e-05 3.556162e-05 8.736572e-01 4.447632e-01
2.106000e+08 -9.236450e-01 -4.125366e-01 -3.420748e-06 1.929142e-05 -9.536743e-06 -5.005673e-05 8.734131e-01 4.467773e-01
2.108178e+08 -9.232178e-01 -4.121704e-01 -2.277084e-06 1.286156e-05 9.233132e-06 2.030097e-05 8.732300e-01 4.467773e-01
2.110356e+08 -9.235229e-01 -4.131470e-01 -3.135763e-05 -2.902001e-06 2.769940e-05 -6.454065e-06 8.739014e-01 4.478149e-01
2.112534e+08 -9.230347e-01 -4.118652e-01 -2.862886e-06 3.133714e-05 2.974086e-05 -3.110617e-07 8.731689e-01 4.476318e-01
2.114712e+08 -9.226685e-01 -4.133301e-01 -9.551179e-06 8.930452e-06 -7.973984e-06 5.091541e-06 8.728638e-01 4.498291e-01
2.116891e+08 -9.221191e-01 -4.124146e-01 3.349967e-05 2.053753e-05 8.116011e-06 9.775627e-06 8.718262e-01 4.499512e-01
2.119069e+08 -9.224243e-01 -4.127808e-01 3.424473e-06 -1.931377e-05 4.503876e-06 1.583528e-05 8.723145e-01 4.510498e-01
2.121247e+08 -9.223022e-01 -4.130859e-01 -1.464225e-05 2.263859e-05 -4.728558e-06 -4.464993e-06 8.719482e-01 4.515381e-01
2.123425e+08 -9.222412e-01 -4.127808e-01 3.426336e-06 -1.931190e-05 1.313351e-05 -2.337806e-05 8.710327e-01 4.526367e-01
2.125603e+08 -9.216309e-01 -4.129028e-01 -5.196780e-07 -1.204852e-05 8.780509e-06 -2.432987e-05 8.710938e-01 4.533081e-01
2.127781e+08 -9.221802e-01 -4.132080e-01 -1.043081e-06 -2.411753e-05 4.881993e-06 1.935381e-05 8.717041e-01 4.542847e-01
2.129959e+08 -9.218750e-01 -4.127197e-01 8.412637e-06 -2.490822e-06 7.234514e-06 -1.211744e-05 8.704224e-01 4.547119e-01
2.132138e+08 -9.224243e-01 -4.127808e-01 2.846681e-05 3.430434e-05 2.995320e-05 1.458079e-05 8.707886e-01 4.557495e-01
2.134316e+08 -9.218750e-01 -4.131470e-01 -1.351256e-05 1.620315e-05 -8.136500e-06 -9.788200e-06 8.703003e-01 4.563599e-01
2.136494e+08 -9.213257e-01 -4.126587e-01 -4.706904e-05 -4.369766e-06 2.275780e-05 4.284084e-07 8.698730e-01 4.568481e-01
2.138672e+08 -9.217529e-01 -4.129028e-01 4.697591e-05 3.490224e-05 -2.660672e-06 1.703040e-06 8.701782e-01 4.573364e-01
2.140850e+08 -9.212036e-01 -4.134521e-01 -5.187467e-07 -1.205411e-05 1.179054e-06 -1.575146e-05 8.694458e-01 4.584351e-01
2.143028e+08 -9.207764e-01 -4.132690e-01 -1.060124e-05 -1.517404e-05 3.297254e-05 1.639128e-05 8.693848e-01 4.589844e-01
2.145206e+08 -9.197998e-01 -4.134521e-01 6.638467e-06 2.245232e-05 -1.884438e-05 2.327189e-05 8.689575e-01 4.602051e-01
2.147384e+08 -9.209595e-01 -4.139404e-01 -6.133690e-06 -1.040380e-05 -7.340685e-06 -2.907030e-05 8.690796e-01 4.610596e-01
2.149562e+08 -9.208374e-01 -4.144897e-01 -1.061894e-05 -1.518708e-05 -4.099496e-05 -1.132675e-05 8.698120e-01 4.614258e-01
2.151741e+08 -9.201660e-01 -4.144287e-01 5.178154e-06 -4.430115e-05 -8.959323e-07 -2.193265e-05 8.688354e-01 4.616089e-01
2.153919e+08 -9.204102e-01 -4.148560e-01 -1.622736e-05 -1.352839e-05 -3.753603e-05 -3.231131e-05 8.687744e-01 4.631348e-01
2.156097e+08 -9.201050e-01 -4.145508e-01 -6.256625e-06 2.017990e-05 4.510581e-05 -4.389882e-05 8.684692e-01 4.635620e-01
2.158275e+08 -9.205933e-01 -4.155273e-01 -8.836389e-06 -4.015490e-05 -3.155693e-05 -2.369285e-06 8.682251e-01 4.636230e-01
2.160453e+08 -9.192505e-01 -4.148560e-01 -5.383044e-06 7.489324e-05 -1.436844e-05 -2.832897e-05 8.678589e-01 4.653931e-01
2.162631e+08 -9.192505e-01 -4.147949e-01 5.140901e-07 1.207646e-05 -7.254072e-06 1.213793e-05 8.686523e-01 4.660034e-01
2.164809e+08 -9.187622e-01 -4.153442e-01 1.279078e-05 3.288873e-05 -8.594245e-06 1.298450e-05 8.679810e-01 4.663086e-01
2.166988e+08 -9.184570e-01 -4.159546e-01 -3.207475e-06 -4.184991e-05 -2.165325e-06 2.013519e-05 8.677368e-01 4.673462e-01
2.169166e+08 -9.186401e-01 -4.158936e-01 6.314367e-07 -1.853798e-05 -1.244247e-06 -2.547912e-05 8.681641e-01 4.681396e-01
2.171344e+08 -9.186401e-01 -4.157715e-01 -9.587035e-06 8.957461e-06 3.920868e-06 2.378598e-05 8.682861e-01 4.688110e-01
2.173522e+08 -9.183350e-01 -4.156494e-01 -1.111813e-05 -2.731197e-05 -8.158386e-07 1.929794e-05 8.670654e-01 4.698486e-01
2.175700e+08 -9.177246e-01 -4.164429e-01 -2.977811e-05 2.700835e-06 -9.335577e-06 5.958136e-06 8.668213e-01 4.696655e-01
2.177878e+08 -9.172974e-01 -4.170532e-01 -1.534820e-05 4.123524e-05 4.837289e-06 -2.184696e-05 8.665771e-01 4.710083e-01
2.180056e+08 -9.176636e-01 -4.161987e-01 -1.854822e-05 -6.305054e-07 -2.207793e-05 6.597489e-06 8.671265e-01 4.712524e-01
2.182234e+08 -9.163818e-01 -4.165649e-01 2.095103e-05 -4.295260e-05 1.578219e-05 1.188368e-06 8.673096e-01 4.718018e-01
2.184412e+08 -9.165649e-01 -4.172363e-01 -1.613051e-05 -4.416704e-05 -5.708542e-06 -1.145527e-07 8.661499e-01 4.719849e-01
2.186591e+08 -9.168091e-01 -4.176636e-01 1.740456e-05 7.092953e-06 -9.624287e-06 -2.392754e-05 8.665161e-01 4.730225e-01
2.188769e+08 -9.160156e-01 -4.177246e-01 -5.187467e-07 -1.209695e-05 -8.976553e-06 9.482261e-06 8.669434e-01 4.736328e-01
2.190947e+08 -9.165039e-01 -4.176636e-01 -3.201514e-05 -1.505204e-05 -2.762303e-06 2.807379e-05 8.665161e-01 4.750977e-01
2.193125e+08 -9.156494e-01 -4.186401e-01 5.738810e-06 -3.233552e-05 -1.321733e-05 2.346747e-05 8.668213e-01 4.748535e-01
2.195303e+08 -9.154053e-01 -4.180908e-01 -8.449890e-06 2.497807e-06 1.379289e-05 3.629364e-05 8.663330e-01 4.752808e-01
2.197481e+08 -9.147339e-01 -4.186401e-01 1.522433e-05 -1.062173e-05 1.381524e-05 -3.135763e-05 8.659058e-01 4.757080e-01
2.199659e+08 -9.148560e-01 -4.182739e-01 -3.200769e-05 -1.505390e-05 6.672926e-06 -4.266854e-06 8.663330e-01 4.769287e-01
2.201838e+08 -9.146118e-01 -4.197388e-01 -1.819804e-05 4.215166e-05 2.778694e-05 -4.782528e-05 8.665161e-01 4.779053e-01
2.204016e+08 -9.139404e-01 -4.197388e-01 4.820526e-06 4.756451e-05 -4.555285e-05 1.403689e-05 8.652954e-01 4.784546e-01
2.206194e+08 -9.138794e-01 -4.204712e-01 -1.805834e-05 1.145527e-05 2.736226e-05 1.638010e-05 8.657837e-01 4.790039e-01
2.208372e+08 -9.135742e-01 -4.203491e-01 -1.575239e-05 -1.470558e-06 2.422929e-05 4.093535e-05 8.656006e-01 4.785767e-01
2.210550e+08 -9.136963e-01 -4.207764e-01 -1.922157e-05 1.795031e-05 1.641084e-05 -6.708317e-06 8.665771e-01 4.794312e-01
2.212728e+08 -9.135742e-01 -4.213867e-01 2.025440e-05 6.282702e-06 3.512949e-06 -2.104044e-05 8.660889e-01 4.802246e-01
2.214906e+08 -9.133911e-01 -4.218140e-01 -5.641021e-06 1.664739e-06 -1.083221e-05 -8.142088e-06 8.657227e-01 4.810181e-01
2.217084e+08 -9.128418e-01 -4.215088e-01 2.460182e-05 4.179031e-05 1.189485e-05 -2.262555e-05 8.655396e-01 4.814453e-01
2.219262e+08 -9.134521e-01 -4.217529e-01 -2.474710e-05 -1.107901e-05 4.403666e-05 -1.776963e-06 8.659058e-01 4.812622e-01
2.221441e+08 -9.121704e-01 -4.232788e-01 -1.516193e-06 -3.635697e-05 1.985393e-05 -4.269555e-05 8.656006e-01 4.830933e-01
2.223619e+08 -9.125977e-01 -4.230957e-01 6.658956e-06 2.256967e-05 7.920898e-06 2.130307e-05 8.651123e-01 4.835815e-01
2.225797e+08 -9.123535e-01 -4.238281e-01 -3.327616e-06 -1.129322e-05 -2.106465e-05 -2.424233e-05 8.647461e-01 4.845581e-01
2.227975e+08 -9.119263e-01 -4.234619e-01 -1.157634e-06 6.479677e-06 2.167653e-05 1.629815e-05 8.651123e-01 4.843750e-01
2.230153e+08 -9.115601e-01 -4.238281e-01 -1.778826e-06 2.511032e-05 1.496915e-05 -2.082065e-05 8.663330e-01 4.842529e-01
2.232331e+08 -9.113770e-01 -4.254761e-01 -1.528487e-05 1.065619e-05 1.790933e-05 -3.397837e-05 8.654175e-01 4.855347e-01
2.234509e+08 -9.104004e-01 -4.246826e-01 1.579057e-05 1.478009e-06 -3.818423e-05 5.817413e-05 8.650513e-01 4.854126e-01
2.236688e+08 -9.104614e-01 -4.268188e-01 -4.508346e-05 -1.743063e-05 4.584342e-05 -4.040450e-05 8.652954e-01 4.863281e-01
2.238866e+08 -9.100952e-01 -4.254150e-01 -1.231767e-05 -2.095476e-05 2.603233e-05 -2.412312e-05 8.652954e-01 4.871216e-01
2.241044e+08 -9.099731e-01 -4.263916e-01 1.014676e-05 3.150664e-06 -5.979091e-05 1.546741e-05 8.651733e-01 4.869385e-01
2.243222e+08 -9.102173e-01 -4.268188e-01 2.827495e-05 -8.333474e-06 3.179535e-05 1.741201e-05 8.650513e-01 4.874878e-01
2.245400e+08 -9.104004e-01 -4.268188e-01 -2.661720e-05 1.399219e-05 6.327871e-06 -7.806346e-06 8.650513e-01 4.879150e-01
2.247578e+08 -9.101562e-01 -4.277954e-01 1.005828e-06 2.429448e-05 2.717786e-05 -1.353770e-05 8.648071e-01 4.886475e-01
2.249756e+08 -9.093628e-01 -4.280396e-01 -4.140660e-06 3.809482e-05 3.631972e-05 3.337674e-05 8.643188e-01 4.886475e-01
2.251934e+08 -9.091797e-01 -4.281616e-01 -7.325783e-06 -3.998633e-06 6.588176e-06 2.216920e-05 8.647461e-01 4.900513e-01
2.254112e+08 -9.091187e-01 -4.280396e-01 2.781674e-05 -2.049655e-05 3.412366e-05 1.216121e-05 8.649902e-01 4.902954e-01
2.256291e+08 -9.094238e-01 -4.304810e-01 -4.048273e-05 -4.343688e-05 -9.149779e-06 -5.496666e-06 8.644409e-01 4.896851e-01
2.258469e+08 -9.090576e-01 -4.296265e-01 -1.351908e-05 -1.448672e-05 -1.635682e-05 -1.973845e-05 8.656006e-01 4.906006e-01
2.260647e+08 -9.078979e-01 -4.296875e-01 1.082290e-05 -1.550466e-05 2.278760e-05 2.692454e-05 8.648682e-01 4.909668e-01
2.262825e+08 -9.085083e-01 -4.306641e-01 2.317317e-05 5.491078e-06 2.621301e-05 -9.158626e-06 8.648071e-01 4.915161e-01
2.265003e+08 -9.075317e-01 -4.309082e-01 8.339062e-06 2.833083e-05 -1.802854e-05 -2.242066e-05 8.645630e-01 4.919434e-01
2.267181e+08 -9.080811e-01 -4.320068e-01 -1.083314e-05 1.551490e-05 2.317596e-06 -5.243346e-06 8.647461e-01 4.924316e-01
2.269359e+08 -9.075928e-01 -4.318848e-01 1.999177e-05 -3.668480e-05 -6.095041e-06 -3.656372e-06 8.643188e-01 4.924316e-01
2.271538e+08 -9.074097e-01 -4.329834e-01 6.840564e-06 -8.170959e-06 4.218146e-05 7.078052e-06 8.638916e-01 4.940796e-01
2.273716e+08 -9.072876e-01 -4.333496e-01 -4.256889e-05 1.251698e-05 3.047474e-05 -2.317503e-05 8.647461e-01 4.934082e-01
2.275894e+08 -9.077759e-01 -4.343262e-01 9.686686e-06 -9.024516e-06 -1.745764e-05 1.109764e-05 8.652954e-01 4.937134e-01
2.278072e+08 -9.066162e-01 -4.344482e-01 1.403131e-05 2.669357e-05 -8.412171e-06 1.582317e-06 8.644409e-01 4.937744e-01
2.280250e+08 -9.070435e-01 -4.348755e-01 8.518342e-06 -2.508517e-06 -2.856180e-05 1.440011e-05 8.645020e-01 4.945068e-01
2.282428e+08 -9.061890e-01 -4.360962e-01 6.175600e-06 1.052395e-05 3.755651e-05 1.761690e-05 8.635864e-01 4.949341e-01
2.284606e+08 -9.066162e-01 -4.367676e-01 1.068600e-05 1.536496e-05 -3.308058e-05 -1.616776e-06 8.635864e-01 4.951782e-01
2.286784e+08 -9.062500e-01 -4.365845e-01 2.184510e-05 4.294887e-05 2.599135e-05 2.339482e-06 8.632812e-01 4.962158e-01
2.288962e+08 -9.063721e-01 -4.373169e-01 2.238899e-05 5.514175e-05 3.283098e-05 1.308322e-05 8.637085e-01 4.956665e-01
2.291141e+08 -9.063110e-01 -4.378662e-01 1.070835e-05 1.537520e-05 2.834946e-05 -4.443154e-05 8.641968e-01 4.957275e-01
2.293319e+08 -9.053955e-01 -4.385986e-01 -2.141483e-05 -3.077462e-05 -2.754666e-05 -3.152341e-05 8.643188e-01 4.963379e-01
2.295497e+08 -9.063110e-01 -4.387207e-01 2.841931e-06 -8.367933e-07 2.234243e-05 8.430332e-06 8.636475e-01 4.959717e-01
2.297675e+08 -9.063110e-01 -4.388428e-01 1.669861e-06 5.684793e-06 -6.841030e-06 -1.074700e-05 8.629150e-01 4.971313e-01
2.299853e+08 -9.059448e-01 -4.400024e-01 1.942459e-05 -1.806580e-05 2.114009e-05 -1.720060e-05 8.635864e-01 4.979248e-01
2.302031e+08 -9.057007e-01 -4.405518e-01 2.179295e-06 1.790561e-05 1.960434e-06 -8.791219e-06 8.635864e-01 4.971924e-01
2.304209e+08 -9.050903e-01 -4.408569e-01 1.707207e-05 -5.029142e-06 -3.051944e-06 -1.832610e-06 8.635254e-01 4.974976e-01
2.306388e+08 -9.048462e-01 -4.415894e-01 -1.139101e-05 3.345311e-06 2.600811e-05 2.341345e-06 8.634033e-01 4.981689e-01
2.308566e+08 -9.055176e-01 -4.421387e-01 1.072232e-05 1.539197e-05 1.842715e-05 2.604909e-05 8.630981e-01 4.971924e-01
2.310744e+08 -9.055786e-01 -4.437256e-01 1.825765e-05 -1.154374e-05 1.465343e-05 1.712888e-05 8.627930e-01 4.982910e-01
2.312922e+08 -9.055786e-01 -4.436035e-01 3.986806e-05 -1.168996e-05 9.779353e-06 -2.439599e-06 8.623047e-01 4.985352e-01
2.315100e+08 -9.049683e-01 -4.448853e-01 -2.798438e-05 2.057850e-05 -1.769979e-05 -1.897011e-05 8.622437e-01 4.987793e-01
2.317278e+08 -9.049683e-01 -4.445801e-01 3.084727e-05 -2.142973e-05 1.565740e-05 -2.881885e-05 8.620605e-01 4.992676e-01
2.319456e+08 -9.048462e-01 -4.459229e-01 -2.530217e-05 -5.446374e-05 6.761402e-06 5.230680e-05 8.623047e-01 4.985352e-01
2.321634e+08 -9.050903e-01 -4.467773e-01 -4.056469e-05 3.045052e-05 -3.887340e-06 -2.396666e-05 8.613281e-01 4.989014e-01
2.323812e+08 -9.046631e-01 -4.463501e-01 7.722527e-06 -5.798042e-05 1.943856e-05 -1.989584e-05 8.614502e-01 4.990845e-01
2.325991e+08 -9.052124e-01 -4.468384e-01 -4.192069e-05 -3.723428e-05 -2.811104e-05 -8.575618e-06 8.617554e-01 4.991455e-01
2.328169e+08 -9.047241e-01 -4.477539e-01 -5.215406e-06 1.392234e-05 -1.919642e-05 8.414499e-06 8.613892e-01 5.010376e-01
2.330347e+08 -9.044189e-01 -4.479980e-01 2.280995e-05 -6.699935e-06 -1.893379e-05 -3.068708e-06 8.610229e-01 4.998779e-01
2.332525e+08 -9.052734e-01 -4.486694e-01 2.060831e-05 8.067489e-05 -1.320522e-05 -2.942979e-06 8.602295e-01 5.000000e-01
2.334703e+08 -9.052124e-01 -4.495850e-01 -2.399459e-05 1.322292e-05 4.731119e-07 1.858454e-05 8.594971e-01 5.003662e-01
2.336881e+08 -9.044189e-01 -4.498291e-01 6.863847e-07 -1.878943e-05 -3.938004e-05 2.123043e-05 8.594971e-01 5.010986e-01
2.339059e+08 -9.054565e-01 -4.509888e-01 -6.478280e-06 -5.384535e-05 1.347531e-05 -8.546747e-06 8.588867e-01 5.011597e-01
2.341238e+08 -9.040527e-01 -4.509888e-01 1.564622e-07 -3.107078e-05 2.068002e-06 6.237067e-06 8.603516e-01 5.005493e-01
2.343416e+08 -9.047852e-01 -4.516602e-01 -1.831912e-05 1.157913e-05 1.036003e-05 3.119931e-05 8.596802e-01 5.017090e-01
2.345594e+08 -9.049683e-01 -4.526367e-01 3.291667e-05 2.753735e-05 4.940107e-05 6.411225e-06 8.593750e-01 5.012817e-01
2.347772e+08 -9.035645e-01 -4.531250e-01 -1.663715e-05 1.729559e-05 -7.908791e-06 -2.139807e-05 8.590088e-01 5.012817e-01
2.349950e+08 -9.049072e-01 -4.537964e-01 1.745671e-05 3.832020e-05 -2.770871e-05 5.159527e-05 8.590088e-01 5.012817e-01
2.352128e+08 -9.044189e-01 -4.547119e-01 3.352761e-06 1.141895e-05 -5.124602e-06 -8.081086e-06 8.579712e-01 5.014648e-01
2.354306e+08 -9.044189e-01 -4.545288e-01 9.270385e-06 -2.134219e-05 1.087785e-05 8.205418e-06 8.583984e-01 5.021973e-01
2.356484e+08 -9.050293e-01 -4.558716e-01 -8.567702e-06 2.514105e-06 1.295935e-05 1.445971e-05 8.571777e-01 5.015869e-01
2.358662e+08 -9.047852e-01 -4.569702e-01 4.926696e-07 1.228321e-05 2.207421e-05 -3.668107e-05 8.582764e-01 5.027466e-01
2.360841e+08 -9.050903e-01 -4.573364e-01 -7.595867e-06 2.708100e-05 -1.239032e-05 1.919735e-05 8.577271e-01 5.028076e-01
2.363019e+08 -9.052124e-01 -4.582520e-01 -4.439428e-05 -2.425537e-05 5.825236e-05 8.430332e-06 8.569946e-01 5.026245e-01
2.365197e+08 -9.058838e-01 -4.583740e-01 -1.981854e-05 -2.523884e-05 -2.852455e-05 -1.216307e-05 8.563232e-01 5.021973e-01
2.367375e+08 -9.044189e-01 -4.584961e-01 -1.144968e-05 3.362074e-06 -6.577000e-06 -2.226792e-05 8.568115e-01 5.026245e-01
2.369553e+08 -9.058228e-01 -4.598999e-01 5.224720e-06 -1.397356e-05 -2.904236e-05 1.084059e-05 8.566284e-01 5.026855e-01
2.371731e+08 -9.062500e-01 -4.602661e-01 -1.698174e-05 -2.609380e-05 1.483783e-05 -9.406358e-06 8.555298e-01 5.027466e-01
2.373909e+08 -9.058228e-01 -4.606323e-01 -9.768177e-06 9.093899e-06 1.814589e-05 -1.906324e-05 8.558960e-01 5.026855e-01
2.376088e+08 -9.061890e-01 -4.613037e-01 9.607524e-06 2.207421e-05 -1.726113e-05 -3.967434e-07 8.562622e-01 5.025635e-01
2.378266e+08 -9.058838e-01 -4.620972e-01 1.362897e-05 1.466461e-05 4.119985e-05 3.815442e-05 8.548584e-01 5.032959e-01
2.380444e+08 -9.058228e-01 -4.628906e-01 2.322532e-05 3.670156e-05 -1.609325e-05 -3.138743e-05 8.541260e-01 5.024414e-01
2.382622e+08 -9.061890e-01 -4.632568e-01 -1.881272e-07 3.116019e-05 4.694611e-05 -1.841038e-05 8.536377e-01 5.031738e-01
2.384800e+08 -9.072876e-01 -4.645996e-01 2.105534e-05 1.871213e-05 1.898035e-06 3.286079e-05 8.532104e-01 5.036621e-01
2.386978e+08 -9.064941e-01 -4.645386e-01 3.776327e-05 1.369044e-06 3.552437e-05 -3.598630e-06 8.527222e-01 5.039062e-01
2.389156e+08 -9.064331e-01 -4.658203e-01 1.146365e-05 -3.365800e-06 8.940697e-07 -1.947489e-05 8.525391e-01 5.036011e-01
2.391334e+08 -9.061279e-01 -4.656982e-01 9.102747e-06 9.787269e-06 -1.424924e-06 4.247576e-05 8.523560e-01 5.037231e-01
2.393512e+08 -9.075317e-01 -4.673462e-01 2.097338e-06 -5.665794e-05 -1.530536e-05 -9.227544e-06 8.515015e-01 5.045166e-01
2.395691e+08 -9.067993e-01 -4.672241e-01 -2.274476e-05 -2.447516e-05 -4.049391e-06 2.562301e-06 8.510742e-01 5.042114e-01
2.397869e+08 -9.074097e-01 -4.679565e-01 4.301593e-05 -1.259893e-05 4.095957e-05 -7.010996e-06 8.500366e-01 5.049438e-01
2.400047e+08 -9.074707e-01 -4.689331e-01 -5.311519e-05 -2.183393e-05 -1.323409e-05 -2.980232e-06 8.499756e-01 5.050049e-01
2.402225e+08 -9.078369e-01 -4.686279e-01 1.955777e-07 -3.120676e-05 2.492592e-05 -2.336130e-05 8.495483e-01 5.044556e-01
2.404403e+08 -9.085083e-01 -4.700317e-01 2.344139e-05 5.587935e-06 -2.928264e-05 3.746711e-05 8.493652e-01 5.048218e-01
2.406581e+08 -9.078369e-01 -4.696655e-01 7.726252e-06 4.758686e-05 -6.387942e-06 7.829163e-06 8.492432e-01 5.048218e-01
2.408759e+08 -9.078369e-01 -4.705200e-01 -2.867728e-05 8.409843e-06 2.005976e-05 1.377705e-05 8.481445e-01 5.045166e-01
2.410938e+08 -9.087524e-01 -4.718018e-01 -2.395548e-05 -1.791865e-05 -6.314367e-06 2.291426e-05 8.479004e-01 5.052490e-01
2.413116e+08 -9.093018e-01 -4.719849e-01 3.344007e-05 -3.473461e-05 -1.856126e-05 -4.125945e-05 8.471069e-01 5.053101e-01
2.415294e+08 -9.096069e-01 -4.727783e-01 -2.395920e-05 -1.792051e-05 5.565584e-06 2.676062e-05 8.469849e-01 5.054932e-01
2.417472e+08 -9.103394e-01 -4.730225e-01 -4.556030e-06 -4.905974e-06 -1.451001e-06 4.257262e-05 8.468018e-01 5.062256e-01
2.419650e+08 -9.107666e-01 -4.743042e-01 1.180172e-05 4.016608e-05 -1.993496e-06 8.832663e-06 8.455811e-01 5.045776e-01
2.421828e+08 -9.108276e-01 -4.738770e-01 5.744398e-06 -1.684763e-06 9.932555e-07 -4.412606e-06 8.452759e-01 5.058594e-01
2.424006e+08 -9.110718e-01 -4.741211e-01 4.555797e-06 4.903413e-06 2.529472e-05 3.697164e-05 8.449097e-01 5.061035e-01
2.426184e+08 -9.109497e-01 -4.758911e-01 1.317170e-05 2.384186e-06 -2.704095e-06 1.708395e-06 8.436279e-01 5.066528e-01
2.428362e+08 -9.119263e-01 -4.771118e-01 1.290068e-05 -4.123524e-05 -5.066022e-05 -1.722202e-05 8.439941e-01 5.063477e-01
2.430541e+08 -9.115601e-01 -4.771118e-01 1.247041e-05 2.130680e-05 -8.698553e-07 -3.729574e-05 8.431396e-01 5.062866e-01
2.432719e+08 -9.122314e-01 -4.774170e-01 -1.892634e-05 -7.050112e-07 9.026378e-06 -2.463162e-05 8.423462e-01 5.066528e-01
2.434897e+08 -9.121704e-01 -4.772339e-01 -9.821728e-06 9.115320e-06 -9.927899e-07 4.411209e-06 8.422241e-01 5.067139e-01
2.437075e+08 -9.122925e-01 -4.782715e-01 2.705120e-05 -1.418777e-05 1.279823e-05 -1.566391e-05 8.410645e-01 5.060425e-01
2.439253e+08 -9.132080e-01 -4.788818e-01 2.375804e-06 -1.319032e-05 -2.270564e-06 2.036244e-05 8.408203e-01 5.061646e-01
2.441431e+08 -9.133911e-01 -4.799805e-01 3.575161e-05 5.821884e-05 1.908466e-05 1.822785e-05 8.392944e-01 5.070801e-01
2.443609e+08 -9.138184e-01 -4.797363e-01 -9.127427e-06 -9.815209e-06 1.928955e-05 -8.409843e-06 8.392944e-01 5.065308e-01
2.445788e+08 -9.141235e-01 -4.805908e-01 -1.368858e-05 -1.473352e-05 -2.784468e-05 -5.114824e-06 8.386230e-01 5.072632e-01
2.447966e+08 -9.150391e-01 -4.808350e-01 -1.745299e-05 3.634021e-05 5.962327e-06 -2.650358e-05 8.374634e-01 5.069580e-01
2.450144e+08 -9.150391e-01 -4.816284e-01 4.029274e-05 -1.182407e-05 -2.214685e-06 -3.647059e-05 8.377075e-01 5.076294e-01
2.452322e+08 -9.152832e-01 -4.818726e-01 -2.878485e-06 8.426141e-07 -7.262453e-06 -2.949126e-05 8.368530e-01 5.081177e-01
2.454500e+08 -9.165039e-01 -4.821777e-01 -7.447787e-06 -4.077330e-06 4.862994e-05 1.095235e-05 8.363647e-01 5.091553e-01
2.456678e+08 -9.163818e-01 -4.827271e-01 4.774332e-05 -7.744879e-06 2.472661e-05 -1.183525e-05 8.355103e-01 5.083618e-01
2.458856e+08 -9.173584e-01 -4.841309e-01 -2.417713e-06 -6.181747e-05 9.904616e-06 1.270138e-05 8.344116e-01 5.095825e-01
2.461034e+08 -9.171143e-01 -4.837036e-01 2.688356e-05 1.712516e-05 -2.743676e-05 1.353212e-05 8.336792e-01 5.085449e-01
2.463212e+08 -9.173584e-01 -4.836426e-01 -1.489837e-05 -8.145347e-06 3.441237e-05 2.749264e-05 8.336182e-01 5.091553e-01
2.465391e+08 -9.189453e-01 -4.846802e-01 -5.520880e-05 3.661960e-06 -4.494563e-06 -1.612119e-05 8.328857e-01 5.088501e-01
2.467569e+08 -9.185791e-01 -4.862061e-01 2.113543e-05 1.884438e-05 -1.661852e-05 6.695278e-06 8.317871e-01 5.098877e-01
2.469747e+08 -9.192505e-01 -4.857178e-01 2.654269e-06 3.048778e-05 -9.628013e-06 -2.424419e-05 8.308716e-01 5.100098e-01
2.471925e+08 -9.199219e-01 -4.859009e-01 -1.056865e-05 2.809986e-05 -1.362432e-05 -6.556511e-06 8.305664e-01 5.100708e-01
2.474103e+08 -9.201050e-01 -4.870605e-01 -4.082453e-06 7.444993e-06 8.665025e-06 4.378334e-05 8.295898e-01 5.101929e-01
2.476281e+08 -9.210815e-01 -4.869385e-01 -1.201686e-05 -9.004958e-06 1.290999e-05 -5.718321e-07 8.294067e-01 5.104980e-01
2.478459e+08 -9.203491e-01 -4.879150e-01 -5.764421e-06 1.691282e-06 -2.059340e-05 -6.274134e-05 8.291626e-01 5.101929e-01
2.480638e+08 -9.216309e-01 -4.874878e-01 1.468137e-05 3.951415e-05 -3.708526e-06 6.131362e-06 8.275757e-01 5.109253e-01
2.482816e+08 -9.215698e-01 -4.885864e-01 -6.759539e-06 -2.306141e-05 -2.215430e-05 -2.012588e-05 8.272095e-01 5.106201e-01
2.484994e+08 -9.229126e-01 -4.884644e-01 -1.610722e-05 -1.558103e-06 7.777940e-06 -8.702744e-06 8.262329e-01 5.119629e-01
2.487172e+08 -9.234009e-01 -4.898071e-01 7.934868e-06 1.646113e-05 2.317876e-05 1.572818e-05 8.252563e-01 5.117188e-01
2.489350e+08 -9.240723e-01 -4.892578e-01 2.715550e-05 -1.420081e-05 -4.423782e-06 -1.000939e-06 8.241577e-01 5.121460e-01
2.491528e+08 -9.236450e-01 -4.890747e-01 -2.716295e-05 1.419336e-05 7.096678e-07 7.128809e-06 8.236694e-01 5.122681e-01
2.493706e+08 -9.247437e-01 -4.893799e-01 -5.988404e-06 3.306009e-05 1.120102e-05 -3.282912e-06 8.228760e-01 5.121460e-01
2.495884e+08 -9.244385e-01 -4.899292e-01 2.548471e-05 -1.995824e-05 -2.004299e-05 1.269393e-06 8.217163e-01 5.130615e-01
2.498062e+08 -9.260254e-01 -4.907227e-01 -2.910756e-05 -3.533624e-05 2.956018e-05 -7.268041e-06 8.211060e-01 5.133057e-01
2.500241e+08 -9.266968e-01 -4.904175e-01 5.535781e-06 -4.545972e-05 -2.941303e-05 -3.455393e-05 8.205566e-01 5.137939e-01
2.502419e+08 -9.258423e-01 -4.907227e-01 -5.769078e-06 1.686160e-06 1.909863e-05 1.827255e-05 8.193359e-01 5.130615e-01
2.504597e+08 -9.275513e-01 -4.905396e-01 3.609806e-05 2.701581e-05 4.026107e-05 2.770312e-05 8.189697e-01 5.133057e-01
2.506775e+08 -9.273071e-01 -4.916382e-01 -2.573244e-05 -2.381951e-05 5.700067e-05 5.124882e-05 8.179321e-01 5.144653e-01
2.508953e+08 -9.285278e-01 -4.917603e-01 8.162111e-06 6.026030e-05 -2.185069e-05 -1.656264e-05 8.171387e-01 5.151367e-01
2.511131e+08 -9.298096e-01 -4.929810e-01 2.885424e-05 -8.411705e-06 -2.989732e-05 1.884252e-05 8.161011e-01 5.150146e-01
2.513309e+08 -9.291382e-01 -4.927979e-01 9.855255e-06 -9.146519e-06 -2.190284e-05 -3.173761e-05 8.157349e-01 5.150757e-01
2.515488e+08 -9.302979e-01 -4.923096e-01 6.740913e-06 2.310053e-05 1.936033e-05 -8.421950e-06 8.150024e-01 5.162964e-01
2.517666e+08 -9.310913e-01 -4.931030e-01 -1.972914e-05 1.828931e-05 3.905036e-05 -2.842955e-05 8.139648e-01 5.162964e-01
2.519844e+08 -9.313965e-01 -4.932861e-01 -2.069771e-05 -6.506220e-06 1.187623e-05 -1.128018e-05 8.131104e-01 5.174561e-01
2.522022e+08 -9.326782e-01 -4.935303e-01 3.032014e-05 2.874807e-05 3.144518e-05 2.576411e-05 8.122559e-01 5.172119e-01
2.524200e+08 -9.330444e-01 -4.935303e-01 2.093427e-05 -2.491660e-05 1.471676e-05 1.731608e-05 8.118286e-01 5.174561e-01
2.526378e+08 -9.334717e-01 -4.926758e-01 -1.082011e-05 -1.563784e-05 2.703443e-05 -4.743040e-05 8.101807e-01 5.178223e-01
2.528556e+08 -9.334717e-01 -4.945068e-01 -2.889428e-06 8.428469e-07 -1.898967e-05 2.713315e-05 8.099976e-01 5.184326e-01
2.530734e+08 -9.349365e-01 -4.935913e-01 3.346242e-05 -3.483146e-06 3.073364e-05 1.861528e-05 8.088379e-01 5.192261e-01
2.532912e+08 -9.346924e-01 -4.937134e-01 1.035538e-05 3.242865e-06 3.170781e-05 1.418032e-05 8.087158e-01 5.190430e-01
2.535091e+08 -9.352417e-01 -4.945068e-01 2.648309e-05 4.813075e-06 1.958758e-05 -5.030259e-05 8.073730e-01 5.197754e-01
2.537269e+08 -9.360962e-01 -4.936523e-01 6.491318e-06 -2.071075e-05 7.149298e-06 -7.096678e-07 8.069458e-01 5.196533e-01
2.539447e+08 -9.371338e-01 -4.938965e-01 -1.444947e-05 4.215166e-06 -3.423728e-05 -3.922731e-05 8.061523e-01 5.202026e-01
2.541625e+08 -9.375610e-01 -4.940796e-01 -2.381578e-05 -4.950166e-05 -1.303852e-06 1.601968e-05 8.047485e-01 5.213623e-01
2.543803e+08 -9.378662e-01 -4.944458e-01 5.009025e-05 1.045316e-05 1.265015e-05 1.102965e-05 8.037720e-01 5.209351e-01
2.545981e+08 -9.374390e-01 -4.942017e-01 3.657490e-05 3.953278e-05 2.451800e-05 -2.626330e-07 8.025513e-01 5.224609e-01
2.548159e+08 -9.383545e-01 -4.947510e-01 -3.825873e-06 -2.397224e-05 -1.098588e-05 -2.347119e-05 8.018188e-01 5.227051e-01
2.550338e+08 -9.396973e-01 -4.953003e-01 -1.419149e-05 -2.721138e-05 5.032867e-06 -2.218969e-05 8.006592e-01 5.224609e-01
2.552516e+08 -9.405518e-01 -4.951782e-01 -3.200583e-05 -3.459305e-05 2.881512e-05 4.270859e-05 8.000488e-01 5.236206e-01
2.554694e+08 -9.410400e-01 -4.951782e-01 -1.372490e-05 -1.481082e-05 -2.660130e-10 -6.035350e-11 7.992554e-01 5.233154e-01
2.556872e+08 -9.409790e-01 -4.946289e-01 9.462237e-07 2.480298e-05 3.212690e-05 1.778454e-05 7.981567e-01 5.243530e-01
2.559050e+08 -9.421997e-01 -4.940796e-01 2.190471e-06 -5.711615e-05 -2.659846e-10 -6.023981e-11 7.979126e-01 5.247192e-01
2.561228e+08 -9.422607e-01 -4.947510e-01 -4.573725e-06 -4.936010e-06 1.603737e-05 1.307577e-06 7.962646e-01 5.246582e-01
2.563406e+08 -9.431763e-01 -4.935303e-01 -1.325738e-05 -2.419576e-06 -2.234057e-05 3.694743e-05 7.963867e-01 5.260010e-01
2.565584e+08 -9.442749e-01 -4.943237e-01 4.461072e-10 2.451941e-10 -2.291985e-05 -1.219660e-05 7.954102e-01 5.270996e-01
2.567762e+08 -9.441528e-01 -4.945679e-01 -2.072006e-05 -6.534159e-06 -9.290874e-06 -2.078339e-05 7.941284e-01 5.280151e-01
2.569941e+08 -9.447632e-01 -4.935913e-01 -3.351085e-05 3.473833e-06 3.932230e-05 1.708791e-05 7.938232e-01 5.278931e-01
2.572119e+08 -9.453125e-01 -4.938965e-01 -2.941303e-05 -3.995374e-06 -2.565421e-05 -1.049601e-05 7.929688e-01 5.285034e-01
2.574297e+08 -9.456787e-01 -4.938965e-01 2.650730e-05 4.852191e-06 -2.305955e-06 -6.712973e-05 7.914429e-01 5.299683e-01
2.576475e+08 -9.457397e-01 -4.934692e-01 4.117936e-05 4.450977e-05 -1.600198e-05 1.388788e-05 7.908936e-01 5.302124e-01
2.578653e+08 -9.475098e-01 -4.931030e-01 2.158806e-06 1.819152e-05 6.766059e-06 -1.950283e-05 7.898560e-01 5.299683e-01
2.580831e+08 -9.472656e-01 -4.928589e-01 3.620982e-06 -1.988560e-05 1.676753e-05 8.483417e-06 7.893066e-01 5.305176e-01
2.583009e+08 -9.483032e-01 -4.918823e-01 2.772361e-05 -1.780689e-06 2.329983e-05 1.579337e-05 7.882080e-01 5.318604e-01
2.585188e+08 -9.487305e-01 -4.940186e-01 2.216175e-05 4.380941e-05 -4.284084e-08 -1.521688e-05 7.884521e-01 5.323486e-01
2.587366e+08 -9.481812e-01 -4.934692e-01 4.389137e-05 -2.123415e-07 8.028001e-06 -6.597117e-05 7.871094e-01 5.327148e-01
2.589544e+08 -9.495239e-01 -4.927979e-01 1.644529e-05 -2.987683e-05 5.767122e-05 -3.251433e-05 7.858276e-01 5.336304e-01
2.591722e+08 -9.495850e-01 -4.932251e-01 1.204386e-05 9.057112e-06 -4.553795e-05 -2.090260e-05 7.849731e-01 5.339966e-01
2.593900e+08 -9.506836e-01 -4.924927e-01 3.856793e-05 1.391396e-05 4.207343e-05 1.918525e-07 7.843018e-01 5.348511e-01
2.596078e+08 -9.508667e-01 -4.923096e-01 -9.903684e-06 9.159558e-06 2.325885e-05 6.072223e-07 7.835083e-01 5.357056e-01
2.598256e+08 -9.511108e-01 -4.926758e-01 1.066178e-05 -2.820417e-05 -3.184937e-05 -1.427718e-05 7.816772e-01 5.364380e-01
2.600434e+08 -9.515991e-01 -4.917603e-01 1.372304e-05 1.485273e-05 -2.467819e-05 -1.497753e-05 7.812500e-01 5.368042e-01
2.602612e+08 -9.526978e-01 -4.924316e-01 7.000752e-06 -8.312985e-06 -1.164153e-05 -3.082678e-07 7.806396e-01 5.366211e-01
2.604791e+08 -9.526978e-01 -4.909058e-01 9.896234e-06 -9.154901e-06 2.438203e-05 2.660044e-05 7.795410e-01 5.379028e-01
2.606969e+08 -9.541626e-01 -4.907837e-01 -1.389906e-05 -5.875155e-05 -1.218729e-05 3.823265e-05 7.785034e-01 5.386353e-01
2.609147e+08 -9.537354e-01 -4.898071e-01 -3.656372e-06 1.990423e-05 1.763925e-05 -4.164129e-05 7.781982e-01 5.400391e-01
2.611325e+08 -9.537964e-01 -4.897461e-01 -1.446903e-05 4.204921e-06 1.163315e-05 3.026798e-07 7.772217e-01 5.400391e-01
2.613503e+08 -9.545898e-01 -4.898071e-01 5.960464e-06 4.220009e-05 -2.606213e-05 -1.413375e-05 7.760620e-01 5.408936e-01
2.615681e+08 -9.546509e-01 -4.890747e-01 2.682023e-05 -2.659298e-05 1.775846e-05 -1.118239e-05 7.752686e-01 5.417480e-01
2.617859e+08 -9.559937e-01 -4.887085e-01 2.288446e-05 2.476573e-05 -8.419156e-07 5.019456e-05 7.749634e-01 5.427856e-01
2.620038e+08 -9.556885e-01 -4.882812e-01 1.829490e-05 1.979806e-05 -2.988055e-05 -2.319179e-05 7.737427e-01 5.430298e-01
2.622216e+08 -9.567871e-01 -4.886475e-01 -1.280103e-05 9.990297e-06 -2.336316e-05 -1.586042e-05 7.733154e-01 5.440674e-01
2.624394e+08 -9.567261e-01 -4.879761e-01 -3.663823e-06 1.990609e-05 -2.010725e-05 3.177300e-05 7.727051e-01 5.457764e-01
2.626572e+08 -9.567871e-01 -4.869995e-01 -2.529845e-05 -1.150183e-05 -6.565824e-07 8.054543e-06 7.711182e-01 5.455933e-01
2.628750e+08 -9.583740e-01 -4.874878e-01 3.430061e-05 -2.248399e-05 -1.921505e-05 -3.202818e-06 7.706909e-01 5.464478e-01
2.630928e+08 -9.580688e-01 -4.865723e-01 4.131719e-05 -3.079697e-05 5.550683e-07 -3.858097e-05 7.698975e-01 5.472412e-01
2.633106e+08 -9.577637e-01 -4.863281e-01 1.068041e-05 -2.821162e-05 -5.565584e-06 -2.706237e-05 7.689819e-01 5.485229e-01
2.635284e+08 -9.592285e-01 -4.864502e-01 2.896646e-06 -8.393545e-07 2.607889e-05 -1.106411e-06 7.683716e-01 5.488281e-01
2.637462e+08 -9.591064e-01 -4.846802e-01 2.149306e-05 -1.249835e-05 2.678484e-06 -1.698360e-05 7.672729e-01 5.493774e-01
2.639641e+08 -9.601440e-01 -4.854736e-01 1.280569e-05 -9.992160e-06 1.680572e-05 -6.746501e-06 7.666626e-01 5.505371e-01
2.641819e+08 -9.606934e-01 -4.845581e-01 9.912066e-06 -9.151176e-06 -1.335330e-05 1.223851e-05 7.659912e-01 5.513306e-01
2.643997e+08 -9.605713e-01 -4.842529e-01 -2.653897e-05 -4.893169e-06 1.158938e-05 -3.025122e-05 7.650757e-01 5.527344e-01
2.646175e+08 -9.608154e-01 -4.836426e-01 3.065355e-05 -2.598390e-06 -1.679175e-06 1.254026e-05 7.646484e-01 5.528564e-01
2.648353e+08 -9.602661e-01 -4.832153e-01 9.609386e-06 2.232939e-05 -5.878508e-06 -1.543108e-05 7.630615e-01 5.532837e-01
2.650531e+08 -9.615479e-01 -4.827271e-01 -3.813021e-05 -1.534820e-06 2.459809e-05 -4.612654e-05 7.623291e-01 5.548706e-01
2.652709e+08 -9.612427e-01 -4.821167e-01 -4.223362e-05 5.956739e-06 -1.064502e-06 -1.081824e-05 7.617188e-01 5.549316e-01
2.654888e+08 -9.615479e-01 -4.817505e-01 1.861248e-05 -1.167972e-05 6.591901e-06 2.265722e-05 7.615967e-01 5.562134e-01
2.657066e+08 -9.615479e-01 -4.812622e-01 -1.050159e-05 -4.724786e-05 -8.355826e-06 -4.069321e-05 7.604370e-01 5.577393e-01
2.659244e+08 -9.631348e-01 -4.802246e-01 -3.203750e-06 3.235787e-05 2.709217e-05 -2.090819e-05 7.601929e-01 5.579834e-01
2.661422e+08 -9.617920e-01 -4.800415e-01 3.448129e-05 2.142787e-05 3.358535e-05 -2.880022e-05 7.590942e-01 5.587158e-01
2.663600e+08 -9.625854e-01 -4.795532e-01 1.071021e-05 -2.820417e-05 2.964213e-05 1.967326e-05 7.575684e-01 5.599976e-01
2.665778e+08 -9.627686e-01 -4.793091e-01 -3.144704e-05 2.163276e-05 -3.136881e-05 -2.243556e-05 7.570190e-01 5.609131e-01
2.667956e+08 -9.624023e-01 -4.781494e-01 -3.218278e-05 4.069507e-05 6.152317e-06 -1.153443e-05 7.562256e-01 5.606079e-01
2.670134e+08 -9.631958e-01 -4.780273e-01 1.248345e-05 2.151541e-05 2.649426e-05 2.488494e-06 7.554932e-01 5.623169e-01
2.672312e+08 -9.629517e-01 -4.770508e-01 -3.768504e-05 1.088157e-05 2.684817e-05 6.107613e-06 7.550049e-01 5.628662e-01
2.674491e+08 -9.628906e-01 -4.768677e-01 -4.488975e-07 -1.244061e-05 2.409704e-05 7.841736e-06 7.549438e-01 5.640869e-01
2.676669e+08 -9.630737e-01 -4.761353e-01 -4.468745e-10 -2.465583e-10 2.065115e-05 2.344139e-06 7.545166e-01 5.650024e-01
2.678847e+08 -9.638672e-01 -4.752197e-01 -6.560236e-06 2.075918e-05 -1.480989e-05 -2.187677e-06 7.538452e-01 5.653687e-01
2.681025e+08 -9.633789e-01 -4.744263e-01 1.695659e-05 -1.747068e-05 -3.265217e-05 9.048730e-06 7.528076e-01 5.673218e-01
2.683203e+08 -9.630737e-01 -4.746704e-01 2.265349e-05 -6.307662e-05 -1.480803e-05 -2.198853e-06 7.515869e-01 5.683594e-01
2.685381e+08 -9.636230e-01 -4.739990e-01 6.692484e-06 2.321973e-05 -3.773253e-06 6.206799e-06 7.514038e-01 5.694580e-01
2.687559e+08 -9.635010e-01 -4.738770e-01 7.931143e-06 1.656637e-05 3.614835e-05 -3.512949e-06 7.509766e-01 5.695190e-01
2.689738e+08 -9.636230e-01 -4.727783e-01 -2.275221e-05 1.914427e-05 6.275997e-05 2.966449e-05 7.500610e-01 5.705566e-01
2.691916e+08 -9.635620e-01 -4.717407e-01 2.454594e-05 3.059395e-05 3.482029e-05 1.265667e-05 7.489014e-01 5.709839e-01
2.694094e+08 -9.641113e-01 -4.708862e-01 4.395843e-05 -1.490116e-07 -1.104921e-05 -8.404255e-06 7.487793e-01 5.723877e-01
2.696272e+08 -9.626465e-01 -4.703979e-01 8.996576e-07 2.488494e-05 1.934357e-05 3.387220e-05 7.485352e-01 5.731812e-01
2.698450e+08 -9.631958e-01 -4.700317e-01 1.361966e-05 -2.907030e-05 -2.586842e-05 -1.062080e-05 7.470703e-01 5.749512e-01
2.700628e+08 -9.635620e-01 -4.700317e-01 -5.101413e-05 8.430332e-06 2.891570e-05 -1.816638e-05 7.462158e-01 5.757446e-01
2.702806e+08 -9.633179e-01 -4.686279e-01 -1.225621e-06 6.638467e-06 1.074187e-05 2.012774e-05 7.457275e-01 5.757446e-01
2.704984e+08 -9.630737e-01 -4.671631e-01 -2.030842e-05 5.850568e-06 3.516674e-06 2.082903e-05 7.448120e-01 5.769043e-01
2.707162e+08 -9.626465e-01 -4.674683e-01 -3.909320e-05 -2.648123e-05 -4.546717e-05 1.320243e-05 7.449341e-01 5.786743e-01
2.709341e+08 -9.629517e-01 -4.669800e-01 7.036142e-06 -8.314382e-06 2.769381e-05 4.405901e-05 7.437744e-01 5.793457e-01
2.711519e+08 -9.632568e-01 -4.666748e-01 2.568029e-05 -1.997128e-05 7.630326e-06 1.826510e-05 7.430420e-01 5.802612e-01
2.713697e+08 -9.625854e-01 -4.653320e-01 4.901364e-05 1.728907e-05 3.201142e-05 -1.629256e-05 7.429199e-01 5.807495e-01
2.715875e+08 -9.627686e-01 -4.654541e-01 2.410635e-05 1.819618e-05 -2.342276e-05 1.472235e-05 7.424316e-01 5.816650e-01
2.718053e+08 -9.629517e-01 -4.647217e-01 -2.409332e-05 -1.821108e-05 -5.951151e-06 -3.088266e-05 7.410889e-01 5.830688e-01
2.720231e+08 -9.624634e-01 -4.639282e-01 -2.869591e-05 -2.317876e-05 -3.493764e-05 -2.803467e-05 7.412109e-01 5.841064e-01
2.722409e+08 -9.620972e-01 -4.630737e-01 -3.784895e-06 -2.405979e-05 4.763529e-05 8.493662e-06 7.405396e-01 5.850220e-01
2.724588e+08 -9.624634e-01 -4.627075e-01 1.462549e-05 3.982335e-05 1.899060e-05 -3.920868e-07 7.403564e-01 5.861206e-01
2.726766e+08 -9.615479e-01 -4.617920e-01 -5.808193e-06 1.673121e-06 -2.942979e-05 -3.149919e-05 7.395020e-01 5.870361e-01
2.728944e+08 -9.617310e-01 -4.611206e-01 7.481780e-06 4.141126e-06 8.314382e-06 1.016539e-05 7.390137e-01 5.888672e-01
2.731122e+08 -9.614258e-01 -4.606323e-01 2.903631e-06 -8.379575e-07 1.416542e-06 1.449976e-05 7.385254e-01 5.885010e-01
2.733300e+08 -9.614868e-01 -4.605103e-01 -1.445040e-05 4.815310e-05 2.760440e-06 -1.732958e-06 7.371216e-01 5.899048e-01
2.735478e+08 -9.600220e-01 -4.584351e-01 -3.025867e-05 1.499988e-05 1.754891e-05 -1.488347e-05 7.370605e-01 5.906372e-01
2.737656e+08 -9.611206e-01 -4.589233e-01 -4.433095e-07 -1.245178e-05 1.107343e-05 8.434989e-06 7.366333e-01 5.919800e-01
2.739834e+08 -9.597778e-01 -4.586182e-01 -7.869676e-07 1.909677e-05 9.730458e-06 2.467260e-05 7.362671e-01 5.928955e-01
2.742012e+08 -9.609985e-01 -4.569702e-01 -2.157316e-05 1.249090e-05 -1.997501e-05 2.028421e-05 7.357178e-01 5.942993e-01
2.744191e+08 -9.597778e-01 -4.584961e-01 2.017245e-06 -2.574921e-05 -3.491715e-05 2.633780e-06 7.357178e-01 5.951538e-01
2.746369e+08 -9.588623e-01 -4.571533e-01 2.119876e-05 1.906976e-05 8.312985e-06 1.017936e-05 7.346191e-01 5.962524e-01
2.748547e+08 -9.588013e-01 -4.556885e-01 1.230743e-06 -6.646384e-06 -1.830328e-05 7.641502e-06 7.345581e-01 5.968628e-01
2.750725e+08 -9.583740e-01 -4.558716e-01 1.038518e-05 3.304332e-06 2.627447e-05 -1.072884e-06 7.338867e-01 5.983276e-01
2.752903e+08 -9.578857e-01 -4.545898e-01 -5.725771e-06 4.568696e-05 1.250580e-05 2.295524e-05 7.332153e-01 5.990601e-01
2.755081e+08 -9.578857e-01 -4.548340e-01 3.364496e-05 -3.352761e-06 9.726733e-06 2.472289e-05 7.323608e-01 6.010132e-01
2.757259e+08 -9.568481e-01 -4.538574e-01 6.769598e-05 5.677342e-06 -8.227304e-06 3.596954e-05 7.324829e-01 6.009521e-01
2.759438e+08 -9.569092e-01 -4.525757e-01 -1.618639e-06 3.822148e-05 -7.545575e-06 2.785027e-05 7.316895e-01 6.027832e-01
2.761616e+08 -9.564819e-01 -4.526978e-01 -2.659485e-05 -4.962087e-06 -1.003034e-05 2.439599e-06 7.310791e-01 6.041260e-01
2.763794e+08 -9.559937e-01 -4.522095e-01 -4.357472e-05 1.255050e-05 2.358481e-05 3.144704e-05 7.308960e-01 6.037598e-01
2.765972e+08 -9.555664e-01 -4.512329e-01 -2.120994e-05 -1.908466e-05 4.014373e-05 5.623326e-06 7.302856e-01 6.055908e-01
2.768150e+08 -9.542236e-01 -4.503174e-01 2.246164e-05 1.243688e-05 1.726020e-05 -1.853984e-05 7.304077e-01 6.068115e-01
2.770328e+08 -9.540405e-01 -4.500122e-01 2.367608e-05 5.774200e-06 -3.774837e-05 -1.101196e-05 7.294312e-01 6.068726e-01
2.772506e+08 -9.530640e-01 -4.491577e-01 -2.453104e-05 -3.071874e-05 -3.358535e-05 -1.359917e-05 7.285156e-01 6.088867e-01
2.774684e+08 -9.532471e-01 -4.489136e-01 -9.573996e-07 -6.891042e-05 3.827736e-06 9.165145e-06 7.285156e-01 6.088867e-01
2.776862e+08 -9.520874e-01 -4.478149e-01 -4.472724e-10 -2.475531e-10 -4.290976e-05 -3.855675e-06 7.287598e-01 6.104126e-01
2.779041e+08 -9.518433e-01 -4.479980e-01 3.364496e-05 -3.360212e-06 -1.618266e-05 4.485995e-05 7.277222e-01 6.114502e-01
2.781219e+08 -9.506836e-01 -4.476929e-01 4.079193e-07 -3.158860e-05 3.469177e-06 5.530193e-06 7.275391e-01 6.131592e-01
2.783397e+08 -9.505005e-01 -4.473877e-01 2.159551e-05 -1.247972e-05 -3.227592e-05 -4.530326e-05 7.270508e-01 6.137085e-01
2.785575e+08 -9.499512e-01 -4.467163e-01 -2.618320e-05 7.506460e-06 -1.933612e-05 2.754852e-05 7.271729e-01 6.149902e-01
2.787753e+08 -9.495850e-01 -4.458008e-01 1.002289e-05 3.487989e-05 2.977438e-05 4.431233e-06 7.269897e-01 6.147461e-01
2.789931e+08 -9.487915e-01 -4.464111e-01 -3.490597e-05 9.989366e-06 5.577132e-05 3.055856e-05 7.258911e-01 6.169434e-01
2.792109e+08 -9.480591e-01 -4.453125e-01 2.331845e-05 3.737956e-05 1.177192e-05 3.278255e-07 7.259521e-01 6.176758e-01
2.794288e+08 -9.484253e-01 -4.448242e-01 9.152107e-06 9.967014e-06 2.043787e-05 -1.247972e-06 7.255859e-01 6.189575e-01
2.796466e+08 -9.468994e-01 -4.442749e-01 -1.951680e-05 3.079139e-05 1.038564e-05 1.194421e-06 7.254028e-01 6.203613e-01
2.798644e+08 -9.468384e-01 -4.434814e-01 1.787301e-05 7.471070e-06 -2.767891e-06 1.736684e-06 7.246704e-01 6.209717e-01
2.800822e+08 -9.456177e-01 -4.431763e-01 -3.373250e-05 -4.068762e-05 -1.492165e-05 -1.764204e-05 7.249756e-01 6.215820e-01
2.803000e+08 -9.440308e-01 -4.427490e-01 -1.125410e-05 -2.823584e-05 1.453515e-05 -1.393259e-06 7.241211e-01 6.223755e-01
2.805178e+08 -9.440918e-01 -4.421997e-01 1.640990e-06 -3.828295e-05 -3.079697e-05 3.085844e-05 7.240601e-01 6.246338e-01
2.807356e+08 -9.436646e-01 -4.419556e-01 -3.243983e-05 -3.293157e-06 -1.387857e-05 -2.216361e-05 7.234497e-01 6.252441e-01
2.809534e+08 -9.433594e-01 -4.418335e-01 -7.913448e-06 -1.662970e-05 1.034467e-06 -4.507601e-06 7.230835e-01 6.260376e-01
2.811712e+08 -9.426880e-01 -4.418335e-01 -1.457147e-05 4.176050e-06 -4.158122e-06 2.604909e-06 7.238159e-01 6.281128e-01
2.813891e+08 -9.416504e-01 -4.401855e-01 -1.708604e-05 -2.660602e-05 5.912967e-06 1.558196e-05 7.230835e-01 6.282349e-01
2.816069e+08 -9.407959e-01 -4.404297e-01 6.664544e-06 2.327375e-05 9.359792e-06 5.705282e-06 7.219238e-01 6.288452e-01
2.818247e+08 -9.390259e-01 -4.402466e-01 -3.727153e-06 1.994707e-05 3.632158e-07 1.904368e-05 7.216797e-01 6.299438e-01
2.820425e+08 -9.398804e-01 -4.398804e-01 3.404915e-05 -3.493950e-05 -1.714565e-06 1.265761e-05 7.222290e-01 6.303101e-01
2.822603e+08 -9.385986e-01 -4.401245e-01 5.817506e-06 -1.665205e-06 -1.865998e-05 6.571785e-05 7.213745e-01 6.318359e-01
2.824781e+08 -9.379883e-01 -4.396973e-01 1.871586e-05 -1.166109e-05 1.422688e-05 1.038611e-05 7.222290e-01 6.334839e-01
2.826959e+08 -9.370728e-01 -4.392700e-01 7.873401e-06 -2.744235e-05 -1.177471e-05 1.509301e-05 7.214966e-01 6.333008e-01
2.829138e+08 -9.356079e-01 -4.392700e-01 -1.703110e-05 1.748186e-05 4.054047e-05 -6.087124e-06 7.216187e-01 6.345825e-01
2.831316e+08 -9.353638e-01 -4.395142e-01 -7.888302e-06 2.744421e-05 1.976546e-05 -8.503906e-06 7.208252e-01 6.360474e-01
2.833494e+08 -9.347534e-01 -4.381714e-01 1.121312e-05 -1.581851e-05 -3.725290e-08 -3.086030e-05 7.215576e-01 6.365356e-01
2.835672e+08 -9.340210e-01 -4.378052e-01 -1.789071e-05 -7.484108e-06 2.458692e-06 2.548285e-05 7.204590e-01 6.384277e-01
2.837850e+08 -9.333496e-01 -4.376221e-01 5.438924e-06 2.992526e-05 -2.704374e-05 -6.211922e-06 7.203369e-01 6.382446e-01
2.840028e+08 -9.315796e-01 -4.370728e-01 -1.374446e-05 -1.497380e-05 -1.905393e-05 -1.505855e-05 7.208252e-01 6.400757e-01
2.842206e+08 -9.314575e-01 -4.376221e-01 -2.662838e-05 -4.978850e-06 1.005549e-05 1.299381e-05 7.203369e-01 6.406860e-01
2.844384e+08 -9.301147e-01 -4.367676e-01 -6.238930e-06 -1.080707e-05 -2.114568e-05 -2.145767e-05 7.192993e-01 6.414185e-01
2.846562e+08 -9.298706e-01 -4.365845e-01 2.494827e-05 -4.493445e-05 -2.875179e-05 2.185069e-05 7.194824e-01 6.429443e-01
2.848741e+08 -9.292603e-01 -4.367065e-01 -1.332164e-05 -2.487563e-06 1.874752e-05 4.229508e-05 7.199707e-01 6.439819e-01
2.850919e+08 -9.280396e-01 -4.368896e-01 -1.667999e-06 -5.821697e-06 -2.080202e-05 -1.785345e-05 7.192993e-01 6.441650e-01
2.853097e+08 -9.266357e-01 -4.359741e-01 4.782528e-05 -1.998991e-05 -2.875924e-05 -8.992851e-06 7.189941e-01 6.458740e-01
2.855275e+08 -9.262085e-01 -4.356689e-01 -1.040380e-05 -3.322959e-06 2.217665e-05 1.534820e-06 7.190552e-01 6.469727e-01
2.857453e+08 -9.248657e-01 -4.359741e-01 4.203990e-05 2.575666e-05 -6.966293e-07 -7.275026e-06 7.191162e-01 6.476440e-01
2.859631e+08 -9.242554e-01 -4.364014e-01 6.248243e-06 1.081266e-05 2.495386e-05 -1.695007e-07 7.187500e-01 6.481323e-01
2.861809e+08 -9.240723e-01 -4.369507e-01 -1.499243e-05 -8.321367e-06 3.113411e-06 1.735054e-05 7.188110e-01 6.497803e-01
2.863988e+08 -9.227905e-01 -4.356689e-01 8.754432e-06 4.160777e-05 -1.423806e-05 -2.582185e-05 7.183838e-01 6.502075e-01
2.866166e+08 -9.219971e-01 -4.356689e-01 3.080815e-05 -2.499670e-06 3.053248e-05 2.721883e-05 7.182617e-01 6.514893e-01
2.868344e+08 -9.209595e-01 -4.362183e-01 2.412125e-05 -2.583303e-05 -1.873448e-05 3.979541e-06 7.184448e-01 6.517944e-01
2.870522e+08 -9.203491e-01 -4.359741e-01 -1.540035e-05 -2.080575e-05 -3.848597e-05 -3.382191e-05 7.177124e-01 6.528931e-01
2.872700e+08 -9.198608e-01 -4.350586e-01 1.415890e-05 -1.666509e-05 -2.427399e-05 7.471070e-06 7.183838e-01 6.542358e-01
2.874878e+08 -9.183960e-01 -4.351807e-01 -1.708232e-05 -2.663210e-05 5.513057e-05 2.339855e-05 7.180786e-01 6.544189e-01
2.877056e+08 -9.168701e-01 -4.351807e-01 2.080575e-06 -2.581067e-05 2.495386e-05 -3.102422e-05 7.174683e-01 6.559448e-01
2.879234e+08 -9.163208e-01 -4.349976e-01 1.206994e-06 -5.082786e-05 1.524203e-05 -4.037283e-05 7.182617e-01 6.568604e-01
2.881412e+08 -9.157715e-01 -4.359131e-01 -8.739531e-06 -4.165247e-05 2.704002e-05 2.168305e-05 7.173462e-01 6.580811e-01
2.883591e+08 -9.150391e-01 -4.346313e-01 -9.583309e-06 -2.249144e-05 -1.178868e-05 -3.417954e-07 7.176514e-01 6.580200e-01
2.885769e+08 -9.144897e-01 -4.355469e-01 1.041498e-05 3.326684e-06 1.040380e-05 -1.422130e-05 7.176514e-01 6.592407e-01
2.887947e+08 -9.128418e-01 -4.354248e-01 -4.569069e-06 3.917329e-05 2.773944e-06 -1.731561e-06 7.180176e-01 6.604004e-01
2.890125e+08 -9.121704e-01 -4.351807e-01 -8.773059e-06 -4.168600e-05 5.233660e-05 9.734184e-06 7.181396e-01 6.610718e-01
2.892303e+08 -9.125366e-01 -4.356689e-01 1.376867e-05 1.499243e-05 4.023500e-05 -9.719282e-06 7.182007e-01 6.614990e-01
2.894481e+08 -9.112549e-01 -4.351807e-01 1.623109e-05 -4.250556e-05 1.803599e-05 3.503077e-05 7.175903e-01 6.625977e-01
2.896659e+08 -9.100342e-01 -4.362183e-01 1.249649e-05 -2.251938e-05 6.593764e-06 -2.340972e-05 7.178955e-01 6.637573e-01
2.898838e+08 -9.088135e-01 -4.362183e-01 2.709031e-05 1.749769e-05 3.016181e-05 -7.269904e-06 7.174072e-01 6.641235e-01
2.901016e+08 -9.077148e-01 -4.362793e-01 2.250075e-05 -3.168918e-05 2.981722e-05 -1.090579e-05 7.177124e-01 6.649780e-01
2.903194e+08 -9.076538e-01 -4.367676e-01 -6.244518e-06 -1.085084e-05 -6.596092e-06 7.978640e-06 7.173462e-01 6.671143e-01
2.905372e+08 -9.061890e-01 -4.362793e-01 1.791865e-05 5.171821e-05 -2.878532e-05 6.396323e-06 7.178345e-01 6.671753e-01
2.907550e+08 -9.055786e-01 -4.358521e-01 3.843009e-05 -4.250184e-05 2.566539e-05 2.252124e-05 7.172241e-01 6.683960e-01
2.909728e+08 -9.042358e-01 -4.362183e-01 -4.999340e-06 2.671219e-05 3.725290e-09 -3.084727e-05 7.182617e-01 6.693115e-01
2.911906e+08 -9.040527e-01 -4.362793e-01 1.087412e-05 -2.835691e-05 3.814697e-06 -6.244518e-06 7.167358e-01 6.705322e-01
2.914084e+08 -9.025879e-01 -4.367676e-01 8.326024e-07 2.503209e-05 -6.943941e-06 1.975428e-05 7.171631e-01 6.707153e-01
2.916262e+08 -9.019775e-01 -4.373169e-01 1.127552e-05 -1.585204e-05 1.250952e-05 -2.323464e-05 7.171021e-01 6.719360e-01
2.918441e+08 -9.008179e-01 -4.363403e-01 -1.961272e-05 -1.336727e-05 -3.187917e-05 -2.637133e-05 7.172241e-01 6.726074e-01
2.920619e+08 -9.010010e-01 -4.371948e-01 1.128577e-05 2.839789e-05 2.290122e-05 -6.586313e-06 7.181396e-01 6.732788e-01
2.922797e+08 -8.995972e-01 -4.377441e-01 3.294647e-05 1.584180e-05 5.212147e-06 -7.106457e-06 7.169800e-01 6.729126e-01
2.924975e+08 -8.983154e-01 -4.376831e-01 -1.711212e-05 -2.674758e-05 -1.455657e-05 -1.405459e-05 7.178345e-01 6.750488e-01
2.927153e+08 -8.972168e-01 -4.372559e-01 -3.171526e-05 -2.258271e-05 3.258698e-05 -4.350580e-05 7.169800e-01 6.762085e-01
2.929331e+08 -8.963623e-01 -4.380493e-01 -4.179776e-06 7.516704e-06 4.788488e-05 -3.758073e-05 7.174683e-01 6.763916e-01
2.931509e+08 -8.962402e-01 -4.382324e-01 -3.009290e-05 2.755225e-05 -3.016554e-05 -2.360903e-05 7.176514e-01 6.770630e-01
2.933688e+08 -8.951416e-01 -4.384766e-01 4.054606e-05 -2.422929e-05 7.275492e-06 1.474656e-05 7.177124e-01 6.783447e-01
2.935866e+08 -8.937988e-01 -4.394531e-01 -3.009290e-05 -1.671165e-05 1.112558e-05 -2.235733e-05 7.178955e-01 6.784668e-01
2.938044e+08 -8.928223e-01 -4.397583e-01 4.617497e-06 -3.928877e-05 1.862645e-08 -1.543015e-05 7.180176e-01 6.791992e-01
2.940222e+08 -8.924561e-01 -4.403076e-01 -4.055351e-05 -2.010167e-05 -9.349547e-06 -2.117362e-05 7.184448e-01 6.803589e-01
2.942400e+08 -8.917236e-01 -4.401855e-01 9.221956e-06 -3.425218e-05 2.187118e-05 -1.748651e-05 7.174072e-01 6.805420e-01
2.944578e+08 -8.905029e-01 -4.401245e-01 -1.086202e-05 -1.589116e-05 1.386087e-05 6.771646e-06 7.182617e-01 6.811523e-01
2.946756e+08 -8.900146e-01 -4.414062e-01 2.510287e-05 -8.177012e-07 -7.966068e-06 -6.604940e-06 7.187500e-01 6.822510e-01
2.948934e+08 -8.899536e-01 -4.403687e-01 -4.851818e-05 7.461756e-06 -1.732726e-06 -2.775807e-06 7.176514e-01 6.831055e-01
2.951112e+08 -8.869629e-01 -4.403076e-01 -2.135150e-05 2.509169e-05 3.539026e-07 -1.177285e-05 7.184448e-01 6.834717e-01
2.953291e+08 -8.873901e-01 -4.418335e-01 -4.517287e-05 -2.511218e-05 -4.202127e-06 3.346056e-05 7.185669e-01 6.840210e-01
2.955469e+08 -8.869629e-01 -4.419556e-01 4.601665e-06 5.023554e-06 1.178961e-05 3.576279e-07 7.187500e-01 6.849976e-01
2.957647e+08 -8.847656e-01 -4.422607e-01 2.088025e-06 -2.594292e-05 1.045875e-06 -4.502479e-06 7.188721e-01 6.849976e-01
2.959825e+08 -8.848877e-01 -4.421997e-01 2.090447e-05 6.716698e-06 -1.318753e-05 1.593307e-05 7.178345e-01 6.862183e-01
2.962003e+08 -8.826904e-01 -4.423828e-01 -5.311146e-05 -3.715605e-05 3.016368e-05 3.171153e-05 7.185669e-01 6.884155e-01
2.964181e+08 -8.815308e-01 -4.421997e-01 -5.591661e-06 -2.519600e-05 -2.324954e-05 -1.773611e-05 7.197876e-01 6.886597e-01
2.966359e+08 -8.809204e-01 -4.431152e-01 4.475564e-05 1.123175e-05 -1.453795e-05 -2.103020e-05 7.191772e-01 6.890259e-01
2.968538e+08 -8.798828e-01 -4.429321e-01 -1.257658e-05 -2.100691e-05 1.630746e-05 -9.454787e-06 7.195435e-01 6.898193e-01
2.970716e+08 -8.790894e-01 -4.441528e-01 3.362261e-05 -1.537614e-05 1.093000e-05 5.551428e-05 7.197876e-01 6.907959e-01
2.972894e+08 -8.783569e-01 -4.442139e-01 3.087521e-05 -5.176663e-05 -4.647300e-05 -2.226606e-05 7.197266e-01 6.913452e-01
2.975072e+08 -8.772583e-01 -4.443359e-01 -4.200265e-05 -4.622713e-05 3.237650e-05 6.396696e-05 7.202759e-01 6.913452e-01
2.977250e+08 -8.767700e-01 -4.447021e-01 5.603954e-05 -9.734184e-06 -2.542138e-05 -2.352893e-05 7.191772e-01 6.927490e-01
2.979428e+08 -8.756714e-01 -4.450073e-01 1.419336e-06 -2.942234e-05 -4.348811e-06 1.637731e-06 7.197876e-01 6.931763e-01
2.981606e+08 -8.760376e-01 -4.456177e-01 2.244487e-05 -5.388632e-05 1.305342e-05 -4.931353e-06 7.193604e-01 6.929321e-01
2.983784e+08 -8.744507e-01 -4.463501e-01 2.799556e-05 7.029623e-06 9.457581e-06 1.631305e-05 7.192383e-01 6.936035e-01
2.985962e+08 -8.735352e-01 -4.467163e-01 7.431954e-05 -3.498793e-05 3.765523e-05 -2.744980e-05 7.199707e-01 6.950684e-01
2.988141e+08 -8.729858e-01 -4.476929e-01 7.569417e-05 -2.865493e-05 3.235042e-05 5.074218e-05 7.194824e-01 6.954956e-01
2.990319e+08 -8.721313e-01 -4.474487e-01 -1.393259e-06 -1.821574e-05 2.430752e-05 7.394701e-06 7.197876e-01 6.953735e-01
2.992497e+08 -8.716431e-01 -4.487915e-01 3.227219e-05 -3.359281e-05 -3.590621e-05 1.018308e-05 7.194824e-01 6.965332e-01
2.994675e+08 -8.715820e-01 -4.485474e-01 -1.397450e-06 -6.309245e-06 -1.085736e-05 2.396293e-05 7.197876e-01 6.967163e-01
2.996853e+08 -8.704224e-01 -4.495239e-01 -1.405180e-05 4.414096e-05 -9.780750e-06 2.685376e-05 7.200928e-01 6.969604e-01
2.999031e+08 -8.692627e-01 -4.499512e-01 9.817537e-06 -3.494788e-06 -1.235865e-05 -4.170649e-05 7.202759e-01 6.976318e-01
3.001209e+08 -8.686523e-01 -4.506836e-01 -1.115352e-05 -5.052611e-05 1.814868e-05 1.305155e-05 7.205811e-01 6.987305e-01
3.003388e+08 -8.688965e-01 -4.505005e-01 -2.804585e-05 -7.035211e-06 1.561828e-05 1.067854e-05 7.205811e-01 6.987305e-01
3.005566e+08 -8.677368e-01 -4.513550e-01 -1.968443e-05 4.275516e-05 1.847371e-05 -3.013574e-05 7.201538e-01 7.000732e-01
3.007744e+08 -8.676147e-01 -4.520264e-01 -3.093854e-05 5.186349e-05 5.554408e-05 2.309680e-06 7.203979e-01 7.003784e-01
3.009922e+08 -8.664551e-01 -4.523926e-01 2.788380e-06 2.457388e-05 -2.893619e-06 1.433492e-05 7.210083e-01 7.011719e-01
3.012100e+08 -8.653564e-01 -4.530640e-01 3.227033e-05 2.143905e-06 -1.125224e-05 -1.233164e-05 7.202759e-01 7.017212e-01
3.014278e+08 -8.648682e-01 -4.541016e-01 -8.418690e-06 -2.115499e-06 -2.542511e-05 -6.333739e-05 7.205200e-01 7.022095e-01
3.016456e+08 -8.638916e-01 -4.542236e-01 1.825020e-05 2.248958e-05 2.901070e-06 -1.090113e-06 7.211914e-01 7.028198e-01
3.018634e+08 -8.632202e-01 -4.546509e-01 5.597249e-06 1.334399e-05 -3.555045e-05 6.722286e-06 7.208862e-01 7.028198e-01
3.020812e+08 -8.622437e-01 -4.556274e-01 2.525933e-05 6.346032e-06 -2.286769e-05 -3.444776e-05 7.202759e-01 7.034302e-01
3.022991e+08 -8.627930e-01 -4.562988e-01 -5.341694e-05 5.821139e-05 2.181716e-05 3.158301e-05 7.208252e-01 7.036133e-01
3.025169e+08 -8.607788e-01 -4.561157e-01 9.845942e-06 -5.123764e-05 3.844127e-05 5.414709e-06 7.211304e-01 7.037354e-01
3.027347e+08 -8.604126e-01 -4.569702e-01 1.403037e-05 1.547020e-05 6.560236e-06 5.712360e-05 7.208862e-01 7.048340e-01
3.029525e+08 -8.602905e-01 -4.573364e-01 9.976327e-05 -2.874434e-05 3.738888e-05 2.900511e-05 7.213135e-01 7.050171e-01
3.031703e+08 -8.593140e-01 -4.583130e-01 -3.373437e-05 1.541339e-05 1.888536e-05 3.263354e-05 7.211304e-01 7.052002e-01
3.033881e+08 -8.585205e-01 -4.581909e-01 7.005408e-06 3.161840e-05 -2.164394e-06 4.712865e-05 7.211914e-01 7.056885e-01
3.036059e+08 -8.577881e-01 -4.592896e-01 -2.250448e-05 1.825020e-05 -7.278286e-07 -6.346498e-06 7.211304e-01 7.059326e-01
3.038238e+08 -8.579712e-01 -4.597778e-01 1.682993e-05 1.618173e-05 -1.447275e-06 4.028343e-05 7.200928e-01 7.064209e-01
3.040416e+08 -8.572388e-01 -4.602661e-01 5.644746e-06 -1.053326e-05 -6.549060e-06 -3.067404e-05 7.206421e-01 7.071533e-01
3.042594e+08 -8.562622e-01 -4.610596e-01 -9.875745e-06 3.937632e-05 1.704972e-05 -3.083609e-06 7.216797e-01 7.069702e-01
3.044772e+08 -8.565674e-01 -4.616089e-01 -8.445233e-06 9.832904e-06 3.157370e-05 -3.506243e-05 7.207642e-01 7.077637e-01
3.046950e+08 -8.554688e-01 -4.619141e-01 1.967885e-05 1.689419e-05 2.431497e-05 7.428229e-06 7.213745e-01 7.079468e-01
3.049128e+08 -8.549194e-01 -4.621582e-01 2.397969e-05 -5.977228e-05 1.016539e-05 9.429641e-06 7.211914e-01 7.085571e-01
3.051306e+08 -8.541260e-01 -4.631348e-01 -9.825453e-06 -3.239326e-05 2.502650e-05 5.513430e-07 7.218018e-01 7.092285e-01
3.053484e+08 -8.540039e-01 -4.633789e-01 -2.533384e-05 1.755357e-05 -1.886301e-05 -1.941249e-05 7.207031e-01 7.094116e-01
3.055662e+08 -8.537598e-01 -4.645386e-01 -4.362687e-05 -4.976988e-06 -3.157370e-05 -1.795776e-05 7.207642e-01 7.104492e-01
3.057841e+08 -8.524780e-01 -4.650269e-01 5.212799e-05 -2.876669e-05 -1.886487e-05 -6.170012e-06 7.208862e-01 7.107544e-01
3.060019e+08 -8.527222e-01 -4.659424e-01 -3.097020e-05 4.185364e-06 6.187707e-06 4.737079e-05 7.211914e-01 7.108154e-01
3.062197e+08 -8.520508e-01 -4.661865e-01 3.383681e-05 -3.938377e-05 4.284270e-05 4.353188e-05 7.210083e-01 7.114258e-01
3.064375e+08 -8.516235e-01 -4.673462e-01 1.552515e-05 -2.602488e-05 1.779199e-05 -3.648177e-05 7.208252e-01 7.116699e-01
3.066553e+08 -8.506470e-01 -4.677124e-01 -4.230067e-06 4.926231e-06 9.438023e-06 -3.665499e-05 7.214966e-01 7.119751e-01
3.068731e+08 -8.503418e-01 -4.684448e-01 -6.966293e-06 -7.959455e-05 2.939999e-05 2.540089e-05 7.210693e-01 7.119141e-01
3.070909e+08 -8.497314e-01 -4.689941e-01 -4.263595e-06 2.887286e-05 -2.576411e-05 -6.901100e-06 7.211914e-01 7.122192e-01
3.073088e+08 -8.495483e-01 -4.696655e-01 1.688488e-05 1.622364e-05 -3.991881e-06 -1.817709e-06 7.211914e-01 7.125244e-01
3.075266e+08 -8.491821e-01 -4.707642e-01 -9.862706e-06 -8.474104e-06 -1.269020e-05 -2.506562e-05 7.218018e-01 7.136841e-01
3.077444e+08 -8.485718e-01 -4.713135e-01 -3.666803e-05 1.474656e-05 -3.050826e-05 2.467446e-05 7.208862e-01 7.135010e-01
3.079622e+08 -8.479004e-01 -4.712524e-01 -2.822094e-05 2.885051e-05 -6.161630e-06 -2.087280e-05 7.210083e-01 7.133789e-01
3.081800e+08 -8.472900e-01 -4.722290e-01 5.567446e-06 3.734231e-05 1.707207e-05 -1.632143e-05 7.204590e-01 7.136230e-01
3.083978e+08 -8.474121e-01 -4.727783e-01 2.404302e-05 -3.591180e-05 1.089508e-05 -1.070788e-05 7.203979e-01 7.149048e-01
3.086156e+08 -8.469238e-01 -4.730835e-01 2.819486e-05 7.091090e-06 3.014319e-05 -7.979572e-06 7.207031e-01 7.149658e-01
3.088334e+08 -8.451538e-01 -4.733276e-01 2.111681e-05 3.528967e-05 1.560152e-05 -2.524815e-06 7.211304e-01 7.148438e-01
3.090512e+08 -8.458252e-01 -4.745483e-01 -2.538599e-05 5.610287e-06 -3.255904e-06 -2.197735e-05 7.207031e-01 7.147827e-01
3.092691e+08 -8.454590e-01 -4.754028e-01 -1.971051e-05 -1.695193e-05 2.145022e-05 -3.124028e-05 7.200928e-01 7.155151e-01
3.094869e+08 -8.447876e-01 -4.756470e-01 -4.095584e-05 3.169104e-05 1.634471e-05 -9.431504e-06 7.208252e-01 7.155151e-01
3.097047e+08 -8.446045e-01 -4.764404e-01 5.081296e-05 -2.323091e-05 2.574176e-05 5.996227e-05 7.203979e-01 7.152100e-01
3.099225e+08 -8.438110e-01 -4.778442e-01 -1.270417e-05 2.802350e-06 -2.688915e-05 3.401190e-06 7.199707e-01 7.161255e-01
3.101403e+08 -8.431396e-01 -4.774170e-01 1.396053e-06 6.348360e-06 -1.462176e-06 1.379661e-05 7.186279e-01 7.164917e-01
3.103581e+08 -8.434448e-01 -4.782104e-01 -5.081668e-05 1.120940e-05 2.399087e-05 -1.560710e-05 7.196655e-01 7.167358e-01
3.105759e+08 -8.425293e-01 -4.794312e-01 2.820790e-05 7.096678e-06 9.773299e-06 2.616830e-05 7.189331e-01 7.173462e-01
3.107938e+08 -8.426514e-01 -4.798584e-01 -1.408812e-05 -1.555495e-05 -1.965463e-05 4.048832e-05 7.190552e-01 7.178345e-01
3.110116e+08 -8.421021e-01 -4.800415e-01 -4.798174e-05 -1.415610e-07 -3.197789e-05 1.195632e-05 7.184448e-01 7.178955e-01
3.112294e+08 -8.421631e-01 -4.808960e-01 -2.119318e-05 6.575137e-07 -1.704879e-05 -2.344884e-05 7.191162e-01 7.186279e-01
3.114472e+08 -8.414307e-01 -4.815063e-01 4.803389e-05 -1.193956e-05 -2.070237e-05 -2.206303e-06 7.192993e-01 7.181396e-01
3.116650e+08 -8.416748e-01 -4.825439e-01 -1.557730e-05 2.610125e-05 -2.035219e-05 -5.664304e-06 7.188721e-01 7.185059e-01
3.118828e+08 -8.411865e-01 -4.824829e-01 -1.411792e-05 -3.563240e-06 2.923422e-06 -1.435541e-05 7.183838e-01 7.189941e-01
3.121006e+08 -8.408203e-01 -4.829102e-01 1.125596e-05 2.686307e-05 -1.966953e-05 4.049204e-05 7.188721e-01 7.188110e-01
3.123184e+08 -8.413696e-01 -4.838257e-01 -1.839269e-05 1.336914e-05 -6.326288e-05 -2.281368e-05 7.175903e-01 7.196655e-01
3.125362e+08 -8.404541e-01 -4.835205e-01 3.387406e-05 2.055988e-05 1.345389e-05 -8.353963e-06 7.179565e-01 7.196655e-01
3.127541e+08 -8.398438e-01 -4.849243e-01 -1.558103e-05 1.410302e-05 3.853627e-05 -7.769093e-06 7.183228e-01 7.200317e-01
3.129719e+08 -8.393555e-01 -4.852295e-01 -8.542091e-06 2.188981e-05 -9.445939e-06 -3.098510e-06 7.177734e-01 7.207031e-01
3.131897e+08 -8.394165e-01 -4.863892e-01 -4.798919e-05 -2.415106e-05 7.260125e-06 1.055235e-05 7.175293e-01 7.200928e-01
3.134075e+08 -8.391113e-01 -4.862061e-01 3.535487e-05 -9.112060e-06 1.417473e-06 3.926083e-05 7.176514e-01 7.203979e-01
3.136253e+08 -8.386841e-01 -4.868164e-01 -2.864748e-06 2.332032e-05 -1.305342e-05 -3.491901e-05 7.174683e-01 7.206421e-01
3.138431e+08 -8.388672e-01 -4.877319e-01 -1.978129e-05 -4.990026e-06 -1.101755e-06 1.036469e-05 7.171021e-01 7.207031e-01
3.140609e+08 -8.385620e-01 -4.877930e-01 2.693385e-05 -2.326444e-05 -2.547912e-05 1.615286e-05 7.166138e-01 7.219238e-01
3.142788e+08 -8.383179e-01 -4.888916e-01 1.982413e-05 -7.024035e-06 -3.963709e-06 -2.838112e-05 7.168579e-01 7.220459e-01
3.144966e+08 -8.380737e-01 -4.904175e-01 -1.002848e-05 3.956631e-05 1.054769e-05 6.023794e-06 7.161255e-01 7.220459e-01
3.147144e+08 -8.370972e-01 -4.905396e-01 -1.140125e-05 3.322400e-05 -5.798414e-06 -1.110788e-05 7.167358e-01 7.220459e-01
3.149322e+08 -8.370361e-01 -4.908447e-01 -4.321337e-06 2.898090e-05 2.534688e-05 6.353855e-05 7.158203e-01 7.219238e-01
3.151500e+08 -8.375854e-01 -4.916992e-01 2.687611e-05 7.990748e-07 1.308881e-05 8.400530e-06 7.154541e-01 7.231445e-01
3.153678e+08 -8.367920e-01 -4.920044e-01 1.445413e-05 -9.258091e-05 1.783110e-05 3.306195e-06 7.147827e-01 7.233887e-01
3.155856e+08 -8.365479e-01 -4.918213e-01 2.125837e-05 -2.469867e-05 -1.844019e-06 1.728069e-05 7.145386e-01 7.227173e-01
3.158034e+08 -8.361206e-01 -4.930420e-01 2.697855e-05 -3.531761e-05 2.765656e-05 2.961606e-06 7.147827e-01 7.235107e-01
3.160212e+08 -8.356323e-01 -4.929810e-01 1.557171e-05 -2.083369e-06 -1.812913e-05 -3.968365e-05 7.141113e-01 7.239380e-01
3.162391e+08 -8.358154e-01 -4.937744e-01 -2.252869e-05 -2.978928e-05 1.456868e-05 -5.434267e-06 7.132568e-01 7.243652e-01
3.164569e+08 -8.355103e-01 -4.948730e-01 3.809109e-05 5.173683e-05 -4.434958e-06 2.822094e-05 7.139282e-01 7.238159e-01
3.166747e+08 -8.351440e-01 -4.951172e-01 2.693199e-05 -2.328679e-05 6.873161e-06 2.731383e-05 7.133789e-01 7.237549e-01
3.168925e+08 -8.345947e-01 -4.958496e-01 3.959984e-05 1.002848e-05 6.537884e-07 3.294460e-05 7.129517e-01 7.246704e-01
3.171103e+08 -8.342896e-01 -4.963379e-01 -4.257075e-06 4.945323e-06 -1.280196e-05 2.800673e-05 7.130127e-01 7.245483e-01
3.173281e+08 -8.345337e-01 -4.965210e-01 -1.403689e-05 -3.969669e-05 -7.653609e-06 6.174669e-06 7.121582e-01 7.256470e-01
3.175459e+08 -8.347778e-01 -4.981079e-01 4.105270e-05 4.399568e-06 -3.090687e-05 -2.503768e-05 7.119751e-01 7.257690e-01
3.177638e+08 -8.344727e-01 -4.978027e-01 2.527258e-10 4.237961e-10 4.792586e-06 -3.168173e-05 7.123413e-01 7.260742e-01
3.179816e+08 -8.343506e-01 -4.987793e-01 1.552328e-05 2.198294e-05 5.092472e-06 4.748581e-06 7.119751e-01 7.252808e-01
3.181994e+08 -8.334961e-01 -4.990845e-01 2.830988e-06 7.171184e-07 1.234468e-05 1.531560e-05 7.113647e-01 7.263794e-01
3.184172e+08 -8.336792e-01 -4.993896e-01 5.698763e-06 -1.060590e-05 2.150610e-05 -4.682690e-06 7.110596e-01 7.265015e-01
3.186350e+08 -8.336792e-01 -4.998169e-01 -9.840354e-06 -2.055429e-05 1.129974e-05 -8.838251e-07 7.098999e-01 7.261353e-01
3.188528e+08 -8.335571e-01 -5.004883e-01 1.984462e-05 -7.007271e-06 -1.694635e-05 6.611273e-05 7.095337e-01 7.268677e-01
3.190706e+08 -8.331909e-01 -5.003662e-01 2.271868e-05 -1.833215e-05 4.004687e-07 -1.676101e-05 7.094116e-01 7.271729e-01
3.192884e+08 -8.333740e-01 -5.004272e-01 7.054769e-06 7.813796e-06 1.060311e-05 -2.057105e-05 7.095947e-01 7.275391e-01
3.195062e+08 -8.334351e-01 -5.018311e-01 1.122802e-05 2.693944e-05 2.737157e-05 -6.869435e-06 7.087402e-01 7.273560e-01
3.197241e+08 -8.328247e-01 -5.013428e-01 -4.971772e-05 4.164875e-05 -3.160909e-05 -5.799159e-05 7.091675e-01 7.279053e-01
3.199419e+08 -8.328857e-01 -5.013428e-01 6.381050e-05 -1.396611e-05 -1.236983e-05 -1.533143e-05 7.089233e-01 7.284546e-01
3.201597e+08 -8.332520e-01 -5.026245e-01 1.139008e-05 -2.122298e-05 -2.409518e-05 1.565367e-05 7.084961e-01 7.285156e-01
3.203775e+08 -8.322754e-01 -5.029297e-01 5.738810e-06 -2.263859e-05 -2.190843e-05 2.146326e-05 7.074585e-01 7.286987e-01
3.205953e+08 -8.326416e-01 -5.039673e-01 5.755574e-06 -2.264604e-05 1.277309e-05 -1.438893e-06 7.068481e-01 7.296143e-01
3.208131e+08 -8.317871e-01 -5.037231e-01 -2.121925e-05 -1.140498e-05 3.502704e-05 -1.307949e-05 7.068481e-01 7.298584e-01
3.210309e+08 -8.316040e-01 -5.039673e-01 -7.282943e-06 6.446987e-05 -1.278240e-05 1.474470e-05 7.067871e-01 7.304688e-01
3.212488e+08 -8.316040e-01 -5.050659e-01 -1.203269e-06 -6.660074e-05 -2.336316e-05 8.700415e-06 7.062378e-01 7.302246e-01
3.214666e+08 -8.317261e-01 -5.056152e-01 4.229136e-06 7.097609e-06 -1.498032e-05 8.913688e-06 7.055054e-01 7.304688e-01
3.216844e+08 -8.313599e-01 -5.060425e-01 -2.990104e-05 3.458932e-05 -6.186776e-06 -7.681083e-06 7.043457e-01 7.312622e-01
3.219022e+08 -8.314209e-01 -5.067139e-01 -2.405234e-05 -1.215748e-05 -2.404335e-10 -1.098499e-10 7.044067e-01 7.318115e-01
3.221200e+08 -8.314209e-01 -5.067749e-01 -4.185364e-06 -1.914892e-05 8.078292e-06 -2.299249e-05 7.043457e-01 7.313843e-01
3.223378e+08 -8.316040e-01 -5.072021e-01 1.564436e-05 -1.411699e-05 3.795139e-05 1.250580e-05 7.036133e-01 7.318726e-01
3.225556e+08 -8.314819e-01 -5.069580e-01 -1.703575e-05 7.730909e-06 -2.517365e-05 -1.390651e-05 7.033081e-01 7.317505e-01
3.227734e+08 -8.302612e-01 -5.079346e-01 2.134964e-05 -2.470054e-05 2.108328e-05 3.874488e-05 7.023315e-01 7.321777e-01
3.229912e+08 -8.303223e-01 -5.076294e-01 4.272442e-06 -4.941598e-06 2.943911e-06 -1.441315e-05 7.020874e-01 7.327271e-01
3.232091e+08 -8.315430e-01 -5.092163e-01 1.012161e-05 -5.167723e-05 1.757033e-05 -6.539747e-06 7.015991e-01 7.328491e-01
3.234269e+08 -8.307495e-01 -5.087891e-01 9.927899e-06 -3.507361e-06 2.415478e-05 -1.564994e-05 7.015991e-01 7.325439e-01
3.236447e+08 -8.298950e-01 -5.095825e-01 2.419204e-05 -2.402253e-05 1.717731e-05 -3.055669e-06 7.015381e-01 7.339478e-01
3.238625e+08 -8.305664e-01 -5.089111e-01 -2.987869e-05 2.255663e-05 4.055910e-05 -1.179427e-05 7.009277e-01 7.344971e-01
3.240803e+08 -8.295898e-01 -5.103760e-01 1.560524e-05 -2.062880e-06 -1.803041e-06 -9.319279e-06 7.008057e-01 7.345581e-01
3.242981e+08 -8.290405e-01 -5.099487e-01 2.121553e-05 1.141801e-05 1.856685e-05 2.304092e-05 7.000122e-01 7.344360e-01
3.245159e+08 -8.295898e-01 -5.112915e-01 -7.156283e-06 1.626834e-05 -3.059395e-05 -4.192628e-05 6.993408e-01 7.349243e-01
3.247338e+08 -8.292847e-01 -5.109253e-01 1.421385e-05 -8.449890e-06 -1.749769e-05 -2.014078e-05 6.987915e-01 7.359619e-01
3.249516e+08 -8.290405e-01 -5.111694e-01 3.527105e-05 5.118176e-05 2.514571e-05 2.728216e-05 6.988525e-01 7.361450e-01
3.251694e+08 -8.287964e-01 -5.123291e-01 4.403666e-05 -1.897663e-05 3.766827e-05 2.669170e-06 6.984253e-01 7.369385e-01
3.253872e+08 -8.298340e-01 -5.119019e-01 -2.981350e-05 1.050159e-05 1.786649e-05 3.002584e-05 6.978149e-01 7.366333e-01
3.256050e+08 -8.291626e-01 -5.119019e-01 -7.204711e-06 2.833270e-05 -4.063919e-05 2.514943e-05 6.975708e-01 7.373657e-01
3.258228e+08 -8.285522e-01 -5.121460e-01 1.444947e-06 -5.665235e-06 -3.583916e-05 6.670132e-06 6.962891e-01 7.382202e-01
3.260406e+08 -8.278809e-01 -5.123291e-01 1.272187e-05 9.271316e-06 -3.660657e-05 2.696179e-05 6.967163e-01 7.379761e-01
3.262584e+08 -8.287354e-01 -5.132446e-01 6.809458e-05 -6.761402e-06 -5.460344e-06 -1.465157e-05 6.958008e-01 7.388306e-01
3.264762e+08 -8.286743e-01 -5.131226e-01 -2.000481e-05 3.108755e-05 4.103407e-06 -3.822893e-05 6.946411e-01 7.392578e-01
3.266941e+08 -8.284912e-01 -5.133057e-01 -5.945563e-06 5.881861e-05 -1.461897e-05 -7.897615e-06 6.948853e-01 7.396851e-01
3.269119e+08 -8.283691e-01 -5.140381e-01 -1.144037e-05 2.120622e-05 3.362261e-05 2.752803e-05 6.941528e-01 7.396851e-01
3.271297e+08 -8.278809e-01 -5.143433e-01 3.252551e-05 1.434423e-05 -7.667579e-06 -7.156748e-06 6.932983e-01 7.404175e-01
3.273475e+08 -8.275757e-01 -5.143433e-01 2.254359e-05 2.986565e-05 -2.456084e-05 1.916289e-05 6.929932e-01 7.401123e-01
3.275653e+08 -8.275146e-01 -5.150146e-01 2.132729e-05 -1.265295e-05 2.304651e-05 8.104369e-06 6.920166e-01 7.413330e-01
3.277831e+08 -8.269043e-01 -5.150757e-01 4.109368e-05 4.440546e-06 1.574401e-05 -2.523884e-06 6.924438e-01 7.414551e-01
3.280009e+08 -8.278198e-01 -5.150757e-01 1.386739e-06 6.383751e-06 -1.723133e-05 3.070571e-06 6.912842e-01 7.416382e-01
3.282188e+08 -8.267822e-01 -5.142822e-01 1.447275e-05 -5.662069e-05 4.066154e-05 -1.182221e-05 6.905518e-01 7.424316e-01
3.284366e+08 -8.272705e-01 -5.160522e-01 -1.555029e-05 -1.001079e-05 7.366762e-06 -1.610909e-05 6.907959e-01 7.431641e-01
3.286544e+08 -8.267212e-01 -5.158691e-01 2.682209e-05 2.493523e-05 3.337860e-06 -1.794659e-05 6.906128e-01 7.429810e-01
3.288722e+08 -8.270874e-01 -5.159302e-01 -9.829178e-06 -2.059713e-05 6.733090e-05 5.511940e-05 6.897583e-01 7.432251e-01
3.290900e+08 -8.261108e-01 -5.162964e-01 3.541633e-05 3.028661e-06 -2.556480e-05 -3.725849e-05 6.889038e-01 7.440796e-01
3.293078e+08 -8.265991e-01 -5.166626e-01 2.013519e-05 -5.515292e-05 1.134258e-05 1.248531e-05 6.884155e-01 7.441406e-01
3.295256e+08 -8.254395e-01 -5.163574e-01 8.548610e-06 -9.885989e-06 2.199970e-05 -8.178875e-06 6.889038e-01 7.445679e-01
3.297434e+08 -8.255005e-01 -5.170898e-01 1.982227e-05 5.060807e-06 1.602620e-05 3.411993e-05 6.885376e-01 7.451782e-01
3.299612e+08 -8.262329e-01 -5.169678e-01 -2.839789e-05 4.818663e-06 4.281290e-05 3.419816e-05 6.878662e-01 7.468262e-01
3.301791e+08 -8.255005e-01 -5.170898e-01 4.277565e-06 -4.943460e-06 9.149313e-06 6.618910e-06 6.875610e-01 7.465210e-01
3.303969e+08 -8.246460e-01 -5.170288e-01 3.114715e-05 7.947907e-06 -1.797266e-05 1.003407e-05 6.866455e-01 7.472534e-01
3.306147e+08 -8.246460e-01 -5.174561e-01 8.430332e-06 1.421757e-05 -2.935529e-06 1.091743e-06 6.857910e-01 7.477417e-01
3.308325e+08 -8.248291e-01 -5.179443e-01 2.264418e-05 5.785376e-06 2.182089e-06 5.875714e-06 6.854248e-01 7.482300e-01
3.310503e+08 -8.252563e-01 -5.181274e-01 -4.099309e-05 -1.655892e-05 3.628992e-05 1.659244e-05 6.840210e-01 7.492065e-01
3.312681e+08 -8.236084e-01 -5.184937e-01 5.267188e-05 -4.081801e-05 2.183951e-06 5.872920e-06 6.840210e-01 7.498779e-01
3.314859e+08 -8.238525e-01 -5.187988e-01 3.563240e-05 -3.312342e-05 6.139278e-06 3.450550e-05 6.843872e-01 7.502441e-01
3.317038e+08 -8.237915e-01 -5.191650e-01 1.711398e-05 -1.976453e-05 -1.497008e-05 -3.123283e-05 6.840210e-01 7.504883e-01
3.319216e+08 -8.240967e-01 -5.194702e-01 9.655952e-06 4.471466e-05 -1.470675e-06 5.469192e-07 6.830444e-01 7.514648e-01
3.321394e+08 -8.226318e-01 -5.196533e-01 3.019348e-06 -3.542192e-05 3.564171e-05 -1.657195e-05 6.826782e-01 7.512817e-01
3.323572e+08 -8.226929e-01 -5.195312e-01 -7.044990e-06 -7.838476e-06 4.032440e-05 1.847930e-05 6.828613e-01 7.520752e-01
3.325750e+08 -8.228149e-01 -5.202637e-01 -2.104789e-07 3.613345e-05 5.127629e-06 4.790723e-06 6.812744e-01 7.527466e-01
3.327928e+08 -8.226318e-01 -5.195923e-01 1.414586e-05 3.616326e-06 1.470209e-06 -5.471520e-07 6.815186e-01 7.524414e-01
3.330106e+08 -8.223877e-01 -5.198975e-01 1.540035e-05 3.408454e-05 -1.731887e-05 1.647510e-05 6.812744e-01 7.529297e-01
3.332284e+08 -8.222046e-01 -5.198364e-01 -8.495059e-06 -2.168119e-06 4.688278e-06 3.509037e-05 6.816406e-01 7.538452e-01
3.334462e+08 -8.213501e-01 -5.202026e-01 1.531467e-05 4.615635e-05 8.156523e-06 -2.311729e-05 6.794434e-01 7.548828e-01
3.336641e+08 -8.214111e-01 -5.202637e-01 4.351139e-06 -1.698080e-05 -6.263610e-06 5.675014e-06 6.791992e-01 7.553711e-01
3.338819e+08 -8.212280e-01 -5.200806e-01 1.434237e-07 -2.408959e-05 -3.755093e-06 3.489107e-05 6.787720e-01 7.557373e-01
3.340997e+08 -8.206787e-01 -5.206299e-01 2.111681e-05 2.352521e-05 1.130626e-05 2.594478e-05 6.785278e-01 7.567139e-01
3.343175e+08 -8.214111e-01 -5.205688e-01 1.611188e-06 -2.975203e-05 4.135072e-07 -1.691561e-05 6.779175e-01 7.571411e-01
3.345353e+08 -8.201294e-01 -5.209961e-01 -2.830056e-06 -7.243361e-07 -3.823638e-05 7.934868e-07 6.779175e-01 7.572021e-01
3.347531e+08 -8.200684e-01 -5.202026e-01 -8.791685e-06 4.599988e-05 -2.176687e-05 3.155321e-05 6.768188e-01 7.585449e-01
3.349709e+08 -8.192749e-01 -5.210571e-01 -1.598150e-06 2.975762e-05 9.243377e-06 -2.019852e-05 6.770020e-01 7.592163e-01
3.351888e+08 -8.193359e-01 -5.215454e-01 -2.294406e-05 4.235655e-05 2.862141e-05 2.289750e-05 6.757812e-01 7.600098e-01
3.354066e+08 -8.187866e-01 -5.209351e-01 1.453795e-06 -5.663838e-06 -5.136710e-06 -4.792586e-06 6.759644e-01 7.610474e-01
3.356244e+08 -8.190308e-01 -5.213013e-01 -1.236424e-05 -6.952137e-05 -1.462176e-05 -3.479794e-05 6.759644e-01 7.609253e-01
3.358422e+08 -8.178711e-01 -5.220947e-01 3.426895e-05 -3.946573e-05 -7.912517e-06 -4.398450e-05 6.749268e-01 7.621460e-01
3.360600e+08 -8.184814e-01 -5.222778e-01 5.369261e-05 2.580509e-05 -1.549814e-05 1.246296e-05 6.749268e-01 7.622681e-01
3.362778e+08 -8.182983e-01 -5.223999e-01 -1.422316e-05 8.414499e-06 -9.313226e-08 2.687052e-05 6.749268e-01 7.628784e-01
3.364956e+08 -8.176880e-01 -5.220947e-01 4.280359e-06 -4.930422e-06 3.159046e-06 4.913285e-05 6.735229e-01 7.631836e-01
3.367134e+08 -8.166504e-01 -5.217896e-01 -4.449859e-06 2.902932e-05 4.010089e-05 -4.859641e-06 6.736450e-01 7.645874e-01
3.369312e+08 -8.166504e-01 -5.226440e-01 1.422409e-05 -8.402392e-06 -1.920294e-05 2.055150e-05 6.727905e-01 7.649536e-01
3.371491e+08 -8.165283e-01 -5.222778e-01 -5.498528e-06 -2.555363e-05 8.468516e-06 2.090819e-07 6.733398e-01 7.657471e-01
3.373669e+08 -8.152466e-01 -5.219116e-01 1.721270e-05 -3.178231e-05 1.144037e-05 -1.431257e-05 6.726685e-01 7.665405e-01
3.375847e+08 -8.153687e-01 -5.235596e-01 2.262369e-05 5.820766e-06 7.648021e-06 2.064928e-05 6.716309e-01 7.669678e-01
3.378025e+08 -8.153076e-01 -5.228882e-01 -3.162399e-05 6.429106e-05 1.965091e-06 -3.094040e-05 6.720581e-01 7.682495e-01
3.380203e+08 -8.157349e-01 -5.227051e-01 -2.710149e-06 -2.481975e-05 5.145557e-06 4.806323e-06 6.729736e-01 7.673340e-01
3.382381e+08 -8.148193e-01 -5.231934e-01 2.426282e-05 -2.389401e-05 -2.756529e-05 -2.000108e-05 6.703491e-01 7.691650e-01
3.384559e+08 -8.141479e-01 -5.228271e-01 -3.556348e-05 2.100319e-05 -1.660269e-05 9.533018e-06 6.705322e-01 7.697144e-01
3.386738e+08 -8.132324e-01 -5.238037e-01 -2.416596e-05 1.188181e-05 -8.093193e-06 -3.714580e-06 6.704712e-01 7.700806e-01
3.388916e+08 -8.132935e-01 -5.239258e-01 2.692267e-05 8.828938e-07 -3.668247e-06 -5.358597e-06 6.704712e-01 7.709961e-01
3.391094e+08 -8.125000e-01 -5.242310e-01 -2.974272e-05 -1.620501e-06 -1.693144e-06 -3.632717e-05 6.693726e-01 7.718506e-01
3.393272e+08 -8.128052e-01 -5.241699e-01 -8.570962e-06 9.858981e-06 2.473593e-05 -5.815178e-06 6.690674e-01 7.721558e-01
3.395450e+08 -8.120117e-01 -5.241089e-01 -2.562255e-05 1.754053e-05 -1.291279e-05 1.426786e-06 6.688232e-01 7.729492e-01
3.397628e+08 -8.110962e-01 -5.239258e-01 1.406483e-05 1.567882e-05 3.077462e-05 -4.836544e-05 6.683350e-01 7.742310e-01
3.399806e+08 -8.103027e-01 -5.244751e-01 2.262928e-05 5.841255e-06 -2.729706e-05 3.395602e-06 6.679077e-01 7.752686e-01
3.401984e+08 -8.103027e-01 -5.244141e-01 -4.038215e-06 -3.121234e-05 -8.435920e-06 -1.367461e-05 6.681519e-01 7.754517e-01
3.404162e+08 -8.101807e-01 -5.242920e-01 2.126023e-05 -5.569309e-07 -2.378598e-05 -5.503744e-05 6.676025e-01 7.763062e-01
3.406341e+08 -8.093872e-01 -5.245972e-01 8.238479e-06 3.829412e-05 4.030764e-05 -3.177114e-05 6.671753e-01 7.761230e-01
3.408519e+08 -8.090820e-01 -5.250244e-01 2.554432e-05 -5.470589e-06 -1.230277e-05 3.482960e-05 6.668091e-01 7.771606e-01
3.410697e+08 -8.087158e-01 -5.244751e-01 9.934418e-06 -3.477558e-06 -2.626143e-05 1.983717e-05 6.666260e-01 7.774048e-01
3.412875e+08 -8.079224e-01 -5.246582e-01 2.990104e-05 -2.248771e-05 1.858687e-06 -4.051719e-06 6.668091e-01 7.785645e-01
3.415053e+08 -8.080444e-01 -5.248413e-01 -2.117641e-05 -1.148134e-05 2.060458e-05 1.925975e-05 6.665649e-01 7.792358e-01
3.417231e+08 -8.070679e-01 -5.260620e-01 -1.414586e-05 -3.644265e-06 2.539903e-05 1.413748e-05 6.663818e-01 7.800293e-01
3.419409e+08 -8.071899e-01 -5.252686e-01 -1.431815e-05 2.045557e-05 -1.631025e-05 1.949724e-05 6.660767e-01 7.810669e-01
3.421588e+08 -8.061523e-01 -5.255127e-01 -3.121607e-05 4.028901e-06 -2.153218e-05 4.161522e-05 6.658936e-01 7.816772e-01
3.423766e+08 -8.060303e-01 -5.264893e-01 -2.142601e-05 2.463721e-05 2.322719e-05 8.214265e-06 6.652832e-01 7.819214e-01
3.425944e+08 -8.056030e-01 -5.267334e-01 -2.726540e-05 4.728138e-05 -1.743529e-05 1.655146e-05 6.654053e-01 7.828369e-01
3.428122e+08 -8.041992e-01 -5.264893e-01 1.722574e-05 -3.177114e-05 -1.517870e-05 8.975156e-06 6.652832e-01 7.835083e-01
3.430300e+08 -8.031006e-01 -5.266113e-01 -2.984330e-05 1.040660e-05 1.317635e-05 2.202019e-05 6.651001e-01 7.844238e-01
3.432478e+08 -8.037720e-01 -5.264893e-01 -4.262105e-05 1.315773e-05 3.078952e-06 -2.806447e-05 6.649170e-01 7.852173e-01
3.434656e+08 -8.028564e-01 -5.267944e-01 2.546795e-05 6.537884e-06 -8.109491e-06 -3.730878e-06 6.648560e-01 7.853394e-01
3.436834e+08 -8.029785e-01 -5.274658e-01 -2.644956e-06 -2.482533e-05 -3.580563e-05 -1.033023e-05 6.643677e-01 7.865601e-01
3.439012e+08 -8.022461e-01 -5.276489e-01 -3.717095e-05 3.869087e-05 -1.101941e-05 -1.612958e-05 6.641846e-01 7.873535e-01
3.441191e+08 -8.020630e-01 -5.275879e-01 2.107583e-05 2.353452e-05 -1.345575e-05 3.192574e-05 6.640625e-01 7.872314e-01
3.443369e+08 -8.016357e-01 -5.283203e-01 -3.567711e-05 3.303215e-05 -2.204627e-05 4.520640e-05 6.636963e-01 7.882080e-01
3.445547e+08 -7.997437e-01 -5.273438e-01 -4.289672e-06 4.929490e-06 2.054870e-05 3.277324e-05 6.639404e-01 7.889404e-01
3.447725e+08 -8.005371e-01 -5.274658e-01 4.222617e-05 3.508478e-05 2.183393e-05 -4.719943e-06 6.629639e-01 7.908325e-01
3.449903e+08 -7.994995e-01 -5.277710e-01 -4.136190e-05 3.156438e-05 1.344830e-05 -3.192015e-05 6.629028e-01 7.912598e-01
3.452081e+08 -7.989502e-01 -5.279541e-01 -7.729977e-08 1.205411e-05 -3.401190e-05 -8.828938e-07 6.634521e-01 7.913818e-01
3.454259e+08 -7.981567e-01 -5.285645e-01 2.739951e-06 1.278240e-05 -4.323199e-06 -2.534874e-05 6.628418e-01 7.922363e-01
3.456438e+08 -7.979736e-01 -5.287476e-01 -1.268927e-05 -9.313226e-06 -8.326024e-07 2.052542e-05 6.624756e-01 7.929688e-01
3.458616e+08 -7.974243e-01 -5.290527e-01 -5.114079e-05 1.094490e-05 6.958842e-06 -7.672608e-05 6.621704e-01 7.940674e-01
3.460794e+08 -7.965088e-01 -5.296021e-01 2.984516e-05 -1.039170e-05 1.579709e-05 2.449006e-05 6.618652e-01 7.941284e-01
3.462972e+08 -7.961426e-01 -5.295410e-01 -3.833324e-06 -5.530193e-05 2.058223e-05 3.283657e-05 6.616821e-01 7.948608e-01
3.465150e+08 -7.954712e-01 -5.298462e-01 -3.121980e-05 4.021451e-06 -1.289509e-05 -1.208391e-05 6.622314e-01 7.954712e-01
3.467328e+08 -7.945557e-01 -5.302124e-01 4.283711e-05 -3.723800e-05 -1.937151e-07 -3.701076e-05 6.622314e-01 7.963257e-01
3.469506e+08 -7.941895e-01 -5.299072e-01 -1.251325e-05 -3.342703e-05 -3.075227e-05 8.009374e-06 6.626587e-01 7.969360e-01
3.471684e+08 -7.930298e-01 -5.302124e-01 -3.271550e-05 9.683892e-06 8.891802e-06 -3.288966e-06 6.623535e-01 7.982788e-01
3.473862e+08 -7.936401e-01 -5.304565e-01 -8.588657e-06 9.869225e-06 9.877607e-06 2.670847e-05 6.627808e-01 7.983398e-01
3.476041e+08 -7.926025e-01 -5.311279e-01 5.667098e-06 1.461711e-06 -1.258589e-05 -2.100132e-06 6.626587e-01 7.993164e-01
3.478219e+08 -7.918091e-01 -5.314941e-01 9.778887e-06 2.065487e-05 -1.398940e-05 -1.506694e-05 6.625977e-01 8.000488e-01
3.480397e+08 -7.909546e-01 -5.309448e-01 2.578460e-05 -2.962351e-05 1.282245e-05 2.560206e-05 6.629028e-01 8.007812e-01
3.482575e+08 -7.909546e-01 -5.325317e-01 -1.013838e-05 2.759136e-05 2.056360e-05 -3.119372e-05 6.625366e-01 8.005981e-01
3.484753e+08 -7.905273e-01 -5.317383e-01 -6.942078e-06 -1.992099e-05 2.135336e-05 2.586469e-05 6.622925e-01 8.012085e-01
3.486931e+08 -7.895508e-01 -5.319214e-01 -1.406297e-05 -1.572073e-05 1.774076e-05 6.942078e-06 6.620483e-01 8.021851e-01
3.489109e+08 -7.892456e-01 -5.322876e-01 3.441051e-05 -3.945455e-05 1.026317e-06 1.649093e-05 6.620483e-01 8.035278e-01
3.491288e+08 -7.881470e-01 -5.332642e-01 -2.139248e-05 1.262873e-05 -4.628673e-07 1.703668e-05 6.632690e-01 8.034668e-01
3.493466e+08 -7.874146e-01 -5.327759e-01 -1.690816e-05 -1.647323e-05 -1.336168e-05 4.926696e-06 6.622925e-01 8.048706e-01
3.495644e+08 -7.868042e-01 -5.335083e-01 -5.657598e-05 -2.668798e-05 -1.798756e-05 -3.047101e-05 6.623535e-01 8.045654e-01
3.497822e+08 -7.861328e-01 -5.336914e-01 7.033814e-06 7.864088e-06 -1.961738e-05 -2.884306e-06 6.616821e-01 8.061523e-01
3.500000e+08 -7.856445e-01 -5.348511e-01 3.372133e-05 4.502386e-05 3.286172e-06 8.915551e-06 6.625366e-01 8.068848e-01
