# Hz S RI R 50
! RAW DATA - UNCALIBRATED
1.500000e+06 9.786987e-01 -1.342773e-02 1.812540e-05 2.268143e-05 8.740928e-06 2.125744e-06 5.295277e-03 -1.588345e-03
1.717812e+06 9.786377e-01 -1.477051e-02 1.687397e-10 -5.581740e-10 8.147210e-06 -5.628448e-06 4.713535e-03 -2.510071e-03
1.935625e+06 9.781494e-01 -1.287842e-02 1.131929e-05 8.487143e-06 4.219823e-06 1.198146e-05 4.027128e-03 -2.918720e-03
2.153438e+06 9.787598e-01 -1.214600e-02 2.122298e-05 -1.343153e-05 -8.258969e-06 -2.315827e-05 3.379345e-03 -3.140688e-03
2.371250e+06 9.785767e-01 -8.789062e-03 -1.538545e-06 1.542456e-05 -1.496170e-05 -8.724630e-06 2.800703e-03 -3.228664e-03
2.589062e+06 9.789429e-01 -5.981445e-03 2.348796e-06 -2.198108e-05 -1.103524e-05 -3.466383e-06 2.322912e-03 -3.254890e-03
2.806875e+06 9.786377e-01 -1.525879e-03 9.790994e-06 1.716800e-05 -2.134312e-05 -1.477078e-05 1.868725e-03 -3.144741e-03
3.024688e+06 9.785156e-01 1.831055e-04 -1.398847e-05 -1.006760e-06 5.805399e-06 -3.287569e-07 1.468182e-03 -3.039598e-03
3.242500e+06 9.771729e-01 4.943848e-03 -1.024641e-05 2.640113e-05 -1.579057e-06 -5.621463e-06 1.124382e-03 -2.879143e-03
3.460312e+06 9.746704e-01 5.432129e-03 2.582557e-06 -1.348369e-05 2.300832e-06 -2.200017e-06 8.370876e-04 -2.695322e-03
3.678125e+06 9.739990e-01 5.615234e-03 1.646951e-05 -2.598017e-05 -3.150664e-06 7.420313e-06 5.161762e-04 -2.451658e-03
3.895938e+06 9.749756e-01 4.028320e-03 2.421439e-08 -6.903429e-06 -8.938834e-06 1.408160e-06 4.845858e-04 -2.296209e-03
4.113750e+06 9.724121e-01 4.272461e-03 -1.098681e-05 -5.863607e-06 -1.547392e-05 -6.798655e-08 2.309084e-04 -2.135634e-03
4.331562e+06 9.733887e-01 4.272461e-03 -1.357216e-05 2.771616e-06 1.424924e-06 6.252434e-06 5.972385e-05 -1.976967e-03
4.549375e+06 9.724121e-01 4.394531e-03 -4.541129e-06 8.710660e-06 -1.422968e-05 -1.988374e-06 -9.322166e-05 -1.773477e-03
4.767188e+06 9.717407e-01 5.249023e-03 -6.403774e-06 2.740882e-06 9.897165e-06 -3.106892e-06 -2.322197e-04 -1.572251e-03
4.985000e+06 9.713745e-01 5.554199e-03 -5.833805e-06 1.115445e-05 -1.207925e-05 -1.839362e-05 -3.274083e-04 -1.379311e-03
5.202812e+06 9.705811e-01 4.455566e-03 -1.161825e-05 7.837079e-06 -4.912727e-06 -9.200536e-06 -4.329085e-04 -1.193464e-03
5.420625e+06 9.689941e-01 5.981445e-03 -1.428183e-05 -6.514601e-06 1.319591e-05 1.346413e-05 -5.251169e-04 -1.025319e-03
5.638438e+06 9.699707e-01 5.859375e-03 -1.285225e-07 9.942800e-06 -2.765795e-06 -8.803327e-07 -5.882382e-04 -8.370876e-04
5.856250e+06 9.685669e-01 7.385254e-03 5.393755e-06 4.543923e-06 -5.368609e-06 -2.663815e-06 -6.300211e-04 -6.488264e-04
6.074062e+06 9.671021e-01 8.361816e-03 4.653819e-06 1.184456e-05 -2.186280e-06 -6.128103e-06 -6.852746e-04 -4.696846e-04
6.291875e+06 9.669189e-01 1.025391e-02 -4.455913e-06 -6.538350e-06 -2.942048e-06 1.401640e-06 -7.082820e-04 -2.989173e-04
6.509688e+06 9.669189e-01 1.013184e-02 -3.251247e-06 -1.406763e-06 -1.090020e-05 -7.868279e-06 -7.348657e-04 -1.224875e-04
6.727500e+06 9.658203e-01 1.147461e-02 -1.990423e-05 1.609325e-05 -1.519453e-06 7.717405e-06 -7.519722e-04 4.553795e-05
6.945312e+06 9.659424e-01 1.300049e-02 -3.488036e-06 -7.080380e-07 1.974637e-06 -3.636116e-06 -7.599592e-04 2.033710e-04
7.163125e+06 9.651489e-01 1.446533e-02 2.272427e-05 -1.198798e-05 -5.343463e-06 1.009973e-05 -7.531643e-04 3.681779e-04
7.380938e+06 9.646606e-01 1.580811e-02 -1.059193e-05 -1.435634e-05 -1.371605e-06 -2.589193e-06 -7.458329e-04 5.348325e-04
7.598750e+06 9.648438e-01 1.745605e-02 1.454167e-05 2.361834e-06 -1.559965e-06 -1.301244e-05 -7.378459e-04 6.948709e-04
7.816562e+06 9.658203e-01 1.831055e-02 1.182314e-05 5.147420e-06 -2.091751e-06 9.155832e-06 -7.150769e-04 8.445382e-04
8.034375e+06 9.651489e-01 2.020264e-02 1.570303e-05 3.174879e-06 -4.155561e-06 -1.080334e-07 -6.749630e-04 9.948015e-04
8.252188e+06 9.645996e-01 2.075195e-02 -4.058704e-06 -2.141856e-05 -1.836009e-05 -1.028180e-05 -6.391406e-04 1.131952e-03
8.470000e+06 9.651489e-01 2.313232e-02 2.254173e-05 -2.626330e-06 2.266839e-06 -1.295097e-05 -6.042123e-04 1.283944e-03
8.687812e+06 9.654541e-01 2.398682e-02 -1.292862e-05 -8.214265e-07 1.026224e-05 1.142826e-05 -5.379915e-04 1.416206e-03
8.905625e+06 9.653320e-01 2.618408e-02 -2.977252e-05 7.670373e-06 2.674293e-06 7.884111e-06 -4.888773e-04 1.535177e-03
9.123438e+06 9.655762e-01 2.728271e-02 -7.382594e-06 -3.227498e-06 -7.119495e-06 -5.996786e-06 -4.193783e-04 1.670837e-03
9.341250e+06 9.667358e-01 2.886963e-02 1.012068e-05 1.028646e-05 6.177928e-06 4.970003e-06 -3.671646e-04 1.810551e-03
9.559062e+06 9.661255e-01 3.057861e-02 7.808674e-06 2.027955e-06 -2.044812e-05 -3.006309e-06 -2.665520e-04 1.921773e-03
9.776875e+06 9.664917e-01 3.161621e-02 -7.213093e-06 3.637746e-06 1.601875e-07 -1.187529e-05 -2.119541e-04 2.054930e-03
9.994688e+06 9.676514e-01 3.314209e-02 -5.775597e-06 9.174459e-06 -1.661533e-10 -1.861622e-10 -1.394749e-04 2.131939e-03
1.021250e+07 9.683228e-01 3.497314e-02 1.951121e-05 -6.137416e-06 -1.615006e-05 3.216788e-06 -4.458427e-05 2.236366e-03
1.043031e+07 9.684448e-01 3.704834e-02 5.208421e-06 6.193295e-06 -1.172069e-05 1.116656e-06 4.708767e-05 2.338529e-03
1.064812e+07 9.698486e-01 3.826904e-02 1.038425e-06 8.028466e-06 1.956825e-06 2.644141e-06 1.335144e-04 2.427220e-03
1.086594e+07 9.705200e-01 3.796387e-02 3.593415e-05 5.668029e-06 -2.522487e-06 -9.981450e-06 2.135038e-04 2.529383e-03
1.108375e+07 9.722900e-01 4.022217e-02 8.163974e-06 1.615658e-05 2.182089e-06 -1.631677e-05 3.323555e-04 2.614617e-03
1.130156e+07 9.717407e-01 4.113770e-02 4.693866e-06 2.594478e-05 -1.021009e-05 -1.641642e-05 4.400015e-04 2.680540e-03
1.151938e+07 9.733276e-01 4.290771e-02 4.396554e-10 -4.263256e-10 -1.216307e-06 3.975816e-06 5.549192e-04 2.729774e-03
1.173719e+07 9.739380e-01 4.455566e-02 -8.810312e-06 -2.487749e-05 -5.424023e-06 -1.397077e-05 6.508827e-04 2.795696e-03
1.195500e+07 9.752808e-01 4.437256e-02 -1.691561e-05 9.807758e-06 -1.296867e-05 -4.863366e-06 7.603168e-04 2.844095e-03
1.217281e+07 9.752808e-01 4.583740e-02 -1.660455e-05 -7.324852e-06 -1.543015e-05 -3.845431e-06 8.585453e-04 2.899647e-03
1.239062e+07 9.772339e-01 4.632568e-02 -1.203734e-06 8.026604e-06 -6.306451e-06 -1.844019e-06 9.620190e-04 2.931595e-03
1.260844e+07 9.768677e-01 4.718018e-02 1.238938e-05 1.051463e-05 -5.804934e-06 -4.484784e-06 1.069784e-03 2.967834e-03
1.282625e+07 9.783936e-01 4.779053e-02 -9.624287e-06 5.141832e-06 -6.882474e-07 6.525777e-06 1.169682e-03 2.999306e-03
1.304406e+07 9.790649e-01 4.949951e-02 8.279458e-06 -2.717413e-05 1.482666e-06 -9.172130e-06 1.283646e-03 3.015280e-03
1.326188e+07 9.799805e-01 5.120850e-02 1.148321e-06 -1.023244e-05 -1.685321e-05 -5.403534e-06 1.385927e-03 3.044605e-03
1.347969e+07 9.808350e-01 5.084229e-02 -1.532119e-05 -5.512498e-06 2.199784e-06 1.296308e-05 1.491070e-03 3.056526e-03
1.369750e+07 9.808350e-01 5.194092e-02 -2.225861e-06 -3.085099e-05 -3.988389e-06 -9.805430e-06 1.610994e-03 3.069639e-03
1.391531e+07 9.814453e-01 5.310059e-02 -5.234033e-07 -1.822319e-05 4.443340e-06 1.518521e-05 1.692295e-03 3.062010e-03
1.413312e+07 9.832764e-01 5.401611e-02 8.143019e-06 4.102476e-07 -1.170486e-05 1.325179e-05 1.782179e-03 3.059149e-03
1.435094e+07 9.844971e-01 5.462646e-02 8.741394e-06 -2.009422e-05 -5.917624e-06 -1.414772e-05 1.894712e-03 3.050566e-03
1.456875e+07 9.848022e-01 5.438232e-02 3.301539e-06 -1.045503e-05 -1.406390e-05 4.502945e-06 1.979351e-03 3.027201e-03
1.478656e+07 9.859009e-01 5.523682e-02 1.723319e-05 -1.142453e-05 -9.208452e-07 -2.791407e-06 2.051353e-03 3.013611e-03
1.500438e+07 9.862671e-01 5.639648e-02 6.570015e-06 8.004718e-06 -4.471513e-06 -2.837274e-06 2.151251e-03 2.995729e-03
1.522219e+07 9.870605e-01 5.657959e-02 -1.098774e-05 1.024455e-07 -6.753951e-06 -2.905261e-06 2.226830e-03 2.979755e-03
1.544000e+07 9.880371e-01 5.773926e-02 -6.860588e-06 4.499219e-06 -2.349261e-07 -5.298527e-06 2.314806e-03 2.942562e-03
1.565781e+07 9.886475e-01 5.847168e-02 -2.118014e-05 -1.017191e-05 -1.448393e-05 -2.625398e-06 2.400398e-03 2.923012e-03
1.587562e+07 9.903564e-01 5.841064e-02 3.835000e-05 -2.011657e-06 6.533694e-06 -9.893440e-06 2.451658e-03 2.882957e-03
1.609344e+07 9.923706e-01 5.920410e-02 2.358481e-05 9.834766e-07 -2.554059e-05 8.761883e-06 2.551794e-03 2.883434e-03
1.631125e+07 9.928589e-01 5.841064e-02 2.898276e-06 -1.289509e-05 -1.571327e-05 -4.576519e-05 2.574921e-03 2.796888e-03
1.652906e+07 9.932861e-01 5.847168e-02 -2.751499e-05 -2.244674e-05 1.750886e-06 -9.997934e-05 2.657890e-03 2.764225e-03
1.674688e+07 9.938354e-01 5.834961e-02 -7.246155e-06 3.264286e-06 3.471971e-06 3.199652e-05 2.696276e-03 2.698064e-03
1.696469e+07 9.954834e-01 5.773926e-02 1.238659e-06 2.854690e-05 2.589449e-05 1.823716e-05 2.746701e-03 2.697110e-03
1.718250e+07 9.954224e-01 5.749512e-02 -2.646819e-05 -5.218014e-05 -3.692508e-05 1.572631e-05 2.758384e-03 2.661109e-03
1.740031e+07 9.959106e-01 5.706787e-02 -3.174506e-05 2.018549e-05 -1.144409e-05 -1.118984e-05 2.910852e-03 2.620220e-03
1.761812e+07 9.968262e-01 5.676270e-02 -1.547672e-05 3.036670e-05 2.343580e-05 -1.113117e-05 2.863169e-03 2.581835e-03
1.783594e+07 9.968262e-01 5.676270e-02 -1.847744e-06 4.763529e-05 -3.733486e-05 -1.139566e-05 2.964973e-03 2.502680e-03
1.805375e+07 9.970703e-01 5.627441e-02 1.793727e-05 -3.155880e-05 -1.056865e-05 -4.799664e-05 2.922297e-03 2.439976e-03
1.827156e+07 9.977417e-01 5.645752e-02 -1.053885e-05 -3.626198e-05 -5.279109e-05 3.650039e-05 2.983332e-03 2.421856e-03
1.848938e+07 9.971924e-01 5.554199e-02 -2.244487e-07 5.973037e-06 5.161017e-05 -5.749241e-05 2.968311e-03 2.410889e-03
1.870719e+07 9.979248e-01 5.584717e-02 -1.241732e-05 1.150090e-05 2.503395e-05 -2.581626e-06 3.081322e-03 2.300978e-03
1.892500e+07 9.982300e-01 5.511475e-02 2.922863e-05 5.145371e-05 -4.087575e-06 1.418637e-06 3.040314e-03 2.258301e-03
1.914281e+07 9.982910e-01 5.468750e-02 1.902878e-05 6.793067e-05 -4.253723e-05 -3.559515e-06 3.064156e-03 2.225637e-03
1.936062e+07 9.979858e-01 5.529785e-02 1.819991e-05 2.710894e-05 -2.151541e-05 3.502145e-05 3.134012e-03 2.208471e-03
1.957844e+07 9.987183e-01 5.389404e-02 9.788200e-06 -4.447531e-06 1.007132e-05 3.327802e-05 3.095627e-03 2.146482e-03
1.979625e+07 9.987183e-01 5.377197e-02 -2.492033e-05 2.315082e-05 -1.521781e-06 2.199970e-05 3.148079e-03 2.066374e-03
2.001406e+07 9.985962e-01 5.371094e-02 -3.027730e-05 3.744103e-05 1.481734e-05 -2.359971e-05 3.118038e-03 2.029419e-03
2.023188e+07 9.982910e-01 5.303955e-02 2.481043e-05 4.793331e-05 -3.079884e-05 -3.539398e-05 3.196716e-03 2.021074e-03
2.044969e+07 9.986572e-01 5.358887e-02 -1.494214e-05 1.275074e-05 5.329028e-06 1.969840e-05 3.144741e-03 1.968622e-03
2.066750e+07 9.981689e-01 5.364990e-02 1.901854e-05 9.127893e-06 -7.690862e-06 -2.199598e-05 3.180981e-03 2.013206e-03
2.088531e+07 9.989624e-01 5.322266e-02 -3.838539e-05 5.916506e-05 1.057982e-06 -4.978850e-05 3.132820e-03 1.894712e-03
2.110312e+07 9.990845e-01 5.303955e-02 -2.677087e-06 7.174443e-06 1.253095e-05 4.888512e-06 3.142834e-03 1.863241e-03
2.132094e+07 9.981079e-01 5.316162e-02 -2.156571e-05 -8.020550e-06 -3.266148e-05 3.931299e-05 3.135920e-03 1.862049e-03
2.153875e+07 9.987793e-01 5.328369e-02 -1.664925e-05 -1.028832e-05 -2.046674e-05 -6.719306e-05 3.163338e-03 1.806498e-03
2.175656e+07 9.984741e-01 5.377197e-02 -1.604483e-05 4.323199e-05 -7.215515e-05 6.642193e-06 3.178596e-03 1.803160e-03
2.197438e+07 9.973755e-01 5.401611e-02 3.276020e-05 3.880821e-05 -1.149252e-06 -4.310720e-05 3.116369e-03 1.736641e-03
2.219219e+07 9.984131e-01 5.377197e-02 8.458272e-06 3.805943e-05 -2.854504e-05 -1.486763e-05 3.145456e-03 1.698494e-03
2.241000e+07 9.980469e-01 5.395508e-02 2.580881e-05 -4.186481e-05 8.214265e-06 1.890585e-05 3.074408e-03 1.782656e-03
2.262781e+07 9.979248e-01 5.346680e-02 8.158386e-07 -2.439693e-05 -5.923212e-06 -4.779175e-05 3.059626e-03 1.666307e-03
2.284562e+07 9.979248e-01 5.377197e-02 2.071261e-05 3.858283e-05 3.722310e-05 -6.258488e-07 3.114939e-03 1.637936e-03
2.306344e+07 9.973145e-01 5.413818e-02 -6.034970e-07 1.833215e-05 -3.059022e-05 1.075305e-05 3.055096e-03 1.660347e-03
2.328125e+07 9.968872e-01 5.389404e-02 -7.065944e-06 -8.795410e-06 2.438575e-05 7.050112e-06 3.048658e-03 1.611948e-03
2.349906e+07 9.976807e-01 5.389404e-02 -7.085036e-06 -8.806121e-06 1.605880e-05 9.980984e-06 3.097773e-03 1.640081e-03
2.371688e+07 9.967651e-01 5.529785e-02 4.390255e-06 1.608394e-05 -6.218441e-06 1.789164e-05 3.123999e-03 1.554728e-03
2.393469e+07 9.967041e-01 5.535889e-02 1.264829e-05 -1.189206e-05 3.026426e-05 -6.094202e-05 3.089905e-03 1.603603e-03
2.415250e+07 9.968262e-01 5.523682e-02 7.677823e-06 -9.587966e-06 -1.949444e-05 6.032363e-05 3.024817e-03 1.588821e-03
2.437031e+07 9.973755e-01 5.517578e-02 1.285505e-05 -1.805462e-05 -1.730025e-05 -2.218783e-05 3.039837e-03 1.557589e-03
2.458812e+07 9.969482e-01 5.603027e-02 3.368407e-05 2.688356e-05 -1.638103e-05 2.651475e-06 3.025293e-03 1.507044e-03
2.480594e+07 9.974976e-01 5.676270e-02 -3.793836e-05 -4.925951e-05 -2.316199e-05 -7.545575e-06 3.052950e-03 1.468658e-03
2.502375e+07 9.968262e-01 5.651855e-02 -3.540702e-05 2.855621e-05 5.251728e-06 -2.079085e-05 2.959251e-03 1.509428e-03
2.524156e+07 9.975586e-01 5.651855e-02 2.292916e-05 -2.278760e-05 1.036562e-05 2.475642e-05 3.010511e-03 1.457691e-03
2.545938e+07 9.976196e-01 5.731201e-02 5.552545e-06 -2.084486e-05 -2.263114e-05 -2.359040e-05 2.973557e-03 1.450777e-03
2.567719e+07 9.978027e-01 5.828857e-02 1.326017e-05 -3.055111e-05 -2.926961e-05 -2.438016e-05 3.030777e-03 1.450300e-03
2.589500e+07 9.973755e-01 5.853271e-02 5.567446e-06 -2.088025e-05 -1.946650e-05 -5.732290e-06 2.961636e-03 1.441002e-03
2.611281e+07 9.974976e-01 5.865479e-02 5.561858e-06 -2.091564e-05 -2.653524e-05 -3.233552e-06 2.938032e-03 1.437664e-03
2.633062e+07 9.979858e-01 5.926514e-02 2.064183e-05 -2.792664e-05 -1.004664e-06 -2.815621e-06 2.956390e-03 1.442671e-03
2.654844e+07 9.978638e-01 5.926514e-02 -3.833324e-06 -4.108250e-05 -1.147203e-05 -2.769195e-05 2.882242e-03 1.422644e-03
2.676625e+07 9.982300e-01 5.963135e-02 -1.693517e-05 -1.661573e-05 -1.007738e-05 -5.938578e-06 2.931118e-03 1.387596e-03
2.698406e+07 9.987183e-01 5.975342e-02 -4.868256e-06 -3.868248e-06 -2.078339e-05 -1.803972e-05 2.944469e-03 1.430035e-03
2.720188e+07 9.989624e-01 6.085205e-02 1.142547e-05 3.765523e-05 -4.022382e-05 -3.660470e-05 2.920389e-03 1.348257e-03
2.741969e+07 1.000183e+00 6.060791e-02 2.186745e-06 1.126807e-05 -1.274049e-05 -1.778081e-05 2.876282e-03 1.377583e-03
2.763750e+07 9.998169e-01 6.103516e-02 -1.129135e-05 -4.396960e-05 8.711591e-06 2.881140e-05 2.915621e-03 1.348734e-03
2.785531e+07 1.000183e+00 6.152344e-02 2.309494e-05 -2.312474e-05 1.354981e-05 -1.125690e-05 2.867699e-03 1.391172e-03
2.807312e+07 1.000977e+00 6.066895e-02 -1.012068e-05 4.735775e-06 2.036337e-06 5.669426e-06 2.843857e-03 1.366138e-03
2.829094e+07 1.000610e+00 6.127930e-02 7.599127e-06 -3.555790e-06 3.941730e-05 3.391318e-05 2.892733e-03 1.330614e-03
2.850875e+07 1.001282e+00 6.176758e-02 2.976879e-05 1.079589e-05 -2.828240e-05 -2.511032e-05 2.837181e-03 1.374245e-03
2.872656e+07 1.002563e+00 6.182861e-02 3.029220e-05 -7.983297e-06 6.530434e-06 1.371372e-05 2.852917e-03 1.310110e-03
2.894438e+07 1.002869e+00 6.237793e-02 3.982335e-06 4.147738e-05 -3.376976e-06 -4.058890e-05 2.831936e-03 1.308680e-03
2.916219e+07 1.002686e+00 6.250000e-02 4.144385e-06 3.525987e-05 2.333894e-05 3.343448e-05 2.823353e-03 1.310587e-03
2.938000e+07 1.003052e+00 6.292725e-02 4.157424e-06 3.526732e-05 2.091378e-05 3.112480e-05 2.798796e-03 1.305103e-03
2.959781e+07 1.004089e+00 6.207275e-02 -8.111820e-06 2.245232e-05 -1.610164e-05 9.036623e-06 2.781034e-03 1.363039e-03
2.981562e+07 1.003601e+00 6.237793e-02 2.455711e-05 2.577715e-05 -3.094785e-05 3.055483e-05 2.787590e-03 1.330137e-03
3.003344e+07 1.004578e+00 6.323242e-02 5.956739e-06 -4.018843e-05 3.341585e-06 1.818780e-05 2.767801e-03 1.299977e-03
3.025125e+07 1.005127e+00 6.304932e-02 3.738143e-05 1.978874e-05 -6.059557e-05 2.488494e-06 2.749801e-03 1.321077e-03
3.046906e+07 1.005554e+00 6.298828e-02 -4.958361e-06 -3.900379e-06 -4.919618e-05 -1.609325e-06 2.764106e-03 1.325965e-03
3.068688e+07 1.006409e+00 6.250000e-02 1.685508e-05 3.579259e-05 1.181848e-06 -1.016119e-05 2.740622e-03 1.283288e-03
3.090469e+07 1.007080e+00 6.250000e-02 -7.241964e-06 -1.535006e-05 -2.896786e-05 7.618219e-07 2.713799e-03 1.348138e-03
3.112250e+07 1.007690e+00 6.359863e-02 -3.593042e-06 -3.336929e-05 -7.366762e-06 2.352521e-05 2.740145e-03 1.292825e-03
3.134031e+07 1.007385e+00 6.353760e-02 6.575137e-06 3.888644e-05 -1.230917e-06 8.629868e-07 2.701402e-03 1.323462e-03
3.155812e+07 1.007568e+00 6.457520e-02 8.639880e-06 1.094677e-05 2.223998e-06 5.796086e-06 2.706766e-03 1.334667e-03
3.177594e+07 1.007568e+00 6.439209e-02 5.207211e-05 -4.040822e-05 7.893424e-06 -1.855660e-06 2.697349e-03 1.313806e-03
3.199375e+07 1.008423e+00 6.579590e-02 5.854294e-06 1.104083e-05 -1.553074e-05 1.459103e-05 2.649784e-03 1.312137e-03
3.221156e+07 1.008667e+00 6.481934e-02 2.262741e-05 1.063012e-05 2.823025e-05 4.285574e-05 2.718091e-03 1.339555e-03
3.242938e+07 1.010010e+00 6.506348e-02 3.955141e-05 1.583993e-05 1.336820e-05 1.643971e-05 2.689600e-03 1.259327e-03
3.264719e+07 1.009583e+00 6.585693e-02 2.211891e-05 -1.174025e-05 -2.224743e-05 -2.825633e-06 2.632260e-03 1.336098e-03
3.286500e+07 1.009888e+00 6.530762e-02 3.867969e-05 -2.331287e-05 -2.278201e-05 1.228973e-05 2.694011e-03 1.274347e-03
3.308281e+07 1.010010e+00 6.640625e-02 -1.120660e-05 2.635643e-07 1.978129e-06 -2.354383e-05 2.633214e-03 1.333833e-03
3.330062e+07 1.010376e+00 6.573486e-02 1.963321e-05 -4.628673e-07 -8.668751e-06 2.453662e-05 2.626896e-03 1.334190e-03
3.351844e+07 1.010315e+00 6.689453e-02 9.097159e-06 2.786145e-05 -2.495944e-07 -1.091603e-05 2.639532e-03 1.301169e-03
3.373625e+07 1.010559e+00 6.658936e-02 5.347654e-06 -1.135934e-05 -4.217029e-06 -7.424969e-07 2.626419e-03 1.323223e-03
3.395406e+07 1.011536e+00 6.640625e-02 1.534447e-05 5.585700e-05 6.467104e-06 2.509914e-05 2.613664e-03 1.308441e-03
3.417188e+07 1.010742e+00 6.652832e-02 1.901202e-05 -2.858602e-05 2.261065e-05 3.227219e-05 2.587676e-03 1.316905e-03
3.438969e+07 1.010986e+00 6.774902e-02 1.218729e-05 3.915280e-05 1.789257e-05 -2.736412e-05 2.571344e-03 1.325488e-03
3.460750e+07 1.012390e+00 6.658936e-02 -1.355074e-05 2.284162e-05 -3.335066e-05 -2.607703e-06 2.561450e-03 1.313686e-03
3.482531e+07 1.012207e+00 6.707764e-02 6.295741e-06 2.803095e-05 4.975125e-06 3.360584e-05 2.557874e-03 1.359582e-03
3.504312e+07 1.012207e+00 6.683350e-02 2.496876e-05 -1.750328e-05 -1.987442e-06 4.223175e-05 2.549410e-03 1.312137e-03
3.526094e+07 1.012512e+00 6.726074e-02 1.207739e-05 3.357045e-05 2.442859e-05 -2.084114e-05 2.580404e-03 1.318693e-03
3.547875e+07 1.011414e+00 6.689453e-02 -2.092868e-05 -5.037338e-05 -3.392249e-05 1.259334e-05 2.527356e-03 1.360536e-03
3.569656e+07 1.011719e+00 6.683350e-02 -7.832423e-06 2.842769e-05 1.096912e-05 1.836475e-05 2.569437e-03 1.361132e-03
3.591438e+07 1.012207e+00 6.768799e-02 -3.889762e-05 2.914667e-05 2.253801e-06 -1.274236e-05 2.495766e-03 1.335740e-03
3.613219e+07 1.012085e+00 6.640625e-02 1.130532e-05 -2.505258e-07 -2.873875e-05 -3.574789e-05 2.530932e-03 1.344204e-03
3.635000e+07 1.012817e+00 6.738281e-02 1.067854e-05 -2.854131e-05 -2.227351e-05 8.109957e-06 2.505064e-03 1.338601e-03
3.656781e+07 1.011597e+00 6.719971e-02 -1.427997e-05 -5.333684e-06 -1.128949e-05 2.649985e-05 2.531290e-03 1.316905e-03
3.678562e+07 1.012024e+00 6.713867e-02 -4.788488e-05 1.243502e-05 -3.130920e-05 -3.405474e-05 2.499819e-03 1.373291e-03
3.700344e+07 1.011963e+00 6.713867e-02 1.243316e-07 5.669426e-06 -1.528393e-05 -5.196780e-07 2.474666e-03 1.321316e-03
3.722125e+07 1.012634e+00 6.793213e-02 5.921349e-06 1.122616e-05 1.452956e-05 4.769303e-06 2.438068e-03 1.438379e-03
3.743906e+07 1.012146e+00 6.707764e-02 1.109112e-05 -1.160614e-05 -3.917888e-05 1.616217e-05 2.453089e-03 1.384377e-03
3.765688e+07 1.012146e+00 6.707764e-02 -3.293529e-05 5.184487e-05 -1.030974e-05 3.338978e-05 2.416849e-03 1.383781e-03
3.787469e+07 1.011963e+00 6.738281e-02 -5.553942e-06 5.802140e-06 -1.804903e-05 -2.853572e-05 2.449870e-03 1.361132e-03
3.809250e+07 1.011658e+00 6.732178e-02 -2.310798e-05 -1.658313e-05 1.358613e-05 -2.072752e-05 2.452612e-03 1.374006e-03
3.831031e+07 1.011108e+00 6.665039e-02 2.843561e-06 -6.170012e-08 -2.537668e-05 6.509945e-06 2.434492e-03 1.344085e-03
3.852812e+07 1.012390e+00 6.689453e-02 1.594797e-05 -5.161762e-05 -1.989957e-05 6.387942e-06 2.459168e-03 1.350999e-03
3.874594e+07 1.012085e+00 6.591797e-02 -3.214926e-06 -1.702830e-05 -9.576324e-06 1.043826e-05 2.407193e-03 1.382709e-03
3.896375e+07 1.012024e+00 6.719971e-02 -2.291054e-05 -5.226582e-06 -3.170967e-05 -4.538894e-05 2.386332e-03 1.410604e-03
3.918156e+07 1.010742e+00 6.762695e-02 -1.094677e-05 2.306700e-05 3.504008e-05 1.823530e-06 2.413511e-03 1.373649e-03
3.939938e+07 1.010742e+00 6.695557e-02 1.153816e-05 5.467795e-06 -3.909692e-05 8.514151e-06 2.420306e-03 1.412392e-03
3.961719e+07 1.011108e+00 6.658936e-02 4.104152e-05 5.055964e-05 -4.058704e-06 2.915598e-05 2.389669e-03 1.420259e-03
3.983500e+07 1.010742e+00 6.732178e-02 1.760758e-05 2.248958e-05 -1.284573e-05 -2.111867e-05 2.391815e-03 1.435757e-03
4.005281e+07 1.010437e+00 6.640625e-02 -2.399087e-06 2.291799e-05 2.529356e-06 -1.764158e-06 2.369404e-03 1.419783e-03
4.027062e+07 1.010864e+00 6.781006e-02 5.835202e-06 5.605631e-06 -5.017966e-06 -3.411993e-05 2.352595e-03 1.378655e-03
4.048844e+07 1.009827e+00 6.768799e-02 3.705919e-05 -6.474555e-06 2.266373e-06 5.950220e-06 2.331853e-03 1.415491e-03
4.070625e+07 1.010986e+00 6.738281e-02 -1.991913e-05 6.131828e-06 2.808869e-05 1.055188e-05 2.367139e-03 1.389742e-03
4.092406e+07 1.009888e+00 6.750488e-02 -3.943220e-05 3.518537e-05 -1.214538e-05 -6.606802e-06 2.376795e-03 1.409650e-03
4.114188e+07 1.009216e+00 6.658936e-02 1.982972e-05 -1.188554e-05 1.291651e-05 2.314337e-06 2.347708e-03 1.408815e-03
4.135969e+07 1.008362e+00 6.738281e-02 1.158472e-05 5.505979e-06 3.374182e-05 -8.409843e-06 2.345920e-03 1.406789e-03
4.157750e+07 1.008606e+00 6.683350e-02 -3.387593e-05 2.937950e-05 -2.231449e-05 -1.843274e-05 2.327800e-03 1.435995e-03
4.179531e+07 1.007935e+00 6.671143e-02 5.742069e-06 -1.136214e-07 7.861760e-06 5.865935e-06 2.357960e-03 1.450300e-03
4.201312e+07 1.008240e+00 6.738281e-02 2.286397e-05 -6.215647e-06 1.200661e-05 -2.346747e-05 2.288580e-03 1.478314e-03
4.223094e+07 1.007446e+00 6.683350e-02 -1.990795e-05 1.187995e-05 -2.617016e-05 -1.583248e-05 2.304554e-03 1.402855e-03
4.244875e+07 1.007690e+00 6.732178e-02 1.080334e-07 5.757436e-06 3.104657e-05 1.098961e-06 2.314568e-03 1.446366e-03
4.266656e+07 1.006287e+00 6.762695e-02 3.113970e-05 -2.938136e-05 4.020706e-05 6.113201e-06 2.270460e-03 1.460910e-03
4.288438e+07 1.006348e+00 6.762695e-02 -1.217239e-05 -3.434345e-05 -4.327670e-05 -7.769093e-06 2.252579e-03 1.437783e-03
4.310219e+07 1.005981e+00 6.701660e-02 -4.209578e-05 5.849451e-05 3.894977e-05 6.988645e-06 2.263188e-03 1.448750e-03
4.332000e+07 1.005249e+00 6.719971e-02 -1.741946e-05 -5.431473e-06 3.591925e-05 2.436340e-05 2.296329e-03 1.476049e-03
4.353781e+07 1.005371e+00 6.726074e-02 -1.154747e-05 2.253801e-07 6.845221e-06 1.801364e-05 2.284408e-03 1.454949e-03
4.375562e+07 1.005127e+00 6.671143e-02 8.777250e-06 5.606562e-06 2.793036e-05 -3.083982e-05 2.285361e-03 1.456141e-03
4.397344e+07 1.004395e+00 6.781006e-02 -4.209578e-07 -2.310984e-05 -3.242306e-05 -1.929700e-05 2.267838e-03 1.455903e-03
4.419125e+07 1.003174e+00 6.835938e-02 -4.069880e-05 -1.080707e-05 -2.443790e-06 -3.633462e-05 2.231121e-03 1.468658e-03
4.440906e+07 1.002869e+00 6.750488e-02 -8.785166e-06 -5.634502e-06 -2.865307e-05 -2.920628e-06 2.251029e-03 1.498103e-03
4.462688e+07 1.002563e+00 6.860352e-02 1.480430e-05 1.710653e-05 -6.074086e-06 -2.243556e-05 2.236128e-03 1.468778e-03
4.484469e+07 1.002380e+00 6.915283e-02 -3.423542e-06 -2.893247e-05 1.041777e-05 2.321787e-05 2.254128e-03 1.516342e-03
4.506250e+07 1.002197e+00 6.835938e-02 1.181290e-05 1.138542e-05 1.883693e-05 -3.595278e-05 2.232194e-03 1.510024e-03
4.528031e+07 1.001160e+00 6.896973e-02 -1.980551e-05 2.938323e-05 1.379848e-05 1.713447e-05 2.226710e-03 1.458883e-03
4.549812e+07 1.000610e+00 6.915283e-02 6.213784e-06 2.312288e-05 1.281034e-05 1.018867e-05 2.230763e-03 1.537085e-03
4.571594e+07 1.000122e+00 6.884766e-02 1.764297e-05 1.130346e-05 -2.468750e-05 5.679205e-06 2.183795e-03 1.501322e-03
4.593375e+07 1.000000e+00 6.964111e-02 -8.520670e-06 1.179054e-05 -2.749264e-05 -3.851950e-06 2.214551e-03 1.501560e-03
4.615156e+07 9.989624e-01 6.958008e-02 -5.081296e-06 4.081801e-05 -1.719315e-05 -1.099892e-05 2.171636e-03 1.548171e-03
4.636938e+07 9.985962e-01 6.958008e-02 9.044074e-06 1.730025e-05 1.183245e-05 3.265217e-06 2.189994e-03 1.588106e-03
4.658719e+07 9.972534e-01 7.025146e-02 4.135072e-07 2.330355e-05 2.048910e-07 1.133513e-05 2.194285e-03 1.559615e-03
4.680500e+07 9.973755e-01 7.049561e-02 2.309680e-06 -3.503636e-05 -2.597831e-05 -1.263246e-05 2.194166e-03 1.557827e-03
4.702281e+07 9.974365e-01 7.073975e-02 3.238022e-05 1.697242e-05 1.351722e-05 -2.469681e-05 2.174020e-03 1.517653e-03
4.724062e+07 9.957275e-01 7.171631e-02 -2.002530e-05 2.369098e-05 -1.403410e-05 2.122577e-05 2.140164e-03 1.591206e-03
4.745844e+07 9.960938e-01 7.159424e-02 2.881326e-05 -2.384745e-05 -3.236905e-05 2.245978e-05 2.137661e-03 1.566410e-03
4.767625e+07 9.953003e-01 7.122803e-02 -2.823770e-06 5.893409e-06 2.885237e-06 -9.677373e-06 2.190232e-03 1.564026e-03
4.789406e+07 9.938354e-01 7.214355e-02 -5.747657e-06 5.943235e-06 -2.867356e-05 -1.087226e-05 2.150893e-03 1.554608e-03
4.811188e+07 9.939575e-01 7.269287e-02 -1.786556e-05 -1.727697e-05 -4.966557e-05 4.206598e-05 2.163291e-03 1.562238e-03
4.832969e+07 9.930420e-01 7.244873e-02 -1.111813e-05 3.531389e-05 -1.490489e-05 -2.427213e-05 2.158523e-03 1.567602e-03
4.854750e+07 9.923096e-01 7.324219e-02 2.079643e-05 1.725927e-05 -1.431350e-05 9.892508e-06 2.139211e-03 1.556635e-03
4.876531e+07 9.921265e-01 7.391357e-02 3.223307e-06 1.752283e-05 -4.214607e-05 -2.469681e-05 2.113819e-03 1.564503e-03
4.898312e+07 9.914551e-01 7.379150e-02 3.300607e-06 2.341345e-05 -1.501851e-05 -5.003996e-06 2.097607e-03 1.564145e-03
4.920094e+07 9.902344e-01 7.501221e-02 2.632104e-05 -6.301329e-06 -1.933798e-05 -2.515875e-05 2.097368e-03 1.589060e-03
4.941875e+07 9.904175e-01 7.452393e-02 6.435439e-06 3.514066e-05 -2.156198e-05 -5.038455e-07 2.124548e-03 1.606226e-03
4.963656e+07 9.893188e-01 7.543945e-02 -3.290363e-05 -3.475323e-05 1.506135e-05 -4.509836e-05 2.094388e-03 1.610637e-03
4.985438e+07 9.882812e-01 7.611084e-02 -2.617203e-05 1.804158e-05 -3.255904e-06 -6.337091e-05 2.083659e-03 1.585841e-03
5.007219e+07 9.883423e-01 7.684326e-02 -8.469447e-06 2.365932e-05 6.131828e-06 -2.740510e-05 2.106190e-03 1.627326e-03
5.029000e+07 9.871826e-01 7.617188e-02 4.414469e-07 2.943166e-05 -2.551265e-05 2.199784e-06 2.123833e-03 1.604915e-03
5.050781e+07 9.865112e-01 7.678223e-02 -1.535192e-05 -4.094467e-05 1.749583e-05 -8.231029e-06 2.114058e-03 1.626849e-03
5.072562e+07 9.861450e-01 7.757568e-02 -2.678856e-05 -1.725741e-05 -5.422160e-06 -7.846858e-06 2.093673e-03 1.641035e-03
5.094344e+07 9.857788e-01 7.855225e-02 2.347119e-05 -6.262213e-06 -2.020597e-05 -2.085976e-05 2.110720e-03 1.591206e-03
5.116125e+07 9.852295e-01 7.739258e-02 9.101816e-06 1.753401e-05 -2.437271e-05 2.070330e-05 2.082705e-03 1.605868e-03
5.137906e+07 9.847412e-01 7.977295e-02 2.062880e-05 -3.091991e-07 -2.215058e-05 -4.045665e-06 2.089381e-03 1.614451e-03
5.159688e+07 9.826660e-01 7.977295e-02 -1.796521e-05 -1.743436e-05 -1.741201e-05 -1.121219e-05 2.067924e-03 1.620531e-03
5.181469e+07 9.813843e-01 8.062744e-02 -2.074055e-05 -5.600974e-06 -2.871454e-05 4.731119e-07 2.082705e-03 1.637459e-03
5.203250e+07 9.830933e-01 8.074951e-02 6.158836e-06 1.762342e-05 -1.325272e-05 2.850965e-05 2.067685e-03 1.602888e-03
5.225031e+07 9.821777e-01 8.099365e-02 2.919137e-05 -2.404675e-05 8.458272e-06 2.907962e-05 2.057910e-03 1.649618e-03
5.246812e+07 9.813843e-01 8.166504e-02 -4.416332e-05 1.246482e-05 -7.065944e-06 9.923242e-07 2.052426e-03 1.657009e-03
5.268594e+07 9.813843e-01 8.312988e-02 -3.556348e-05 -5.394220e-06 3.552437e-05 6.511807e-06 2.042532e-03 1.626015e-03
5.290375e+07 9.802856e-01 8.258057e-02 -5.811453e-07 -4.138798e-05 1.513585e-05 5.059876e-06 2.041817e-03 1.647949e-03
5.312156e+07 9.788208e-01 8.361816e-02 -8.020550e-06 5.925819e-05 8.575618e-06 9.617768e-06 2.079725e-03 1.628757e-03
5.333938e+07 9.785156e-01 8.374023e-02 1.801178e-05 1.749862e-05 -4.837662e-05 -5.453825e-06 2.084851e-03 1.646996e-03
5.355719e+07 9.771729e-01 8.404541e-02 -5.834270e-06 6.005168e-06 -1.660082e-05 1.534726e-05 1.959324e-03 1.651287e-03
5.377500e+07 9.771118e-01 8.593750e-02 -1.537427e-05 -4.125386e-05 -2.850592e-05 -7.517636e-06 2.042651e-03 1.627445e-03
5.399281e+07 9.766235e-01 8.685303e-02 -5.353615e-05 -1.706928e-05 7.081777e-06 -9.993091e-07 2.009749e-03 1.639247e-03
5.421062e+07 9.753418e-01 8.715820e-02 4.749745e-07 3.555603e-05 -1.716521e-05 -1.924764e-05 1.994729e-03 1.652122e-03
5.442844e+07 9.749756e-01 8.715820e-02 -3.556348e-05 4.749745e-07 -4.873052e-05 2.544373e-06 2.002478e-03 1.668453e-03
5.464625e+07 9.742432e-01 8.837891e-02 -1.235679e-05 -3.541820e-05 -2.265349e-05 -5.826354e-05 2.033114e-03 1.627088e-03
5.486406e+07 9.737549e-01 8.917236e-02 -2.069771e-05 6.204471e-06 7.789582e-06 4.519150e-05 1.997709e-03 1.678705e-03
5.508188e+07 9.738770e-01 8.923340e-02 -7.217750e-08 -5.932990e-06 -1.948047e-05 5.636364e-06 2.002001e-03 1.676202e-03
5.529969e+07 9.722900e-01 9.075928e-02 -5.695969e-06 1.789257e-05 -1.272000e-05 -1.849793e-05 2.015710e-03 1.666188e-03
5.551750e+07 9.718628e-01 9.051514e-02 -1.507532e-05 -1.761876e-05 -2.768636e-05 5.023926e-05 2.002239e-03 1.637816e-03
5.573531e+07 9.712524e-01 9.216309e-02 3.593641e-10 3.504681e-10 -1.473166e-05 -3.273599e-05 1.988888e-03 1.648545e-03
5.595312e+07 9.705811e-01 9.277344e-02 5.178154e-07 4.159659e-05 1.139194e-05 -4.289299e-05 2.025962e-03 1.637220e-03
5.617094e+07 9.704590e-01 9.362793e-02 -8.984935e-06 -5.831476e-06 3.472157e-05 -3.168359e-05 1.954675e-03 1.693010e-03
5.638875e+07 9.702759e-01 9.356689e-02 1.507811e-05 1.766905e-05 2.811477e-05 4.045665e-06 1.966119e-03 1.675963e-03
5.660656e+07 9.681396e-01 9.478760e-02 4.164129e-05 -4.991889e-07 1.208205e-05 3.376976e-06 1.962781e-03 1.632214e-03
5.682438e+07 9.682007e-01 9.613037e-02 -8.712523e-06 1.796242e-05 -1.042709e-05 -1.232047e-05 1.966000e-03 1.633048e-03
5.704219e+07 9.674072e-01 9.613037e-02 -4.405156e-05 4.816800e-05 1.704879e-05 -2.341904e-05 1.929998e-03 1.685619e-03
5.726000e+07 9.671021e-01 9.753418e-02 2.540648e-06 -4.171580e-05 -3.984198e-06 3.394671e-05 1.944184e-03 1.692772e-03
5.747781e+07 9.668579e-01 9.881592e-02 -1.168810e-05 1.801271e-05 3.097579e-05 1.382269e-05 1.972079e-03 1.729727e-03
5.769562e+07 9.666748e-01 9.875488e-02 -1.476333e-05 1.209974e-05 -1.261011e-05 -3.818050e-05 1.937985e-03 1.666784e-03
5.791344e+07 9.648438e-01 9.967041e-02 6.035436e-06 5.889684e-06 -2.485700e-06 -1.781620e-05 1.925588e-03 1.661420e-03
5.813125e+07 9.647217e-01 9.973145e-02 3.189780e-06 1.785439e-05 -2.122018e-05 1.459010e-05 1.941800e-03 1.687646e-03
5.834906e+07 9.652100e-01 1.015015e-01 3.566593e-05 -1.234375e-05 2.473593e-06 -1.342874e-05 1.924276e-03 1.678705e-03
5.856688e+07 9.642334e-01 1.026001e-01 -2.985075e-05 3.557652e-07 2.143905e-06 2.588890e-05 1.945019e-03 1.715541e-03
5.878469e+07 9.629517e-01 1.040039e-01 -2.083369e-05 6.211922e-06 -1.976918e-05 -5.973503e-06 1.933575e-03 1.724482e-03
5.900250e+07 9.628296e-01 1.047363e-01 2.674945e-05 -1.225248e-05 3.008358e-05 -2.458133e-05 1.930714e-03 1.712441e-03
5.922031e+07 9.622192e-01 1.050415e-01 1.208391e-05 1.182687e-05 6.807968e-06 7.065944e-06 1.883984e-03 1.705289e-03
5.943812e+07 9.613037e-01 1.063843e-01 -3.328733e-05 -3.555976e-05 -1.281593e-05 1.271069e-05 1.909494e-03 1.714468e-03
5.965594e+07 9.611816e-01 1.070557e-01 9.220093e-06 2.382882e-05 2.280623e-05 -3.887340e-06 1.901627e-03 1.706362e-03
5.987375e+07 9.605103e-01 1.074829e-01 8.717179e-06 -2.404302e-05 2.248399e-05 -2.717227e-05 1.875639e-03 1.688957e-03
6.009156e+07 9.602051e-01 1.083374e-01 -4.193559e-05 4.284084e-07 3.952533e-06 2.865493e-05 1.876831e-03 1.718044e-03
6.030938e+07 9.591675e-01 1.101685e-01 1.161359e-05 -3.609620e-05 -2.148096e-05 2.969988e-06 1.874328e-03 1.716971e-03
6.052719e+07 9.592285e-01 1.104736e-01 -1.819152e-05 -1.780782e-05 -1.334178e-06 9.157811e-07 1.912236e-03 1.701951e-03
6.074500e+07 9.584961e-01 1.114502e-01 6.383285e-06 3.593229e-05 5.537271e-05 9.179115e-06 1.896620e-03 1.741409e-03
6.096281e+07 9.578247e-01 1.124878e-01 -1.819339e-05 -1.782551e-05 1.137704e-05 -2.351776e-05 1.867294e-03 1.711011e-03
6.118062e+07 9.588013e-01 1.137085e-01 1.856312e-05 3.385358e-06 -3.968552e-05 6.080046e-05 1.880050e-03 1.718998e-03
6.139844e+07 9.582520e-01 1.142578e-01 3.633462e-05 4.086643e-06 -6.288756e-06 -2.578832e-06 1.897097e-03 1.710534e-03
6.161625e+07 9.581909e-01 1.149902e-01 -1.407415e-05 -2.815947e-05 -1.245551e-05 8.849427e-06 1.866937e-03 1.707911e-03
6.183406e+07 9.581909e-01 1.155396e-01 1.013372e-05 1.464412e-05 2.304465e-05 -6.001443e-06 1.865149e-03 1.726389e-03
6.205188e+07 9.568481e-01 1.169434e-01 -1.387484e-05 1.282617e-05 2.471171e-05 3.292970e-05 1.829624e-03 1.716614e-03
6.226969e+07 9.567261e-01 1.177979e-01 -1.441687e-05 5.118921e-05 -6.297603e-06 -2.579764e-06 1.900077e-03 1.710534e-03
6.248750e+07 9.565430e-01 1.186523e-01 -2.727844e-05 -3.316626e-05 1.203921e-05 -1.861993e-05 1.872659e-03 1.753807e-03
6.270531e+07 9.560547e-01 1.198730e-01 2.415478e-05 2.233498e-05 2.579018e-05 1.732260e-06 1.805425e-03 1.755357e-03
6.292312e+07 9.559937e-01 1.208496e-01 -1.064315e-05 4.425272e-05 -6.023794e-05 2.833083e-05 1.797438e-03 1.749754e-03
6.314094e+07 9.558716e-01 1.206665e-01 4.280731e-05 2.574548e-05 -1.220405e-05 3.700517e-05 1.845956e-03 1.739383e-03
6.335875e+07 9.549561e-01 1.220703e-01 1.096446e-05 1.740828e-05 -1.576915e-05 -2.267584e-05 1.803994e-03 1.738906e-03
6.357656e+07 9.547729e-01 1.215820e-01 2.136454e-06 -3.300793e-05 -2.266280e-05 1.580268e-05 1.824141e-03 1.728058e-03
6.379438e+07 9.552002e-01 1.235962e-01 -1.775846e-05 1.990609e-05 3.907643e-05 -1.708046e-06 1.846313e-03 1.766682e-03
6.401219e+07 9.540405e-01 1.241455e-01 7.921830e-06 2.716854e-05 -6.179325e-06 1.148600e-05 1.794696e-03 1.742840e-03
6.423000e+07 9.539795e-01 1.253052e-01 7.691793e-06 -1.402944e-05 6.747432e-06 1.236051e-05 1.852751e-03 1.756191e-03
6.444781e+07 9.533691e-01 1.265259e-01 -4.123896e-05 2.048910e-07 2.012122e-06 2.301414e-06 1.824856e-03 1.740456e-03
6.466562e+07 9.530029e-01 1.278076e-01 4.058704e-05 1.765415e-05 4.791841e-05 -1.952797e-05 1.816273e-03 1.711249e-03
6.488344e+07 9.532471e-01 1.283569e-01 -1.325645e-05 -4.984438e-06 2.893619e-05 5.196780e-06 1.827002e-03 1.735330e-03
6.510125e+07 9.525757e-01 1.290283e-01 -1.892075e-05 -4.469231e-05 -7.357448e-05 1.351535e-05 1.825571e-03 1.735330e-03
6.531906e+07 9.519653e-01 1.306152e-01 -9.300187e-06 8.621253e-06 9.796582e-06 -1.669675e-05 1.802802e-03 1.717448e-03
6.553688e+07 9.522095e-01 1.310425e-01 -1.470558e-06 1.519918e-05 3.011897e-06 -2.911687e-05 1.784563e-03 1.762867e-03
6.575469e+07 9.511108e-01 1.320190e-01 1.781806e-05 -1.997501e-05 -3.630295e-05 2.364069e-05 1.834154e-03 1.782179e-03
6.597250e+07 9.512329e-01 1.329956e-01 -5.566515e-06 -1.907628e-05 3.286451e-05 -4.321337e-06 1.796842e-03 1.749992e-03
6.619031e+07 9.513550e-01 1.350098e-01 -2.794340e-05 2.588518e-05 -1.124479e-05 -2.684444e-05 1.787186e-03 1.737475e-03
6.640812e+07 9.509888e-01 1.354370e-01 -1.250952e-05 -2.270564e-06 2.265535e-05 2.600253e-06 1.800895e-03 1.711488e-03
6.662594e+07 9.511108e-01 1.368408e-01 5.561486e-05 2.817810e-05 6.385148e-06 -6.269291e-05 1.758933e-03 1.748800e-03
6.684375e+07 9.502563e-01 1.373291e-01 4.114583e-06 3.433600e-05 -7.223338e-06 1.039403e-05 1.768827e-03 1.712680e-03
6.706156e+07 9.500732e-01 1.381226e-01 -3.189780e-06 -1.092628e-05 -3.495626e-05 2.022833e-06 1.793981e-03 1.742482e-03
6.727938e+07 9.506836e-01 1.389771e-01 1.002103e-05 -2.664328e-05 2.481043e-06 -5.321205e-05 1.793861e-03 1.745343e-03
6.749719e+07 9.506226e-01 1.394043e-01 -4.203618e-05 3.896281e-05 1.084805e-05 -1.562294e-05 1.761436e-03 1.709938e-03
6.771500e+07 9.500732e-01 1.399536e-01 -1.651049e-05 -1.593959e-05 -3.341772e-05 -5.481765e-06 1.739502e-03 1.739860e-03
6.793281e+07 9.500732e-01 1.406860e-01 7.663667e-05 -1.560897e-06 1.146086e-05 4.109927e-05 1.782656e-03 1.778007e-03
6.815062e+07 9.501953e-01 1.421509e-01 4.321709e-05 2.596527e-05 3.605336e-05 -8.679926e-07 1.762509e-03 1.714587e-03
6.836844e+07 9.497070e-01 1.436157e-01 -1.095049e-05 3.196299e-06 -1.056772e-05 1.129787e-05 1.738906e-03 1.793981e-03
6.858625e+07 9.496460e-01 1.440430e-01 -2.670102e-05 -1.003221e-05 -1.869351e-05 2.033077e-06 1.811028e-03 1.771569e-03
6.880406e+07 9.493408e-01 1.456299e-01 3.609434e-05 1.365319e-06 3.519841e-05 -2.057664e-05 1.724958e-03 1.734614e-03
6.902188e+07 9.491577e-01 1.463013e-01 3.289245e-05 -9.618700e-06 -3.100745e-05 6.675720e-06 1.683950e-03 1.736641e-03
6.923969e+07 9.492188e-01 1.469727e-01 1.738220e-05 1.874194e-05 2.451241e-05 9.253621e-06 1.777053e-03 1.725197e-03
6.945750e+07 9.493408e-01 1.484985e-01 -5.489215e-06 1.600944e-06 -2.887473e-05 -9.570271e-06 1.783490e-03 1.762986e-03
6.967531e+07 9.495850e-01 1.491699e-01 2.973154e-05 -2.059899e-05 1.305016e-06 -3.194902e-06 1.696587e-03 1.769423e-03
6.989312e+07 9.498901e-01 1.504517e-01 2.512708e-06 2.904795e-05 -4.409812e-07 -9.877142e-06 1.758933e-03 1.771212e-03
7.011094e+07 9.486084e-01 1.519775e-01 1.246016e-05 -1.854822e-05 -1.739245e-06 -6.678049e-06 1.752019e-03 1.769900e-03
7.032875e+07 9.493408e-01 1.517334e-01 4.576519e-06 -2.517551e-05 -1.846813e-05 -3.515370e-05 1.715183e-03 1.772761e-03
7.054656e+07 9.494019e-01 1.531982e-01 5.444884e-05 2.287701e-05 -2.194569e-05 1.715869e-05 1.722574e-03 1.749516e-03
7.076438e+07 9.494019e-01 1.539917e-01 6.049126e-05 -1.771003e-05 -1.003267e-05 2.621673e-06 1.725793e-03 1.773000e-03
7.098219e+07 9.489746e-01 1.555786e-01 -1.436472e-05 -2.866238e-05 -3.009848e-05 -2.501346e-05 1.688838e-03 1.798272e-03
7.120000e+07 9.493408e-01 1.558228e-01 -3.080815e-06 9.861775e-06 8.458272e-06 3.784522e-05 1.736164e-03 1.796007e-03
7.141781e+07 9.483643e-01 1.563721e-01 5.593896e-05 7.532537e-06 -1.120847e-05 -1.279078e-05 1.699209e-03 1.762509e-03
7.163562e+07 9.487305e-01 1.576538e-01 3.371574e-05 -2.776459e-05 -2.903398e-07 4.366273e-06 1.693845e-03 1.756191e-03
7.185344e+07 9.492798e-01 1.577148e-01 -4.343316e-05 -5.263835e-06 -1.048995e-05 -7.275026e-06 1.647949e-03 1.750588e-03
7.207125e+07 9.487915e-01 1.591187e-01 1.855195e-05 6.335974e-05 -2.125464e-05 2.273358e-05 1.717091e-03 1.754403e-03
7.228906e+07 9.486694e-01 1.606445e-01 1.424830e-05 7.805414e-06 3.945082e-06 2.329983e-05 1.640439e-03 1.766443e-03
7.250688e+07 9.490967e-01 1.620483e-01 4.573166e-05 -7.405877e-06 6.133690e-06 -2.594478e-05 1.710415e-03 1.761913e-03
7.272469e+07 9.486694e-01 1.628418e-01 3.326312e-05 1.123548e-05 2.324581e-06 3.090501e-05 1.721263e-03 1.767516e-03
7.294250e+07 9.494019e-01 1.640015e-01 1.589116e-05 1.332909e-05 2.859347e-05 -3.325753e-05 1.669645e-03 1.707554e-03
7.316031e+07 9.497070e-01 1.644287e-01 1.279078e-05 2.324209e-05 6.411225e-06 -3.035925e-05 1.663208e-03 1.769543e-03
7.337812e+07 9.499512e-01 1.655273e-01 -1.896173e-06 -4.741549e-05 -5.695969e-06 2.919231e-06 1.628160e-03 1.782775e-03
7.359594e+07 9.498901e-01 1.658325e-01 -1.657568e-05 4.847534e-06 -1.838896e-05 1.199264e-05 1.677632e-03 1.754165e-03
7.381375e+07 9.501953e-01 1.666260e-01 9.406358e-07 2.371520e-05 3.755093e-05 -1.845881e-05 1.658082e-03 1.718760e-03
7.403156e+07 9.500732e-01 1.683960e-01 -3.560632e-05 1.408160e-06 -3.685802e-05 -9.045005e-06 1.652956e-03 1.697659e-03
7.424938e+07 9.497681e-01 1.699219e-01 2.424698e-06 8.300878e-06 -4.678220e-05 -2.513453e-05 1.648545e-03 1.741409e-03
7.446719e+07 9.503174e-01 1.697998e-01 -1.902785e-05 -3.448687e-06 -6.731972e-05 -1.546368e-05 1.659751e-03 1.735926e-03
7.468500e+07 9.504395e-01 1.707764e-01 1.376495e-05 4.705414e-05 5.445257e-05 1.021102e-05 1.650333e-03 1.752734e-03
7.490281e+07 9.507446e-01 1.721191e-01 -9.329990e-06 2.977997e-05 1.962669e-05 3.499910e-06 1.644611e-03 1.787305e-03
7.512062e+07 9.507446e-01 1.727905e-01 1.351815e-05 5.072914e-06 -1.949817e-05 -2.224930e-05 1.641631e-03 1.719952e-03
7.533844e+07 9.509888e-01 1.742554e-01 -4.907325e-05 1.737103e-05 -3.370456e-06 8.800998e-07 1.671672e-03 1.728535e-03
7.555625e+07 9.512329e-01 1.745605e-01 2.309680e-05 1.728535e-05 -1.669768e-05 1.877733e-05 1.637340e-03 1.747131e-03
7.577406e+07 9.514160e-01 1.751709e-01 -6.502494e-06 -2.217852e-05 -1.511909e-05 -2.197735e-05 1.664281e-03 1.766443e-03
7.599188e+07 9.517822e-01 1.768799e-01 1.714751e-05 -4.416704e-05 3.080443e-05 2.041459e-06 1.607180e-03 1.691461e-03
7.620969e+07 9.511719e-01 1.772461e-01 3.252178e-06 1.109485e-05 -1.625530e-05 2.874807e-05 1.632810e-03 1.744270e-03
7.642750e+07 9.524536e-01 1.776123e-01 -2.530403e-05 1.644716e-05 1.098961e-05 -1.586322e-05 1.653552e-03 1.726389e-03
7.664531e+07 9.519653e-01 1.786499e-01 -3.495440e-05 4.211441e-06 -2.596900e-05 8.236617e-06 1.600385e-03 1.753688e-03
7.686312e+07 9.523926e-01 1.799927e-01 -6.423891e-05 2.783537e-05 -1.408812e-05 1.234747e-05 1.581073e-03 1.716495e-03
7.708094e+07 9.525146e-01 1.804199e-01 -2.888590e-05 -3.680214e-05 -2.069026e-05 2.851337e-05 1.608014e-03 1.705647e-03
7.729875e+07 9.533081e-01 1.807861e-01 3.105588e-05 2.983958e-06 -2.663210e-05 -1.612306e-05 1.583695e-03 1.713276e-03
7.751656e+07 9.536133e-01 1.823730e-01 -2.632290e-05 -7.376075e-06 -6.128103e-07 -2.441369e-05 1.565814e-03 1.738071e-03
7.773438e+07 9.533081e-01 1.828613e-01 -2.522953e-05 3.761239e-05 -7.341150e-06 1.059053e-05 1.606703e-03 1.685381e-03
7.795219e+07 9.537964e-01 1.840820e-01 -3.960729e-05 2.974272e-05 -1.913216e-05 -1.234468e-05 1.568198e-03 1.719594e-03
7.817000e+07 9.536743e-01 1.853027e-01 1.632143e-06 5.570706e-06 -2.632663e-05 1.266785e-05 1.572728e-03 1.708269e-03
7.838781e+07 9.539185e-01 1.859741e-01 -8.163042e-07 -2.785120e-06 4.861504e-06 1.029810e-05 1.595616e-03 1.717091e-03
7.860562e+07 9.547119e-01 1.864014e-01 1.060963e-05 3.621541e-05 -6.647781e-06 -1.707859e-05 1.573682e-03 1.740932e-03
7.882344e+07 9.547119e-01 1.875000e-01 -8.843839e-06 -9.520445e-06 -1.929048e-05 6.496906e-06 1.606464e-03 1.757383e-03
7.904125e+07 9.548340e-01 1.884766e-01 -4.868954e-05 -8.456409e-07 4.963204e-05 -2.890453e-05 1.610637e-03 1.731157e-03
7.925906e+07 9.553223e-01 1.889038e-01 7.213093e-06 3.942288e-06 1.662225e-05 -3.331341e-05 1.644969e-03 1.724601e-03
7.947688e+07 9.556274e-01 1.898193e-01 1.183897e-05 -2.166070e-05 -1.845323e-05 -4.007295e-05 1.583815e-03 1.729369e-03
7.969469e+07 9.559937e-01 1.907959e-01 -9.685755e-06 -1.232140e-05 -2.373569e-05 6.211922e-06 1.566887e-03 1.706362e-03
7.991250e+07 9.561768e-01 1.915283e-01 2.972223e-05 1.858734e-05 3.391411e-06 -8.877832e-07 1.568794e-03 1.760125e-03
8.013031e+07 9.564209e-01 1.920776e-01 1.051184e-05 1.511071e-05 2.816319e-05 -5.938113e-06 1.576900e-03 1.719952e-03
8.034812e+07 9.568481e-01 1.921387e-01 8.996576e-06 3.073923e-05 -4.312955e-05 -2.058595e-05 1.562238e-03 1.710892e-03
8.056594e+07 9.570923e-01 1.935425e-01 -2.416410e-05 -2.025440e-05 -3.968365e-06 9.751879e-06 1.585841e-03 1.742125e-03
8.078375e+07 9.579468e-01 1.942139e-01 9.035692e-06 3.074110e-05 -1.180265e-05 1.035724e-05 1.597881e-03 1.720428e-03
8.100156e+07 9.581299e-01 1.947021e-01 -1.692586e-05 -1.629256e-05 -5.526096e-05 -5.830079e-06 1.578808e-03 1.705527e-03
8.121938e+07 9.584961e-01 1.952515e-01 1.170114e-05 -4.298612e-05 -1.181103e-05 1.036655e-05 1.582742e-03 1.705766e-03
8.143719e+07 9.584351e-01 1.959229e-01 -1.625344e-05 -3.475137e-05 -1.514331e-05 -4.108436e-05 1.576781e-03 1.718640e-03
8.165500e+07 9.594116e-01 1.971436e-01 -2.294779e-05 4.629418e-05 1.730211e-05 -8.895993e-06 1.550078e-03 1.709461e-03
8.187281e+07 9.593506e-01 1.984863e-01 3.293157e-06 1.121312e-05 1.382083e-05 4.440174e-05 1.534462e-03 1.700163e-03
8.209062e+07 9.598389e-01 1.983032e-01 1.270976e-05 -1.894962e-05 -6.985851e-06 -1.272280e-05 1.527071e-03 1.687646e-03
8.230844e+07 9.597168e-01 1.992798e-01 2.025068e-05 2.752244e-05 3.133342e-05 -3.587827e-05 1.558185e-03 1.676440e-03
8.252625e+07 9.605103e-01 1.994629e-01 2.706982e-05 -3.229082e-05 -2.079527e-06 -2.366374e-06 1.553655e-03 1.696587e-03
8.274406e+07 9.608765e-01 2.003784e-01 2.162345e-05 -9.397045e-06 -7.100403e-06 6.238930e-06 1.527905e-03 1.669049e-03
8.296188e+07 9.613647e-01 2.011719e-01 6.837770e-05 4.313886e-06 -2.261251e-05 -3.047846e-05 1.547098e-03 1.689553e-03
8.317969e+07 9.621582e-01 2.017822e-01 1.520012e-05 -1.057051e-05 1.509674e-06 1.127273e-05 1.529932e-03 1.683116e-03
8.339750e+07 9.622192e-01 2.022705e-01 -2.179109e-05 -1.191162e-05 -8.068979e-06 3.860705e-05 1.521111e-03 1.722574e-03
8.361531e+07 9.627686e-01 2.032471e-01 3.190152e-05 -3.687106e-05 -1.220871e-05 -1.868326e-05 1.501799e-03 1.694918e-03
8.383312e+07 9.633179e-01 2.036743e-01 2.180599e-05 1.191720e-05 -3.120117e-05 -2.019107e-06 1.490951e-03 1.684070e-03
8.405094e+07 9.631348e-01 2.051392e-01 2.980232e-06 -3.140792e-05 -5.205628e-06 -5.935319e-06 1.529574e-03 1.689792e-03
8.426875e+07 9.636841e-01 2.048340e-01 2.647750e-05 -1.388416e-05 9.037554e-06 -1.844298e-05 1.484275e-03 1.644969e-03
8.448656e+07 9.633789e-01 2.050781e-01 -2.564862e-05 1.671165e-05 -3.595836e-06 -1.366995e-05 1.489878e-03 1.676679e-03
8.470438e+07 9.644775e-01 2.062988e-01 -5.930662e-06 -4.106387e-05 1.820549e-05 3.031455e-05 1.520038e-03 1.649261e-03
8.492219e+07 9.639282e-01 2.068481e-01 -3.873184e-05 -6.929040e-06 -2.266094e-05 -3.060512e-05 1.471519e-03 1.687527e-03
8.514000e+07 9.641724e-01 2.069702e-01 -3.545731e-05 4.295260e-06 1.432560e-05 2.109446e-05 1.496196e-03 1.672626e-03
8.535781e+07 9.650269e-01 2.079468e-01 -3.279559e-05 3.415719e-05 5.168468e-05 1.569837e-05 1.484871e-03 1.660109e-03
8.557562e+07 9.660034e-01 2.077026e-01 1.277030e-05 -1.905486e-05 1.521874e-05 7.711351e-06 1.491189e-03 1.668811e-03
8.579344e+07 9.661865e-01 2.089844e-01 8.952338e-06 9.624753e-06 -2.426654e-05 1.077354e-05 1.515269e-03 1.645207e-03
8.601125e+07 9.663696e-01 2.097168e-01 3.535859e-05 -2.571195e-05 -4.661269e-07 -1.013419e-05 1.471043e-03 1.656651e-03
8.622906e+07 9.661865e-01 2.095337e-01 -6.462261e-05 9.767711e-06 1.606345e-05 4.703924e-05 1.423240e-03 1.658440e-03
8.644688e+07 9.677734e-01 2.099609e-01 4.671514e-06 7.840618e-05 -3.114901e-05 1.261756e-05 1.511574e-03 1.699090e-03
8.666469e+07 9.678955e-01 2.110596e-01 -2.846122e-06 5.304441e-05 -3.841519e-05 3.799796e-05 1.465321e-03 1.692891e-03
8.688250e+07 9.682007e-01 2.123413e-01 -4.156493e-06 -1.412909e-05 -3.461540e-05 1.349486e-05 1.441717e-03 1.657367e-03
8.710031e+07 9.683838e-01 2.117920e-01 1.712143e-05 1.647323e-05 2.612174e-05 4.891306e-05 1.485109e-03 1.667380e-03
8.731812e+07 9.695435e-01 2.136841e-01 -2.635643e-06 -2.996065e-05 1.683272e-05 -3.382191e-05 1.460433e-03 1.677036e-03
8.753594e+07 9.700928e-01 2.129517e-01 -1.364667e-05 1.629815e-05 1.784973e-05 -3.265403e-05 1.432180e-03 1.684308e-03
8.775375e+07 9.707642e-01 2.133789e-01 6.159022e-05 3.427267e-07 3.363006e-05 -1.475960e-05 1.441956e-03 1.667023e-03
8.797156e+07 9.703979e-01 2.140503e-01 -4.831702e-06 4.504342e-06 -2.777204e-06 2.573244e-05 1.433015e-03 1.649380e-03
8.818938e+07 9.708862e-01 2.144775e-01 -2.666935e-05 1.398847e-05 -9.845942e-06 1.289975e-05 1.426458e-03 1.642704e-03
8.840719e+07 9.707642e-01 2.149048e-01 -1.031347e-05 2.766959e-05 3.056601e-05 1.548976e-05 1.456618e-03 1.694679e-03
8.862500e+07 9.719238e-01 2.156372e-01 -2.287515e-05 -1.483597e-05 -2.154335e-05 1.890957e-05 1.405001e-03 1.689315e-03
8.884281e+07 9.715576e-01 2.149658e-01 -6.556511e-07 1.869164e-05 -9.271782e-06 3.916677e-06 1.478195e-03 1.672983e-03
8.906062e+07 9.727783e-01 2.160034e-01 4.040822e-05 -3.040582e-05 -3.042817e-05 -5.392358e-05 1.444101e-03 1.668811e-03
8.927844e+07 9.727783e-01 2.166138e-01 2.332032e-06 -1.302827e-05 -1.262315e-05 -1.437310e-05 1.424432e-03 1.618981e-03
8.949625e+07 9.733276e-01 2.160034e-01 2.205931e-05 1.203455e-05 -1.502782e-05 -1.226179e-05 1.418591e-03 1.668692e-03
8.971406e+07 9.735107e-01 2.175903e-01 3.009103e-05 -2.674758e-06 -2.624653e-05 3.961846e-06 1.436472e-03 1.640797e-03
8.993188e+07 9.741821e-01 2.180176e-01 -1.992285e-05 5.839020e-05 1.816079e-06 6.901566e-06 1.400828e-03 1.619339e-03
9.014969e+07 9.750366e-01 2.180176e-01 -8.036382e-06 1.471769e-05 1.986139e-05 8.062460e-06 1.400590e-03 1.642466e-03
9.036750e+07 9.739990e-01 2.189331e-01 -4.466623e-05 1.621991e-05 -2.913177e-06 4.505739e-05 1.383662e-03 1.632452e-03
9.058531e+07 9.750977e-01 2.188721e-01 1.723412e-05 1.656171e-05 -4.900619e-06 2.346374e-05 1.427889e-03 1.667261e-03
9.080312e+07 9.752808e-01 2.194214e-01 -2.278201e-05 6.701797e-06 9.018928e-06 -5.265698e-05 1.387358e-03 1.604915e-03
9.102094e+07 9.759521e-01 2.197876e-01 3.902800e-05 -1.457520e-05 2.169888e-05 1.499988e-05 1.392245e-03 1.623034e-03
9.123875e+07 9.762573e-01 2.196655e-01 -1.608394e-05 2.950057e-05 -3.084168e-05 3.701076e-06 1.405835e-03 1.663446e-03
9.145656e+07 9.772949e-01 2.207031e-01 5.209818e-06 3.875792e-05 1.826324e-06 6.925780e-06 1.366854e-03 1.656532e-03
9.167438e+07 9.770508e-01 2.198486e-01 -4.107505e-05 -3.438070e-05 3.538653e-05 -3.419816e-06 1.386762e-03 1.650095e-03
9.189219e+07 9.773560e-01 2.209473e-01 1.224410e-05 -5.085021e-07 -3.136136e-05 -6.541610e-06 1.360774e-03 1.657486e-03
9.211000e+07 9.773560e-01 2.216797e-01 7.567927e-06 2.566539e-05 -2.290308e-05 3.064051e-06 1.351953e-03 1.679301e-03
9.232781e+07 9.783325e-01 2.215576e-01 4.079938e-05 -8.959323e-06 6.798655e-07 2.503954e-05 1.368165e-03 1.690388e-03
9.254562e+07 9.794922e-01 2.211914e-01 4.167482e-05 -6.094575e-06 -1.947116e-05 2.169050e-06 1.341820e-03 1.655221e-03
9.276344e+07 9.786377e-01 2.216187e-01 1.159962e-05 1.831539e-05 -8.964911e-06 -1.989212e-05 1.353383e-03 1.657844e-03
9.298125e+07 9.785156e-01 2.230225e-01 3.494695e-05 -2.893433e-05 -2.311729e-05 -1.172535e-05 1.366973e-03 1.659393e-03
9.319906e+07 9.794922e-01 2.218018e-01 6.750226e-06 2.286397e-05 -1.436938e-05 -6.595626e-06 1.410007e-03 1.652241e-03
9.341688e+07 9.802856e-01 2.227173e-01 1.038983e-05 -2.793781e-05 6.098300e-05 2.552196e-05 1.311779e-03 1.626015e-03
9.363469e+07 9.801636e-01 2.229614e-01 -1.825392e-07 -2.170913e-05 -3.781915e-05 -1.377799e-05 1.366138e-03 1.670599e-03
9.385250e+07 9.808350e-01 2.229614e-01 -1.651514e-05 -1.380499e-05 2.886541e-05 -6.154180e-06 1.327515e-03 1.646757e-03
9.407031e+07 9.804688e-01 2.235107e-01 -1.687557e-06 -5.728099e-06 -3.185822e-06 -3.620982e-06 1.348615e-03 1.669645e-03
9.428812e+07 9.810791e-01 2.228394e-01 -2.628937e-05 -4.712492e-06 2.674572e-05 -8.573756e-06 1.355410e-03 1.668215e-03
9.450594e+07 9.818115e-01 2.233276e-01 -1.100078e-05 -3.725290e-05 -4.425645e-06 3.393739e-05 1.368880e-03 1.676202e-03
9.472375e+07 9.821167e-01 2.239380e-01 1.935661e-05 -3.999844e-05 -2.620928e-05 -5.159527e-07 1.366973e-03 1.659513e-03
9.494156e+07 9.818115e-01 2.241211e-01 2.022646e-05 -3.712252e-05 -5.919486e-06 -5.056709e-05 1.306415e-03 1.673222e-03
9.515938e+07 9.816895e-01 2.246094e-01 -1.805276e-05 2.196990e-06 1.276471e-05 1.450442e-05 1.338124e-03 1.678705e-03
9.537719e+07 9.827881e-01 2.244873e-01 9.958632e-06 1.265481e-05 7.137656e-06 -4.066341e-05 1.341343e-03 1.693249e-03
9.559500e+07 9.827881e-01 2.249756e-01 -2.145581e-05 -9.281561e-06 -5.530193e-06 -2.091471e-05 1.353383e-03 1.680493e-03
9.581281e+07 9.829102e-01 2.247925e-01 -3.203750e-06 1.029670e-05 -1.190417e-05 2.552569e-05 1.372457e-03 1.671553e-03
9.603062e+07 9.841309e-01 2.254639e-01 1.063570e-05 -6.261282e-06 1.212209e-05 -6.445125e-05 1.307964e-03 1.682878e-03
9.624844e+07 9.833374e-01 2.260742e-01 -2.538785e-06 -8.623581e-06 1.027621e-05 -1.764111e-05 1.346469e-03 1.718044e-03
9.646625e+07 9.839478e-01 2.246704e-01 4.055444e-06 -7.446390e-06 -1.587626e-05 1.617614e-05 1.359344e-03 1.695514e-03
9.668406e+07 9.837646e-01 2.263794e-01 6.595161e-06 1.177192e-06 -1.872052e-05 -1.149345e-05 1.368284e-03 1.686573e-03
9.690188e+07 9.841309e-01 2.260742e-01 3.772415e-05 -2.049841e-05 2.706796e-05 6.299466e-06 1.381516e-03 1.689911e-03
9.711969e+07 9.841309e-01 2.255859e-01 6.800517e-06 2.301298e-05 3.859401e-06 -2.494268e-05 1.366735e-03 1.726866e-03
9.733750e+07 9.851685e-01 2.265625e-01 -2.047233e-05 1.542456e-05 -4.450604e-05 3.270432e-05 1.358032e-03 1.720548e-03
9.755531e+07 9.852295e-01 2.260132e-01 -2.494082e-05 -2.082065e-05 -2.348050e-05 2.717786e-05 1.372576e-03 1.712084e-03
9.777312e+07 9.852905e-01 2.272949e-01 -6.618444e-06 -1.178589e-06 -5.637854e-05 -1.508743e-05 1.362205e-03 1.706123e-03
9.799094e+07 9.848022e-01 2.266235e-01 -1.597404e-05 -3.288500e-05 3.138930e-05 1.114979e-05 1.380324e-03 1.746416e-03
9.820875e+07 9.852295e-01 2.265015e-01 -3.440492e-05 3.212132e-05 -8.272938e-06 -1.428835e-05 1.358747e-03 1.720786e-03
9.842656e+07 9.857178e-01 2.263184e-01 -2.051331e-05 1.544505e-05 -5.082786e-05 -1.351908e-05 1.360178e-03 1.720071e-03
9.864438e+07 9.860229e-01 2.266235e-01 4.722178e-05 1.113117e-05 -6.072223e-06 -3.139302e-05 1.392126e-03 1.688242e-03
9.886219e+07 9.854736e-01 2.265625e-01 -1.788139e-07 -2.190471e-05 -3.202818e-05 -1.998618e-06 1.379490e-03 1.717329e-03
9.908000e+07 9.859619e-01 2.269287e-01 -3.654324e-05 -1.745112e-05 -1.931749e-05 -2.189726e-05 1.350641e-03 1.732111e-03
9.929781e+07 9.862061e-01 2.274170e-01 -3.382005e-05 1.314469e-05 1.510326e-05 -2.502464e-06 1.381755e-03 1.762867e-03
9.951562e+07 9.864502e-01 2.274170e-01 -1.788139e-07 -2.192520e-05 -9.315088e-06 3.852881e-05 1.431823e-03 1.715541e-03
9.973344e+07 9.865112e-01 2.279053e-01 -2.805702e-05 1.141615e-05 6.034970e-06 -2.263486e-05 1.444578e-03 1.725912e-03
9.995125e+07 9.860229e-01 2.282715e-01 2.310611e-05 -6.837770e-06 -1.589768e-05 -3.310852e-06 1.417756e-03 1.729965e-03
1.001691e+08 9.859619e-01 2.274170e-01 -7.702038e-05 -5.576760e-06 3.590249e-06 -2.048444e-05 1.420498e-03 1.739621e-03
1.003869e+08 9.860229e-01 2.277222e-01 1.413841e-05 5.262904e-06 2.933666e-06 8.238945e-06 1.429200e-03 1.746655e-03
1.006047e+08 9.865112e-01 2.274780e-01 7.916242e-06 4.798174e-05 -2.350472e-05 7.754192e-06 1.430511e-03 1.715183e-03
1.008225e+08 9.869995e-01 2.278442e-01 2.145767e-05 -1.264550e-05 -8.326024e-06 -1.434423e-05 1.462579e-03 1.741409e-03
1.010403e+08 9.866943e-01 2.276611e-01 4.076865e-06 -7.500406e-06 -3.084354e-05 1.419336e-05 1.441956e-03 1.700163e-03
1.012581e+08 9.866333e-01 2.277222e-01 -2.079643e-05 -6.442890e-06 -3.393367e-05 4.514679e-05 1.478672e-03 1.742244e-03
1.014759e+08 9.867554e-01 2.283325e-01 -2.315827e-05 6.865710e-06 7.903203e-06 -1.564529e-05 1.496434e-03 1.703739e-03
1.016938e+08 9.875488e-01 2.277832e-01 -4.941132e-06 4.609581e-06 6.754883e-06 2.727378e-06 1.483321e-03 1.703739e-03
1.019116e+08 9.863281e-01 2.282715e-01 -1.714099e-06 -5.795155e-06 -3.883429e-05 -2.434477e-05 1.476884e-03 1.704335e-03
1.021294e+08 9.868774e-01 2.291870e-01 8.624047e-06 -5.614012e-05 -4.254654e-05 1.578778e-05 1.477480e-03 1.690388e-03
1.023472e+08 9.872437e-01 2.285767e-01 7.107854e-06 -3.994256e-05 -5.147606e-05 1.062080e-05 1.503825e-03 1.721025e-03
1.025650e+08 9.871826e-01 2.288208e-01 -1.436286e-05 -2.729520e-05 -2.179109e-05 3.444403e-05 1.501083e-03 1.717925e-03
1.027828e+08 9.871826e-01 2.279663e-01 -1.673959e-05 -1.395866e-05 -8.756295e-06 2.949685e-05 1.518369e-03 1.690149e-03
1.030006e+08 9.866943e-01 2.283936e-01 3.029406e-05 3.839657e-05 -1.073256e-05 -3.185496e-05 1.490116e-03 1.691818e-03
1.032184e+08 9.860840e-01 2.293091e-01 -5.076826e-05 -8.083880e-07 -2.446934e-06 2.156012e-06 1.535416e-03 1.700282e-03
1.034362e+08 9.868774e-01 2.291870e-01 2.818182e-05 -1.147576e-05 1.828000e-05 4.046597e-05 1.551747e-03 1.712799e-03
1.036541e+08 9.859009e-01 2.304688e-01 -2.181157e-06 3.538840e-05 -1.548603e-05 7.096678e-06 1.544595e-03 1.744628e-03
1.038719e+08 9.866943e-01 2.290649e-01 -3.400259e-05 1.320802e-05 -2.822466e-05 7.500872e-06 1.518965e-03 1.655102e-03
1.040897e+08 9.863281e-01 2.282715e-01 -7.328577e-06 1.798104e-05 3.418326e-05 -1.062080e-05 1.561403e-03 1.695514e-03
1.043075e+08 9.860840e-01 2.297363e-01 4.734099e-05 -1.083314e-05 4.039612e-06 9.505544e-06 1.555324e-03 1.619101e-03
1.045253e+08 9.855347e-01 2.300415e-01 4.978478e-05 -2.420694e-05 8.214265e-06 -2.031960e-05 1.571417e-03 1.646996e-03
1.047431e+08 9.867554e-01 2.301025e-01 -1.745299e-05 5.153008e-06 -2.801418e-06 2.647936e-05 1.559496e-03 1.650810e-03
1.049609e+08 9.858398e-01 2.299194e-01 1.098495e-05 1.573004e-05 -4.211813e-05 6.644055e-06 1.601338e-03 1.673579e-03
1.051788e+08 9.851074e-01 2.292480e-01 1.806021e-05 6.107986e-05 -2.199225e-05 -2.011657e-07 1.572490e-03 1.639366e-03
1.053966e+08 9.854736e-01 2.298584e-01 -4.433095e-07 -4.416704e-05 -1.420081e-05 2.345070e-05 1.626611e-03 1.616597e-03
1.056144e+08 9.852905e-01 2.303467e-01 1.723878e-06 5.816109e-06 -2.280995e-05 -6.055459e-06 1.600504e-03 1.639009e-03
1.058322e+08 9.851074e-01 2.301025e-01 -5.401671e-06 -3.958121e-05 -4.686415e-06 1.941901e-05 1.593709e-03 1.623273e-03
1.060500e+08 9.847412e-01 2.304077e-01 2.307259e-05 -2.899580e-05 4.713237e-05 -3.068149e-05 1.627922e-03 1.641035e-03
1.062678e+08 9.842529e-01 2.302856e-01 2.091564e-05 6.465241e-06 -2.395920e-05 1.242384e-05 1.633525e-03 1.610398e-03
1.064856e+08 9.845581e-01 2.304077e-01 -1.251698e-05 5.345792e-07 -1.113862e-05 -7.651746e-06 1.635432e-03 1.568556e-03
1.067034e+08 9.842529e-01 2.304688e-01 9.932555e-06 -9.283423e-06 -2.103392e-05 2.074521e-05 1.590967e-03 1.626492e-03
1.069212e+08 9.845581e-01 2.300415e-01 -9.932555e-06 9.279698e-06 -1.883134e-05 2.324209e-05 1.640201e-03 1.617193e-03
1.071391e+08 9.848022e-01 2.306519e-01 6.061047e-06 2.041459e-05 -2.334267e-05 -3.629737e-05 1.592755e-03 1.641631e-03
1.073569e+08 9.837036e-01 2.313843e-01 -4.315749e-06 -1.458824e-05 3.462285e-05 -1.530908e-05 1.681328e-03 1.580477e-03
1.075747e+08 9.831543e-01 2.315063e-01 -2.383254e-06 1.340080e-05 1.223013e-05 8.879229e-06 1.610279e-03 1.570344e-03
1.077925e+08 9.834595e-01 2.322388e-01 3.132597e-05 4.151091e-05 -3.288500e-05 -3.224611e-05 1.644373e-03 1.543760e-03
1.080103e+08 9.830322e-01 2.318726e-01 1.232512e-05 -2.270006e-05 6.951392e-06 -5.653128e-05 1.619101e-03 1.569033e-03
1.082281e+08 9.827881e-01 2.320557e-01 9.293668e-06 9.949319e-06 -4.044175e-05 3.356487e-05 1.642227e-03 1.570582e-03
1.084459e+08 9.823608e-01 2.333374e-01 1.189020e-05 1.872052e-05 2.025627e-05 -2.665259e-05 1.755834e-03 1.581073e-03
1.086638e+08 9.824829e-01 2.324829e-01 -8.651987e-06 -2.923608e-05 -1.282152e-05 3.697351e-07 1.653910e-03 1.577139e-03
1.088816e+08 9.815674e-01 2.326050e-01 1.189206e-05 1.872610e-05 1.035631e-06 2.099574e-05 1.683235e-03 1.511693e-03
1.090994e+08 9.819946e-01 2.327271e-01 4.337169e-06 1.460686e-05 8.502975e-07 -1.391862e-05 1.697063e-03 1.566291e-03
1.093172e+08 9.822388e-01 2.323608e-01 1.342222e-05 2.380461e-06 -3.414787e-05 6.049871e-06 1.669407e-03 1.553893e-03
1.095350e+08 9.815063e-01 2.326050e-01 -1.840759e-05 2.284534e-06 -4.276633e-06 -4.451349e-05 1.685262e-03 1.499653e-03
1.097528e+08 9.813843e-01 2.329712e-01 -1.777336e-05 -1.700036e-05 -1.747813e-05 9.778887e-08 1.645088e-03 1.486540e-03
1.099706e+08 9.812012e-01 2.337036e-01 2.252683e-05 -9.892508e-06 -4.976243e-05 1.325831e-05 1.680613e-03 1.499534e-03
1.101884e+08 9.804688e-01 2.340088e-01 2.253801e-07 2.221204e-05 2.297759e-05 -1.373515e-05 1.702785e-03 1.501799e-03
1.104062e+08 9.802246e-01 2.338257e-01 -4.206598e-05 -1.296401e-05 3.425032e-05 -4.568323e-05 1.694679e-03 1.497030e-03
1.106241e+08 9.804688e-01 2.336426e-01 2.974644e-05 3.578328e-05 1.668558e-05 -5.982816e-06 1.715660e-03 1.462221e-03
1.108419e+08 9.791870e-01 2.349243e-01 -5.209818e-06 -1.757126e-05 7.391442e-06 -6.540678e-06 1.706123e-03 1.469135e-03
1.110597e+08 9.791870e-01 2.349854e-01 -3.298000e-05 -2.527237e-05 3.416091e-06 -5.576387e-05 1.721501e-03 1.475334e-03
1.112775e+08 9.790649e-01 2.352295e-01 8.461531e-06 7.049646e-06 6.023329e-06 -3.131572e-06 1.711130e-03 1.436949e-03
1.114953e+08 9.785156e-01 2.347412e-01 2.183020e-06 5.032495e-05 -1.147669e-05 -3.029592e-06 1.730561e-03 1.466990e-03
1.117131e+08 9.789429e-01 2.354736e-01 -1.541711e-05 -3.048033e-05 -1.233723e-05 1.092441e-05 1.701355e-03 1.464367e-03
1.119309e+08 9.780884e-01 2.362061e-01 -4.993752e-06 4.669186e-06 -1.513027e-05 3.758632e-05 1.760006e-03 1.412988e-03
1.121488e+08 9.779053e-01 2.359619e-01 -8.675270e-07 -2.930639e-06 1.970306e-05 2.364628e-06 1.720548e-03 1.433372e-03
1.123666e+08 9.776001e-01 2.370605e-01 -3.001094e-05 -5.809590e-05 1.861714e-05 1.139939e-06 1.766086e-03 1.412511e-03
1.125844e+08 9.763794e-01 2.369995e-01 -8.248724e-06 1.520012e-05 1.148321e-05 3.041700e-06 1.744032e-03 1.439333e-03
1.128022e+08 9.775391e-01 2.366943e-01 -1.805648e-05 -3.934279e-05 -9.905547e-06 2.862141e-05 1.739264e-03 1.403332e-03
1.130200e+08 9.765015e-01 2.373657e-01 -1.970679e-06 -2.812594e-05 7.686205e-06 -1.121964e-05 1.772046e-03 1.427412e-03
1.132378e+08 9.760132e-01 2.373657e-01 4.356727e-06 1.466926e-05 1.915824e-05 1.167320e-05 1.765847e-03 1.380205e-03
1.134556e+08 9.759521e-01 2.385254e-01 1.999363e-05 -1.872517e-05 -2.350099e-05 -3.650784e-05 1.758933e-03 1.398325e-03
1.136734e+08 9.760132e-01 2.375488e-01 -1.650304e-05 3.046356e-05 -6.621704e-06 3.234670e-05 1.741648e-03 1.399040e-03
1.138912e+08 9.743042e-01 2.386475e-01 2.616551e-06 8.810312e-06 -2.048723e-05 -2.812967e-05 1.714230e-03 1.414776e-03
1.141091e+08 9.744263e-01 2.382812e-01 -2.024695e-05 -3.581867e-06 2.752058e-06 -6.850809e-06 1.793623e-03 1.361251e-03
1.143269e+08 9.744263e-01 2.392578e-01 1.151115e-05 -2.581067e-05 -1.350790e-05 4.949048e-05 1.775384e-03 1.355529e-03
1.145447e+08 9.739990e-01 2.393799e-01 -5.003065e-06 4.687812e-06 -3.866851e-05 1.173466e-06 1.794815e-03 1.334786e-03
1.147625e+08 9.732056e-01 2.399902e-01 -1.437776e-05 -5.326234e-06 5.133078e-05 -1.680851e-05 1.744628e-03 1.384377e-03
1.149803e+08 9.729004e-01 2.397461e-01 5.876180e-06 -1.746230e-06 -3.681332e-05 4.813820e-05 1.773596e-03 1.348972e-03
1.151981e+08 9.724731e-01 2.414551e-01 -3.743544e-05 4.626811e-05 1.339801e-05 3.008358e-05 1.758218e-03 1.313329e-03
1.154159e+08 9.724121e-01 2.410889e-01 2.503209e-05 -2.341717e-05 -1.482293e-05 -6.743707e-06 1.777530e-03 1.333833e-03
1.156338e+08 9.718628e-01 2.414551e-01 -1.868978e-05 6.636605e-05 -2.038851e-05 4.682317e-05 1.808405e-03 1.314521e-03
1.158516e+08 9.721069e-01 2.421265e-01 8.910894e-06 -3.464520e-05 -7.621944e-06 -4.852191e-05 1.796365e-03 1.291633e-03
1.160694e+08 9.716797e-01 2.427368e-01 -1.964159e-05 -2.299063e-05 -8.277595e-06 2.061017e-05 1.783371e-03 1.274586e-03
1.162872e+08 9.707031e-01 2.432251e-01 -5.913898e-05 -4.891306e-06 -1.433492e-05 2.375431e-05 1.814723e-03 1.303315e-03
1.165050e+08 9.702148e-01 2.440796e-01 5.014241e-06 -4.695263e-06 -7.398427e-06 -1.335051e-05 1.787782e-03 1.315475e-03
1.167228e+08 9.703369e-01 2.449341e-01 -1.768116e-05 5.251728e-06 5.204696e-06 1.087971e-05 1.787782e-03 1.294136e-03
1.169406e+08 9.699707e-01 2.443848e-01 1.003407e-05 -9.391457e-06 -2.096221e-05 3.629737e-05 1.787901e-03 1.290560e-03
1.171584e+08 9.697876e-01 2.450562e-01 4.366785e-05 -2.580136e-05 -8.177012e-07 -5.921349e-06 1.824617e-03 1.283407e-03
1.173762e+08 9.692993e-01 2.461548e-01 -5.725026e-05 2.339482e-05 3.609993e-05 -1.425669e-05 1.819849e-03 1.278162e-03
1.175941e+08 9.677734e-01 2.463989e-01 7.878989e-06 2.655759e-05 3.825873e-06 1.431629e-05 1.804590e-03 1.234055e-03
1.178119e+08 9.685059e-01 2.456665e-01 1.793448e-05 1.714658e-05 -4.874542e-05 -9.950250e-06 1.860738e-03 1.268625e-03
1.180297e+08 9.685059e-01 2.465210e-01 -1.596194e-05 1.117028e-05 -8.795410e-06 -2.990104e-05 1.821876e-03 1.267433e-03
1.182475e+08 9.683228e-01 2.469482e-01 -3.325567e-05 -2.544187e-05 -5.457550e-07 -1.061242e-05 1.762033e-03 1.242638e-03
1.184653e+08 9.674072e-01 2.479248e-01 3.673136e-06 -5.252659e-05 -1.433771e-05 3.841706e-06 1.835227e-03 1.270890e-03
1.186831e+08 9.666748e-01 2.491455e-01 -2.540462e-05 1.106411e-06 1.918990e-06 7.169321e-06 1.835227e-03 1.236320e-03
1.189009e+08 9.665527e-01 2.492676e-01 1.509674e-05 -1.412909e-05 7.173978e-06 -1.918990e-06 1.869082e-03 1.183271e-03
1.191188e+08 9.664307e-01 2.496338e-01 2.539717e-05 -1.123175e-06 2.039876e-05 1.298543e-05 1.876354e-03 1.262903e-03
1.193366e+08 9.650269e-01 2.492065e-01 -1.381896e-05 -2.485327e-05 -3.032014e-05 -4.412234e-05 1.836061e-03 1.262069e-03
1.195544e+08 9.650879e-01 2.509155e-01 8.314848e-06 -1.534354e-05 2.373382e-05 -3.283843e-06 1.814246e-03 1.217365e-03
1.197722e+08 9.653320e-01 2.514648e-01 -3.639609e-05 7.603317e-06 -2.044346e-05 7.019378e-06 1.868844e-03 1.212358e-03
1.199900e+08 9.644775e-01 2.514038e-01 2.957694e-05 -8.793548e-06 1.299102e-05 -2.042484e-05 1.877189e-03 1.214623e-03
1.202078e+08 9.641724e-01 2.521973e-01 1.272280e-05 -5.699694e-07 -4.085153e-05 -2.598949e-05 1.868963e-03 1.221418e-03
1.204256e+08 9.637451e-01 2.530518e-01 3.427081e-05 2.849661e-05 -1.214352e-05 -1.368392e-05 1.858354e-03 1.185894e-03
1.206434e+08 9.639893e-01 2.539062e-01 -2.282113e-05 1.000799e-05 6.086659e-06 -3.177207e-06 1.890659e-03 1.178503e-03
1.208612e+08 9.633179e-01 2.543335e-01 6.494299e-05 -4.189089e-05 4.342757e-05 -1.626462e-05 1.895189e-03 1.150370e-03
1.210791e+08 9.638062e-01 2.557373e-01 -1.244247e-05 3.528781e-06 -1.713820e-05 -1.836289e-05 1.819253e-03 1.182556e-03
1.212969e+08 9.636230e-01 2.557373e-01 1.634657e-05 7.264316e-07 2.273545e-05 6.781891e-06 1.886725e-03 1.147628e-03
1.215147e+08 9.633789e-01 2.562866e-01 3.271177e-05 1.462176e-06 -5.186535e-06 3.789784e-06 1.835346e-03 1.171589e-03
1.217325e+08 9.633789e-01 2.569580e-01 1.429021e-05 -4.441664e-05 -4.786998e-06 5.688891e-05 1.875043e-03 1.154661e-03
1.219503e+08 9.627075e-01 2.584839e-01 -2.528727e-05 1.525320e-05 -5.587935e-06 -6.039627e-07 1.899004e-03 1.147747e-03
1.221681e+08 9.624634e-01 2.586670e-01 9.266660e-06 -2.416410e-05 1.994893e-06 3.415532e-05 1.894712e-03 1.154661e-03
1.223859e+08 9.617310e-01 2.597656e-01 -2.844073e-05 -5.390495e-06 4.556775e-05 -2.292544e-05 1.916885e-03 1.125813e-03
1.226038e+08 9.611206e-01 2.609863e-01 3.540888e-05 -1.274794e-05 -5.356967e-05 2.030656e-05 1.927137e-03 1.142144e-03
1.228216e+08 9.613647e-01 2.604980e-01 1.357682e-05 -2.807565e-05 -3.436394e-05 -1.237728e-05 1.848459e-03 1.149535e-03
1.230394e+08 9.605713e-01 2.619629e-01 4.483014e-05 6.131828e-06 3.357418e-05 -8.555129e-06 1.905084e-03 1.108408e-03
1.232572e+08 9.603882e-01 2.630005e-01 5.035102e-05 2.073869e-05 1.572073e-06 2.977811e-05 1.916289e-03 1.127243e-03
1.234750e+08 9.600220e-01 2.628784e-01 1.577660e-06 1.033116e-05 -8.794479e-06 7.962808e-07 1.942754e-03 1.116037e-03
1.236928e+08 9.597168e-01 2.644043e-01 2.412125e-05 -3.379211e-05 -1.194328e-05 -5.878881e-05 1.901388e-03 1.096129e-03
1.239106e+08 9.592896e-01 2.641602e-01 3.082305e-05 -6.388873e-07 -1.478940e-05 -1.638941e-05 1.955628e-03 1.119018e-03
1.241284e+08 9.591064e-01 2.656860e-01 1.247134e-05 -3.530644e-06 -2.959184e-05 -8.421019e-06 1.919746e-03 1.088738e-03
1.243462e+08 9.581909e-01 2.658081e-01 4.296377e-05 3.997236e-06 -5.988404e-06 -2.939627e-05 1.883507e-03 1.095414e-03
1.245641e+08 9.581909e-01 2.664795e-01 6.611459e-06 -9.974465e-06 -4.402362e-06 1.259707e-05 1.934528e-03 1.079917e-03
1.247819e+08 9.577026e-01 2.675171e-01 8.937903e-06 -1.601968e-05 2.918579e-05 2.841093e-05 1.959562e-03 1.018047e-03
1.249997e+08 9.580688e-01 2.686768e-01 -2.264045e-05 1.007691e-06 -5.003065e-05 -1.324341e-05 1.981139e-03 1.080751e-03
1.252175e+08 9.572144e-01 2.687378e-01 -1.053512e-05 5.684793e-06 -3.201654e-06 1.398847e-06 1.978636e-03 1.090765e-03
1.254353e+08 9.578247e-01 2.701416e-01 -4.027411e-05 -1.828000e-05 -1.038983e-05 -4.127994e-05 1.963377e-03 1.044750e-03
1.256531e+08 9.562988e-01 2.702026e-01 2.349727e-05 2.573058e-05 -3.997236e-06 -1.960900e-05 1.977682e-03 1.039982e-03
1.258709e+08 9.558105e-01 2.717285e-01 2.416968e-05 -3.384054e-05 2.280995e-05 6.817281e-06 2.001643e-03 1.052141e-03
1.260888e+08 9.560547e-01 2.728271e-01 -5.275384e-05 2.839416e-05 1.640990e-06 -4.346296e-05 1.960635e-03 1.049876e-03
1.263066e+08 9.551392e-01 2.741089e-01 2.336223e-06 -6.061513e-06 3.521889e-05 9.046867e-06 1.969218e-03 1.029491e-03
1.265244e+08 9.552002e-01 2.741089e-01 -1.130626e-06 2.464280e-05 2.842769e-05 7.437542e-06 1.965761e-03 1.002073e-03
1.267422e+08 9.544678e-01 2.758179e-01 8.591916e-06 -7.838011e-06 -1.247972e-06 2.343953e-05 2.020359e-03 1.037717e-03
1.269600e+08 9.544067e-01 2.758789e-01 -1.362897e-05 2.818182e-05 -5.165115e-06 -3.286824e-05 1.999736e-03 1.030922e-03
1.271778e+08 9.538574e-01 2.767944e-01 9.730458e-06 -3.248639e-05 -3.600959e-06 -3.012363e-06 1.989841e-03 1.011014e-03
1.273956e+08 9.539795e-01 2.775879e-01 -2.465397e-05 -1.136214e-06 -1.839921e-05 -3.170222e-05 1.947284e-03 1.021504e-03
1.276134e+08 9.542847e-01 2.779541e-01 1.758523e-05 -2.389401e-05 -2.826564e-06 1.804531e-05 1.972437e-03 1.022339e-03
1.278312e+08 9.545898e-01 2.793579e-01 -8.593779e-06 7.836148e-06 -1.884252e-05 -1.166947e-05 1.986861e-03 9.829998e-04
1.280491e+08 9.542236e-01 2.789917e-01 -9.807758e-06 -1.074467e-05 3.450736e-05 -1.200847e-05 1.981616e-03 1.011372e-03
1.282669e+08 9.541626e-01 2.814331e-01 4.073232e-05 1.012161e-05 1.327042e-05 -1.342688e-05 2.014637e-03 1.003146e-03
1.284847e+08 9.528809e-01 2.817993e-01 2.624281e-05 1.152791e-05 -1.727231e-05 1.822971e-05 1.991391e-03 9.664297e-04
1.287025e+08 9.523315e-01 2.833252e-01 -2.463907e-05 4.214048e-05 1.280382e-05 1.889467e-05 2.041221e-03 1.003027e-03
1.289203e+08 9.516602e-01 2.838135e-01 1.961249e-06 2.151937e-06 2.608076e-05 -6.772578e-06 2.024651e-03 9.675026e-04
1.291381e+08 9.518433e-01 2.844849e-01 5.010515e-05 -5.748868e-05 1.204479e-05 -2.188608e-06 2.010584e-03 9.697676e-04
1.293559e+08 9.522095e-01 2.866821e-01 -7.776543e-07 1.646951e-05 1.930725e-05 -8.387491e-06 2.042770e-03 9.940863e-04
1.295738e+08 9.516602e-01 2.864380e-01 -3.447756e-05 3.139861e-05 1.170486e-05 -3.108941e-05 2.020597e-03 9.766817e-04
1.297916e+08 9.519043e-01 2.869263e-01 -4.155561e-05 6.280839e-06 2.406538e-05 2.011098e-05 2.019167e-03 9.881258e-04
1.300094e+08 9.514160e-01 2.886963e-01 -6.275717e-06 1.771841e-06 -5.621836e-05 -6.206334e-06 2.058744e-03 9.812117e-04
1.302272e+08 9.515381e-01 2.891846e-01 2.432615e-05 9.408221e-06 -4.140846e-05 1.036935e-05 2.061486e-03 9.697676e-04
1.304450e+08 9.508667e-01 2.897949e-01 -7.045455e-06 1.826230e-05 -1.730025e-05 1.824182e-05 2.078295e-03 9.781122e-04
1.306628e+08 9.515991e-01 2.905884e-01 -1.924857e-05 -2.982281e-05 -3.379025e-05 8.579344e-06 2.067208e-03 9.430647e-04
1.308806e+08 9.511108e-01 2.915649e-01 8.661300e-06 3.550202e-05 3.460608e-05 -1.200847e-05 2.004862e-03 9.510517e-04
1.310984e+08 9.504395e-01 2.935181e-01 2.512336e-05 -7.089227e-06 -7.515773e-07 -2.111774e-05 2.074480e-03 9.278059e-04
1.313162e+08 9.498901e-01 2.939453e-01 2.434105e-05 -3.399886e-05 1.810305e-05 -9.404495e-06 2.105951e-03 9.372234e-04
1.315341e+08 9.505005e-01 2.951660e-01 3.966317e-05 -5.187094e-05 5.988404e-06 1.731049e-05 2.087951e-03 8.981228e-04
1.317519e+08 9.501953e-01 2.960205e-01 4.321802e-06 -3.931345e-06 -2.170168e-05 -5.887821e-06 2.069354e-03 9.615421e-04
1.319697e+08 9.500122e-01 2.956543e-01 6.258488e-06 -4.517287e-05 5.284324e-06 -2.834387e-05 2.086401e-03 9.230375e-04
1.321875e+08 9.497681e-01 2.982178e-01 -1.140125e-05 2.221763e-05 -3.464520e-05 1.196191e-05 2.075315e-03 9.403229e-04
1.324053e+08 9.499512e-01 2.984619e-01 -1.965091e-05 2.179109e-05 6.867573e-06 -1.064548e-05 2.081871e-03 9.329319e-04
1.326231e+08 9.500732e-01 2.994995e-01 3.132969e-06 -2.260320e-05 -1.922250e-06 -3.442168e-05 2.097607e-03 9.037256e-04
1.328409e+08 9.505615e-01 2.998657e-01 -4.322967e-06 3.936933e-06 4.097819e-08 -2.456643e-05 2.089858e-03 9.094477e-04
1.330588e+08 9.500732e-01 3.010254e-01 -1.339428e-05 -2.340041e-05 4.148297e-05 1.916662e-06 2.158284e-03 8.982420e-04
1.332766e+08 9.499512e-01 3.033447e-01 -1.339614e-05 -2.341717e-05 -3.870018e-05 4.498288e-06 2.100825e-03 9.441376e-04
1.334944e+08 9.500732e-01 3.038330e-01 -3.584288e-05 1.277030e-05 -5.250564e-06 3.813766e-06 2.134442e-03 9.218454e-04
1.337122e+08 9.500122e-01 3.041992e-01 -5.504116e-06 -1.475681e-05 1.278147e-05 4.355609e-05 2.126455e-03 9.182692e-04
1.339300e+08 9.495239e-01 3.048706e-01 -7.876195e-06 -8.663628e-06 -2.613664e-05 -1.779757e-05 2.138615e-03 8.877516e-04
1.341478e+08 9.505615e-01 3.059082e-01 4.336005e-06 -3.936468e-06 3.469177e-05 2.868474e-07 2.115011e-03 9.166002e-04
1.343656e+08 9.497681e-01 3.073730e-01 -1.536310e-05 1.793168e-05 -1.249090e-05 -2.257526e-06 2.156496e-03 9.230375e-04
1.345834e+08 9.502563e-01 3.074341e-01 -1.968467e-06 -2.166838e-06 3.512949e-05 -1.986511e-05 2.117753e-03 8.990765e-04
1.348012e+08 9.494629e-01 3.088989e-01 1.773052e-05 -2.404861e-05 7.742271e-05 -9.026378e-06 2.209306e-03 8.839369e-04
1.350191e+08 9.493408e-01 3.096313e-01 1.263618e-05 -4.708022e-05 -2.944842e-05 8.182600e-06 2.185941e-03 9.164810e-04
1.352369e+08 9.498291e-01 3.106079e-01 7.098541e-06 2.522022e-05 -6.464310e-06 2.804678e-06 2.186179e-03 9.100437e-04
1.354547e+08 9.490967e-01 3.119507e-01 2.131984e-05 -5.497411e-05 3.710389e-05 2.361834e-06 2.136469e-03 8.897781e-04
1.356725e+08 9.493408e-01 3.120117e-01 -3.863871e-05 2.725050e-05 1.335796e-05 -1.347624e-05 2.145648e-03 8.845329e-04
1.358903e+08 9.501343e-01 3.131714e-01 1.177192e-06 1.873635e-05 -4.002452e-05 1.583062e-05 2.159357e-03 8.981228e-04
1.361081e+08 9.500732e-01 3.143921e-01 1.420826e-05 6.911345e-06 8.923002e-06 -1.309253e-05 2.207756e-03 9.385347e-04
1.363259e+08 9.502563e-01 3.152466e-01 -6.318092e-06 1.772773e-06 1.057796e-05 -1.995172e-05 2.195239e-03 8.740425e-04
1.365438e+08 9.497681e-01 3.164673e-01 5.921815e-06 6.509945e-06 -2.989173e-05 3.712252e-06 2.204776e-03 8.941889e-04
1.367616e+08 9.515381e-01 3.167725e-01 -1.105666e-05 1.400989e-05 6.048940e-06 5.072448e-06 2.212286e-03 9.021759e-04
1.369794e+08 9.503174e-01 3.177490e-01 -2.607703e-05 -1.995265e-05 -4.337169e-05 4.185736e-05 2.218962e-03 8.597374e-04
1.371972e+08 9.509277e-01 3.189087e-01 -1.779385e-05 2.408400e-05 -1.010392e-05 -2.398156e-07 2.245069e-03 8.671284e-04
1.374150e+08 9.505615e-01 3.195801e-01 -1.659337e-05 -7.981434e-07 -3.640167e-05 6.532297e-06 2.192616e-03 9.033680e-04
1.376328e+08 9.506226e-01 3.212280e-01 -2.333894e-06 -3.753975e-05 1.702644e-05 -1.043547e-05 2.237439e-03 8.893013e-04
1.378506e+08 9.509277e-01 3.219604e-01 -5.650148e-05 7.648021e-06 -4.278496e-05 -1.534633e-05 2.285838e-03 8.908510e-04
1.380684e+08 9.516602e-01 3.222046e-01 -1.570210e-06 -1.048017e-05 -7.748604e-07 -8.899719e-06 2.260327e-03 8.666515e-04
1.382862e+08 9.508057e-01 3.237915e-01 8.699950e-06 -7.896684e-06 -1.906138e-05 1.285039e-05 2.282023e-03 8.563995e-04
1.385041e+08 9.512939e-01 3.245239e-01 -1.540035e-05 -2.573244e-05 2.114102e-05 -2.762116e-05 2.274275e-03 8.877516e-04
1.387219e+08 9.515381e-01 3.248291e-01 -6.675720e-06 -3.363378e-05 -4.749745e-08 1.233537e-05 2.248645e-03 9.081364e-04
1.389397e+08 9.525757e-01 3.265381e-01 -2.928078e-05 2.741814e-06 -6.827526e-06 -1.399405e-05 2.318740e-03 8.817911e-04
1.391575e+08 9.517822e-01 3.275757e-01 5.264208e-05 -1.203269e-05 -1.742970e-05 5.993061e-06 2.357006e-03 8.761883e-04
1.393753e+08 9.526367e-01 3.278198e-01 -1.109391e-05 1.403596e-05 -3.317185e-05 -7.230788e-06 2.305627e-03 9.125471e-04
1.395931e+08 9.519653e-01 3.298950e-01 -1.857802e-05 -4.675612e-05 3.843755e-05 3.432855e-06 2.351403e-03 8.546114e-04
1.398109e+08 9.526978e-01 3.301392e-01 -2.774596e-05 1.323037e-05 -7.582828e-06 -2.291612e-05 2.346635e-03 8.659363e-04
1.400288e+08 9.525146e-01 3.308105e-01 3.169850e-05 -8.868054e-06 -6.368384e-06 -2.190098e-05 2.355933e-03 8.758307e-04
1.402466e+08 9.528809e-01 3.317261e-01 -1.227297e-05 -4.772097e-06 3.769062e-05 -5.507842e-06 2.329588e-03 8.621216e-04
1.404644e+08 9.533081e-01 3.322754e-01 2.691150e-05 3.388152e-06 -3.533810e-05 1.989119e-05 2.339005e-03 8.503199e-04
1.406822e+08 9.529419e-01 3.334351e-01 1.979060e-06 2.182554e-06 1.216028e-05 -2.165325e-06 2.377272e-03 8.516312e-04
1.409000e+08 9.536743e-01 3.341675e-01 1.191720e-05 -3.070943e-05 -5.427003e-05 -4.291534e-06 2.402782e-03 8.795261e-04
1.411178e+08 9.539795e-01 3.347778e-01 -1.031067e-05 -2.593733e-06 1.266971e-05 -2.242252e-05 2.403498e-03 8.245707e-04
1.413356e+08 9.542236e-01 3.352661e-01 -3.180653e-05 5.267933e-05 1.700688e-05 1.898035e-06 2.427697e-03 8.740425e-04
1.415534e+08 9.551392e-01 3.363037e-01 -2.819486e-05 2.156757e-05 -2.236664e-05 1.429208e-05 2.396941e-03 8.450747e-04
1.417712e+08 9.552002e-01 3.376465e-01 -3.134459e-05 5.327165e-07 -9.755604e-06 4.211906e-06 2.413988e-03 8.655787e-04
1.419891e+08 9.547729e-01 3.380127e-01 1.468137e-05 -1.360662e-06 2.748705e-05 1.897849e-05 2.413154e-03 8.174181e-04
1.422069e+08 9.550781e-01 3.395386e-01 3.196299e-06 -2.281740e-05 3.747642e-06 5.700067e-05 2.441883e-03 8.065701e-04
1.424247e+08 9.556274e-01 3.405762e-01 3.021397e-05 -1.939572e-05 -2.793223e-05 -1.111627e-05 2.425551e-03 8.548498e-04
1.426425e+08 9.560547e-01 3.404541e-01 -1.667719e-05 -8.158386e-07 2.867542e-06 -5.870592e-06 2.434969e-03 8.440018e-04
1.428603e+08 9.571533e-01 3.416138e-01 -2.617016e-05 -2.008118e-05 -3.825873e-06 3.407709e-05 2.479672e-03 8.783340e-04
1.430781e+08 9.564209e-01 3.419800e-01 2.809800e-06 -1.449697e-05 -1.287740e-05 -1.913682e-05 2.513051e-03 8.264780e-04
1.432959e+08 9.571533e-01 3.433838e-01 2.906099e-05 -3.829785e-05 -2.532825e-05 3.253296e-05 2.483249e-03 8.373260e-04
1.435138e+08 9.583740e-01 3.442993e-01 -6.780028e-06 1.012161e-05 5.237758e-06 8.556526e-06 2.524734e-03 8.287430e-04
1.437316e+08 9.579468e-01 3.446655e-01 -1.669955e-05 -8.288771e-07 1.212861e-05 1.020916e-05 2.537251e-03 8.134842e-04
1.439494e+08 9.579468e-01 3.450928e-01 2.785027e-05 -1.323782e-05 -1.359917e-05 3.831089e-05 2.525091e-03 8.276701e-04
1.441672e+08 9.589844e-01 3.459473e-01 -2.578832e-05 -2.847239e-05 6.780028e-06 2.644770e-05 2.537012e-03 8.450747e-04
1.443850e+08 9.594727e-01 3.470459e-01 -2.728775e-06 -2.943911e-05 -6.902963e-06 -1.667067e-06 2.561331e-03 7.830858e-04
1.446028e+08 9.592896e-01 3.475342e-01 -1.190230e-05 -1.315121e-05 6.825663e-06 1.405831e-05 2.541423e-03 8.006096e-04
1.448206e+08 9.600220e-01 3.481445e-01 -3.558584e-06 -1.273677e-05 1.886301e-05 -2.977066e-05 2.566934e-03 8.416176e-04
1.450384e+08 9.605103e-01 3.489990e-01 2.231449e-05 -2.819486e-05 2.229773e-05 1.049787e-05 2.568483e-03 8.156300e-04
1.452562e+08 9.609985e-01 3.490601e-01 -1.075584e-05 5.746260e-06 -8.949544e-06 7.646158e-07 2.536535e-03 8.282661e-04
1.454741e+08 9.608765e-01 3.494873e-01 9.506010e-06 1.932308e-05 1.526438e-06 1.789071e-05 2.614379e-03 7.621050e-04
1.456919e+08 9.617920e-01 3.496704e-01 6.794930e-06 -1.013465e-05 -1.884997e-05 2.979673e-05 2.603292e-03 7.932186e-04
1.459097e+08 9.625854e-01 3.516235e-01 -9.200536e-06 1.630653e-05 2.999604e-05 2.112985e-05 2.634287e-03 8.085966e-04
1.461275e+08 9.624023e-01 3.529053e-01 9.212643e-06 -1.630560e-05 -2.352521e-05 -1.155026e-05 2.596259e-03 7.808208e-04
1.463453e+08 9.626465e-01 3.529053e-01 1.841970e-05 -3.260188e-05 2.670474e-05 2.253987e-05 2.624631e-03 7.650852e-04
1.465631e+08 9.627075e-01 3.544312e-01 7.227995e-06 -1.850445e-05 3.042072e-05 1.322851e-05 2.649665e-03 7.716417e-04
1.467809e+08 9.638062e-01 3.540039e-01 6.381888e-06 -1.772307e-06 6.308034e-05 -8.568168e-07 2.625942e-03 7.982254e-04
1.469988e+08 9.642334e-01 3.549194e-01 3.851950e-06 4.841760e-05 2.255850e-05 -2.672523e-05 2.694845e-03 7.848740e-04
1.472166e+08 9.647827e-01 3.562012e-01 5.552545e-06 1.496449e-05 -8.586328e-06 5.238689e-06 2.672434e-03 8.032322e-04
1.474344e+08 9.649658e-01 3.558960e-01 -3.268011e-05 -1.842156e-05 1.685135e-05 -2.738275e-05 2.699018e-03 7.406473e-04
1.476522e+08 9.655762e-01 3.574219e-01 1.390092e-05 1.538265e-05 -4.811212e-05 5.159527e-06 2.684951e-03 7.852316e-04
1.478700e+08 9.663086e-01 3.572998e-01 5.116686e-06 2.332963e-05 2.733432e-06 1.894962e-05 2.729297e-03 7.922649e-04
1.480878e+08 9.669189e-01 3.579712e-01 -3.065541e-05 -1.623295e-05 1.896173e-06 2.241321e-05 2.759576e-03 7.934570e-04
1.483056e+08 9.667969e-01 3.590088e-01 -2.585724e-05 -2.861768e-05 -2.606586e-05 -1.197681e-06 2.711296e-03 7.824898e-04
1.485234e+08 9.675293e-01 3.596802e-01 -2.228469e-05 -1.582131e-05 -4.397705e-06 -1.205411e-05 2.755761e-03 7.518530e-04
1.487412e+08 9.683228e-01 3.598633e-01 9.943731e-06 1.100451e-05 -8.372590e-07 3.459398e-06 2.780795e-03 7.708073e-04
1.489591e+08 9.686890e-01 3.602295e-01 -3.556721e-06 -1.277868e-05 4.944857e-06 -8.326024e-06 2.754450e-03 7.195473e-04
1.491769e+08 9.693604e-01 3.609009e-01 -2.228282e-05 -1.584366e-05 -1.194701e-05 1.908746e-05 2.770662e-03 7.789135e-04
1.493947e+08 9.697876e-01 3.610229e-01 2.046674e-05 -3.047101e-05 6.234273e-06 -1.973473e-05 2.762556e-03 7.485151e-04
1.496125e+08 9.704590e-01 3.613281e-01 7.236376e-06 -1.855195e-05 -4.456565e-05 2.070889e-05 2.763748e-03 7.445812e-04
1.498303e+08 9.715576e-01 3.629761e-01 -2.416316e-06 6.177928e-06 2.715737e-06 1.899339e-05 2.801418e-03 7.357597e-04
1.500481e+08 9.718628e-01 3.626709e-01 -3.980845e-05 -4.409999e-05 6.966293e-07 -4.526973e-05 2.812862e-03 7.464886e-04
1.502659e+08 9.717407e-01 3.638306e-01 3.551506e-05 3.896654e-06 -4.774891e-06 -1.655426e-05 2.827406e-03 7.576942e-04
1.504838e+08 9.720459e-01 3.634033e-01 -7.107854e-06 -2.558902e-05 1.981854e-05 -3.331527e-05 2.844334e-03 7.705688e-04
1.507016e+08 9.725342e-01 3.637695e-01 -7.683411e-06 2.694130e-05 4.114583e-06 -4.865462e-06 2.838612e-03 7.221699e-04
1.509194e+08 9.729004e-01 3.648682e-01 3.280118e-06 -2.295710e-05 3.105029e-06 2.348796e-05 2.857685e-03 7.047653e-04
1.511372e+08 9.737549e-01 3.658447e-01 -1.287088e-06 2.518296e-05 -2.209470e-05 6.355345e-06 2.869606e-03 7.095337e-04
1.513550e+08 9.746704e-01 3.659668e-01 2.123415e-06 -4.197657e-05 2.732128e-05 5.654246e-05 2.875566e-03 7.202625e-04
1.515728e+08 9.744873e-01 3.667603e-01 2.516434e-05 1.305714e-06 -1.647137e-05 -3.483333e-05 2.917290e-03 7.035732e-04
1.517906e+08 9.759521e-01 3.660278e-01 -2.847053e-06 1.458637e-05 3.924221e-05 -4.425645e-06 2.890348e-03 7.116795e-04
1.520084e+08 9.758301e-01 3.662109e-01 5.701557e-06 -2.915226e-05 -8.324161e-06 2.218969e-05 2.903461e-03 7.257462e-04
1.522262e+08 9.769897e-01 3.674927e-01 -1.694262e-05 4.336238e-05 2.305396e-05 -2.230518e-05 2.909899e-03 7.033348e-04
1.524441e+08 9.772949e-01 3.674927e-01 -1.766719e-05 1.592934e-05 -4.497590e-06 3.757887e-07 2.957582e-03 7.405281e-04
1.526619e+08 9.780884e-01 3.672485e-01 -8.824281e-06 7.970724e-06 6.295741e-06 3.458001e-05 2.933264e-03 6.890297e-04
1.528797e+08 9.779663e-01 3.682251e-01 2.561323e-05 -7.122755e-06 1.219288e-05 -4.403293e-05 2.940893e-03 7.200241e-04
1.530975e+08 9.785156e-01 3.680420e-01 1.411885e-06 5.480647e-05 2.026185e-05 -2.885051e-05 2.995014e-03 7.107258e-04
1.533153e+08 9.793701e-01 3.679810e-01 2.960488e-05 -2.682209e-06 8.998439e-06 -7.534400e-07 2.985954e-03 7.040501e-04
1.535331e+08 9.802856e-01 3.688354e-01 -4.599988e-05 -6.586313e-06 -6.848015e-06 -1.416542e-05 2.984285e-03 6.825924e-04
1.537509e+08 9.807129e-01 3.693237e-01 -9.953976e-06 -1.105387e-05 1.810398e-05 -1.397636e-05 3.011703e-03 6.945133e-04
1.539688e+08 9.810791e-01 3.690796e-01 1.152791e-05 2.168119e-05 -1.566764e-05 1.603365e-05 3.043890e-03 7.236004e-04
1.541866e+08 9.816284e-01 3.690186e-01 -1.725927e-05 7.539988e-06 4.591420e-06 4.155375e-05 3.054857e-03 7.133484e-04
1.544044e+08 9.824829e-01 3.703613e-01 -4.619360e-06 4.823133e-05 -1.574121e-05 -2.591312e-05 3.014803e-03 7.019043e-04
1.546222e+08 9.824219e-01 3.708496e-01 -1.483411e-05 1.340173e-06 -2.913643e-06 5.907379e-06 3.000498e-03 7.128716e-04
1.548400e+08 9.830933e-01 3.705444e-01 1.595076e-05 1.769233e-05 -2.322160e-05 3.480539e-05 3.051043e-03 7.534027e-04
1.550578e+08 9.827271e-01 3.696289e-01 8.638948e-06 3.628992e-05 1.837872e-05 3.007241e-06 3.039122e-03 6.642342e-04
1.552756e+08 9.837646e-01 3.703003e-01 -8.586794e-06 4.382059e-05 -1.198985e-05 -3.529713e-05 3.109694e-03 6.799698e-04
1.554934e+08 9.835815e-01 3.709106e-01 4.733354e-05 -1.860783e-05 6.462447e-06 9.673182e-06 3.089190e-03 7.164478e-04
1.557112e+08 9.859009e-01 3.707275e-01 -3.984943e-05 3.588200e-05 2.243894e-11 2.702762e-10 3.134489e-03 6.682873e-04
1.559291e+08 9.843750e-01 3.717041e-01 2.899393e-05 -3.013574e-05 2.179015e-05 -1.085456e-05 3.125191e-03 6.814003e-04
1.561469e+08 9.858398e-01 3.709717e-01 -5.226210e-05 3.102794e-05 -4.946813e-05 -8.411705e-06 3.112078e-03 7.317066e-04
1.563647e+08 9.871826e-01 3.707886e-01 -2.015941e-05 2.215616e-05 1.004152e-05 2.526864e-05 3.149509e-03 6.701946e-04
1.565825e+08 9.871216e-01 3.711548e-01 1.239777e-05 4.870817e-06 -9.280629e-06 -1.626089e-05 3.166437e-03 6.752014e-04
1.568003e+08 9.876709e-01 3.717041e-01 3.056601e-05 -1.951307e-05 -3.217161e-05 2.305582e-05 3.152609e-03 6.904602e-04
1.570181e+08 9.877319e-01 3.712158e-01 -2.436806e-06 6.208196e-06 2.590939e-06 3.157742e-05 3.200293e-03 6.773472e-04
1.572359e+08 9.879150e-01 3.717651e-01 1.796149e-05 1.994520e-05 1.940131e-05 2.907217e-05 3.198624e-03 6.337166e-04
1.574538e+08 9.883423e-01 3.708496e-01 -2.304278e-05 3.680587e-05 1.589768e-06 5.543698e-06 3.205776e-03 6.029606e-04
1.576716e+08 9.890747e-01 3.710327e-01 -1.661293e-05 3.501773e-05 1.633819e-05 5.467795e-06 3.226042e-03 6.461143e-04
1.578894e+08 9.906616e-01 3.707275e-01 3.411807e-05 -6.645918e-06 -1.731422e-05 1.052022e-05 3.202677e-03 6.580353e-04
1.581072e+08 9.910889e-01 3.707275e-01 -1.242571e-05 -4.879199e-06 -3.337860e-06 5.594641e-05 3.223181e-03 6.732941e-04
1.583250e+08 9.906006e-01 3.712769e-01 2.793781e-05 3.104098e-05 1.147017e-05 1.327135e-06 3.257751e-03 6.701946e-04
1.585428e+08 9.909058e-01 3.709106e-01 3.330410e-06 -2.305582e-05 2.070796e-06 -2.442510e-06 3.278494e-03 6.766319e-04
1.587606e+08 9.918213e-01 3.712158e-01 -1.420453e-05 -5.144253e-05 2.183951e-05 -1.088530e-05 3.250122e-03 6.744862e-04
1.589784e+08 9.928589e-01 3.713379e-01 1.465715e-05 -3.728643e-05 -3.571436e-05 4.956499e-05 3.316641e-03 6.692410e-04
1.591962e+08 9.923096e-01 3.708496e-01 -3.596023e-05 4.040077e-05 3.858469e-05 -8.959323e-07 3.311396e-03 6.563663e-04
1.594141e+08 9.931030e-01 3.706055e-01 -2.264045e-05 2.838112e-05 1.902785e-05 -1.748279e-05 3.329277e-03 6.618500e-04
1.596319e+08 9.931641e-01 3.704834e-01 2.507865e-05 -3.461540e-05 -4.405156e-06 -1.214352e-05 3.314972e-03 6.458759e-04
1.598497e+08 9.931641e-01 3.710327e-01 3.437325e-05 -5.103275e-05 3.649294e-05 1.575798e-06 3.291845e-03 6.816387e-04
1.600675e+08 9.943237e-01 3.701782e-01 1.995824e-05 2.220273e-05 -1.658779e-05 1.956709e-05 3.315449e-03 6.327629e-04
1.602853e+08 9.936523e-01 3.706055e-01 1.930445e-05 -5.316921e-06 1.037214e-05 -1.220964e-05 3.364563e-03 6.706715e-04
1.605031e+08 9.939575e-01 3.706055e-01 -1.685414e-05 -8.847564e-07 2.747402e-05 2.311543e-06 3.331423e-03 6.210804e-04
1.607209e+08 9.951172e-01 3.707275e-01 -1.686532e-05 -8.912757e-07 2.357550e-05 -1.786090e-05 3.360510e-03 6.451607e-04
1.609388e+08 9.954224e-01 3.710327e-01 -2.130494e-05 3.093854e-06 5.500391e-06 -1.638103e-05 3.394365e-03 6.856918e-04
1.611566e+08 9.959717e-01 3.700562e-01 -4.264340e-05 6.172806e-06 -1.672655e-05 3.208965e-05 3.356695e-03 6.670952e-04
1.613744e+08 9.961548e-01 3.701782e-01 3.994443e-06 4.443806e-06 -6.733462e-06 -2.677180e-05 3.391027e-03 6.546974e-04
1.615922e+08 9.957275e-01 3.687134e-01 6.439164e-06 -1.769979e-06 -4.284084e-07 5.008653e-05 3.390789e-03 6.814003e-04
1.618100e+08 9.974365e-01 3.693237e-01 -3.374554e-05 -1.799315e-06 -2.481602e-05 1.684576e-05 3.387690e-03 5.929470e-04
1.620278e+08 9.960938e-01 3.689575e-01 -1.088530e-05 5.766749e-06 7.577240e-06 2.329051e-05 3.439665e-03 6.439686e-04
1.622456e+08 9.973145e-01 3.688354e-01 2.131797e-05 -3.090128e-06 2.618134e-05 -2.832897e-05 3.427029e-03 6.325245e-04
1.624634e+08 9.976196e-01 3.685303e-01 -2.159923e-05 4.754588e-05 3.107823e-05 -2.418458e-05 3.434420e-03 6.382465e-04
1.626812e+08 9.974976e-01 3.687134e-01 -1.379102e-05 2.042949e-05 -3.655627e-05 -4.374981e-05 3.495693e-03 6.229877e-04
1.628991e+08 9.981689e-01 3.684082e-01 1.044013e-05 2.663583e-06 -2.617761e-05 -1.385249e-05 3.459215e-03 6.258488e-04
1.631169e+08 9.981689e-01 3.678589e-01 7.797033e-06 -2.709217e-05 -1.725182e-05 -2.018176e-06 3.467798e-03 6.110668e-04
1.633347e+08 9.989014e-01 3.674316e-01 -3.268570e-05 1.730956e-05 7.227995e-06 1.878943e-05 3.513575e-03 6.501675e-04
1.635525e+08 9.990845e-01 3.672485e-01 1.090392e-05 -5.777925e-06 -3.576651e-05 -5.079433e-06 3.519058e-03 6.070137e-04
1.637703e+08 9.993896e-01 3.667603e-01 2.425909e-05 -1.773238e-05 -7.208437e-07 3.313832e-05 3.524542e-03 6.558895e-04
1.639881e+08 9.982910e-01 3.674927e-01 -1.089834e-05 5.760230e-06 1.117587e-07 2.962910e-05 3.538132e-03 6.563663e-04
1.642059e+08 9.989624e-01 3.662109e-01 -3.271550e-05 1.729839e-05 -2.889335e-05 5.137548e-05 3.478289e-03 6.718636e-04
1.644238e+08 1.000183e+00 3.662720e-01 -1.549721e-06 -1.067575e-05 7.834285e-06 4.043803e-05 3.523827e-03 6.475449e-04
1.646416e+08 9.987793e-01 3.651123e-01 -2.536736e-05 -1.357868e-06 8.569565e-06 7.279217e-06 3.534079e-03 6.060600e-04
1.648594e+08 9.998169e-01 3.652954e-01 2.380461e-05 -9.315088e-06 2.352893e-05 -5.325302e-06 3.567457e-03 6.566048e-04
1.650772e+08 9.987793e-01 3.654785e-01 3.672391e-05 -1.283735e-05 3.981777e-05 -2.939627e-05 3.569603e-03 6.330013e-04
1.652950e+08 1.000061e+00 3.650513e-01 -2.181344e-05 1.153909e-05 1.583248e-05 -5.831942e-05 3.618240e-03 6.463528e-04
1.655128e+08 1.000610e+00 3.648682e-01 1.781527e-05 -1.596380e-05 3.102794e-05 -1.163408e-05 3.598452e-03 6.575584e-04
1.657306e+08 9.991455e-01 3.647461e-01 1.462922e-05 4.315376e-05 5.394919e-06 -3.856374e-06 3.651857e-03 6.039143e-04
1.659484e+08 9.999390e-01 3.637695e-01 -4.981086e-05 -1.968443e-05 1.605414e-05 9.881333e-07 3.625393e-03 6.260872e-04
1.661662e+08 9.996338e-01 3.640747e-01 3.270060e-05 -1.730211e-05 -1.900550e-05 4.942529e-06 3.664255e-03 6.377697e-04
1.663841e+08 1.000610e+00 3.640747e-01 2.090819e-05 5.366281e-06 -6.170943e-06 3.704242e-05 3.608704e-03 6.582737e-04
1.666019e+08 9.997559e-01 3.631592e-01 -6.457325e-06 1.765788e-06 3.366172e-05 -6.432831e-05 3.659964e-03 6.577969e-04
1.668197e+08 1.000427e+00 3.625488e-01 9.033829e-07 -1.692027e-05 -5.517155e-06 1.643877e-05 3.679991e-03 6.351471e-04
1.670375e+08 9.999390e-01 3.619385e-01 -3.983825e-05 -8.538365e-06 -6.497372e-06 -9.752810e-06 3.679514e-03 6.084442e-04
1.672553e+08 1.000977e+00 3.623047e-01 1.552515e-05 2.629869e-05 -1.497008e-05 -2.966449e-05 3.690243e-03 6.525517e-04
1.674731e+08 1.000610e+00 3.610229e-01 -8.916017e-06 8.010771e-06 1.607835e-05 9.797513e-07 3.699780e-03 6.554127e-04
1.676909e+08 1.000244e+00 3.612671e-01 1.738127e-05 -7.559545e-06 -9.974465e-07 1.607090e-05 3.692627e-03 6.344318e-04
1.679088e+08 9.995117e-01 3.613281e-01 8.039176e-05 -3.594905e-05 -1.938734e-05 3.976747e-07 3.729582e-03 6.837845e-04
1.681266e+08 9.996338e-01 3.597412e-01 -1.691841e-05 -9.238720e-07 -1.078285e-05 -3.453530e-05 3.751755e-03 6.792545e-04
1.683444e+08 1.000366e+00 3.596802e-01 9.851530e-06 -2.492592e-05 -6.388873e-06 -2.235360e-05 3.765583e-03 6.561279e-04
1.685622e+08 9.994507e-01 3.594971e-01 2.585910e-05 -7.076189e-06 -1.545623e-05 -2.160948e-05 3.752947e-03 6.346703e-04
1.687800e+08 9.993896e-01 3.593140e-01 -9.229407e-07 1.691561e-05 -1.476891e-05 2.977252e-05 3.813028e-03 6.558895e-04
1.689978e+08 9.990845e-01 3.586426e-01 1.632795e-05 -2.671406e-05 2.076849e-05 -1.195911e-05 3.780842e-03 6.346703e-04
1.692156e+08 9.990234e-01 3.580322e-01 -3.140047e-05 -8.067116e-06 7.366762e-06 6.265007e-06 3.824472e-03 6.237030e-04
1.694334e+08 9.993896e-01 3.582153e-01 -1.033768e-05 3.338605e-05 4.350953e-05 -1.378357e-05 3.805161e-03 6.334782e-04
1.696512e+08 9.984131e-01 3.580322e-01 -2.696179e-05 -1.208670e-05 -3.224984e-05 -3.172271e-05 3.834248e-03 6.551743e-04
1.698691e+08 9.987183e-01 3.569336e-01 4.575029e-05 -2.080202e-05 1.363549e-05 -1.094304e-06 3.875732e-03 6.721020e-04
1.700869e+08 9.976196e-01 3.562622e-01 -8.937903e-06 8.000992e-06 -2.664141e-05 -1.843832e-05 3.807068e-03 6.635189e-04
1.703047e+08 9.976807e-01 3.565063e-01 -2.541766e-05 -1.406297e-06 2.447329e-05 -8.814037e-06 3.897667e-03 6.682873e-04
1.705225e+08 9.971924e-01 3.543701e-01 9.391457e-06 -1.647789e-05 -3.500469e-05 3.371388e-05 3.888607e-03 6.637573e-04
1.707403e+08 9.974976e-01 3.561401e-01 1.186319e-05 -2.270937e-05 -4.913192e-06 -4.188158e-06 3.904104e-03 6.475449e-04
1.709581e+08 9.971924e-01 3.550415e-01 -1.894217e-05 -3.169291e-06 2.137665e-05 9.726733e-06 3.904104e-03 6.403923e-04
1.711759e+08 9.968262e-01 3.546753e-01 -1.201592e-05 -1.340546e-05 8.596107e-06 7.327646e-06 3.879070e-03 6.821156e-04
1.713938e+08 9.965210e-01 3.542480e-01 1.552515e-05 2.635829e-05 2.116058e-05 -7.409602e-06 3.911734e-03 6.759167e-04
1.716116e+08 9.970703e-01 3.538208e-01 4.656613e-07 -8.476898e-06 -2.277642e-05 1.816079e-06 3.935814e-03 6.499290e-04
1.718294e+08 9.959106e-01 3.536377e-01 -4.731119e-05 1.012161e-05 1.955777e-06 1.015142e-05 3.934383e-03 6.694794e-04
1.720472e+08 9.959717e-01 3.539429e-01 1.849048e-05 1.165457e-05 3.260374e-05 6.582588e-06 3.978729e-03 6.635189e-04
1.722650e+08 9.946899e-01 3.538818e-01 2.190471e-05 -1.155213e-05 5.991198e-06 1.785625e-05 3.973484e-03 6.985664e-04
1.724828e+08 9.948120e-01 3.520508e-01 4.192442e-05 1.085177e-05 -8.244533e-06 -2.781395e-06 4.004955e-03 6.463528e-04
1.727006e+08 9.942017e-01 3.529663e-01 8.012634e-06 8.953735e-06 4.397333e-05 -9.186566e-06 4.036427e-03 6.635189e-04
1.729184e+08 9.945068e-01 3.522949e-01 1.662597e-05 4.559755e-05 -2.662279e-05 1.127645e-05 4.014492e-03 6.754398e-04
1.731362e+08 9.932861e-01 3.515015e-01 -5.420297e-06 2.095662e-05 -1.699384e-05 2.495944e-06 4.022598e-03 7.116795e-04
1.733541e+08 9.938965e-01 3.513794e-01 -4.524738e-05 4.851818e-05 1.627859e-05 -1.161918e-05 4.065752e-03 6.680489e-04
1.735719e+08 9.932861e-01 3.509521e-01 5.729869e-05 -3.507733e-05 -1.918711e-05 -2.486072e-05 4.083157e-03 7.021427e-04
1.737897e+08 9.926147e-01 3.511353e-01 1.650210e-05 9.439886e-06 -4.807115e-05 1.516193e-06 4.071236e-03 6.761551e-04
1.740075e+08 9.920654e-01 3.501587e-01 2.004439e-06 2.239249e-06 7.888768e-06 -1.775101e-06 4.081011e-03 7.269382e-04
1.742253e+08 9.914551e-01 3.504639e-01 3.005378e-05 3.359839e-05 1.076050e-05 3.470853e-05 4.056931e-03 6.737709e-04
1.744431e+08 9.909058e-01 3.487549e-01 -2.147630e-05 3.051013e-06 -3.027357e-05 -3.429502e-05 4.134893e-03 7.069111e-04
1.746609e+08 9.906616e-01 3.488770e-01 -2.091005e-05 3.081188e-05 -1.635961e-05 -1.822133e-05 4.082203e-03 6.973743e-04
1.748788e+08 9.898682e-01 3.482056e-01 -7.432885e-06 1.874287e-05 -5.067792e-06 8.436386e-06 4.093885e-03 6.878376e-04
1.750966e+08 9.891968e-01 3.482666e-01 -2.207421e-05 -2.467260e-05 -1.288950e-05 4.004873e-05 4.152298e-03 7.071495e-04
1.753144e+08 9.889526e-01 3.479614e-01 2.299808e-05 7.679686e-06 5.286653e-06 8.767005e-06 4.120827e-03 6.802082e-04
1.755322e+08 9.887085e-01 3.479614e-01 -2.348796e-05 8.177012e-07 -1.341105e-05 -2.421252e-05 4.161835e-03 7.004738e-04
1.757500e+08 9.879761e-01 3.479614e-01 -3.397465e-05 -1.894310e-06 2.008397e-05 2.139155e-05 4.167318e-03 6.868839e-04
1.759678e+08 9.874268e-01 3.479614e-01 1.356006e-05 2.419017e-05 6.160699e-06 5.258247e-06 4.174948e-03 7.238388e-04
1.761856e+08 9.870605e-01 3.474121e-01 1.345575e-05 -1.203269e-05 9.462237e-07 -4.604459e-05 4.209995e-03 7.274151e-04
1.764034e+08 9.861450e-01 3.472900e-01 1.394004e-05 -2.052449e-05 -9.349547e-06 -1.650117e-05 4.202127e-03 7.226467e-04
1.766212e+08 9.854126e-01 3.462524e-01 1.604389e-05 1.794938e-05 -3.161654e-05 7.111579e-06 4.211187e-03 7.252693e-04
1.768391e+08 9.848022e-01 3.466187e-01 -1.804903e-05 -2.020970e-05 2.104789e-06 -2.465677e-06 4.222631e-03 7.107258e-04
1.770569e+08 9.843750e-01 3.459473e-01 1.900457e-05 3.216788e-06 2.350472e-05 -2.256967e-05 4.232407e-03 7.178783e-04
1.772747e+08 9.833374e-01 3.453979e-01 -3.354810e-05 -1.044385e-05 2.358109e-05 7.333234e-06 4.246712e-03 7.367134e-04
1.774925e+08 9.832764e-01 3.440552e-01 1.654122e-05 9.468757e-06 -1.345389e-05 -2.423488e-05 4.231215e-03 7.131100e-04
1.777103e+08 9.821167e-01 3.453979e-01 8.506700e-06 4.777685e-07 -3.585219e-05 1.201592e-05 4.271984e-03 7.145405e-04
1.779281e+08 9.822388e-01 3.448486e-01 1.358427e-05 2.424046e-05 4.211906e-06 -4.938105e-06 4.267216e-03 7.281303e-04
1.781459e+08 9.796143e-01 3.460693e-01 -9.126961e-08 2.705306e-05 1.130067e-05 -1.850910e-05 4.299879e-03 7.388592e-04
1.783638e+08 9.800415e-01 3.450928e-01 -4.304573e-06 1.763366e-05 1.399126e-05 -1.366809e-05 4.257917e-03 7.708073e-04
1.785816e+08 9.786987e-01 3.446655e-01 -1.346879e-05 3.221445e-05 -2.065580e-05 -7.162802e-06 4.330635e-03 7.030964e-04
1.787994e+08 9.779663e-01 3.445435e-01 -6.597489e-06 -3.807619e-05 2.331100e-05 1.549348e-05 4.299879e-03 7.467270e-04
1.790172e+08 9.776611e-01 3.444824e-01 2.492219e-06 -2.555735e-05 -2.245419e-05 2.670847e-05 4.405022e-03 7.379055e-04
1.792350e+08 9.767456e-01 3.437500e-01 -2.063252e-05 -2.655201e-05 -3.221445e-05 3.213808e-05 4.392385e-03 7.722378e-04
1.794528e+08 9.756470e-01 3.431396e-01 2.188608e-05 1.375936e-05 -2.450123e-05 -3.348105e-05 4.401207e-03 7.550716e-04
1.796706e+08 9.748535e-01 3.430786e-01 -1.771934e-05 2.277829e-05 -1.237076e-05 -6.376766e-06 4.397154e-03 7.512569e-04
1.798884e+08 9.747314e-01 3.445435e-01 -2.433546e-05 -1.529045e-05 -5.592592e-06 4.080124e-06 4.364729e-03 7.457733e-04
1.801062e+08 9.743042e-01 3.441772e-01 -2.937391e-05 3.583729e-05 1.057982e-05 4.029274e-05 4.382133e-03 7.746220e-04
1.803241e+08 9.724121e-01 3.435059e-01 9.806827e-06 -2.100132e-05 1.003779e-05 -2.963096e-05 4.412651e-03 8.172989e-04
1.805419e+08 9.717407e-01 3.444214e-01 -3.694557e-06 1.125410e-05 -1.833215e-05 2.536736e-05 4.460812e-03 8.046627e-04
1.807597e+08 9.716797e-01 3.432007e-01 1.754798e-05 3.146008e-05 4.128553e-06 2.126908e-06 4.479408e-03 7.891655e-04
1.809775e+08 9.705811e-01 3.433838e-01 4.571304e-05 8.370727e-06 -5.848706e-06 2.485327e-05 4.472733e-03 8.213520e-04
1.811953e+08 9.703369e-01 3.436890e-01 -2.991036e-05 1.514703e-05 4.014187e-05 3.276393e-06 4.508734e-03 7.677078e-04
1.814131e+08 9.682617e-01 3.435059e-01 -2.983585e-05 -1.199916e-05 1.506880e-06 -9.671319e-06 4.452944e-03 7.865429e-04
1.816309e+08 9.685669e-01 3.434448e-01 -1.037400e-05 2.700835e-07 2.092775e-05 -1.012068e-05 4.490376e-03 8.339882e-04
1.818488e+08 9.677124e-01 3.432007e-01 3.958866e-05 1.811981e-05 1.553446e-06 -1.315121e-05 4.515886e-03 8.103848e-04
1.820666e+08 9.667969e-01 3.432617e-01 3.292970e-05 7.120892e-06 -1.693144e-06 2.354942e-05 4.531145e-03 8.294582e-04
1.822844e+08 9.657593e-01 3.431396e-01 2.634712e-05 -3.101118e-05 1.066551e-05 3.340654e-05 4.526377e-03 7.798672e-04
1.825022e+08 9.652100e-01 3.433228e-01 -6.221235e-06 3.688969e-05 1.373421e-05 1.057982e-05 4.530191e-03 8.318424e-04
1.827200e+08 9.649658e-01 3.427124e-01 9.212643e-06 -1.461990e-05 3.101863e-05 -3.986061e-05 4.581213e-03 8.540154e-04
1.829378e+08 9.632568e-01 3.428955e-01 -3.676489e-05 3.132224e-05 -1.163967e-05 4.284084e-05 4.584551e-03 8.909702e-04
1.831556e+08 9.635010e-01 3.430786e-01 -4.223362e-05 3.468245e-05 -4.360452e-06 1.521222e-05 4.572630e-03 8.580685e-04
1.833734e+08 9.617920e-01 3.437500e-01 3.357232e-05 7.040799e-07 2.218783e-05 9.927899e-07 4.573107e-03 8.323193e-04
1.835912e+08 9.611816e-01 3.424072e-01 5.878508e-05 -4.474074e-05 -1.525413e-05 -8.828938e-07 4.618168e-03 8.265972e-04
1.838091e+08 9.597168e-01 3.434448e-01 -2.745725e-05 -1.046620e-05 -1.652166e-06 2.009701e-05 4.644156e-03 8.535385e-04
1.840269e+08 9.592896e-01 3.435669e-01 -4.882459e-06 -3.068475e-06 -1.098216e-05 -9.168871e-06 4.596233e-03 8.599758e-04
1.842447e+08 9.589844e-01 3.435059e-01 -1.409836e-05 1.155306e-05 -1.682341e-05 1.228414e-05 4.601002e-03 8.518696e-04
1.844625e+08 9.580078e-01 3.440552e-01 6.332994e-07 -6.415416e-06 1.865998e-05 -4.628673e-05 4.665136e-03 8.845329e-04
1.846803e+08 9.564209e-01 3.437500e-01 -4.390255e-05 -2.768263e-05 1.379102e-05 7.114373e-06 4.685879e-03 8.714199e-04
1.848981e+08 9.560547e-01 3.435059e-01 1.899246e-05 -8.492731e-06 2.059713e-05 1.762342e-05 4.690170e-03 8.940697e-04
1.851159e+08 9.547729e-01 3.438721e-01 2.460741e-05 -3.899820e-05 2.196804e-05 1.833215e-05 4.664183e-03 8.754730e-04
1.853338e+08 9.542847e-01 3.438110e-01 1.899898e-06 -1.927186e-05 -2.390519e-05 2.260506e-05 4.740953e-03 8.988380e-04
1.855516e+08 9.533691e-01 3.438721e-01 4.085526e-05 3.256276e-05 -2.725422e-05 6.977841e-05 4.701614e-03 8.826256e-04
1.857694e+08 9.517212e-01 3.440552e-01 3.490224e-05 -1.210533e-05 2.182275e-05 2.874248e-05 4.748106e-03 8.833408e-04
1.859872e+08 9.513550e-01 3.446655e-01 2.324581e-05 9.927899e-07 2.250075e-06 3.961287e-05 4.736185e-03 9.224415e-04
1.862050e+08 9.512939e-01 3.450928e-01 -5.424023e-06 -2.389587e-05 -6.075948e-06 3.883429e-05 4.731655e-03 9.047985e-04
1.864228e+08 9.501953e-01 3.446045e-01 -1.944974e-05 -3.955141e-05 -2.526119e-05 1.843832e-05 4.820824e-03 8.821487e-04
1.866406e+08 9.489746e-01 3.455200e-01 -1.465902e-05 -9.244308e-06 -3.455393e-05 -1.436658e-05 4.745722e-03 9.543896e-04
1.868584e+08 9.489136e-01 3.450317e-01 -4.163012e-06 -3.674999e-05 -3.248639e-05 3.921241e-05 4.796982e-03 9.567738e-04
1.870762e+08 9.475098e-01 3.455200e-01 -2.759323e-05 1.674332e-05 -1.537520e-05 6.054528e-06 4.795790e-03 9.005070e-04
1.872941e+08 9.463501e-01 3.456421e-01 1.094490e-05 2.055243e-05 1.551583e-05 -1.647230e-05 4.804134e-03 9.028912e-04
1.875119e+08 9.454346e-01 3.463135e-01 1.096912e-05 2.055988e-05 -6.855931e-06 -7.048249e-06 4.808187e-03 9.405613e-04
1.877297e+08 9.444580e-01 3.457642e-01 -9.126961e-08 2.724491e-05 -1.113862e-05 1.240522e-06 4.839659e-03 9.653568e-04
1.879475e+08 9.436035e-01 3.471069e-01 2.223253e-05 -4.068017e-05 7.097609e-06 -1.033489e-05 4.845858e-03 9.651184e-04
1.881653e+08 9.420166e-01 3.469849e-01 -1.477916e-05 1.800433e-05 -1.685787e-05 1.227390e-05 4.892349e-03 9.393692e-04
1.883831e+08 9.428101e-01 3.471069e-01 -2.880581e-05 2.337620e-06 -4.737079e-05 3.561378e-06 4.899502e-03 9.551048e-04
1.886009e+08 9.409790e-01 3.486938e-01 6.575137e-06 3.833137e-05 1.978688e-05 -2.128724e-05 4.907608e-03 9.508133e-04
1.888188e+08 9.401855e-01 3.485718e-01 -1.212209e-05 -3.500283e-05 -4.889444e-08 3.479188e-06 4.878044e-03 9.822845e-04
1.890366e+08 9.392700e-01 3.480835e-01 -2.317503e-05 -2.830103e-05 -5.250797e-06 -2.372265e-05 4.900455e-03 9.815693e-04
1.892544e+08 9.385986e-01 3.486938e-01 -1.107156e-05 6.696209e-06 9.395182e-06 2.587959e-05 4.905939e-03 9.901524e-04
1.894722e+08 9.371948e-01 3.493042e-01 4.893634e-06 3.086869e-06 -4.342757e-05 1.956150e-05 4.966259e-03 1.018763e-03
1.896900e+08 9.369507e-01 3.496094e-01 -5.535781e-06 3.350899e-06 4.057027e-05 -1.407415e-05 4.944324e-03 9.980202e-04
1.899078e+08 9.360962e-01 3.494263e-01 -1.158565e-06 -1.441594e-05 4.382804e-06 -1.525600e-05 4.943609e-03 1.047373e-03
1.901256e+08 9.347534e-01 3.507080e-01 2.969056e-06 2.240576e-05 -8.186325e-06 -1.125317e-05 5.008459e-03 1.003742e-03
1.903434e+08 9.343262e-01 3.505859e-01 3.245659e-05 1.365505e-05 1.505762e-05 1.830887e-05 4.987955e-03 1.040697e-03
1.905612e+08 9.327393e-01 3.510742e-01 2.322719e-06 2.885051e-05 -5.432870e-06 -9.818003e-06 4.988194e-03 1.025200e-03
1.907791e+08 9.324341e-01 3.512573e-01 6.068498e-06 1.751352e-05 3.441796e-05 2.831593e-05 5.042553e-03 9.970665e-04
1.909969e+08 9.321899e-01 3.515015e-01 -1.661573e-05 1.007039e-05 -5.388632e-06 -1.331139e-05 5.050659e-03 1.031876e-03
1.912147e+08 9.303589e-01 3.526611e-01 3.076904e-05 -2.167560e-05 -3.125519e-06 2.292730e-05 5.076408e-03 1.054049e-03
1.914325e+08 9.297485e-01 3.526611e-01 -1.171604e-05 1.315307e-05 9.534881e-06 1.545344e-05 5.054474e-03 1.063824e-03
1.916503e+08 9.290161e-01 3.529053e-01 1.043268e-05 -2.663583e-07 1.536030e-05 -2.568588e-06 5.049467e-03 1.064777e-03
1.918681e+08 9.275513e-01 3.534546e-01 -4.643947e-05 -5.674735e-05 2.340600e-05 1.912378e-05 5.066633e-03 1.079559e-03
1.920859e+08 9.273071e-01 3.542480e-01 3.619120e-06 1.599267e-05 -7.402152e-06 3.124774e-05 5.035400e-03 1.086235e-03
1.923038e+08 9.264526e-01 3.553467e-01 -8.124858e-06 2.913363e-05 1.715496e-05 -2.972037e-05 5.096197e-03 1.084566e-03
1.925216e+08 9.252319e-01 3.553467e-01 6.840564e-06 -1.625996e-05 8.098781e-06 1.823530e-05 5.145311e-03 1.124620e-03
1.927394e+08 9.248047e-01 3.555908e-01 -5.421415e-05 2.062321e-05 -8.593313e-06 1.660362e-05 5.125046e-03 1.127958e-03
1.929572e+08 9.231567e-01 3.557739e-01 -1.715217e-05 -1.082197e-05 -2.261065e-05 2.336130e-05 5.130529e-03 1.113892e-03
1.931750e+08 9.230347e-01 3.561401e-01 2.708845e-05 -1.032464e-05 2.231449e-06 3.976561e-05 5.146980e-03 1.171589e-03
1.933928e+08 9.222412e-01 3.573608e-01 4.232675e-05 1.986325e-05 3.081001e-05 -8.618459e-06 5.165815e-03 1.136541e-03
1.936106e+08 9.208984e-01 3.576050e-01 1.909677e-05 -8.516014e-06 3.786199e-05 -1.548044e-05 5.164385e-03 1.142979e-03
1.938284e+08 9.201660e-01 3.578491e-01 -1.173839e-05 1.315959e-05 1.086667e-05 1.967605e-05 5.194187e-03 1.154661e-03
1.940462e+08 9.202881e-01 3.585205e-01 -1.045503e-05 2.579764e-07 -2.980232e-07 2.092309e-05 5.151987e-03 1.114607e-03
1.942641e+08 9.188232e-01 3.587646e-01 -1.588091e-05 -2.375431e-05 3.016554e-06 -1.599453e-05 5.210161e-03 1.194715e-03
1.944819e+08 9.177246e-01 3.596802e-01 7.865950e-06 2.555922e-05 -2.593733e-05 -3.803894e-05 5.224943e-03 1.185417e-03
1.946997e+08 9.177246e-01 3.601074e-01 -1.370907e-05 3.253855e-05 -5.237758e-06 -2.379343e-05 5.251646e-03 1.187325e-03
1.949175e+08 9.167480e-01 3.606567e-01 -1.458637e-05 -3.666803e-05 1.598150e-05 -4.443154e-05 5.249500e-03 1.168966e-03
1.951353e+08 9.160156e-01 3.610840e-01 5.047768e-07 2.092868e-05 -1.082197e-06 -2.164487e-05 5.276203e-03 1.218796e-03
1.953531e+08 9.147949e-01 3.624878e-01 1.291372e-05 1.298264e-06 2.719089e-05 -4.563481e-05 5.268335e-03 1.206875e-03
1.955709e+08 9.146118e-01 3.623047e-01 -9.296462e-06 1.473352e-05 -2.477318e-06 -2.236478e-05 5.278826e-03 1.195192e-03
1.957888e+08 9.138794e-01 3.634033e-01 -7.525086e-07 3.387034e-05 -2.513826e-05 1.039356e-06 5.263805e-03 1.255512e-03
1.960066e+08 9.129028e-01 3.641968e-01 -1.783203e-05 -4.400499e-06 6.027892e-05 -1.796335e-05 5.319595e-03 1.230717e-03
1.962244e+08 9.113159e-01 3.645020e-01 -1.783203e-05 -4.394911e-06 -1.927745e-05 -1.702085e-05 5.284071e-03 1.232147e-03
1.964422e+08 9.110718e-01 3.649902e-01 2.405234e-05 -5.412847e-06 -3.814884e-05 3.295764e-05 5.328417e-03 1.216173e-03
1.966600e+08 9.096680e-01 3.652954e-01 -6.329641e-05 -1.941994e-05 -1.641735e-05 -2.256036e-05 5.315065e-03 1.250744e-03
1.968778e+08 9.093018e-01 3.669434e-01 1.814589e-05 -5.041808e-05 -1.400616e-05 3.275461e-06 5.339146e-03 1.264334e-03
1.970956e+08 9.086914e-01 3.675537e-01 4.907139e-06 3.106426e-06 3.457069e-06 -4.392490e-05 5.393505e-03 1.263380e-03
1.973134e+08 9.080811e-01 3.676147e-01 3.878959e-05 3.909692e-06 -1.201220e-05 -3.787130e-05 5.384207e-03 1.257181e-03
1.975312e+08 9.074097e-01 3.695068e-01 -4.500896e-05 5.908310e-06 2.569705e-05 -3.590249e-05 5.403519e-03 1.317263e-03
1.977491e+08 9.061890e-01 3.695068e-01 3.756024e-06 -1.138449e-05 8.571893e-06 -1.313537e-05 5.391121e-03 1.249075e-03
1.979669e+08 9.057007e-01 3.708496e-01 -1.573190e-05 -5.123764e-05 -1.556706e-05 1.302175e-05 5.378962e-03 1.287222e-03
1.981847e+08 9.049072e-01 3.710938e-01 1.850910e-05 -2.057292e-06 3.788061e-05 -1.200289e-05 5.415916e-03 1.311779e-03
1.984025e+08 9.044189e-01 3.712769e-01 -1.061708e-05 2.767518e-05 -2.105348e-05 6.658025e-06 5.375147e-03 1.337290e-03
1.986203e+08 9.031372e-01 3.715820e-01 -5.346537e-05 -4.062057e-05 9.540468e-06 1.549814e-05 5.423307e-03 1.291275e-03
1.988381e+08 9.022217e-01 3.729248e-01 2.215430e-05 1.399033e-05 8.256175e-06 7.816125e-06 5.419493e-03 1.346111e-03
1.990559e+08 9.020996e-01 3.734131e-01 1.590885e-05 2.381019e-05 -3.296509e-05 -3.824010e-05 5.415201e-03 1.374483e-03
1.992738e+08 9.005737e-01 3.743286e-01 -2.275780e-05 -7.504597e-06 1.269113e-05 -7.483177e-06 5.459547e-03 1.349926e-03
1.994916e+08 9.001465e-01 3.748169e-01 3.441237e-05 2.176501e-05 -2.089608e-05 -3.824010e-06 5.474806e-03 1.369715e-03
1.997094e+08 9.001465e-01 3.751221e-01 1.733564e-05 -1.656543e-05 -1.526345e-05 -7.910654e-06 5.507231e-03 1.374245e-03
1.999272e+08 8.986816e-01 3.767700e-01 1.981109e-05 -1.499802e-05 1.003779e-05 -1.590978e-05 5.492926e-03 1.361847e-03
2.001450e+08 8.978882e-01 3.772583e-01 -2.458924e-06 -1.556939e-06 -1.023896e-05 2.988614e-05 5.520344e-03 1.385689e-03
2.003628e+08 8.972168e-01 3.778687e-01 1.917128e-05 -8.525327e-06 -1.439638e-05 2.771802e-05 5.532026e-03 1.381874e-03
2.005806e+08 8.964233e-01 3.787231e-01 8.026604e-06 -1.803041e-06 -1.701340e-05 1.578778e-05 5.537510e-03 1.446486e-03
2.007984e+08 8.961182e-01 3.794556e-01 1.622736e-05 -3.110059e-05 -1.136027e-05 1.169462e-05 5.576134e-03 1.435041e-03
2.010162e+08 8.958130e-01 3.806763e-01 2.509356e-05 3.655627e-05 1.131464e-05 -8.207746e-06 5.586624e-03 1.395226e-03
2.012341e+08 8.946533e-01 3.812866e-01 -2.572499e-05 -3.007241e-05 -2.313405e-05 4.782155e-05 5.581141e-03 1.462221e-03
2.014519e+08 8.941650e-01 3.818970e-01 4.919246e-06 3.110617e-06 -2.101529e-05 3.162771e-06 5.598068e-03 1.444340e-03
2.016697e+08 8.937378e-01 3.820801e-01 1.000240e-05 -2.124719e-05 4.753470e-06 -3.626756e-05 5.594254e-03 1.446247e-03
2.018875e+08 8.937988e-01 3.833008e-01 -3.607944e-06 -1.607649e-05 -1.653843e-05 -1.564343e-05 5.568027e-03 1.501560e-03
2.021053e+08 8.933105e-01 3.843994e-01 1.802109e-06 8.032657e-06 -2.952665e-05 9.320676e-06 5.593777e-03 1.482487e-03
2.023231e+08 8.923340e-01 3.844604e-01 -2.083182e-05 -2.698973e-05 6.487593e-06 3.156811e-05 5.654812e-03 1.521587e-03
2.025409e+08 8.909912e-01 3.855591e-01 -1.000427e-05 2.123788e-05 1.391862e-05 3.720634e-06 5.662918e-03 1.516342e-03
2.027588e+08 8.907471e-01 3.861084e-01 -1.593493e-05 -2.387166e-05 -1.946930e-05 -6.603077e-06 5.600929e-03 1.486301e-03
2.029766e+08 8.893433e-01 3.869629e-01 6.523915e-07 -6.481539e-06 -2.372824e-05 -1.786277e-06 5.646229e-03 1.519203e-03
2.031944e+08 8.900757e-01 3.880615e-01 5.293638e-06 5.161762e-05 1.056120e-05 -4.740059e-05 5.708694e-03 1.573086e-03
2.034122e+08 8.890991e-01 3.884277e-01 -2.525561e-05 -9.110197e-06 1.542363e-05 -2.550893e-06 5.659580e-03 1.570225e-03
2.036300e+08 8.887939e-01 3.905029e-01 4.252419e-05 2.002344e-05 4.986301e-06 3.787316e-05 5.702496e-03 1.530170e-03
2.038478e+08 8.875732e-01 3.901367e-01 1.525506e-05 3.037974e-05 -5.713198e-06 7.602852e-06 5.689144e-03 1.601696e-03
2.040656e+08 8.875122e-01 3.904419e-01 -4.266389e-06 -9.614043e-06 -5.551148e-06 -2.883375e-06 5.733490e-03 1.592159e-03
2.042834e+08 8.870850e-01 3.923340e-01 -2.036244e-05 -5.997717e-06 -5.717855e-06 7.609837e-06 5.690575e-03 1.594067e-03
2.045012e+08 8.867798e-01 3.928223e-01 5.587004e-06 -3.362074e-06 1.557171e-06 -9.774696e-06 5.721092e-03 1.596928e-03
2.047191e+08 8.861084e-01 3.931885e-01 2.414733e-05 -5.403534e-06 2.848729e-05 5.715713e-05 5.762100e-03 1.606941e-03
2.049369e+08 8.850098e-01 3.945312e-01 1.183245e-05 -1.321454e-05 -4.886836e-05 -7.811934e-06 5.734444e-03 1.636982e-03
2.051547e+08 8.850708e-01 3.948364e-01 -1.593493e-05 -2.391450e-05 6.066635e-06 -2.860837e-05 5.814075e-03 1.619339e-03
2.053725e+08 8.845215e-01 3.962402e-01 2.612546e-05 -2.488680e-05 -2.141297e-05 2.415292e-05 5.787849e-03 1.650810e-03
2.055903e+08 8.837891e-01 3.964844e-01 9.698793e-06 3.379770e-05 -2.036616e-05 4.586950e-05 5.787849e-03 1.682758e-03
2.058081e+08 8.831177e-01 3.981323e-01 -2.435967e-05 3.292598e-05 -2.817065e-05 1.000986e-05 5.820751e-03 1.693726e-03
2.060259e+08 8.829956e-01 3.992310e-01 1.263246e-05 5.636364e-05 1.665857e-05 8.692965e-06 5.787373e-03 1.643658e-03
2.062438e+08 8.828735e-01 3.992310e-01 -1.279823e-05 -2.885424e-05 1.231860e-05 1.701154e-05 5.808353e-03 1.693726e-03
2.064616e+08 8.815308e-01 4.000854e-01 1.088902e-05 -5.532801e-05 -2.163835e-05 3.812648e-05 5.811214e-03 1.729488e-03
2.066794e+08 8.814697e-01 4.007568e-01 -1.678150e-05 1.011137e-05 2.759509e-05 2.495572e-05 5.849361e-03 1.699448e-03
2.068972e+08 8.806763e-01 4.017334e-01 -1.003407e-05 2.129562e-05 -4.527159e-06 1.882017e-05 5.849361e-03 1.721859e-03
2.071150e+08 8.806152e-01 4.024658e-01 -2.779998e-05 -1.069345e-05 -1.370907e-05 -1.773518e-05 5.845547e-03 1.716614e-03
2.073328e+08 8.803711e-01 4.026489e-01 -1.269206e-05 4.730001e-05 -7.057097e-06 3.386289e-06 5.909443e-03 1.734257e-03
2.075506e+08 8.796997e-01 4.053345e-01 -2.351962e-05 -1.065433e-06 -5.370006e-06 -1.340453e-05 5.854607e-03 1.763344e-03
2.077684e+08 8.796997e-01 4.053345e-01 -1.119915e-05 6.732531e-06 -3.103539e-05 1.209602e-05 5.949020e-03 1.753330e-03
2.079862e+08 8.792725e-01 4.064331e-01 -1.792982e-05 -4.448928e-06 7.687137e-06 4.289113e-05 5.881310e-03 1.804352e-03
2.082041e+08 8.786011e-01 4.071045e-01 -2.941489e-05 -4.634634e-05 -1.817662e-05 -2.415851e-06 5.937576e-03 1.761913e-03
2.084219e+08 8.786621e-01 4.075317e-01 -5.600974e-06 3.367197e-06 -8.974224e-06 -5.062297e-05 5.932808e-03 1.815319e-03
2.086397e+08 8.781738e-01 4.079590e-01 -1.149625e-05 -4.189089e-05 3.992580e-06 1.267903e-05 5.946159e-03 1.811504e-03
2.088575e+08 8.777466e-01 4.091797e-01 3.493764e-05 -3.323890e-05 -1.267996e-05 3.996305e-06 5.949497e-03 1.840591e-03
2.090753e+08 8.773804e-01 4.105835e-01 -7.408205e-06 -4.700385e-06 1.124106e-05 -1.212582e-06 5.917549e-03 1.818657e-03
2.092931e+08 8.765259e-01 4.123535e-01 7.877499e-05 -1.023337e-04 -2.336316e-05 -2.637692e-05 5.985260e-03 1.866817e-03
2.095109e+08 8.768921e-01 4.118042e-01 -3.591925e-05 -8.927658e-06 -1.686625e-06 1.680013e-05 5.990982e-03 1.826286e-03
2.097288e+08 8.762207e-01 4.124756e-01 1.796242e-05 4.461035e-06 2.827309e-05 -1.354702e-05 5.962372e-03 1.892090e-03
2.099466e+08 8.760986e-01 4.132690e-01 3.969297e-06 -3.905036e-05 -2.858974e-05 3.107451e-05 5.985260e-03 1.860619e-03
2.101644e+08 8.753052e-01 4.147949e-01 -6.266870e-06 9.879470e-06 -3.608875e-05 -2.236478e-05 6.038666e-03 1.909256e-03
2.103822e+08 8.751831e-01 4.157104e-01 -3.049336e-05 1.530908e-05 -5.420297e-07 3.155880e-05 5.990028e-03 1.870632e-03
2.106000e+08 8.751831e-01 4.157104e-01 -1.635030e-05 3.121980e-05 -4.415400e-06 1.185387e-05 6.084442e-03 1.893044e-03
2.108178e+08 8.746948e-01 4.163208e-01 1.121964e-05 -6.751157e-06 8.707866e-06 -1.668837e-05 6.052017e-03 1.965046e-03
2.110356e+08 8.742065e-01 4.179688e-01 1.035258e-05 2.738088e-05 -4.960224e-05 2.716482e-05 6.037712e-03 1.954556e-03
2.112534e+08 8.746338e-01 4.181519e-01 6.746501e-06 1.120940e-05 3.749132e-05 2.311170e-05 6.081104e-03 1.980305e-03
2.114712e+08 8.735352e-01 4.200439e-01 9.704381e-06 3.390014e-05 -1.302455e-05 2.152473e-05 6.067753e-03 1.977921e-03
2.116891e+08 8.734741e-01 4.208984e-01 -3.547780e-05 1.215190e-05 3.400631e-05 -1.765229e-05 6.078243e-03 2.010822e-03
2.119069e+08 8.728027e-01 4.210205e-01 1.884252e-05 -2.967380e-05 5.025417e-06 -4.692003e-05 6.071091e-03 1.970768e-03
2.121247e+08 8.727417e-01 4.218140e-01 -4.284084e-07 5.526841e-05 3.427640e-05 4.620850e-05 6.112576e-03 2.034187e-03
2.123425e+08 8.726807e-01 4.226685e-01 -8.475035e-06 5.707145e-05 -7.142778e-06 6.893650e-06 6.144047e-03 2.049446e-03
2.125603e+08 8.721924e-01 4.236450e-01 -5.368143e-05 3.529713e-05 -1.270697e-05 3.982335e-06 6.098270e-03 2.062798e-03
2.127781e+08 8.718872e-01 4.247437e-01 6.953254e-06 -1.642108e-05 1.660734e-05 -6.570294e-05 6.136417e-03 2.083778e-03
2.129959e+08 8.719482e-01 4.249268e-01 3.143214e-06 -4.948583e-06 -4.936010e-05 -6.825849e-05 6.108284e-03 2.045631e-03
2.132138e+08 8.718872e-01 4.260864e-01 -8.294359e-06 2.944097e-05 -5.757436e-06 7.625204e-06 6.173611e-03 2.075672e-03
2.134316e+08 8.710327e-01 4.273071e-01 -9.423122e-06 1.484528e-05 5.367212e-06 1.344830e-05 6.167889e-03 2.114296e-03
2.136494e+08 8.719482e-01 4.273071e-01 -7.625669e-06 2.294220e-05 -3.095716e-06 1.611095e-05 6.151199e-03 2.084255e-03
2.138672e+08 8.710938e-01 4.287109e-01 1.370627e-05 -5.190261e-06 -2.228655e-05 -1.164526e-05 6.155491e-03 2.084255e-03
2.140850e+08 8.702393e-01 4.287109e-01 3.439747e-05 -2.680905e-05 3.181957e-05 2.727099e-05 6.167412e-03 2.154350e-03
2.143028e+08 8.714600e-01 4.297485e-01 -9.904616e-06 -6.294809e-06 -4.861504e-06 3.648922e-05 6.164074e-03 2.172470e-03
2.145206e+08 8.703003e-01 4.302979e-01 6.760471e-06 1.124386e-05 -4.487857e-05 -5.725771e-06 6.173611e-03 2.180576e-03
2.147384e+08 8.703003e-01 4.304199e-01 -5.820766e-06 3.105216e-05 1.168437e-05 -2.580509e-05 6.206512e-03 2.191067e-03
2.149562e+08 8.698730e-01 4.318848e-01 2.023764e-06 -1.958385e-05 -1.405366e-05 -2.514571e-07 6.242752e-03 2.190590e-03
2.151741e+08 8.701172e-01 4.328003e-01 9.437092e-06 -1.485366e-05 5.700625e-06 -4.119705e-06 6.217957e-03 2.239227e-03
2.153919e+08 8.696899e-01 4.334106e-01 -2.592057e-05 -3.037602e-05 -2.332404e-05 -3.346242e-05 6.202698e-03 2.225876e-03
2.156097e+08 8.688965e-01 4.333496e-01 -2.474710e-05 6.082654e-05 2.150610e-05 -2.421811e-05 6.243706e-03 2.254009e-03
2.158275e+08 8.690796e-01 4.351807e-01 1.688208e-05 -1.014303e-05 1.268461e-06 7.760245e-06 6.264687e-03 2.261639e-03
2.160453e+08 8.689575e-01 4.359131e-01 -2.924353e-06 -2.273545e-05 1.710840e-06 -1.684763e-05 6.299019e-03 2.250671e-03
2.162631e+08 8.684692e-01 4.373169e-01 -2.477318e-05 -1.576729e-05 5.812943e-05 -2.280250e-05 6.247997e-03 2.293110e-03
2.164809e+08 8.688965e-01 4.371338e-01 -5.629659e-05 3.377721e-05 -1.241826e-05 -1.360662e-05 6.280899e-03 2.296448e-03
2.166988e+08 8.687744e-01 4.382935e-01 -1.487415e-05 -9.448268e-06 4.575588e-06 -1.891702e-05 6.291389e-03 2.285004e-03
2.169166e+08 8.684692e-01 4.392700e-01 2.096780e-05 2.724677e-05 4.846603e-06 -3.298745e-05 6.294250e-03 2.331257e-03
2.171344e+08 8.685913e-01 4.389038e-01 -1.826137e-05 2.317317e-05 -2.497248e-05 -2.017803e-05 6.314278e-03 2.345562e-03
2.173522e+08 8.683472e-01 4.400024e-01 2.481602e-05 1.577847e-05 -2.016872e-05 2.497062e-05 6.345272e-03 2.327442e-03
2.175700e+08 8.681030e-01 4.404907e-01 -3.563426e-05 1.219101e-05 -5.962327e-06 1.819711e-05 6.336689e-03 2.338409e-03
2.177878e+08 8.677979e-01 4.419556e-01 -1.690723e-05 1.015421e-05 -9.626150e-06 -1.215562e-05 6.368637e-03 2.367973e-03
2.180056e+08 8.678589e-01 4.421997e-01 2.004579e-05 -1.509488e-05 -8.375570e-05 3.436580e-05 6.346226e-03 2.401829e-03
2.182234e+08 8.678589e-01 4.426270e-01 1.442898e-05 -1.174305e-05 -4.253350e-06 1.330627e-06 6.394863e-03 2.448082e-03
2.184412e+08 8.679810e-01 4.428711e-01 7.212162e-06 3.248453e-05 1.542270e-05 4.500151e-06 6.356239e-03 2.429008e-03
2.186591e+08 8.668823e-01 4.435425e-01 6.511807e-06 -3.768317e-05 -5.189329e-06 -2.404489e-05 6.378174e-03 2.449512e-03
2.188769e+08 8.674316e-01 4.442139e-01 1.760758e-05 -1.668930e-05 5.519483e-06 6.443355e-06 6.410122e-03 2.449989e-03
2.190947e+08 8.673706e-01 4.454346e-01 4.744157e-06 3.092550e-05 -1.390278e-05 -1.083966e-05 6.392479e-03 2.487659e-03
2.193125e+08 8.670654e-01 4.461670e-01 -1.128670e-05 6.782822e-06 9.322539e-06 2.979487e-05 6.378174e-03 2.480984e-03
2.195303e+08 8.664551e-01 4.466553e-01 -3.162771e-05 4.962087e-05 -4.122034e-06 -5.719252e-06 6.382465e-03 2.474785e-03
2.197481e+08 8.665771e-01 4.464722e-01 2.392754e-05 5.011633e-05 -2.386980e-05 -5.362555e-06 6.459236e-03 2.511978e-03
2.199659e+08 8.667603e-01 4.473267e-01 -6.090850e-06 -1.782551e-05 2.349168e-05 2.651662e-05 6.450653e-03 2.543449e-03
2.201838e+08 8.671265e-01 4.484863e-01 -5.889684e-06 3.115833e-05 -3.515556e-05 -7.705763e-06 6.428242e-03 2.588272e-03
2.204016e+08 8.657837e-01 4.482422e-01 4.131719e-05 -1.557544e-05 8.633360e-06 -9.715091e-06 6.460190e-03 2.577782e-03
2.206194e+08 8.663940e-01 4.492798e-01 4.491583e-05 6.854534e-07 1.461944e-06 -2.796296e-06 6.511211e-03 2.564430e-03
2.208372e+08 8.662720e-01 4.496460e-01 1.943298e-05 -8.582138e-06 3.360212e-06 4.805252e-05 6.480217e-03 2.597809e-03
2.210550e+08 8.662720e-01 4.505005e-01 -5.649030e-05 3.384054e-05 -5.786307e-06 7.660594e-06 6.485939e-03 2.604008e-03
2.212728e+08 8.663940e-01 4.515991e-01 -5.416572e-06 -2.440996e-05 5.921349e-06 -1.471117e-05 6.464005e-03 2.598763e-03
2.214906e+08 8.663330e-01 4.516602e-01 -2.687797e-05 3.829598e-06 -7.188413e-06 6.926246e-06 6.518841e-03 2.637863e-03
2.217084e+08 8.660889e-01 4.521484e-01 9.935349e-06 6.332994e-06 -5.963817e-05 1.864880e-05 6.504536e-03 2.655029e-03
2.219262e+08 8.661499e-01 4.533691e-01 -4.024059e-05 3.026798e-05 -2.025627e-05 2.504140e-05 6.507397e-03 2.665520e-03
2.221441e+08 8.659058e-01 4.533081e-01 -2.485467e-06 -1.584413e-06 -1.299568e-05 1.458451e-05 6.528378e-03 2.678394e-03
2.223619e+08 8.663330e-01 4.539185e-01 -1.076046e-10 -4.862954e-10 -1.393165e-05 -1.086574e-05 6.514072e-03 2.762318e-03
2.225797e+08 8.660278e-01 4.541626e-01 2.871454e-05 4.325062e-06 3.206544e-05 2.392009e-05 6.505489e-03 2.709389e-03
2.227975e+08 8.656616e-01 4.555664e-01 1.806300e-06 8.138828e-06 1.062080e-05 -3.725477e-05 6.519794e-03 2.737999e-03
2.230153e+08 8.661499e-01 4.556885e-01 3.935397e-05 4.101545e-06 3.035553e-05 -3.407896e-05 6.524563e-03 2.728939e-03
2.232331e+08 8.652954e-01 4.566650e-01 4.054978e-06 3.756769e-05 3.392994e-05 -4.842877e-08 6.546974e-03 2.748966e-03
2.234509e+08 8.654785e-01 4.569092e-01 -2.127513e-05 4.302710e-07 -1.932867e-05 -2.441742e-05 6.536484e-03 2.786160e-03
2.236688e+08 8.658447e-01 4.572144e-01 4.975125e-06 3.172550e-06 6.128103e-07 4.316494e-05 6.580353e-03 2.781868e-03
2.238866e+08 8.655396e-01 4.574585e-01 1.947675e-05 -8.584931e-06 -1.734681e-05 1.948234e-05 6.589413e-03 2.829552e-03
2.241044e+08 8.659668e-01 4.578247e-01 3.780983e-05 -3.187172e-05 -2.382882e-05 -1.248159e-05 6.603718e-03 2.844334e-03
2.243222e+08 8.660889e-01 4.590454e-01 -1.810398e-05 -4.546717e-06 -4.412141e-06 8.413102e-06 6.626129e-03 2.859116e-03
2.245400e+08 8.653564e-01 4.591675e-01 1.675915e-05 1.767464e-05 -2.950430e-05 -1.190044e-05 6.660938e-03 2.860069e-03
2.247578e+08 8.655396e-01 4.592285e-01 7.468741e-06 4.764181e-06 -1.876522e-05 1.877174e-05 6.615639e-03 2.881050e-03
2.249756e+08 8.651123e-01 4.596558e-01 -2.682209e-06 -5.076081e-05 2.838857e-05 -2.995133e-06 6.638527e-03 2.876759e-03
2.251934e+08 8.657837e-01 4.602051e-01 -1.158565e-05 3.464893e-05 4.937872e-06 -3.675185e-05 6.635666e-03 2.932072e-03
2.254112e+08 8.653564e-01 4.613647e-01 3.607944e-06 1.631491e-05 2.686307e-05 3.358349e-06 6.655216e-03 2.978325e-03
2.256291e+08 8.651123e-01 4.612427e-01 2.286956e-05 3.557280e-05 -5.476642e-06 -1.002569e-05 6.649017e-03 2.929688e-03
2.258469e+08 8.646851e-01 4.619141e-01 1.803041e-06 8.158851e-06 -3.722124e-05 1.982786e-05 6.687641e-03 2.971649e-03
2.260647e+08 8.657837e-01 4.617920e-01 -2.244487e-05 -1.428276e-05 4.409347e-06 -8.429401e-06 6.631851e-03 2.977848e-03
2.262825e+08 8.656616e-01 4.627075e-01 -3.721006e-05 2.538785e-05 -9.969342e-06 1.937151e-06 6.649971e-03 2.962112e-03
2.265003e+08 8.651123e-01 4.625854e-01 5.258620e-05 5.494803e-06 3.570504e-05 -1.348555e-05 6.673813e-03 3.017426e-03
2.267181e+08 8.649902e-01 4.637451e-01 -6.789342e-06 -1.133885e-05 1.406297e-07 -7.090624e-06 6.672382e-03 3.015995e-03
2.269359e+08 8.652344e-01 4.638672e-01 -1.408532e-05 3.310665e-05 -2.563000e-05 4.462898e-06 6.654739e-03 3.092289e-03
2.271538e+08 8.650513e-01 4.647827e-01 -8.344650e-06 -4.742295e-05 8.777715e-06 -1.331605e-05 6.664276e-03 3.021240e-03
2.273716e+08 8.646851e-01 4.650269e-01 -1.041777e-05 -2.770126e-05 1.087785e-05 -4.805997e-05 6.649971e-03 3.094196e-03
2.275894e+08 8.648071e-01 4.660034e-01 -4.652888e-05 1.241639e-05 -1.426879e-05 3.263354e-06 6.732941e-03 3.134251e-03
2.278072e+08 8.649902e-01 4.651489e-01 -1.232699e-05 4.127622e-05 -2.524629e-05 -1.681224e-05 6.716251e-03 3.133774e-03
2.280250e+08 8.644409e-01 4.660645e-01 -4.308671e-05 -2.048537e-05 2.735108e-05 -1.791678e-05 6.724834e-03 3.133297e-03
2.282428e+08 8.646851e-01 4.653931e-01 -1.929700e-06 6.899610e-05 -4.976988e-06 3.683940e-05 6.715775e-03 3.151417e-03
2.284606e+08 8.642578e-01 4.675293e-01 -2.453662e-05 5.410984e-06 7.032417e-06 3.700145e-06 6.730080e-03 3.175259e-03
2.286784e+08 8.637695e-01 4.664917e-01 -2.065673e-06 1.975708e-05 2.242625e-06 -4.187040e-05 6.733894e-03 3.159523e-03
2.288962e+08 8.642578e-01 4.669800e-01 -2.074987e-06 1.975335e-05 -2.061762e-05 3.584661e-05 6.725311e-03 3.187180e-03
2.291141e+08 8.635864e-01 4.667358e-01 -6.891787e-07 6.585382e-06 2.671964e-05 1.403131e-05 6.772995e-03 3.207684e-03
2.293319e+08 8.640137e-01 4.675293e-01 3.118441e-05 -4.331768e-05 1.013279e-05 -9.043142e-06 6.762505e-03 3.251553e-03
2.295497e+08 8.637695e-01 4.672241e-01 3.798306e-05 -3.202073e-05 -3.350340e-05 -3.192201e-05 6.742001e-03 3.257751e-03
2.297675e+08 8.641968e-01 4.676514e-01 -1.497846e-05 -9.571202e-06 -1.140777e-05 1.200475e-06 6.789684e-03 3.265858e-03
2.299853e+08 8.640747e-01 4.686279e-01 3.620051e-06 1.637638e-05 5.222857e-06 -4.759803e-05 6.800175e-03 3.266335e-03
2.302031e+08 8.631592e-01 4.690552e-01 -2.680719e-05 -2.413057e-05 -1.550652e-06 6.371643e-06 6.816387e-03 3.279209e-03
2.304209e+08 8.632812e-01 4.687500e-01 1.818128e-05 4.567206e-06 -3.049523e-05 3.070757e-05 6.763458e-03 3.334522e-03
2.306388e+08 8.633423e-01 4.694824e-01 -4.095957e-05 9.033829e-06 4.265457e-07 -2.135243e-05 6.786823e-03 3.322124e-03
2.308566e+08 8.627930e-01 4.692993e-01 -4.803762e-05 2.561137e-05 1.867395e-05 -8.170493e-06 6.798267e-03 3.351688e-03
2.310744e+08 8.629150e-01 4.695435e-01 -2.638251e-05 -2.766028e-06 3.184751e-05 -2.643093e-05 6.809235e-03 3.344536e-03
2.312922e+08 8.626099e-01 4.702148e-01 5.441532e-05 -3.560260e-05 2.721325e-05 -7.303432e-06 6.769657e-03 3.354073e-03
2.315100e+08 8.632202e-01 4.709473e-01 1.859106e-05 2.596714e-05 4.161149e-06 5.786773e-06 6.838799e-03 3.396988e-03
2.317278e+08 8.627930e-01 4.703979e-01 2.887473e-05 4.395843e-06 -4.668161e-05 -1.730397e-05 6.822109e-03 3.432751e-03
2.319456e+08 8.626709e-01 4.707031e-01 -3.195833e-06 5.000271e-06 1.022778e-05 -1.262687e-05 6.859303e-03 3.398895e-03
2.321634e+08 8.615723e-01 4.711914e-01 2.459064e-05 -5.435199e-06 -1.409440e-06 -7.412164e-07 6.812096e-03 3.454685e-03
2.323812e+08 8.622437e-01 4.713135e-01 -6.816350e-06 -1.140404e-05 -7.198658e-06 3.423076e-06 6.873608e-03 3.426075e-03
2.325991e+08 8.612671e-01 4.711304e-01 -1.614541e-05 -2.439879e-05 -1.445506e-05 1.039915e-05 6.843090e-03 3.453732e-03
2.328169e+08 8.616333e-01 4.703979e-01 -1.028739e-05 2.161786e-05 -2.567656e-05 9.294599e-07 6.852627e-03 3.518105e-03
2.330347e+08 8.611450e-01 4.721680e-01 -3.670156e-05 1.883879e-05 1.432933e-05 -3.275461e-06 6.842136e-03 3.553867e-03
2.332525e+08 8.617554e-01 4.718628e-01 3.307872e-05 -3.524311e-05 7.765368e-06 -3.195554e-05 6.887436e-03 3.510952e-03
2.334703e+08 8.613281e-01 4.718628e-01 1.112744e-05 2.121553e-05 -7.203780e-06 3.425870e-06 6.911755e-03 3.549576e-03
2.336881e+08 8.611450e-01 4.730835e-01 2.222136e-06 2.962910e-05 3.205240e-05 -3.004633e-05 6.902218e-03 3.581047e-03
2.339059e+08 8.606567e-01 4.721069e-01 -1.141429e-05 6.820075e-06 1.448486e-05 -1.041591e-05 6.889343e-03 3.598690e-03
2.341238e+08 8.602295e-01 4.725952e-01 -2.088025e-06 1.982413e-05 -2.336502e-05 -4.474074e-05 6.865978e-03 3.623009e-03
2.343416e+08 8.602295e-01 4.732666e-01 1.572911e-05 2.992339e-06 -6.843358e-06 -1.443084e-05 6.928921e-03 3.643513e-03
2.345594e+08 8.593140e-01 4.729614e-01 -1.352094e-05 2.664514e-05 -3.202632e-05 3.005005e-05 6.927013e-03 3.670216e-03
2.347772e+08 8.595581e-01 4.738159e-01 1.109205e-06 1.482107e-05 1.971610e-05 1.398660e-05 6.915569e-03 3.663540e-03
2.349950e+08 8.587036e-01 4.735718e-01 2.393872e-05 1.192093e-06 5.142763e-06 2.795830e-05 6.897449e-03 3.702641e-03
2.352128e+08 8.587646e-01 4.740601e-01 -3.396906e-05 -7.608905e-06 -2.084486e-05 -2.901442e-05 6.964207e-03 3.685951e-03
2.354306e+08 8.593750e-01 4.746704e-01 6.410293e-06 -1.002103e-05 -5.449168e-06 -1.370721e-05 6.854057e-03 3.714561e-03
2.356484e+08 8.588257e-01 4.741211e-01 1.002569e-05 6.415881e-06 -8.421950e-06 -8.038245e-06 6.934166e-03 3.740788e-03
2.358662e+08 8.580933e-01 4.746094e-01 -3.613532e-06 -1.644809e-05 2.495572e-05 3.841333e-05 6.962776e-03 3.744125e-03
2.360841e+08 8.576660e-01 4.751587e-01 2.465956e-05 -5.416572e-06 1.394004e-05 -5.050376e-05 6.918907e-03 3.761292e-03
2.363019e+08 8.577271e-01 4.747925e-01 -4.403666e-05 -1.402572e-05 -2.041459e-06 -4.083291e-05 6.930828e-03 3.805161e-03
2.365197e+08 8.567505e-01 4.743652e-01 9.320676e-06 1.303572e-05 -9.205192e-06 3.127381e-05 6.985664e-03 3.864765e-03
2.367375e+08 8.572998e-01 4.752808e-01 1.408905e-05 4.433841e-05 -1.707021e-05 -5.365349e-06 6.933212e-03 3.819466e-03
2.369553e+08 8.571777e-01 4.749756e-01 -2.536178e-05 1.206435e-05 -5.381182e-06 -1.729000e-05 6.964684e-03 3.848553e-03
2.371731e+08 8.570557e-01 4.758301e-01 5.418435e-06 2.467446e-05 -5.300157e-06 -2.088025e-05 6.937027e-03 3.887177e-03
2.373909e+08 8.562622e-01 4.757080e-01 4.212558e-05 -4.374236e-05 -9.696931e-06 -1.595356e-05 6.964207e-03 3.882408e-03
2.376088e+08 8.558960e-01 4.754639e-01 -7.838011e-06 2.326444e-05 -3.295951e-05 7.618219e-07 6.925583e-03 3.931046e-03
2.378266e+08 8.544922e-01 4.756470e-01 -6.744266e-05 5.576760e-05 -2.459809e-05 1.236983e-05 6.957531e-03 3.935814e-03
2.380444e+08 8.546753e-01 4.750366e-01 -1.717173e-05 1.023337e-05 -1.048297e-05 2.342463e-05 6.983280e-03 3.935337e-03
2.382622e+08 8.547363e-01 4.763794e-01 5.446374e-06 2.470240e-05 3.418140e-05 1.072325e-05 6.991863e-03 3.964901e-03
2.384800e+08 8.545532e-01 4.758301e-01 -3.184006e-05 2.209470e-05 -9.933021e-06 -5.219597e-06 6.970882e-03 3.965378e-03
2.386978e+08 8.535156e-01 4.754639e-01 -2.400205e-05 -1.203269e-06 -2.134591e-05 -7.598661e-06 6.954670e-03 4.020214e-03
2.389156e+08 8.523560e-01 4.772949e-01 1.802575e-06 8.231960e-06 -4.790723e-06 2.283230e-05 6.999016e-03 3.999233e-03
2.391334e+08 8.522339e-01 4.760132e-01 2.228841e-05 4.260987e-05 4.183967e-06 5.813781e-06 6.983280e-03 4.071712e-03
2.393512e+08 8.515015e-01 4.775391e-01 -1.080878e-10 -4.920082e-10 2.552755e-05 1.344271e-05 6.952286e-03 4.073620e-03
2.395691e+08 8.511963e-01 4.767456e-01 1.326948e-05 1.402572e-06 -3.740191e-06 -2.732500e-05 6.985664e-03 4.043102e-03
2.397869e+08 8.509521e-01 4.769287e-01 -1.405180e-05 -4.442409e-05 -6.489456e-06 3.644451e-05 6.985664e-03 4.073143e-03
2.400047e+08 8.504639e-01 4.772339e-01 5.766749e-05 -1.264364e-05 -7.096212e-06 -3.735535e-06 6.995201e-03 4.115582e-03
2.402225e+08 8.500977e-01 4.770508e-01 8.950941e-06 -8.441973e-06 -8.589122e-06 -8.968636e-07 6.993771e-03 4.127979e-03
2.404403e+08 8.493042e-01 4.769287e-01 -2.229214e-05 -4.259497e-05 -8.658972e-06 2.691522e-06 7.033348e-03 4.172802e-03
2.406581e+08 8.495483e-01 4.776611e-01 -3.916211e-06 1.166109e-05 -2.183951e-07 1.076329e-05 7.012367e-03 4.179478e-03
2.408759e+08 8.493652e-01 4.780884e-01 3.083237e-05 1.267157e-05 2.146233e-05 4.036352e-06 7.028103e-03 4.174232e-03
2.410938e+08 8.483887e-01 4.776611e-01 -3.580190e-05 3.376603e-05 -6.409362e-06 3.289059e-05 7.021427e-03 4.229546e-03
2.413116e+08 8.482056e-01 4.776611e-01 7.013977e-05 -5.423650e-05 -3.902055e-05 1.213700e-05 7.028580e-03 4.191399e-03
2.415294e+08 8.477783e-01 4.788818e-01 -3.195181e-05 -2.752990e-05 -2.125371e-05 -1.482014e-05 7.039070e-03 4.272461e-03
2.417472e+08 8.466797e-01 4.784546e-01 -3.267080e-05 -2.090633e-05 3.866293e-05 5.817041e-06 7.056713e-03 4.274368e-03
2.419650e+08 8.461304e-01 4.779663e-01 -8.949544e-06 8.437317e-06 -6.370246e-06 -3.962778e-05 7.029533e-03 4.259586e-03
2.421828e+08 8.461304e-01 4.784546e-01 2.002530e-05 -3.680587e-05 -2.399087e-06 4.592910e-05 7.039070e-03 4.290104e-03
2.424006e+08 8.463135e-01 4.781494e-01 -3.614463e-06 -1.648907e-05 4.051253e-06 1.301616e-05 7.017612e-03 4.337311e-03
2.426184e+08 8.449707e-01 4.786377e-01 1.971237e-05 -8.644536e-06 1.219846e-05 3.545731e-05 7.048607e-03 4.359245e-03
2.428362e+08 8.446045e-01 4.789429e-01 -5.738810e-06 3.413297e-06 -9.153038e-06 -4.474819e-05 7.068157e-03 4.332066e-03
2.430541e+08 8.433838e-01 4.792480e-01 -7.155351e-06 1.669768e-05 -2.791919e-05 -4.010275e-05 7.068634e-03 4.386902e-03
2.432719e+08 8.431396e-01 4.801025e-01 -3.933907e-06 1.166668e-05 -3.428571e-05 -1.079403e-05 7.042885e-03 4.397869e-03
2.434897e+08 8.428345e-01 4.791260e-01 3.695674e-05 -1.889095e-05 5.029142e-07 -2.515502e-05 7.047653e-03 4.394531e-03
2.437075e+08 8.420410e-01 4.796753e-01 -4.486740e-05 -7.484108e-06 4.342292e-06 -1.349021e-06 7.055283e-03 4.423618e-03
2.439253e+08 8.417969e-01 4.806519e-01 -2.514571e-06 -1.613284e-06 -5.029142e-06 3.371388e-05 7.058620e-03 4.460335e-03
2.441431e+08 8.413086e-01 4.797363e-01 -1.110323e-05 2.836809e-05 1.700874e-05 1.257099e-05 7.049561e-03 4.462719e-03
2.443609e+08 8.405151e-01 4.803467e-01 -1.147762e-05 6.819144e-06 8.326024e-07 2.951175e-05 7.072449e-03 4.503250e-03
2.445788e+08 8.388672e-01 4.806519e-01 1.509022e-05 9.674579e-06 2.462789e-05 -8.825213e-06 7.102489e-03 4.508495e-03
2.447966e+08 8.390503e-01 4.804688e-01 -3.156066e-05 4.364550e-05 -3.138557e-06 1.288578e-05 7.050991e-03 4.509449e-03
2.450144e+08 8.382568e-01 4.809570e-01 -2.909079e-05 -4.468486e-06 -1.797453e-06 1.723412e-05 7.052898e-03 4.531384e-03
2.452322e+08 8.378296e-01 4.814453e-01 -7.938594e-06 -2.637878e-05 -3.201701e-05 1.588091e-05 7.071495e-03 4.545689e-03
2.454500e+08 8.367310e-01 4.813232e-01 2.909638e-05 4.470348e-06 -2.654456e-05 2.967194e-05 7.064342e-03 4.605293e-03
2.456678e+08 8.366089e-01 4.813232e-01 7.228926e-06 3.305078e-05 -2.871081e-05 -4.200265e-06 7.087231e-03 4.599571e-03
2.458856e+08 8.353882e-01 4.818726e-01 9.736046e-06 3.466010e-05 -1.969747e-05 -2.130773e-05 7.100105e-03 4.667282e-03
2.461034e+08 8.353882e-01 4.819336e-01 -7.176772e-06 1.672655e-05 2.362020e-05 4.154444e-05 7.084846e-03 4.654408e-03
2.463212e+08 8.344116e-01 4.822998e-01 -1.691841e-05 -1.794193e-05 2.540648e-06 1.590047e-05 7.086277e-03 4.693031e-03
2.465391e+08 8.331909e-01 4.824219e-01 4.231930e-06 -3.989413e-05 2.886355e-05 -2.989545e-06 7.072926e-03 4.668713e-03
2.467569e+08 8.329468e-01 4.822998e-01 -1.869164e-05 -2.623349e-05 2.054684e-05 -1.829956e-05 7.079601e-03 4.724503e-03
2.469747e+08 8.319702e-01 4.830322e-01 -5.422160e-06 -2.480671e-05 -5.623791e-06 -6.602146e-06 7.078648e-03 4.709244e-03
2.471925e+08 8.319092e-01 4.834595e-01 1.112558e-05 -2.840906e-05 1.328252e-05 -1.486298e-05 7.078648e-03 4.704475e-03
2.474103e+08 8.306274e-01 4.840698e-01 -7.169321e-06 1.671817e-05 8.701347e-06 -2.693385e-06 7.094383e-03 4.767895e-03
2.476281e+08 8.302002e-01 4.838257e-01 -1.117773e-05 -2.139620e-05 2.543442e-06 1.590606e-05 7.101536e-03 4.772186e-03
2.478459e+08 8.291626e-01 4.847412e-01 1.756661e-05 -3.848597e-05 1.550466e-05 -5.009770e-05 7.094860e-03 4.793644e-03
2.480638e+08 8.283081e-01 4.844360e-01 1.222175e-05 -1.349673e-05 3.799796e-06 2.385676e-05 7.107735e-03 4.817009e-03
2.482816e+08 8.276978e-01 4.852295e-01 3.416464e-05 7.703900e-06 -2.414361e-05 -1.639128e-05 7.074833e-03 4.836559e-03
2.484994e+08 8.269653e-01 4.847412e-01 3.595278e-05 -3.386289e-05 1.651607e-05 -3.134459e-05 7.114410e-03 4.863262e-03
2.487172e+08 8.263550e-01 4.852295e-01 -2.517179e-05 3.365241e-05 -2.446212e-05 -1.963228e-06 7.094383e-03 4.826069e-03
2.489350e+08 8.262939e-01 4.855347e-01 3.778003e-05 -2.557598e-05 1.083687e-05 -3.438257e-05 7.134914e-03 4.882336e-03
2.491528e+08 8.252563e-01 4.860840e-01 -2.913177e-05 4.538521e-05 2.818741e-05 -3.615767e-05 7.087231e-03 4.917622e-03
2.493706e+08 8.240356e-01 4.863892e-01 -8.989125e-06 8.454546e-06 -7.364899e-06 7.050578e-06 7.085800e-03 4.902840e-03
2.495884e+08 8.235474e-01 4.862061e-01 3.204308e-05 2.768263e-05 1.234561e-05 -3.721379e-05 7.083416e-03 4.951477e-03
2.498062e+08 8.231201e-01 4.874268e-01 -2.447516e-05 2.702139e-05 -2.281740e-05 -1.204573e-05 7.101536e-03 4.961491e-03
2.500241e+08 8.223877e-01 4.873047e-01 -2.302416e-05 1.368113e-05 2.101623e-05 2.929568e-05 7.101059e-03 5.000591e-03
2.502419e+08 8.209839e-01 4.874268e-01 -2.698414e-05 2.541021e-05 1.845509e-05 1.337286e-05 7.092953e-03 4.991531e-03
2.504597e+08 8.209229e-01 4.876099e-01 1.296960e-05 2.970919e-05 2.622046e-05 -1.171045e-05 7.083416e-03 5.019665e-03
2.506775e+08 8.195801e-01 4.884033e-01 7.565599e-06 4.861970e-06 -9.335577e-06 3.153831e-05 7.087231e-03 5.050659e-03
2.508953e+08 8.187256e-01 4.884033e-01 2.522394e-05 -3.366917e-05 2.190471e-06 -3.529154e-05 7.094383e-03 5.068302e-03
2.511131e+08 8.187256e-01 4.893188e-01 -5.066395e-06 -5.314127e-05 -3.291294e-05 -1.371652e-05 7.097721e-03 5.087376e-03
2.513309e+08 8.170776e-01 4.893188e-01 -2.881512e-05 1.710653e-05 -3.701262e-05 -2.317876e-05 7.076740e-03 5.121231e-03
2.515488e+08 8.169556e-01 4.896240e-01 1.431443e-06 -1.333561e-05 4.742295e-05 1.040474e-05 7.060528e-03 5.136013e-03
2.517666e+08 8.159790e-01 4.899902e-01 1.332629e-05 1.445413e-06 2.774596e-05 -1.455285e-05 7.087231e-03 5.134583e-03
2.519844e+08 8.152466e-01 4.910278e-01 9.393319e-06 -3.673881e-05 1.673028e-05 2.708286e-05 7.095337e-03 5.177975e-03
2.522022e+08 8.140869e-01 4.914551e-01 2.307259e-05 3.622659e-05 1.181569e-05 -1.201220e-05 7.077694e-03 5.163193e-03
2.524200e+08 8.131714e-01 4.913330e-01 6.484799e-06 -1.009833e-05 -1.071580e-05 2.718531e-05 7.089615e-03 5.254745e-03
2.526378e+08 8.129883e-01 4.920044e-01 -1.406297e-05 5.232170e-06 -1.753215e-05 8.996576e-06 7.081509e-03 5.232334e-03
2.528556e+08 8.122559e-01 4.920654e-01 2.270564e-05 1.461618e-05 -1.688674e-05 4.584715e-05 7.061005e-03 5.273819e-03
2.530734e+08 8.113403e-01 4.930420e-01 1.044758e-05 -2.180971e-05 9.208918e-06 -2.434850e-05 7.108212e-03 5.276680e-03
2.532912e+08 8.109131e-01 4.931641e-01 4.113466e-05 1.924485e-05 -3.230572e-05 2.312288e-05 7.061005e-03 5.245686e-03
2.535091e+08 8.098145e-01 4.927368e-01 8.659437e-06 1.982786e-05 -6.254762e-06 2.224185e-05 7.091999e-03 5.302906e-03
2.537269e+08 8.088989e-01 4.939575e-01 1.403317e-05 4.471093e-05 -9.667128e-07 4.330091e-05 7.080078e-03 5.312920e-03
2.539447e+08 8.078613e-01 4.938354e-01 4.689395e-05 1.586229e-05 1.277030e-05 1.037959e-05 7.061005e-03 5.343437e-03
2.541625e+08 8.071289e-01 4.952393e-01 -4.653260e-05 -4.416704e-05 -5.302951e-05 4.503503e-05 7.077694e-03 5.377769e-03
2.543803e+08 8.065186e-01 4.961548e-01 -1.551677e-05 1.856592e-05 3.671274e-06 -3.460608e-05 7.081509e-03 5.399227e-03
2.545981e+08 8.054199e-01 4.965210e-01 -2.630986e-05 -3.122166e-05 1.459755e-05 -6.902032e-06 7.089615e-03 5.364895e-03
2.548159e+08 8.046875e-01 4.968872e-01 -1.082756e-05 1.797453e-07 -1.769792e-05 1.621991e-05 7.087231e-03 5.444527e-03
2.550338e+08 8.031006e-01 4.979248e-01 1.730956e-05 -1.028646e-05 3.173016e-05 2.168119e-06 7.107258e-03 5.449295e-03
2.552516e+08 8.029175e-01 4.986572e-01 -1.913495e-05 1.980923e-06 -7.385388e-06 7.059425e-06 7.051468e-03 5.518913e-03
2.554694e+08 8.023682e-01 4.983521e-01 -1.623295e-05 -2.473406e-05 -1.722015e-05 -5.441718e-06 7.041931e-03 5.484581e-03
2.556872e+08 8.012695e-01 4.986572e-01 -2.238341e-05 7.027760e-06 7.748604e-07 2.963282e-05 7.102966e-03 5.520821e-03
2.559050e+08 8.004761e-01 4.995728e-01 1.046248e-05 -2.185255e-05 5.098060e-06 -3.384054e-05 7.094860e-03 5.517960e-03
2.561228e+08 7.996216e-01 4.994507e-01 3.718212e-05 -1.898035e-05 2.855668e-06 1.508277e-06 7.078171e-03 5.564213e-03
2.563406e+08 7.990112e-01 5.010986e-01 -3.286824e-05 2.888776e-05 -3.025495e-05 -5.027279e-06 7.062912e-03 5.537510e-03
2.565584e+08 7.982178e-01 5.015259e-01 -2.022833e-05 3.700145e-05 2.183579e-05 -6.737188e-06 7.077694e-03 5.578041e-03
2.567762e+08 7.979126e-01 5.014648e-01 -1.625903e-05 2.526119e-05 -2.612360e-05 4.485250e-06 7.031441e-03 5.615234e-03
2.569941e+08 7.969971e-01 5.020142e-01 2.636015e-05 -1.877919e-05 -1.731422e-05 -1.829118e-06 7.063866e-03 5.603790e-03
2.572119e+08 7.957764e-01 5.024414e-01 2.309680e-05 3.632903e-05 1.058076e-05 -2.000481e-05 7.063866e-03 5.632401e-03
2.574297e+08 7.950439e-01 5.029907e-01 9.029172e-06 -8.486211e-06 1.222081e-05 3.571436e-05 7.069111e-03 5.666256e-03
2.576475e+08 7.942505e-01 5.039062e-01 -3.613904e-05 3.393367e-05 -4.153699e-05 -1.831353e-05 7.069111e-03 5.681038e-03
2.578653e+08 7.928467e-01 5.043945e-01 -4.713424e-06 1.841877e-05 -1.630280e-05 1.696870e-05 7.029057e-03 5.728722e-03
2.580831e+08 7.922974e-01 5.053101e-01 1.301058e-05 -2.022088e-05 -2.395734e-05 -2.731197e-05 7.036686e-03 5.723000e-03
2.583009e+08 7.912598e-01 5.053711e-01 -7.592607e-06 -4.876871e-06 -3.780797e-05 9.255484e-06 7.024765e-03 5.720139e-03
2.585188e+08 7.897949e-01 5.068970e-01 -1.987815e-05 8.659437e-06 8.057803e-06 2.620928e-05 7.070541e-03 5.765438e-03
2.587366e+08 7.895508e-01 5.071411e-01 -3.688037e-07 2.837926e-05 1.184829e-05 -1.202151e-05 7.012367e-03 5.797386e-03
2.589544e+08 7.883301e-01 5.073242e-01 2.061017e-05 -1.533888e-05 -1.486205e-05 1.772866e-05 6.998539e-03 5.860806e-03
2.591722e+08 7.877808e-01 5.092773e-01 -2.858415e-05 3.884919e-05 2.686866e-06 8.746050e-06 7.052422e-03 5.856037e-03
2.593900e+08 7.875366e-01 5.088501e-01 4.125386e-05 -3.069639e-05 -1.907535e-05 1.186691e-05 7.014751e-03 5.845547e-03
2.596078e+08 7.867432e-01 5.097656e-01 -2.877787e-06 -2.331473e-05 3.700331e-05 2.688169e-05 7.019043e-03 5.868435e-03
2.598256e+08 7.846680e-01 5.098267e-01 2.428517e-05 -4.877150e-05 1.353025e-05 4.004501e-05 6.992817e-03 5.873203e-03
2.600434e+08 7.850952e-01 5.106201e-01 -1.881458e-05 2.367981e-05 4.012510e-05 1.754612e-05 7.006645e-03 5.928993e-03
2.602612e+08 7.841187e-01 5.115967e-01 -1.918338e-05 1.979060e-06 -2.278388e-05 -1.571700e-05 7.015228e-03 5.911827e-03
2.604791e+08 7.828369e-01 5.124512e-01 2.389401e-05 -2.039969e-05 4.792586e-06 -1.940876e-05 6.974220e-03 5.947113e-03
2.606969e+08 7.822266e-01 5.136108e-01 -3.035553e-05 -1.957826e-05 -6.612390e-07 -3.330037e-05 6.966114e-03 5.937576e-03
2.609147e+08 7.817993e-01 5.132446e-01 7.813796e-05 2.874807e-05 7.122755e-06 -5.843863e-05 7.019997e-03 5.995274e-03
2.611325e+08 7.804565e-01 5.142822e-01 -9.085983e-06 5.860999e-05 -1.923833e-05 1.908559e-05 7.036686e-03 6.021976e-03
2.613503e+08 7.800293e-01 5.154419e-01 -9.465963e-06 3.684498e-05 4.068948e-05 -7.729977e-06 6.966591e-03 6.052017e-03
2.615681e+08 7.792969e-01 5.162964e-01 -2.535246e-05 3.381073e-05 2.421439e-05 1.649186e-05 6.939888e-03 6.045341e-03
2.617859e+08 7.786865e-01 5.164795e-01 -2.676807e-05 -2.915040e-06 3.270060e-05 -3.759190e-05 6.980896e-03 6.067753e-03
2.620038e+08 7.777710e-01 5.173950e-01 2.458319e-05 2.300739e-05 -2.859393e-06 -1.514331e-06 6.965637e-03 6.111622e-03
2.622216e+08 7.770996e-01 5.174561e-01 1.452863e-06 -1.338404e-05 -2.009887e-05 -6.970018e-06 6.952763e-03 6.098747e-03
2.624394e+08 7.759399e-01 5.193481e-01 -2.893992e-05 -3.297627e-05 -1.220033e-05 2.649426e-05 6.938457e-03 6.139278e-03
2.626572e+08 7.753906e-01 5.198975e-01 -1.012441e-05 -6.539747e-06 5.805399e-06 -5.881302e-07 6.957054e-03 6.137848e-03
2.628750e+08 7.746582e-01 5.204468e-01 -4.333444e-06 -9.962358e-06 8.832663e-06 -6.307382e-06 6.974697e-03 6.198406e-03
2.630928e+08 7.738647e-01 5.217896e-01 3.363937e-05 1.451932e-05 1.000520e-05 5.309936e-06 6.969929e-03 6.202221e-03
2.633106e+08 7.728271e-01 5.222168e-01 1.298822e-05 2.990291e-05 1.225434e-05 3.213808e-05 6.960392e-03 6.228924e-03
2.635284e+08 7.723389e-01 5.229492e-01 -9.057112e-06 8.496456e-06 -2.355874e-05 1.681037e-05 6.952286e-03 6.233215e-03
2.637462e+08 7.709961e-01 5.247803e-01 2.933107e-05 4.552305e-06 -4.103873e-06 -9.513460e-06 6.940365e-03 6.241798e-03
2.639641e+08 7.706909e-01 5.249634e-01 2.458692e-05 2.303161e-05 -9.651296e-06 -1.978409e-05 6.950378e-03 6.258965e-03
2.641819e+08 7.702026e-01 5.255127e-01 -2.061948e-05 -3.480911e-05 -1.226552e-05 -3.213622e-05 6.975174e-03 6.269932e-03
2.643997e+08 7.696533e-01 5.267334e-01 8.333940e-06 -1.801178e-06 -3.735535e-05 -1.249276e-05 6.953239e-03 6.341934e-03
2.646175e+08 7.686157e-01 5.274048e-01 -6.124377e-06 -1.830794e-05 -3.019348e-05 -8.706003e-06 6.897449e-03 6.379128e-03
2.648353e+08 7.673950e-01 5.283203e-01 3.932044e-06 3.842078e-05 -2.079830e-05 2.191961e-05 6.904602e-03 6.318092e-03
2.650531e+08 7.674561e-01 5.289917e-01 1.234934e-05 -1.358241e-05 -2.769753e-05 7.303432e-06 6.902695e-03 6.371021e-03
2.652709e+08 7.664795e-01 5.295410e-01 2.710149e-05 7.482991e-05 -1.083128e-06 -1.523085e-05 6.908894e-03 6.370544e-03
2.654888e+08 7.656250e-01 5.304565e-01 -1.065433e-06 -1.504272e-05 5.805399e-06 -5.848706e-07 6.915092e-03 6.405830e-03
2.657066e+08 7.651367e-01 5.314941e-01 9.806827e-06 -1.520850e-05 3.288873e-05 1.745299e-05 6.906986e-03 6.456375e-03
2.659244e+08 7.644653e-01 5.325317e-01 -2.390146e-05 -2.975762e-05 7.238239e-06 1.746230e-07 6.838799e-03 6.438732e-03
2.661422e+08 7.642822e-01 5.333862e-01 -2.248213e-05 7.040799e-06 -3.983825e-05 3.021583e-05 6.875515e-03 6.509304e-03
2.663600e+08 7.632446e-01 5.344849e-01 1.522340e-05 9.819865e-06 -4.031695e-06 -1.313351e-05 6.861210e-03 6.494999e-03
2.665778e+08 7.622681e-01 5.354614e-01 -3.369153e-05 -1.456030e-05 -3.181025e-05 5.645305e-05 6.853104e-03 6.517410e-03
2.667956e+08 7.615356e-01 5.357666e-01 1.469627e-06 -1.341477e-05 2.894923e-05 7.003546e-07 6.886005e-03 6.548882e-03
2.670134e+08 7.609253e-01 5.365601e-01 -2.397783e-05 2.043508e-05 -4.118308e-06 -9.513926e-06 6.854534e-03 6.572723e-03
2.672312e+08 7.603760e-01 5.377197e-01 2.864935e-05 1.129694e-05 -2.501346e-05 1.606159e-05 6.869793e-03 6.571293e-03
2.674491e+08 7.592163e-01 5.386963e-01 -4.335307e-06 -9.983778e-06 1.116563e-05 1.693051e-05 6.855011e-03 6.590843e-03
2.676669e+08 7.590332e-01 5.398560e-01 -2.758577e-05 3.779307e-06 3.504194e-05 -1.072511e-05 6.810188e-03 6.584644e-03
2.678847e+08 7.581177e-01 5.406494e-01 -3.307313e-05 2.893992e-05 9.832904e-06 1.255516e-05 6.870270e-03 6.642342e-03
2.681025e+08 7.575073e-01 5.416870e-01 -7.610768e-06 -4.914589e-06 -9.219162e-06 2.077222e-05 6.791115e-03 6.646156e-03
2.683203e+08 7.572632e-01 5.423584e-01 1.776591e-05 1.145434e-05 3.449619e-05 1.098216e-05 6.787300e-03 6.697655e-03
2.685381e+08 7.573853e-01 5.435791e-01 -1.448765e-05 -1.653377e-05 -1.252070e-05 -2.134591e-05 6.811142e-03 6.702423e-03
2.687559e+08 7.559814e-01 5.439453e-01 2.547726e-05 -3.388338e-05 -2.976507e-05 -2.682209e-05 6.815910e-03 6.741047e-03
2.689738e+08 7.553711e-01 5.453491e-01 -1.057610e-05 2.193823e-05 -2.960861e-05 2.462044e-05 6.797791e-03 6.778717e-03
2.691916e+08 7.551270e-01 5.455933e-01 -5.904585e-06 5.370751e-05 1.001498e-05 5.321577e-06 6.839275e-03 6.745815e-03
2.694094e+08 7.540894e-01 5.466309e-01 9.085983e-06 -8.509494e-06 -1.564529e-05 -1.197588e-05 6.786346e-03 6.751537e-03
2.696272e+08 7.531128e-01 5.478516e-01 2.177805e-05 -3.315508e-07 8.301809e-06 1.542363e-05 6.808758e-03 6.809711e-03
2.698450e+08 7.529907e-01 5.485229e-01 9.015203e-06 4.178286e-05 5.327165e-07 -2.172310e-05 6.790638e-03 6.857872e-03
2.700628e+08 7.518311e-01 5.499268e-01 5.881861e-05 9.205192e-06 8.489005e-06 8.182134e-06 6.732464e-03 6.855488e-03
2.702806e+08 7.513428e-01 5.510864e-01 -1.359731e-06 -3.686361e-05 -5.811453e-06 5.769543e-07 6.782532e-03 6.869316e-03
2.704984e+08 7.510986e-01 5.516968e-01 -1.493189e-05 1.195353e-05 3.753230e-06 2.400577e-05 6.767273e-03 6.887436e-03
2.707162e+08 7.501831e-01 5.524902e-01 -2.614968e-05 -9.685755e-06 3.684312e-05 -2.443604e-05 6.788731e-03 6.879807e-03
2.709341e+08 7.500000e-01 5.545044e-01 3.449246e-05 7.867813e-06 -4.414096e-05 2.424046e-05 6.725311e-03 6.853104e-03
2.711519e+08 7.495728e-01 5.546265e-01 -2.254732e-05 7.027760e-06 -2.056360e-06 -3.413111e-05 6.724358e-03 6.953716e-03
2.713697e+08 7.485962e-01 5.564575e-01 -1.269951e-05 -8.203089e-06 -3.236346e-06 1.296774e-05 6.721973e-03 6.955624e-03
2.715875e+08 7.486572e-01 5.571289e-01 -1.852494e-05 -4.767440e-06 2.174359e-05 5.569309e-07 6.657124e-03 6.950855e-03
2.718053e+08 7.477417e-01 5.574341e-01 2.223067e-05 -2.885237e-05 1.171511e-05 -4.779547e-06 6.713867e-03 6.958008e-03
2.720231e+08 7.478027e-01 5.587158e-01 4.806742e-05 -4.094094e-05 8.501112e-06 8.188188e-06 6.749153e-03 7.019043e-03
2.722409e+08 7.463379e-01 5.593872e-01 -7.623807e-06 -4.923902e-06 3.199838e-05 -4.991889e-06 6.703377e-03 7.023811e-03
2.724588e+08 7.468262e-01 5.607300e-01 -2.220273e-06 2.016313e-05 1.422781e-05 1.123548e-05 6.695271e-03 7.034779e-03
2.726766e+08 7.459106e-01 5.614624e-01 -9.126961e-07 -6.546825e-05 9.099022e-06 4.156493e-05 6.673813e-03 7.070541e-03
2.728944e+08 7.453613e-01 5.628052e-01 -3.857724e-05 3.909692e-06 1.241639e-05 2.497621e-05 6.711006e-03 7.090092e-03
2.731122e+08 7.450562e-01 5.634155e-01 8.666888e-06 2.001412e-05 -3.614649e-05 -4.531816e-06 6.606102e-03 7.104874e-03
2.733300e+08 7.441406e-01 5.647583e-01 -1.822785e-05 1.704227e-05 -5.885959e-07 -3.336556e-05 6.642818e-03 7.131100e-03
2.735478e+08 7.434082e-01 5.657349e-01 7.302500e-06 -1.689978e-05 1.181476e-05 -8.394010e-06 6.664276e-03 7.104874e-03
2.737656e+08 7.435913e-01 5.673218e-01 -8.373056e-06 1.795590e-06 -2.031587e-05 1.955777e-07 6.606579e-03 7.157326e-03
2.739834e+08 7.423096e-01 5.681763e-01 1.166016e-05 -6.878749e-06 -1.982599e-05 -1.792330e-05 6.602764e-03 7.215023e-03
2.742012e+08 7.423706e-01 5.686646e-01 8.372124e-06 -1.793727e-06 5.258247e-06 2.116058e-05 6.593704e-03 7.220745e-03
2.744191e+08 7.418213e-01 5.697021e-01 7.631257e-06 4.931819e-06 -8.770730e-06 2.672430e-06 6.616592e-03 7.217407e-03
2.746369e+08 7.413330e-01 5.718994e-01 -7.820874e-05 -7.342547e-06 -3.959984e-06 -6.832182e-05 6.565571e-03 7.273197e-03
2.748547e+08 7.408447e-01 5.717773e-01 -8.372124e-06 1.796521e-06 -1.242850e-06 -8.010305e-06 6.545067e-03 7.274628e-03
2.750725e+08 7.412109e-01 5.733032e-01 -6.884336e-06 -1.167506e-05 -1.775101e-05 1.260173e-05 6.595135e-03 7.266521e-03
2.752903e+08 7.400513e-01 5.730591e-01 2.259947e-05 -7.035211e-06 -6.875955e-06 -1.467299e-05 6.540298e-03 7.331848e-03
2.755081e+08 7.404785e-01 5.748901e-01 -6.581657e-06 1.016632e-05 -9.647571e-06 -1.984369e-05 6.584644e-03 7.298946e-03
2.757259e+08 7.388916e-01 5.761719e-01 6.264076e-06 -3.202073e-05 -1.870468e-05 4.882365e-05 6.542683e-03 7.341385e-03
2.759438e+08 7.389526e-01 5.770874e-01 -1.173466e-06 3.531203e-05 9.250827e-06 -2.079364e-05 6.596565e-03 7.342815e-03
2.761616e+08 7.380981e-01 5.769653e-01 2.853572e-05 -6.092712e-05 -6.094575e-06 1.144130e-05 6.522179e-03 7.362366e-03
2.763794e+08 7.383423e-01 5.792236e-01 8.970499e-06 4.189461e-05 -4.817918e-05 1.106784e-05 6.521225e-03 7.395744e-03
2.765972e+08 7.380371e-01 5.798950e-01 -4.220754e-05 -1.288950e-05 -1.574773e-05 -8.392148e-06 6.454945e-03 7.423878e-03
2.768150e+08 7.372437e-01 5.804443e-01 1.827069e-05 -1.706462e-05 -2.307072e-05 5.019084e-05 6.506443e-03 7.436752e-03
2.770328e+08 7.363892e-01 5.814209e-01 -2.395362e-06 -5.207956e-05 1.601782e-05 -2.484769e-06 6.488800e-03 7.434368e-03
2.772506e+08 7.368164e-01 5.830078e-01 -2.942979e-07 -2.186000e-05 3.630295e-06 2.767518e-05 6.489754e-03 7.483482e-03
2.774684e+08 7.368164e-01 5.831909e-01 -1.228414e-05 -3.682077e-05 5.283579e-05 -2.331659e-05 6.464481e-03 7.541180e-03
2.776862e+08 7.362061e-01 5.846558e-01 -1.422875e-05 5.248003e-06 3.063120e-05 -5.738810e-06 6.463051e-03 7.537842e-03
2.779041e+08 7.355347e-01 5.849609e-01 -7.476658e-06 6.743148e-05 -5.055591e-05 -8.527189e-06 6.484032e-03 7.567406e-03
2.781219e+08 7.350464e-01 5.877075e-01 1.046620e-05 2.846122e-05 -8.198433e-06 -1.910049e-05 6.443977e-03 7.541656e-03
2.783397e+08 7.344971e-01 5.868530e-01 1.791399e-06 8.382369e-06 -2.149493e-05 4.731119e-05 6.451607e-03 7.587910e-03
2.785575e+08 7.343750e-01 5.887451e-01 -1.329929e-06 -3.699400e-05 -6.778166e-06 -1.830794e-05 6.459236e-03 7.587433e-03
2.787753e+08 7.339478e-01 5.899048e-01 2.336130e-05 -1.376495e-05 -7.440802e-06 7.057097e-06 6.402493e-03 7.631779e-03
2.789931e+08 7.339478e-01 5.913086e-01 -9.143725e-06 8.538831e-06 -1.564622e-05 -1.202989e-05 6.430626e-03 7.615089e-03
2.792109e+08 7.339478e-01 5.922852e-01 3.610365e-05 -5.528331e-06 -1.536496e-05 -2.290681e-05 6.390095e-03 7.647038e-03
2.794288e+08 7.337646e-01 5.927124e-01 1.856964e-05 4.795380e-06 1.183059e-05 -8.406118e-06 6.408215e-03 7.659912e-03
2.796466e+08 7.337036e-01 5.943604e-01 3.251247e-05 -2.232008e-05 6.786548e-06 1.832563e-05 6.390572e-03 7.709026e-03
2.798644e+08 7.328491e-01 5.939941e-01 -1.035631e-05 4.388765e-05 3.213622e-05 -8.599833e-06 6.326199e-03 7.725716e-03
2.800822e+08 7.329712e-01 5.957031e-01 4.492700e-06 -4.047155e-05 -3.864802e-05 3.456883e-05 6.357193e-03 7.733822e-03
2.803000e+08 7.324219e-01 5.971069e-01 -3.866293e-05 3.850088e-06 -3.791414e-05 5.509704e-06 6.329060e-03 7.723331e-03
2.805178e+08 7.322388e-01 5.980835e-01 -2.083927e-05 1.542829e-05 -1.460966e-05 3.238209e-06 6.342888e-03 7.762909e-03
2.807356e+08 7.321777e-01 5.982666e-01 3.102049e-05 -8.815899e-06 -1.413189e-05 -1.488440e-05 6.284714e-03 7.767200e-03
2.809534e+08 7.313843e-01 5.994263e-01 2.261251e-06 -2.021529e-05 1.231395e-05 -2.652034e-05 6.324291e-03 7.808208e-03
2.811712e+08 7.310181e-01 6.008911e-01 -1.767278e-05 -6.202236e-05 -2.339482e-05 5.898997e-06 6.272316e-03 7.822990e-03
2.813891e+08 7.305908e-01 6.016846e-01 1.046248e-05 2.848171e-05 -1.317356e-05 3.997236e-06 6.257534e-03 7.831097e-03
2.816069e+08 7.313843e-01 6.027832e-01 1.661852e-05 4.692003e-05 -8.787960e-06 2.670102e-06 6.266594e-03 7.830620e-03
2.818247e+08 7.305908e-01 6.041260e-01 -6.887130e-06 -1.168344e-05 -4.870817e-07 1.814030e-05 6.272793e-03 7.907391e-03
2.820425e+08 7.302246e-01 6.048584e-01 -2.697110e-05 -3.024936e-06 -1.822785e-05 -2.445467e-05 6.237507e-03 7.891655e-03
2.822603e+08 7.304077e-01 6.056519e-01 2.695620e-05 3.013760e-06 -3.626570e-06 2.749823e-05 6.230354e-03 7.871628e-03
2.824781e+08 7.302246e-01 6.074829e-01 -4.605576e-05 2.079085e-05 1.078285e-05 3.153458e-05 6.205559e-03 7.905960e-03
2.826959e+08 7.297974e-01 6.080322e-01 4.449859e-05 -7.279217e-06 2.998859e-05 -3.551878e-05 6.210327e-03 7.907867e-03
2.829138e+08 7.301025e-01 6.094971e-01 -3.763475e-05 1.902878e-05 1.862366e-05 9.950250e-06 6.209850e-03 7.955074e-03
2.831316e+08 7.290039e-01 6.103516e-01 2.264604e-05 -7.018447e-06 -1.747534e-05 1.700595e-06 6.171227e-03 7.952690e-03
2.833494e+08 7.294312e-01 6.105957e-01 2.264231e-05 -7.020310e-06 1.174863e-05 -4.773960e-06 6.187439e-03 7.991791e-03
2.835672e+08 7.293701e-01 6.122437e-01 -7.912517e-06 -2.685003e-05 -2.914108e-05 2.844259e-06 6.166458e-03 8.025646e-03
2.837850e+08 7.298584e-01 6.135254e-01 -1.729280e-05 3.221631e-05 6.407499e-07 2.981909e-05 6.139755e-03 8.008957e-03
2.840028e+08 7.295532e-01 6.138306e-01 -2.065673e-06 -3.029779e-05 -5.538110e-06 -1.032092e-05 6.117821e-03 8.046627e-03
2.842206e+08 7.286377e-01 6.154785e-01 2.670102e-05 -1.888536e-05 3.127567e-05 -2.746470e-05 6.137848e-03 8.042812e-03
2.844384e+08 7.283936e-01 6.158447e-01 2.443790e-05 1.372769e-06 2.493151e-05 -8.754432e-06 6.111622e-03 8.069992e-03
2.846562e+08 7.293701e-01 6.170044e-01 7.186085e-06 3.361143e-05 -4.521385e-05 5.312264e-06 6.111622e-03 8.135319e-03
2.848741e+08 7.285156e-01 6.178589e-01 -7.520430e-07 6.746966e-06 -3.363565e-05 7.791445e-06 6.104469e-03 8.114338e-03
2.850919e+08 7.292480e-01 6.188354e-01 -2.291612e-05 -1.487881e-05 -8.406118e-06 -1.185946e-05 6.058216e-03 8.167267e-03
2.853097e+08 7.285767e-01 6.192627e-01 -1.320988e-05 2.040528e-05 -9.178184e-06 1.719035e-05 6.058216e-03 8.168697e-03
2.855275e+08 7.293091e-01 6.201172e-01 2.804771e-05 1.818314e-05 -1.271442e-05 -1.414027e-05 6.009102e-03 8.188248e-03
2.857453e+08 7.285767e-01 6.215820e-01 7.936731e-06 2.687238e-05 -1.739338e-05 -1.912005e-06 6.063938e-03 8.197784e-03
2.859631e+08 7.282104e-01 6.223145e-01 -1.036562e-06 -1.515541e-05 -2.199598e-05 6.668270e-06 6.030560e-03 8.207321e-03
2.861809e+08 7.284546e-01 6.229248e-01 -2.851151e-05 1.046062e-05 -2.570450e-05 -1.740828e-05 5.959511e-03 8.251190e-03
2.863988e+08 7.282104e-01 6.244507e-01 4.552305e-06 -4.049763e-05 2.580695e-05 1.378730e-05 5.987644e-03 8.257866e-03
2.866166e+08 7.279053e-01 6.258545e-01 1.791399e-06 8.407980e-06 1.524389e-05 -2.503209e-05 5.941868e-03 8.282661e-03
2.868344e+08 7.277832e-01 6.262207e-01 -7.435679e-06 -5.552918e-05 -7.962808e-06 2.523512e-05 5.970955e-03 8.264065e-03
2.870522e+08 7.283325e-01 6.277466e-01 5.860347e-06 -3.445894e-06 7.997869e-11 2.637393e-10 5.937576e-03 8.344650e-03
2.872700e+08 7.281494e-01 6.273804e-01 -2.522394e-05 5.373731e-06 4.786067e-06 -1.587160e-05 5.917072e-03 8.298874e-03
2.874878e+08 7.280273e-01 6.292114e-01 -1.067668e-05 2.205931e-05 1.117215e-05 1.704041e-05 5.910397e-03 8.346558e-03
2.877056e+08 7.278442e-01 6.290283e-01 5.858950e-06 -3.442634e-06 -1.931842e-05 1.547951e-05 5.912304e-03 8.330822e-03
2.879234e+08 7.279053e-01 6.304932e-01 -1.583248e-05 -5.377457e-05 -1.205690e-05 1.568161e-05 5.853176e-03 8.393764e-03
2.881412e+08 7.279053e-01 6.315918e-01 1.274701e-05 8.273870e-06 -1.167040e-05 1.139939e-06 5.883694e-03 8.364201e-03
2.883591e+08 7.277832e-01 6.325073e-01 -1.302548e-05 -3.018975e-05 1.147110e-05 6.140210e-06 5.883694e-03 8.424759e-03
2.885769e+08 7.281494e-01 6.333008e-01 -1.708791e-05 -1.835078e-05 -2.796203e-05 1.087785e-05 5.827904e-03 8.448601e-03
2.887947e+08 7.282104e-01 6.342163e-01 -1.709163e-05 -1.833122e-05 1.558568e-05 1.571793e-05 5.865574e-03 8.401394e-03
2.890125e+08 7.285156e-01 6.356201e-01 -1.964718e-05 -2.000667e-05 -1.057237e-05 -3.888644e-05 5.791664e-03 8.478642e-03
2.892303e+08 7.279663e-01 6.371460e-01 4.334375e-06 1.006760e-05 5.755574e-06 -4.862249e-05 5.766869e-03 8.479118e-03
2.894481e+08 7.271118e-01 6.378174e-01 3.620796e-05 -5.513430e-06 -1.475681e-05 6.847084e-06 5.789757e-03 8.513451e-03
2.896659e+08 7.284546e-01 6.383667e-01 -1.037493e-06 -1.517497e-05 8.977950e-07 -3.275089e-05 5.766869e-03 8.498192e-03
2.898838e+08 7.280884e-01 6.389160e-01 2.013147e-05 -8.668751e-06 8.913688e-06 -6.308313e-06 5.751133e-03 8.518219e-03
2.901016e+08 7.275391e-01 6.396484e-01 2.194010e-05 -2.663583e-07 3.279001e-05 2.494268e-05 5.759716e-03 8.530617e-03
2.903194e+08 7.291260e-01 6.400757e-01 6.122515e-06 1.848210e-05 -1.632143e-06 6.513204e-06 5.731106e-03 8.569717e-03
2.905372e+08 7.282104e-01 6.414795e-01 -3.186613e-05 1.553819e-05 9.417534e-06 -2.449565e-05 5.724907e-03 8.599758e-03
2.907550e+08 7.277832e-01 6.430664e-01 7.618219e-07 -6.765127e-06 5.845912e-06 -5.606562e-07 5.709648e-03 8.611679e-03
2.909728e+08 7.282104e-01 6.423340e-01 -3.673695e-05 3.422052e-05 1.024827e-05 -1.904555e-06 5.698681e-03 8.626938e-03
2.911906e+08 7.283936e-01 6.441040e-01 -4.515424e-05 3.596023e-05 -3.376044e-06 1.666322e-05 5.661964e-03 8.658886e-03
2.914084e+08 7.287598e-01 6.441040e-01 -1.249649e-05 1.366623e-05 2.431311e-05 1.668371e-05 5.655766e-03 8.615017e-03
2.916262e+08 7.288208e-01 6.458130e-01 5.866867e-06 -3.447756e-06 -1.784787e-05 1.262501e-05 5.632877e-03 8.629799e-03
2.918441e+08 7.290039e-01 6.456909e-01 -8.423813e-06 1.791399e-06 1.947954e-05 -1.914985e-05 5.605698e-03 8.677006e-03
2.920619e+08 7.291260e-01 6.469727e-01 -5.602837e-06 2.539903e-05 1.016119e-05 1.737382e-06 5.614281e-03 8.701801e-03
2.922797e+08 7.286377e-01 6.472168e-01 1.684204e-05 -3.573485e-06 1.282524e-05 1.055840e-05 5.591393e-03 8.688927e-03
2.924975e+08 7.294312e-01 6.481323e-01 3.067777e-06 -2.706051e-05 -1.437776e-05 -7.694587e-06 5.585194e-03 8.740425e-03
2.927153e+08 7.290039e-01 6.484375e-01 5.387142e-05 -1.583248e-05 -9.158626e-06 -3.815629e-05 5.549431e-03 8.743286e-03
2.929331e+08 7.285767e-01 6.502686e-01 -2.371520e-05 6.442517e-05 3.704801e-06 -2.760999e-05 5.569458e-03 8.760929e-03
2.931509e+08 7.294922e-01 6.506348e-01 -1.532026e-05 -9.945594e-06 -2.628379e-05 7.320195e-07 5.527020e-03 8.810997e-03
2.933688e+08 7.296143e-01 6.511841e-01 6.636605e-06 -1.021381e-05 -1.223572e-05 -3.246032e-05 5.498409e-03 8.816242e-03
2.935866e+08 7.286987e-01 6.531982e-01 4.084408e-05 2.656877e-05 -2.373941e-05 1.318567e-05 5.465984e-03 8.817673e-03
2.938044e+08 7.293091e-01 6.524048e-01 -1.863576e-05 -4.865229e-06 -3.973581e-05 1.203455e-05 5.436897e-03 8.848667e-03
2.940222e+08 7.295532e-01 6.531982e-01 6.821007e-05 -2.108887e-05 -5.752314e-06 -3.078021e-06 5.512238e-03 8.837223e-03
2.942400e+08 7.286377e-01 6.546021e-01 7.743947e-07 -6.770715e-06 -5.350634e-05 3.420189e-05 5.436420e-03 8.877277e-03
2.944578e+08 7.294312e-01 6.555786e-01 -3.220513e-05 -6.390736e-06 -1.686439e-05 2.798252e-05 5.423069e-03 8.874893e-03
2.946756e+08 7.306519e-01 6.560669e-01 -1.251698e-06 -3.717095e-05 -7.095281e-06 -7.499941e-06 5.410194e-03 8.910656e-03
2.948934e+08 7.297974e-01 6.555176e-01 -3.324822e-06 5.110633e-06 -4.436821e-05 2.065673e-05 5.393505e-03 8.940697e-03
2.951112e+08 7.307739e-01 6.570435e-01 2.313405e-06 -2.031028e-05 -8.307397e-07 -2.267212e-05 5.367756e-03 8.943558e-03
2.953291e+08 7.299805e-01 6.577148e-01 -4.038960e-05 1.736358e-05 2.312288e-05 8.681789e-06 5.383015e-03 8.942604e-03
2.955469e+08 7.304077e-01 6.585693e-01 -1.252908e-05 1.365133e-05 2.775108e-06 5.189329e-06 5.350113e-03 8.987427e-03
2.957647e+08 7.310791e-01 6.591797e-01 1.996011e-05 -3.067218e-05 1.788139e-05 -1.266040e-05 5.311966e-03 8.987904e-03
2.959825e+08 7.307739e-01 6.596680e-01 -4.089437e-06 1.187902e-05 -1.275167e-05 -1.424551e-05 5.345821e-03 9.003162e-03
2.962003e+08 7.286377e-01 6.597290e-01 -2.821907e-06 7.663388e-06 -3.653392e-05 -5.086511e-05 5.302906e-03 9.056091e-03
2.964181e+08 7.301025e-01 6.598511e-01 -1.969747e-07 6.453134e-06 -1.121685e-05 -1.243968e-05 5.287647e-03 9.056568e-03
2.966359e+08 7.294312e-01 6.613159e-01 4.518032e-05 4.275888e-05 4.626811e-06 -2.438948e-05 5.270958e-03 9.067535e-03
2.968538e+08 7.301025e-01 6.611328e-01 -2.803840e-05 -1.247786e-05 3.980473e-05 5.364418e-07 5.261421e-03 9.053230e-03
2.970716e+08 7.294312e-01 6.622925e-01 6.459653e-06 4.151836e-05 -1.653843e-05 2.177432e-06 5.230427e-03 9.140491e-03
2.972894e+08 7.298584e-01 6.626587e-01 2.579764e-05 7.916242e-07 -6.202608e-07 -2.893060e-05 5.230904e-03 9.100914e-03
2.975072e+08 7.307739e-01 6.636353e-01 8.856878e-06 -3.587641e-05 -5.348586e-06 2.103299e-05 5.197525e-03 9.113789e-03
2.977250e+08 7.301025e-01 6.638184e-01 1.407601e-05 -3.831834e-05 -1.288950e-05 2.548657e-05 5.173683e-03 9.123802e-03
2.979428e+08 7.307739e-01 6.647949e-01 2.640858e-05 -1.856871e-05 -4.589930e-05 4.306436e-06 5.167484e-03 9.140491e-03
2.981606e+08 7.308350e-01 6.644897e-01 3.327057e-05 1.007318e-05 4.067272e-05 -2.164766e-05 5.153179e-03 9.158134e-03
2.983784e+08 7.309570e-01 6.654053e-01 1.048949e-05 -4.848465e-06 1.451001e-06 1.316518e-05 5.125046e-03 9.165287e-03
2.985962e+08 7.309570e-01 6.662598e-01 9.682029e-06 2.096966e-05 -8.858740e-06 -4.065782e-05 5.101681e-03 9.209633e-03
2.988141e+08 7.302856e-01 6.666260e-01 6.049871e-06 -2.822839e-05 -7.478520e-06 -8.303672e-06 5.094528e-03 9.207249e-03
2.990319e+08 7.308350e-01 6.674194e-01 -2.198294e-05 -4.075840e-05 -2.991594e-05 -3.322959e-05 5.092144e-03 9.270191e-03
2.992497e+08 7.308350e-01 6.677856e-01 -1.876429e-05 2.140366e-05 1.501944e-05 3.837049e-06 5.055428e-03 9.283543e-03
2.994675e+08 7.314453e-01 6.687012e-01 -8.653849e-06 2.944283e-05 -4.240125e-05 5.322322e-05 5.097389e-03 9.226322e-03
2.996853e+08 7.315674e-01 6.688232e-01 1.331698e-05 -1.251232e-05 -3.439188e-05 -4.719198e-05 5.068302e-03 9.263515e-03
2.999031e+08 7.310791e-01 6.691284e-01 2.824236e-06 -7.669907e-06 1.340794e-10 2.259668e-10 5.027771e-03 9.318352e-03
3.001209e+08 7.309570e-01 6.704102e-01 6.679446e-06 -4.762039e-05 -1.568906e-05 -2.002437e-05 4.996777e-03 9.330273e-03
3.003388e+08 7.313232e-01 6.699829e-01 -3.796443e-05 -2.706610e-05 5.244743e-06 4.534377e-06 4.976749e-03 9.316921e-03
3.005566e+08 7.313232e-01 6.713867e-01 -5.841255e-06 2.178550e-05 -2.972316e-06 -7.166993e-06 4.939079e-03 9.371758e-03
3.007744e+08 7.318726e-01 6.720581e-01 -3.832579e-05 -1.413375e-05 2.563745e-05 -6.262213e-06 4.878521e-03 9.327412e-03
3.009922e+08 7.315674e-01 6.717529e-01 -1.350045e-05 1.897104e-05 3.373995e-05 2.462044e-05 4.879475e-03 9.375572e-03
3.012100e+08 7.325439e-01 6.720581e-01 -3.996864e-05 3.753230e-05 9.268522e-06 -5.529448e-05 4.888535e-03 9.334564e-03
3.014278e+08 7.321777e-01 6.721802e-01 -2.007000e-07 6.459653e-06 1.583062e-05 -5.573034e-06 4.870415e-03 9.404182e-03
3.016456e+08 7.322998e-01 6.736450e-01 -1.635961e-05 2.664141e-05 -8.128583e-06 -3.092736e-05 4.871845e-03 9.432793e-03
3.018634e+08 7.327881e-01 6.737671e-01 -2.425537e-05 -5.248934e-05 -1.222454e-05 3.534928e-05 4.877090e-03 9.408951e-03
3.020812e+08 7.326050e-01 6.740112e-01 -9.093434e-06 4.240125e-05 -1.663342e-05 1.498871e-05 4.789829e-03 9.403229e-03
3.022991e+08 7.326050e-01 6.748047e-01 2.015382e-06 1.818128e-05 -2.718158e-05 1.230091e-05 4.822731e-03 9.477139e-03
3.025169e+08 7.330322e-01 6.761475e-01 4.279241e-05 3.758073e-05 6.154180e-06 -2.409704e-05 4.770279e-03 9.471893e-03
3.027347e+08 7.331543e-01 6.759644e-01 4.075840e-05 1.940131e-05 -2.716668e-05 5.915761e-06 4.753113e-03 9.458065e-03
3.029525e+08 7.327881e-01 6.765747e-01 -1.251418e-05 -1.333375e-05 1.434889e-05 -5.958602e-06 4.749298e-03 9.472370e-03
3.031703e+08 7.330322e-01 6.775513e-01 -8.085743e-06 1.009088e-05 -1.801271e-05 -1.743529e-05 4.724979e-03 9.499550e-03
3.033881e+08 7.330322e-01 6.768188e-01 -2.706982e-05 3.799982e-05 2.302229e-06 -9.036157e-06 4.763603e-03 9.573936e-03
3.036059e+08 7.330933e-01 6.774292e-01 2.544187e-05 1.373887e-05 1.502689e-05 1.024920e-05 4.713058e-03 9.479046e-03
3.038238e+08 7.340698e-01 6.781616e-01 -4.949421e-05 1.003593e-05 3.880262e-05 -6.395951e-05 4.702091e-03 9.545803e-03
3.040416e+08 7.337036e-01 6.776123e-01 3.671274e-05 6.595626e-05 2.490170e-05 -3.278255e-06 4.654408e-03 9.606838e-03
3.042594e+08 7.335205e-01 6.785278e-01 -4.222617e-06 -2.990291e-05 2.216175e-05 -5.534291e-05 4.645824e-03 9.592533e-03
3.044772e+08 7.338257e-01 6.788330e-01 -3.092177e-05 -4.867092e-06 -8.983538e-06 -1.513306e-05 4.610062e-03 9.634495e-03
3.046950e+08 7.337646e-01 6.790161e-01 2.262369e-05 2.143346e-05 -4.605576e-05 4.325062e-06 4.624367e-03 9.621620e-03
3.049128e+08 7.340698e-01 6.795654e-01 -1.778267e-05 -1.092907e-05 -2.551265e-05 -3.220700e-05 4.581451e-03 9.609699e-03
3.051306e+08 7.342529e-01 6.799927e-01 9.899028e-06 1.456309e-05 4.460663e-05 -1.750886e-05 4.541874e-03 9.581566e-03
3.053484e+08 7.341309e-01 6.798096e-01 -1.638755e-05 2.668053e-05 -2.106652e-05 -1.180451e-05 4.536152e-03 9.651184e-03
3.055662e+08 7.340088e-01 6.805420e-01 -6.504357e-06 4.121661e-05 1.202803e-05 9.493902e-06 4.545689e-03 9.707928e-03
3.057841e+08 7.343750e-01 6.820068e-01 -2.588145e-05 -8.177012e-07 -6.138347e-06 1.771934e-05 4.529476e-03 9.711266e-03
3.060019e+08 7.346191e-01 6.811523e-01 2.020225e-05 1.617707e-05 2.552196e-05 3.220327e-05 4.496574e-03 9.695530e-03
3.062197e+08 7.342529e-01 6.817017e-01 -6.074086e-06 2.830289e-05 -1.135934e-05 6.739981e-06 4.411697e-03 9.726524e-03
3.064375e+08 7.339478e-01 6.827393e-01 -1.212768e-05 -2.629310e-05 -2.185814e-05 -8.810312e-06 4.409313e-03 9.748936e-03
3.066553e+08 7.339478e-01 6.823730e-01 8.177012e-07 -2.587773e-05 3.099442e-05 -8.143485e-06 4.435539e-03 9.706497e-03
3.068731e+08 7.341919e-01 6.821289e-01 -2.325885e-05 -2.024695e-06 9.937212e-06 -2.637319e-05 4.417419e-03 9.765625e-03
3.070909e+08 7.344971e-01 6.837769e-01 -4.928559e-06 7.238239e-05 -2.966449e-05 3.423542e-05 4.368782e-03 9.748459e-03
3.073088e+08 7.346191e-01 6.834106e-01 1.704320e-05 -4.608929e-05 -7.492490e-06 -1.476612e-05 4.362583e-03 9.747505e-03
3.075266e+08 7.341309e-01 6.842041e-01 -1.660362e-05 3.315695e-05 1.351815e-05 1.632329e-05 4.364491e-03 9.766102e-03
3.077444e+08 7.345581e-01 6.834717e-01 -4.168972e-05 6.444752e-06 -1.569279e-06 1.245737e-05 4.285812e-03 9.784222e-03
3.079622e+08 7.343750e-01 6.836548e-01 -2.306141e-05 -8.527189e-06 -2.809055e-05 2.820976e-05 4.288197e-03 9.904385e-03
3.081800e+08 7.348633e-01 6.848145e-01 1.037493e-06 -3.238767e-05 7.648021e-06 -1.735985e-05 4.291058e-03 9.848595e-03
3.083978e+08 7.349243e-01 6.841431e-01 2.833270e-05 6.107613e-06 -2.490543e-05 -9.562820e-06 4.218578e-03 9.822369e-03
3.086156e+08 7.347412e-01 6.857300e-01 7.265247e-06 1.580548e-05 -2.119690e-05 1.014210e-06 4.279137e-03 9.851456e-03
3.088334e+08 7.352295e-01 6.860962e-01 5.161017e-05 8.132309e-06 3.035367e-05 -1.155958e-05 4.255295e-03 9.870052e-03
3.090512e+08 7.340698e-01 6.862183e-01 5.678274e-06 -1.538545e-05 7.711351e-06 -2.378225e-05 4.232407e-03 9.877682e-03
3.092691e+08 7.348022e-01 6.867676e-01 8.326024e-07 -2.590567e-05 6.219372e-06 -3.062747e-05 4.154205e-03 9.922504e-03
3.094869e+08 7.342529e-01 6.865234e-01 -2.149679e-05 2.266653e-05 2.282113e-05 -1.993030e-05 4.143715e-03 9.918213e-03
3.097047e+08 7.341309e-01 6.870728e-01 -1.801644e-05 -4.470348e-06 3.136694e-06 -1.853053e-05 4.103184e-03 9.928226e-03
3.099225e+08 7.343750e-01 6.862793e-01 -1.698732e-06 5.184114e-05 -2.556480e-05 -3.230758e-05 4.098415e-03 9.891987e-03
3.101403e+08 7.345581e-01 6.877441e-01 -4.479662e-05 2.062321e-05 3.510341e-05 -4.904717e-05 4.132748e-03 9.954453e-03
3.103581e+08 7.345581e-01 6.867676e-01 -1.844671e-05 8.485280e-06 -4.313327e-05 -1.333654e-06 4.107952e-03 9.953499e-03
3.105759e+08 7.338257e-01 6.874390e-01 8.899719e-06 4.699081e-05 -7.632188e-06 1.093373e-05 4.107475e-03 9.963989e-03
3.107938e+08 7.341919e-01 6.876221e-01 -5.691312e-06 1.538452e-05 -4.320592e-05 5.068257e-06 4.075527e-03 9.959221e-03
3.110116e+08 7.341309e-01 6.883545e-01 -1.471490e-06 4.534423e-05 9.996817e-06 -2.646632e-05 4.029751e-03 9.994507e-03
3.112294e+08 7.348022e-01 6.884766e-01 7.478520e-06 9.335577e-06 -2.877973e-05 -9.257346e-07 3.992558e-03 1.006794e-02
3.114472e+08 7.338257e-01 6.883545e-01 -1.715869e-05 -3.042631e-05 8.465722e-07 -1.589675e-05 3.970146e-03 1.000214e-02
3.116650e+08 7.334595e-01 6.890869e-01 3.035553e-05 2.435222e-05 -2.889521e-05 1.838058e-05 3.968239e-03 1.004601e-02
3.118828e+08 7.331543e-01 6.895142e-01 -5.386397e-05 -1.993403e-05 -7.440336e-06 -2.125837e-05 3.918648e-03 1.002407e-02
3.121006e+08 7.341309e-01 6.895142e-01 8.751452e-05 2.364069e-05 -6.053131e-06 -1.548324e-06 3.923893e-03 1.005125e-02
3.123184e+08 7.338257e-01 6.898804e-01 -8.334406e-06 1.661386e-05 -1.354236e-05 -1.637265e-05 3.922462e-03 1.005268e-02
3.125362e+08 7.338257e-01 6.897583e-01 -7.634610e-05 -4.800037e-05 -2.816133e-05 2.183020e-05 3.874779e-03 1.008558e-02
3.127541e+08 7.333984e-01 6.900635e-01 1.211092e-05 2.636947e-05 2.988148e-06 7.216819e-06 3.869057e-03 1.007748e-02
3.129719e+08 7.334595e-01 6.911011e-01 -2.351590e-05 4.431233e-06 -1.436472e-05 -6.911345e-06 3.848076e-03 1.010990e-02
3.131897e+08 7.331543e-01 6.901245e-01 -4.029274e-05 -3.900006e-05 -3.665686e-06 -2.351776e-05 3.792763e-03 1.012278e-02
3.134075e+08 7.330933e-01 6.916504e-01 -1.668930e-05 3.323145e-05 5.403534e-05 -2.810359e-05 3.806591e-03 1.014948e-02
3.136253e+08 7.332764e-01 6.915283e-01 -3.630854e-05 -2.503395e-06 -4.483387e-05 1.110882e-05 3.739357e-03 1.017952e-02
3.138431e+08 7.335205e-01 6.912842e-01 -1.583900e-05 7.265247e-06 -2.121646e-05 -5.433336e-06 3.750324e-03 1.015997e-02
3.140609e+08 7.330322e-01 6.916504e-01 2.425164e-06 5.275942e-06 -1.360476e-05 -9.942800e-06 3.693104e-03 1.014090e-02
3.142788e+08 7.327881e-01 6.917114e-01 -5.838647e-05 -4.351512e-05 -3.589690e-05 3.924407e-05 3.723145e-03 1.016617e-02
3.144966e+08 7.322998e-01 6.922607e-01 -4.848465e-06 -1.056120e-05 1.391768e-05 -4.165247e-05 3.736019e-03 1.017570e-02
3.147144e+08 7.325439e-01 6.922607e-01 1.776963e-06 -5.190820e-05 -4.667789e-06 1.818314e-05 3.649235e-03 1.018953e-02
3.149322e+08 7.321777e-01 6.931152e-01 5.127862e-05 2.115592e-05 -1.507066e-05 -1.680199e-05 3.675461e-03 1.021051e-02
3.151500e+08 7.322998e-01 6.923828e-01 1.541618e-05 5.700625e-06 -2.111308e-05 -2.478436e-05 3.644466e-03 1.022816e-02
3.153678e+08 7.315063e-01 6.931152e-01 -3.016740e-05 -3.090315e-05 6.081536e-05 -1.667812e-05 3.571510e-03 1.023626e-02
3.155856e+08 7.322998e-01 6.932373e-01 4.751608e-05 -2.181530e-05 6.623566e-06 3.725290e-05 3.593445e-03 1.021338e-02
3.158034e+08 7.313232e-01 6.927490e-01 -1.095235e-06 3.247336e-05 2.252869e-06 3.808411e-06 3.571033e-03 1.023626e-02
3.160212e+08 7.305298e-01 6.936035e-01 8.144975e-05 -2.456456e-05 1.605414e-05 -1.848489e-05 3.519535e-03 1.021528e-02
3.162391e+08 7.308350e-01 6.932983e-01 1.344830e-06 3.776513e-05 -3.878400e-05 1.267344e-05 3.502369e-03 1.028538e-02
3.164569e+08 7.306519e-01 6.940918e-01 2.112240e-05 -9.700656e-06 -9.914860e-06 7.148366e-06 3.505707e-03 1.025629e-02
3.166747e+08 7.301636e-01 6.946411e-01 7.710885e-06 2.859626e-06 -2.426095e-05 -6.228685e-06 3.487110e-03 1.030350e-02
3.168925e+08 7.301636e-01 6.948242e-01 -3.410503e-05 9.249896e-06 3.891066e-06 -1.516379e-05 3.445148e-03 1.025438e-02
3.171103e+08 7.301636e-01 6.951294e-01 2.487376e-05 3.335439e-05 -1.807883e-05 -2.405420e-05 3.407478e-03 1.027536e-02
3.173281e+08 7.293091e-01 6.955566e-01 4.423782e-06 2.356619e-05 6.980263e-06 -2.082717e-05 3.381729e-03 1.030254e-02
3.175459e+08 7.289429e-01 6.951904e-01 1.740083e-05 -5.275756e-05 7.621478e-06 -4.502945e-06 3.361225e-03 1.030731e-02
3.177638e+08 7.296143e-01 6.953125e-01 3.325194e-05 1.671165e-05 -8.200295e-07 9.487849e-06 3.331661e-03 1.032972e-02
3.179816e+08 7.288818e-01 6.960449e-01 -5.285721e-06 2.427027e-06 -1.598336e-05 5.586073e-06 3.310204e-03 1.032591e-02
3.181994e+08 7.295532e-01 6.961060e-01 -3.457814e-05 2.226047e-05 5.533919e-06 -3.414787e-05 3.338814e-03 1.033878e-02
3.184172e+08 7.287598e-01 6.955566e-01 1.806393e-05 4.514121e-06 -6.064773e-06 -1.559034e-06 3.286839e-03 1.034737e-02
3.186350e+08 7.283325e-01 6.961060e-01 2.423674e-05 -2.389587e-05 -5.507842e-06 2.768449e-05 3.257275e-03 1.036406e-02
3.188528e+08 7.278442e-01 6.968384e-01 5.512498e-06 -8.926261e-06 -4.594913e-06 5.284324e-06 3.237247e-03 1.038599e-02
3.190706e+08 7.277222e-01 6.975708e-01 4.891306e-05 1.597777e-05 -2.593920e-05 1.272932e-05 3.213406e-03 1.044846e-02
3.192884e+08 7.275391e-01 6.968384e-01 -1.095235e-06 3.252551e-05 6.868504e-07 9.881798e-06 3.175735e-03 1.039743e-02
3.195062e+08 7.272339e-01 6.978149e-01 5.290378e-06 -2.425630e-06 8.367002e-06 -1.077540e-06 3.159523e-03 1.040745e-02
3.197241e+08 7.267456e-01 6.981812e-01 -1.256261e-05 -1.345016e-05 2.799369e-05 1.694076e-05 3.169060e-03 1.037216e-02
3.199419e+08 7.264404e-01 6.979980e-01 1.758337e-06 2.478808e-05 1.213327e-05 3.131106e-06 3.146648e-03 1.044035e-02
3.201597e+08 7.263184e-01 6.986084e-01 3.967434e-06 3.658980e-05 1.610909e-05 -1.851097e-05 3.107548e-03 1.044035e-02
3.203775e+08 7.261353e-01 6.989746e-01 2.909638e-05 -1.333095e-05 -9.384006e-06 3.641844e-05 3.107548e-03 1.046038e-02
3.205953e+08 7.253418e-01 6.984863e-01 2.315082e-05 8.592382e-06 -6.940216e-06 1.438893e-05 3.069878e-03 1.043415e-02
3.208131e+08 7.254639e-01 6.994629e-01 1.814216e-05 8.134544e-05 2.518296e-06 -3.495254e-05 3.022194e-03 1.047802e-02
3.210309e+08 7.246704e-01 6.989746e-01 -1.190975e-05 -3.297068e-05 -3.011338e-05 -4.008412e-05 3.050327e-03 1.044512e-02
3.212488e+08 7.240601e-01 6.998291e-01 1.939759e-05 4.234910e-05 1.154002e-05 -1.966767e-05 2.986908e-03 1.047850e-02
3.214666e+08 7.236938e-01 6.998901e-01 -2.801605e-05 -1.921505e-05 1.810491e-05 1.760479e-05 2.974987e-03 1.046181e-02
3.216844e+08 7.243652e-01 7.002563e-01 7.276423e-06 1.587998e-05 4.879013e-05 -1.981854e-05 2.973557e-03 1.044512e-02
3.219022e+08 7.235718e-01 7.010498e-01 1.566019e-05 -7.608905e-07 -6.903429e-06 7.930212e-06 2.933979e-03 1.051664e-02
3.221200e+08 7.231445e-01 7.010498e-01 5.867705e-05 3.722683e-05 3.082678e-06 -5.677808e-06 2.954483e-03 1.047134e-02
3.223378e+08 7.234497e-01 7.011108e-01 2.912246e-05 -1.334213e-05 1.925789e-05 -3.712997e-05 2.877712e-03 1.049519e-02
3.225556e+08 7.224731e-01 7.021484e-01 -3.953278e-05 1.165643e-05 8.322299e-06 5.389098e-06 2.833843e-03 1.057291e-02
3.227734e+08 7.221069e-01 7.011108e-01 3.747642e-06 4.315004e-05 -2.881885e-05 -7.420778e-06 2.853870e-03 1.055908e-02
3.229912e+08 7.222290e-01 7.022095e-01 -3.088266e-05 -1.149066e-05 9.013340e-06 1.527369e-05 2.832890e-03 1.053810e-02
3.232091e+08 7.218018e-01 7.020874e-01 2.649846e-06 -1.211651e-06 -3.867783e-05 -1.321733e-05 2.813339e-03 1.051998e-02
3.234269e+08 7.211304e-01 7.027588e-01 3.419630e-05 -9.255484e-06 -4.707836e-06 1.819991e-05 2.753735e-03 1.054335e-02
3.236447e+08 7.204590e-01 7.031250e-01 -4.285201e-05 3.243238e-05 4.086643e-06 -3.455393e-05 2.781391e-03 1.055193e-02
3.238625e+08 7.208252e-01 7.029419e-01 -2.647750e-06 1.212349e-06 2.446584e-05 -1.958199e-05 2.735615e-03 1.053381e-02
3.240803e+08 7.203979e-01 7.045898e-01 -1.233630e-05 -1.999922e-05 -9.469688e-06 -5.103275e-05 2.724648e-03 1.058006e-02
3.242981e+08 7.203369e-01 7.044678e-01 -3.535300e-06 2.725050e-05 2.413243e-05 2.566539e-05 2.707005e-03 1.055574e-02
3.245159e+08 7.191772e-01 7.052612e-01 -2.847426e-05 -6.165355e-06 -5.783513e-05 4.447997e-06 2.675056e-03 1.056004e-02
3.247338e+08 7.185669e-01 7.048950e-01 -1.453236e-05 -3.179535e-05 -1.600198e-05 5.572103e-06 2.605915e-03 1.058674e-02
3.249516e+08 7.189331e-01 7.054443e-01 1.567230e-05 -7.785857e-07 5.261973e-08 -6.463844e-06 2.651215e-03 1.057625e-02
3.251694e+08 7.188110e-01 7.056274e-01 -8.568168e-07 -5.088374e-05 2.525747e-06 6.543100e-05 2.587795e-03 1.059294e-02
3.253872e+08 7.185059e-01 7.058716e-01 -2.099015e-05 3.179535e-06 -4.295260e-06 6.687641e-05 2.588749e-03 1.063681e-02
3.256050e+08 7.181396e-01 7.068481e-01 -3.355928e-05 -1.031533e-05 -2.361462e-05 3.613532e-06 2.535820e-03 1.062107e-02
3.258228e+08 7.185059e-01 7.067871e-01 -1.976267e-06 -1.832936e-05 -7.309020e-06 5.967915e-05 2.576828e-03 1.064205e-02
3.260406e+08 7.170410e-01 7.071533e-01 -8.864328e-06 2.969801e-05 9.207986e-06 -1.057284e-05 2.469540e-03 1.059151e-02
3.262584e+08 7.171021e-01 7.072144e-01 1.151487e-05 -3.092177e-05 9.207986e-06 -1.057284e-05 2.500057e-03 1.066017e-02
3.264762e+08 7.165527e-01 7.074585e-01 3.207289e-05 -2.108328e-05 1.390837e-05 -2.878718e-05 2.396584e-03 1.065731e-02
3.266941e+08 7.149658e-01 7.082520e-01 -3.335811e-05 -1.681224e-05 -3.618747e-05 5.210191e-05 2.415657e-03 1.068878e-02
3.269119e+08 7.155151e-01 7.083740e-01 2.779998e-05 2.573803e-05 -1.825392e-05 1.757406e-06 2.433777e-03 1.067257e-02
3.271297e+08 7.150269e-01 7.091675e-01 2.848916e-05 6.202608e-06 1.926161e-05 -3.063679e-05 2.398968e-03 1.069593e-02
3.273475e+08 7.144775e-01 7.091675e-01 3.945082e-06 3.666617e-05 -2.080575e-06 -2.319925e-05 2.340794e-03 1.065969e-02
3.275653e+08 7.136230e-01 7.096558e-01 -1.315027e-06 -3.789365e-05 1.082756e-05 -2.308935e-05 2.320290e-03 1.064682e-02
3.277831e+08 7.132568e-01 7.095947e-01 6.910414e-07 -1.955777e-05 -1.825020e-05 1.755543e-06 2.301693e-03 1.067543e-02
3.280009e+08 7.133179e-01 7.117310e-01 -4.256889e-05 -5.112216e-05 2.119318e-05 1.198612e-05 2.269268e-03 1.067352e-02
3.282188e+08 7.136230e-01 7.110596e-01 2.652965e-05 -1.211092e-05 1.318939e-05 -3.222376e-05 2.253532e-03 1.071024e-02
3.284366e+08 7.131348e-01 7.118530e-01 -8.195639e-06 1.015887e-05 3.632717e-05 2.237223e-05 2.255440e-03 1.070452e-02
3.286544e+08 7.119751e-01 7.120972e-01 -2.410077e-05 1.743622e-05 -4.270859e-05 1.483224e-05 2.213955e-03 1.068830e-02
3.288722e+08 7.121582e-01 7.124023e-01 -9.698793e-06 -2.123415e-05 -5.286885e-06 -4.607253e-06 2.201080e-03 1.069689e-02
3.290900e+08 7.111816e-01 7.135620e-01 7.960480e-06 -3.636815e-06 1.020171e-05 -3.299117e-05 2.190590e-03 1.069927e-02
3.293078e+08 7.113037e-01 7.132568e-01 -5.308073e-06 2.421904e-06 1.922809e-05 -2.416968e-05 2.134323e-03 1.069832e-02
3.295256e+08 7.108765e-01 7.141724e-01 -1.732633e-05 4.638731e-05 -5.162321e-06 -1.753587e-05 2.095699e-03 1.069736e-02
3.297434e+08 7.105103e-01 7.145386e-01 2.366304e-05 -4.392117e-06 -9.102747e-06 -2.367422e-06 2.081871e-03 1.071644e-02
3.299612e+08 7.103882e-01 7.145386e-01 -1.902878e-05 2.154149e-05 -2.090633e-05 -4.427508e-05 2.083302e-03 1.074886e-02
3.301791e+08 7.092285e-01 7.156372e-01 -3.495254e-05 2.881885e-05 9.465963e-06 -3.640167e-05 2.050877e-03 1.073217e-02
3.303969e+08 7.092896e-01 7.159424e-01 3.932044e-06 3.670901e-05 7.762574e-06 -1.741480e-05 2.025604e-03 1.070166e-02
3.306147e+08 7.091064e-01 7.156372e-01 6.351620e-06 4.205108e-05 -2.076849e-06 -2.319552e-05 1.996517e-03 1.077318e-02
3.308325e+08 7.089844e-01 7.167358e-01 -1.107249e-05 1.789723e-05 -3.240258e-05 -3.108568e-05 1.975060e-03 1.073885e-02
3.310503e+08 7.086182e-01 7.169800e-01 3.141351e-05 -1.495704e-06 1.977570e-05 -1.345761e-06 1.979828e-03 1.077557e-02
3.312681e+08 7.074585e-01 7.180176e-01 -4.595891e-05 -3.033876e-05 -1.679733e-05 8.587725e-06 1.948833e-03 1.072359e-02
3.314859e+08 7.077637e-01 7.188110e-01 -2.099760e-05 3.183261e-06 1.875497e-05 2.755225e-05 1.907349e-03 1.073217e-02
3.317038e+08 7.062378e-01 7.188110e-01 2.991967e-05 -3.291480e-05 1.025200e-05 4.149042e-05 1.913548e-03 1.073599e-02
3.319216e+08 7.068481e-01 7.190552e-01 1.154467e-05 -3.094412e-05 3.263541e-05 5.239621e-06 1.871586e-03 1.081181e-02
3.321394e+08 7.066650e-01 7.202759e-01 -2.205744e-05 -4.127994e-05 -4.423410e-05 1.440570e-05 1.824856e-03 1.073217e-02
3.323572e+08 7.058105e-01 7.208252e-01 -1.107529e-05 1.791865e-05 2.341717e-05 1.581572e-05 1.822948e-03 1.078320e-02
3.325750e+08 7.051392e-01 7.207642e-01 -3.648922e-05 -2.585351e-06 -1.338311e-06 -1.976453e-05 1.811504e-03 1.077366e-02
3.327928e+08 7.056885e-01 7.213745e-01 -1.016166e-05 -8.200295e-06 2.419576e-06 -1.556240e-05 1.765728e-03 1.075315e-02
3.330106e+08 7.050171e-01 7.224731e-01 -2.829544e-05 -1.275353e-05 -2.427772e-05 -6.323680e-06 1.739025e-03 1.076269e-02
3.332284e+08 7.045288e-01 7.221069e-01 6.901100e-07 -1.958199e-05 1.170859e-05 -3.255904e-05 1.700878e-03 1.080656e-02
3.334462e+08 7.036133e-01 7.226562e-01 2.808683e-05 1.928024e-05 2.607517e-05 -2.557971e-05 1.685619e-03 1.079845e-02
3.336641e+08 7.043457e-01 7.233887e-01 7.975847e-06 -3.632158e-06 1.243688e-05 -2.915598e-05 1.654625e-03 1.078749e-02
3.338819e+08 7.035522e-01 7.238159e-01 -1.719594e-05 -3.069267e-05 -1.977384e-05 1.325272e-06 1.604080e-03 1.079988e-02
3.340997e+08 7.028809e-01 7.244873e-01 2.492033e-05 3.358908e-05 1.642853e-06 -1.252349e-05 1.607895e-03 1.074982e-02
3.343175e+08 7.028809e-01 7.253418e-01 8.666888e-06 -2.323277e-05 -1.206622e-05 -9.622425e-06 1.606464e-03 1.078176e-02
3.345353e+08 7.025757e-01 7.257080e-01 1.548510e-05 5.795620e-06 -1.292117e-05 -1.266599e-07 1.560211e-03 1.080656e-02
3.347531e+08 7.026978e-01 7.257690e-01 3.305078e-05 -4.721060e-05 2.793968e-06 2.662651e-05 1.564980e-03 1.079464e-02
3.349709e+08 7.015991e-01 7.266846e-01 2.832152e-05 1.280010e-05 4.353002e-06 2.055429e-05 1.523495e-03 1.084518e-02
3.351888e+08 7.013550e-01 7.278442e-01 -1.259334e-05 -1.352560e-05 -5.385280e-05 -1.080707e-05 1.472950e-03 1.079464e-02
3.354066e+08 7.011108e-01 7.280884e-01 -7.974915e-06 3.636815e-06 3.736094e-05 -1.294538e-05 1.491547e-03 1.083088e-02
3.356244e+08 7.014160e-01 7.294922e-01 2.274476e-05 2.172776e-05 1.984183e-05 -7.788651e-06 1.464844e-03 1.081800e-02
3.358422e+08 7.003784e-01 7.298584e-01 -2.519600e-05 -2.709776e-05 -2.545491e-05 3.545545e-05 1.421452e-03 1.084995e-02
3.360600e+08 6.998291e-01 7.307739e-01 -1.502968e-05 -1.884904e-05 -7.647555e-06 4.476402e-06 1.408100e-03 1.078844e-02
3.362778e+08 7.006836e-01 7.307739e-01 -4.038215e-05 3.124774e-05 -1.481175e-05 3.821962e-05 1.421452e-03 1.082373e-02
3.364956e+08 6.998901e-01 7.316284e-01 -2.393126e-05 1.091138e-05 -1.924485e-05 2.411194e-05 1.388550e-03 1.076937e-02
3.367134e+08 6.998901e-01 7.321167e-01 3.411807e-05 -2.706423e-06 -8.170493e-06 -1.832098e-05 1.372337e-03 1.088572e-02
3.369312e+08 6.991577e-01 7.327271e-01 3.770925e-05 -3.004633e-05 -3.999844e-05 -2.663024e-05 1.328945e-03 1.082087e-02
3.371491e+08 6.990356e-01 7.320557e-01 -1.134537e-05 2.445467e-05 9.089708e-07 -1.593679e-05 1.285553e-03 1.083422e-02
3.373669e+08 6.991577e-01 7.334595e-01 -3.295951e-05 -2.998486e-05 1.420453e-05 -5.457923e-05 1.261234e-03 1.084471e-02
3.375847e+08 6.980591e-01 7.339478e-01 1.771003e-05 8.831173e-05 2.145767e-05 -2.028234e-05 1.259327e-03 1.082802e-02
3.378025e+08 6.980591e-01 7.351685e-01 9.465963e-06 2.782419e-05 -1.739338e-05 -7.786788e-06 1.213551e-03 1.083994e-02
3.380203e+08 6.980591e-01 7.358398e-01 2.466142e-05 -3.055111e-05 -2.900697e-05 1.184829e-05 1.183033e-03 1.081038e-02
3.382381e+08 6.975708e-01 7.366333e-01 -2.900604e-06 7.749535e-06 2.214871e-05 -1.039356e-05 1.137257e-03 1.080132e-02
3.384559e+08 6.975098e-01 7.359619e-01 1.631677e-06 -4.577637e-05 1.442619e-05 5.243346e-07 1.169682e-03 1.082420e-02
3.386738e+08 6.971436e-01 7.377930e-01 -9.940937e-06 -1.476612e-05 -1.482107e-05 -3.625080e-05 1.109600e-03 1.080084e-02
3.388916e+08 6.972046e-01 7.376099e-01 -2.810918e-05 -1.934543e-05 -4.263036e-05 8.309260e-06 1.094341e-03 1.085329e-02
3.391094e+08 6.969604e-01 7.391968e-01 4.477799e-05 -7.569790e-06 3.420748e-05 -7.748604e-07 1.102448e-03 1.085043e-02
3.393272e+08 6.968994e-01 7.396240e-01 1.355167e-05 -1.259893e-05 3.948808e-07 3.572367e-05 1.004219e-03 1.083565e-02
3.395450e+08 6.961670e-01 7.403564e-01 1.237355e-05 2.009608e-05 -3.110431e-05 -4.887581e-06 1.025200e-03 1.084423e-02
3.397628e+08 6.959229e-01 7.406616e-01 -5.764887e-05 5.438924e-07 -1.182780e-06 -3.267638e-05 9.894371e-04 1.085091e-02
3.399806e+08 6.958008e-01 7.418213e-01 1.041498e-05 1.689419e-06 -2.438761e-05 6.582588e-06 9.918213e-04 1.088667e-02
3.401984e+08 6.950684e-01 7.426758e-01 1.669489e-05 -2.691522e-05 -1.370814e-05 2.886169e-06 9.565353e-04 1.087856e-02
3.404162e+08 6.959229e-01 7.425537e-01 4.409254e-05 1.209229e-05 1.165830e-05 -2.609938e-05 9.036064e-04 1.085091e-02
3.406341e+08 6.953125e-01 7.438354e-01 1.889374e-05 -1.503713e-05 6.441027e-06 3.731064e-05 8.597374e-04 1.078606e-02
3.408519e+08 6.950684e-01 7.435913e-01 7.040799e-07 -1.962949e-05 3.221259e-05 4.399568e-05 8.711815e-04 1.083660e-02
3.410697e+08 6.949463e-01 7.448730e-01 -3.226101e-05 -4.966184e-05 2.693757e-05 3.941171e-05 8.382797e-04 1.084709e-02
3.412875e+08 6.955566e-01 7.455444e-01 -2.861395e-05 -6.288290e-06 -7.454306e-06 -1.489371e-05 8.425713e-04 1.087475e-02
3.415053e+08 6.946411e-01 7.457886e-01 -3.903359e-05 -7.972121e-06 -1.614168e-05 1.844391e-05 8.106232e-04 1.086807e-02
3.417231e+08 6.947021e-01 7.471313e-01 -1.525879e-05 -1.235306e-05 -8.001924e-06 3.675930e-05 7.805824e-04 1.084852e-02
3.419409e+08 6.938477e-01 7.470093e-01 1.066271e-05 -4.856847e-06 -2.885237e-06 -1.370069e-05 7.686615e-04 1.081705e-02
3.421588e+08 6.936035e-01 7.486572e-01 4.635581e-10 1.734293e-10 -8.222647e-06 -1.186784e-05 7.281303e-04 1.083803e-02
3.423766e+08 6.940918e-01 7.483521e-01 -2.812222e-05 -1.939014e-05 1.331605e-05 -3.858469e-05 6.818771e-04 1.080751e-02
3.425944e+08 6.940308e-01 7.500000e-01 6.888062e-05 5.235896e-05 -1.783483e-05 3.096275e-05 7.052422e-04 1.081038e-02
3.428122e+08 6.937256e-01 7.501831e-01 1.162663e-05 -3.105029e-05 -7.574912e-06 -1.984648e-06 7.123947e-04 1.080656e-02
3.430300e+08 6.941528e-01 7.504272e-01 -8.243136e-06 1.019333e-05 2.687797e-06 3.307685e-05 5.974770e-04 1.083994e-02
3.432478e+08 6.932983e-01 7.509766e-01 -1.942739e-06 -1.842529e-05 -1.471862e-05 2.527237e-05 6.046295e-04 1.083374e-02
3.434656e+08 6.939697e-01 7.514038e-01 -7.756986e-06 -2.905726e-06 3.458560e-05 3.492087e-05 5.850792e-04 1.084566e-02
3.436834e+08 6.939697e-01 7.530518e-01 -4.853122e-06 -1.067948e-05 -1.299195e-05 6.322749e-06 5.283356e-04 1.084280e-02
3.439012e+08 6.931763e-01 7.535400e-01 7.759780e-06 2.913643e-06 -1.132768e-05 -6.209128e-06 5.164146e-04 1.082706e-02
3.441191e+08 6.940308e-01 7.541504e-01 -2.813339e-05 -1.942553e-05 1.635402e-06 6.197393e-05 5.116463e-04 1.086330e-02
3.443369e+08 6.940308e-01 7.542725e-01 -4.125759e-06 -3.034063e-05 1.608487e-05 -1.199357e-05 4.758835e-04 1.082420e-02
3.445547e+08 6.933594e-01 7.551270e-01 4.948676e-05 9.715557e-06 2.755038e-05 -1.868978e-05 4.367828e-04 1.085043e-02
3.447725e+08 6.931763e-01 7.557373e-01 -3.979728e-05 1.163781e-05 -1.011416e-06 2.240203e-05 4.272461e-04 1.083803e-02
3.449903e+08 6.931763e-01 7.569580e-01 1.238659e-05 -5.073473e-05 1.015142e-06 -2.242066e-05 4.415512e-04 1.078749e-02
3.452081e+08 6.930542e-01 7.573853e-01 2.910383e-06 -7.767696e-06 2.886727e-05 1.078472e-06 4.305840e-04 1.083469e-02
3.454259e+08 6.937256e-01 7.580566e-01 3.205799e-05 -1.454353e-05 1.285318e-05 6.604008e-06 3.089905e-04 1.081562e-02
3.456438e+08 6.931763e-01 7.594604e-01 -7.527880e-06 -9.464100e-06 -7.352792e-06 -2.137758e-05 3.604889e-04 1.081371e-02
3.458616e+08 6.931763e-01 7.598267e-01 1.938082e-06 1.845323e-05 5.343696e-06 -1.841458e-06 3.318787e-04 1.084375e-02
3.460794e+08 6.926880e-01 7.608032e-01 -3.616698e-05 -1.575798e-05 -4.624249e-06 5.268259e-06 2.884865e-04 1.077080e-02
3.462972e+08 6.934814e-01 7.607422e-01 -2.864935e-05 -6.318092e-06 2.323836e-05 -3.928132e-05 3.042221e-04 1.080418e-02
3.465150e+08 6.936646e-01 7.619019e-01 -2.427492e-06 -5.339738e-06 6.000511e-06 8.051749e-06 2.589226e-04 1.083755e-02
3.467328e+08 6.937866e-01 7.615356e-01 4.032627e-05 4.616752e-05 7.376075e-06 2.136733e-05 2.350807e-04 1.082897e-02
3.469506e+08 6.936035e-01 7.627563e-01 1.141429e-05 -2.453104e-05 1.444574e-05 5.392358e-07 2.236366e-04 1.077938e-02
3.471684e+08 6.942749e-01 7.635498e-01 7.772353e-06 2.911780e-06 -3.641471e-05 -9.531155e-06 1.773834e-04 1.081133e-02
3.473862e+08 6.937256e-01 7.640381e-01 1.604017e-05 -7.264316e-06 -1.864322e-05 3.403798e-05 1.354218e-04 1.085234e-02
3.476041e+08 6.942749e-01 7.640991e-01 3.207661e-05 -1.457334e-05 7.008202e-06 -1.437869e-05 1.583099e-04 1.078653e-02
3.478219e+08 6.934204e-01 7.651978e-01 -1.529977e-05 -1.238938e-05 -3.742240e-05 1.284853e-05 1.006126e-04 1.080275e-02
3.480397e+08 6.939087e-01 7.658691e-01 1.699664e-05 3.743730e-05 2.732500e-06 2.665445e-05 7.772446e-05 1.080179e-02
3.482575e+08 6.943359e-01 7.665405e-01 -1.239032e-05 -2.020225e-05 -6.716698e-06 -1.149159e-05 3.814697e-05 1.079130e-02
3.484753e+08 6.941528e-01 7.669067e-01 -9.949319e-06 -1.484063e-05 1.593493e-06 -6.069429e-06 3.862381e-05 1.077080e-02
3.486931e+08 6.945190e-01 7.677002e-01 -2.137944e-05 9.715557e-06 1.380406e-05 -9.354204e-06 1.621246e-05 1.075363e-02
3.489109e+08 6.945190e-01 7.684326e-01 -2.673827e-06 1.215609e-06 -1.070136e-05 3.681984e-06 -3.957748e-05 1.077080e-02
3.491288e+08 6.943359e-01 7.685547e-01 4.937872e-05 1.632050e-05 4.549976e-06 1.193956e-06 -3.480911e-05 1.079607e-02
3.493466e+08 6.940308e-01 7.689819e-01 -1.990981e-05 -2.967939e-05 -1.570769e-05 4.126690e-05 -7.820129e-05 1.075792e-02
3.495644e+08 6.945801e-01 7.698364e-01 -2.179295e-06 -1.191162e-05 -5.224720e-05 -2.343580e-05 -6.723404e-05 1.076889e-02
3.497822e+08 6.948853e-01 7.703857e-01 -5.350448e-06 2.425164e-06 1.126993e-05 1.268554e-05 -1.420975e-04 1.076078e-02
3.500000e+08 6.947632e-01 7.714233e-01 -8.024275e-06 3.653113e-06 1.988560e-05 -6.940588e-05 -8.153915e-05 1.076412e-02
