# Hz S RI R 50
! RAW DATA - UNCALIBRATED
1.500000e+06 9.774170e-01 8.056641e-03 1.517870e-05 -8.149073e-07 1.573935e-07 5.057547e-06 -1.002686e+00 2.984619e-02
1.717812e+06 9.763794e-01 1.080322e-02 -1.820736e-06 -7.517170e-06 -3.858935e-06 4.020520e-06 -1.001343e+00 2.783203e-02
1.935625e+06 9.771118e-01 1.477051e-02 -3.101770e-06 -7.022172e-06 -1.496170e-05 -3.186986e-06 -1.003479e+00 2.581787e-02
2.153438e+06 9.777222e-01 2.014160e-02 -4.464760e-06 2.131984e-05 -1.357775e-05 -7.237308e-06 -1.004822e+00 2.178955e-02
2.371250e+06 9.777222e-01 2.514648e-02 2.915040e-07 1.867395e-05 4.986301e-06 -1.326390e-05 -1.006042e+00 1.916504e-02
2.589062e+06 9.760742e-01 3.155518e-02 2.030283e-07 -3.224984e-05 -1.133420e-06 -5.685724e-06 -1.006409e+00 1.379395e-02
2.806875e+06 9.762573e-01 3.881836e-02 -6.327406e-06 -1.090858e-05 1.860783e-06 -1.155119e-05 -1.008545e+00 1.202393e-02
3.024688e+06 9.761353e-01 4.522705e-02 -3.568456e-05 -2.404675e-06 -4.347041e-05 -3.945082e-06 -1.008850e+00 9.216309e-03
3.242500e+06 9.765015e-01 5.175781e-02 1.681224e-05 5.159527e-06 -1.234375e-05 -4.290603e-06 -1.010071e+00 3.723145e-03
3.460312e+06 9.722900e-01 5.584717e-02 -1.481967e-06 -3.091758e-06 -3.479607e-05 5.323440e-06 -1.014893e+00 -9.765625e-04
3.678125e+06 9.725952e-01 5.847168e-02 -1.128949e-05 1.472514e-05 -7.424969e-06 1.039775e-05 -1.015259e+00 -3.051758e-04
3.895938e+06 9.725952e-01 6.066895e-02 -6.606802e-06 -2.084859e-05 8.037779e-06 -8.661766e-06 -1.015320e+00 9.765625e-04
4.113750e+06 9.705200e-01 6.390381e-02 4.991889e-07 -9.780284e-06 -7.772353e-06 6.331597e-06 -1.015381e+00 6.103516e-04
4.331562e+06 9.691162e-01 6.628418e-02 -8.944422e-06 2.002157e-05 5.064765e-06 -3.051013e-06 -1.015076e+00 1.281738e-03
4.549375e+06 9.687500e-01 6.958008e-02 2.150796e-05 -5.798414e-06 7.711351e-07 1.728907e-05 -1.015015e+00 1.037598e-03
4.767188e+06 9.678955e-01 7.312012e-02 8.536503e-06 1.306832e-05 2.876855e-06 8.767936e-06 -1.015442e+00 1.403809e-03
4.985000e+06 9.669800e-01 7.641602e-02 2.832711e-05 5.509704e-06 8.482020e-06 -3.698748e-06 -1.014465e+00 7.324219e-04
5.202812e+06 9.661255e-01 7.965088e-02 -2.514943e-05 2.815202e-05 5.408190e-06 2.101995e-05 -1.013489e+00 7.324219e-04
5.420625e+06 9.655151e-01 8.331299e-02 -1.745299e-06 6.798655e-06 -5.973037e-06 -3.138557e-07 -1.014343e+00 1.831055e-03
5.638438e+06 9.647827e-01 8.746338e-02 -8.133240e-06 -1.561083e-05 1.031905e-05 -6.751623e-06 -1.014038e+00 1.220703e-03
5.856250e+06 9.630127e-01 9.167480e-02 1.482014e-05 -9.546056e-06 4.801899e-06 9.324867e-06 -1.013916e+00 1.220703e-03
6.074062e+06 9.627075e-01 9.509277e-02 5.178154e-07 2.119690e-05 -7.234048e-06 -3.024004e-06 -1.013916e+00 1.647949e-03
6.291875e+06 9.610596e-01 9.942627e-02 -1.231302e-05 1.581572e-05 -2.559507e-06 4.595378e-06 -1.015564e+00 1.098633e-03
6.509688e+06 9.595337e-01 1.036987e-01 3.461028e-06 -7.862691e-07 -5.136244e-07 -2.873363e-06 -1.014587e+00 6.103516e-04
6.727500e+06 9.587402e-01 1.077881e-01 1.920015e-05 1.218356e-05 -2.801418e-06 8.258503e-07 -1.014221e+00 1.464844e-03
6.945312e+06 9.584961e-01 1.112671e-01 -5.944632e-06 -1.293141e-05 -7.400289e-06 -6.447081e-06 -1.013550e+00 1.220703e-03
7.163125e+06 9.580688e-01 1.164551e-01 -1.157355e-05 -5.596317e-06 6.549060e-06 -1.508743e-07 -1.014587e+00 6.713867e-04
7.380938e+06 9.572754e-01 1.212769e-01 1.416728e-05 7.377937e-06 -8.463860e-06 -1.550559e-05 -1.013977e+00 -4.882812e-04
7.598750e+06 9.558105e-01 1.250610e-01 1.656823e-06 1.278706e-05 -1.009740e-05 -3.160909e-06 -1.014038e+00 5.493164e-04
7.816562e+06 9.547119e-01 1.294556e-01 1.282338e-05 7.303432e-06 -5.238689e-08 4.147645e-06 -1.013245e+00 2.441406e-04
8.034375e+06 9.538574e-01 1.340942e-01 7.261056e-06 -3.391877e-06 5.433336e-06 -1.082104e-05 -1.013855e+00 -1.831055e-04
8.252188e+06 9.541016e-01 1.395264e-01 2.386421e-05 -1.002289e-05 -1.604762e-05 -7.930212e-06 -1.013550e+00 4.882812e-04
8.470000e+06 9.530640e-01 1.434326e-01 -1.370907e-06 4.010648e-05 -7.088296e-06 -1.107343e-05 -1.013245e+00 7.934570e-04
8.687812e+06 9.528198e-01 1.471558e-01 -3.070943e-05 -1.505017e-06 -9.233598e-06 -1.142267e-06 -1.013794e+00 1.037598e-03
8.905625e+06 9.520264e-01 1.517944e-01 4.506670e-06 9.139534e-06 -1.713866e-06 -3.796536e-06 -1.012817e+00 -1.037598e-03
9.123438e+06 9.512329e-01 1.586914e-01 -2.185814e-05 -1.735985e-06 -9.305310e-06 3.823079e-07 -1.012817e+00 2.441406e-04
9.341250e+06 9.512329e-01 1.627808e-01 3.207102e-05 5.282462e-06 -1.475215e-06 -1.530722e-05 -1.013245e+00 -3.051758e-04
9.559062e+06 9.499512e-01 1.667480e-01 -1.502223e-05 5.962327e-06 8.781441e-06 1.018867e-06 -1.012634e+00 2.441406e-04
9.776875e+06 9.503174e-01 1.708984e-01 -1.611188e-07 1.446530e-05 -1.805834e-06 8.782838e-06 -1.012634e+00 -6.103516e-05
9.994688e+06 9.503784e-01 1.754761e-01 8.014031e-06 1.029018e-05 -1.489557e-05 -3.875233e-06 -1.012268e+00 0.000000e+00
1.021250e+07 9.494629e-01 1.799927e-01 4.999340e-06 -1.539756e-05 -8.703209e-06 -1.083361e-05 -1.011963e+00 -2.441406e-04
1.043031e+07 9.490967e-01 1.853638e-01 -7.860363e-06 -1.917128e-06 1.994427e-05 -5.421229e-06 -1.010864e+00 3.051758e-04
1.064812e+07 9.494629e-01 1.900024e-01 -4.781410e-06 9.050127e-06 -3.492460e-07 1.537520e-05 -1.011230e+00 1.220703e-04
1.086594e+07 9.485474e-01 1.948853e-01 4.063360e-06 1.009088e-05 -6.802380e-06 7.162802e-06 -1.011658e+00 1.831055e-04
1.108375e+07 9.490356e-01 1.981812e-01 -6.475486e-06 -4.878268e-06 4.709698e-06 -2.157409e-05 -1.010742e+00 -6.103516e-05
1.130156e+07 9.481201e-01 2.033081e-01 -6.221235e-06 3.715977e-06 -5.854759e-06 1.593493e-06 -1.009277e+00 -5.493164e-04
1.151938e+07 9.474487e-01 2.077637e-01 -2.367236e-05 1.678616e-05 1.263618e-05 5.698763e-06 -1.009583e+00 1.220703e-04
1.173719e+07 9.476318e-01 2.122803e-01 1.166947e-05 1.390744e-05 1.061708e-05 -1.028366e-05 -1.009521e+00 -6.103516e-05
1.195500e+07 9.490356e-01 2.170410e-01 9.126961e-08 -2.054498e-05 -1.223525e-06 5.164882e-06 -1.008850e+00 4.882812e-04
1.217281e+07 9.467163e-01 2.206421e-01 9.467825e-06 -1.101755e-05 2.617016e-06 1.027482e-05 -1.008423e+00 4.882812e-04
1.239062e+07 9.475708e-01 2.250977e-01 -4.789792e-06 1.898035e-05 5.575363e-06 2.373941e-06 -1.007629e+00 -6.103516e-04
1.260844e+07 9.475098e-01 2.285767e-01 1.948327e-06 1.806673e-05 -5.558599e-06 -1.046108e-05 -1.006958e+00 6.103516e-05
1.282625e+07 9.466553e-01 2.331543e-01 1.603737e-05 -1.651701e-05 -9.235460e-06 5.180482e-06 -1.006958e+00 -1.586914e-03
1.304406e+07 9.455566e-01 2.382202e-01 2.544839e-06 -6.824266e-06 2.605375e-07 3.272202e-06 -1.006042e+00 -8.544922e-04
1.326188e+07 9.470215e-01 2.410889e-01 1.729280e-05 1.971982e-05 5.364884e-06 -7.595401e-06 -1.004700e+00 0.000000e+00
1.347969e+07 9.469604e-01 2.457275e-01 7.398427e-06 -2.089515e-05 1.354516e-05 -2.989545e-07 -1.004150e+00 -1.892090e-03
1.369750e+07 9.466553e-01 2.499390e-01 7.838942e-06 -6.701797e-06 -2.880115e-07 2.925284e-06 -1.004456e+00 -1.586914e-03
1.391531e+07 9.459229e-01 2.546387e-01 -6.954186e-06 1.475029e-05 -8.827541e-06 -5.859416e-06 -1.003174e+00 -1.770020e-03
1.413312e+07 9.457397e-01 2.584839e-01 -2.204441e-06 -1.810491e-05 4.917383e-06 -9.376556e-06 -1.001526e+00 -2.502441e-03
1.435094e+07 9.456177e-01 2.628784e-01 -1.779664e-05 4.016794e-06 -1.330208e-05 -6.259419e-06 -1.000977e+00 -3.112793e-03
1.456875e+07 9.451904e-01 2.667847e-01 5.547065e-10 2.722516e-10 -4.137633e-06 -3.310386e-06 -1.001831e+00 -2.807617e-03
1.478656e+07 9.451294e-01 2.700195e-01 -6.094575e-06 -1.330674e-05 -1.569279e-07 3.283378e-06 -1.000427e+00 -4.333496e-03
1.500438e+07 9.449463e-01 2.745361e-01 -7.754192e-06 3.011711e-05 -2.917834e-06 -5.113892e-06 -1.000305e+00 -5.859375e-03
1.522219e+07 9.441528e-01 2.777710e-01 2.936227e-06 -2.194196e-06 8.073170e-06 8.689240e-06 -9.992676e-01 -5.004883e-03
1.544000e+07 9.440308e-01 2.828369e-01 1.252815e-05 1.341477e-05 4.825182e-06 -1.225714e-05 -9.996338e-01 -5.310059e-03
1.565781e+07 9.439087e-01 2.863770e-01 1.035910e-05 -8.158386e-07 -5.132053e-06 1.379987e-06 -9.989014e-01 -5.798340e-03
1.587562e+07 9.429321e-01 2.901611e-01 5.371869e-06 -4.076958e-05 4.807487e-06 -1.458917e-05 -9.984131e-01 -6.286621e-03
1.609344e+07 9.454346e-01 2.947998e-01 -2.421066e-05 -2.678484e-06 -4.449859e-05 1.900643e-05 -9.983521e-01 -1.190186e-02
1.631125e+07 9.442749e-01 2.979126e-01 -5.254522e-06 5.750917e-07 -8.404255e-06 6.245077e-05 -9.966431e-01 -1.214600e-02
1.652906e+07 9.440918e-01 3.001709e-01 -2.514198e-05 1.341477e-05 -2.555549e-05 6.790459e-05 -9.957275e-01 -1.257324e-02
1.674688e+07 9.433594e-01 3.028564e-01 -9.647571e-06 -1.492072e-05 1.338683e-05 -2.828240e-05 -9.950562e-01 -1.287842e-02
1.696469e+07 9.433594e-01 3.067017e-01 -1.524016e-05 5.506352e-05 2.367422e-06 2.575479e-05 -9.947510e-01 -1.287842e-02
1.718250e+07 9.430542e-01 3.098755e-01 -2.846308e-05 8.499250e-06 3.783777e-05 4.079193e-05 -9.940796e-01 -1.391602e-02
1.740031e+07 9.423828e-01 3.121338e-01 -1.471490e-06 -3.729016e-05 5.159527e-07 -2.863631e-05 -9.929810e-01 -1.483154e-02
1.761812e+07 9.415283e-01 3.160400e-01 2.384931e-05 4.553422e-05 -4.316308e-05 7.785857e-06 -9.923706e-01 -1.513672e-02
1.783594e+07 9.411621e-01 3.182983e-01 -2.826564e-05 -1.294166e-05 -1.017004e-06 -2.299435e-05 -9.921875e-01 -1.574707e-02
1.805375e+07 9.404297e-01 3.218384e-01 -1.889654e-05 -2.472475e-05 -1.281127e-05 7.163733e-05 -9.913940e-01 -1.544189e-02
1.827156e+07 9.399414e-01 3.254395e-01 2.056826e-06 -5.608425e-06 5.754177e-06 1.094304e-07 -9.909668e-01 -1.611328e-02
1.848938e+07 9.393921e-01 3.277588e-01 2.923608e-05 -3.293157e-06 -2.571940e-05 -1.199171e-05 -9.903564e-01 -1.794434e-02
1.870719e+07 9.383545e-01 3.306274e-01 -2.803840e-05 1.393072e-05 2.647005e-05 -2.836809e-05 -9.889526e-01 -1.776123e-02
1.892500e+07 9.377441e-01 3.330078e-01 2.782792e-05 7.644296e-06 2.557039e-05 -5.729124e-05 -9.890137e-01 -1.922607e-02
1.914281e+07 9.353027e-01 3.356934e-01 3.101304e-05 -3.590994e-05 -9.657815e-06 -2.615340e-05 -9.881592e-01 -1.947021e-02
1.936062e+07 9.353027e-01 3.393555e-01 4.231930e-06 3.734231e-05 1.643784e-06 -1.154374e-05 -9.874268e-01 -2.087402e-02
1.957844e+07 9.343872e-01 3.418579e-01 -3.192946e-05 5.233288e-05 4.390720e-06 -2.821675e-06 -9.875488e-01 -2.124023e-02
1.979625e+07 9.335327e-01 3.451538e-01 1.337007e-05 -1.528300e-06 1.275446e-05 1.760293e-05 -9.872437e-01 -2.197266e-02
2.001406e+07 9.324341e-01 3.478394e-01 -1.811050e-05 7.508323e-06 1.919270e-05 6.704032e-05 -9.857178e-01 -2.185059e-02
2.023188e+07 9.312134e-01 3.505249e-01 7.819384e-06 2.081320e-05 4.356261e-06 6.752089e-08 -9.854126e-01 -2.355957e-02
2.044969e+07 9.297485e-01 3.534546e-01 -6.176531e-06 -5.362928e-05 3.263354e-06 6.984174e-05 -9.849854e-01 -2.343750e-02
2.066750e+07 9.290771e-01 3.572388e-01 1.094118e-05 -2.302043e-05 2.201647e-05 -1.132302e-05 -9.843140e-01 -2.478027e-02
2.088531e+07 9.281616e-01 3.590088e-01 -4.950911e-06 2.779067e-05 7.205643e-06 5.932990e-06 -9.834595e-01 -2.581787e-02
2.110312e+07 9.264526e-01 3.626709e-01 2.235919e-05 -1.894496e-05 -2.150610e-05 -2.659485e-05 -9.837036e-01 -2.728271e-02
2.132094e+07 9.257812e-01 3.654785e-01 -3.501214e-05 4.049391e-06 -1.603179e-05 -3.150664e-06 -9.833984e-01 -2.703857e-02
2.153875e+07 9.237061e-01 3.684082e-01 -1.246482e-05 -3.683753e-05 1.134351e-06 2.342463e-05 -9.832764e-01 -2.801514e-02
2.175656e+07 9.222412e-01 3.721924e-01 -2.384558e-05 3.013387e-05 4.594214e-06 -1.458544e-05 -9.824829e-01 -2.886963e-02
2.197438e+07 9.207764e-01 3.748169e-01 -1.133606e-05 6.708130e-05 -6.063841e-06 1.458172e-05 -9.820557e-01 -2.966309e-02
2.219219e+07 9.200439e-01 3.779907e-01 4.780013e-06 -6.044284e-06 -2.448633e-05 -3.557652e-05 -9.822388e-01 -3.057861e-02
2.241000e+07 9.179077e-01 3.815308e-01 1.002010e-05 1.529790e-05 3.830716e-05 -8.301809e-06 -9.813232e-01 -3.167725e-02
2.262781e+07 9.162598e-01 3.843994e-01 -7.960945e-06 7.236376e-05 -6.267801e-06 2.934411e-05 -9.805908e-01 -3.204346e-02
2.284562e+07 9.147339e-01 3.876343e-01 2.363697e-05 1.370348e-05 1.836196e-05 -5.571172e-05 -9.805298e-01 -3.228760e-02
2.306344e+07 9.135132e-01 3.900757e-01 3.468059e-05 -9.614974e-06 1.336634e-05 -8.678064e-06 -9.810791e-01 -3.320312e-02
2.328125e+07 9.120483e-01 3.936768e-01 -2.510101e-05 -2.546236e-06 1.612492e-05 9.055249e-06 -9.798584e-01 -3.442383e-02
2.349906e+07 9.103394e-01 3.978882e-01 -1.504831e-05 1.283549e-05 -4.502479e-06 5.853828e-06 -9.808960e-01 -3.485107e-02
2.371688e+07 9.093018e-01 3.999634e-01 -6.902218e-05 4.685298e-05 3.718026e-05 -1.732074e-05 -9.794312e-01 -3.594971e-02
2.393469e+07 9.068604e-01 4.038696e-01 2.997927e-05 -3.587455e-06 -7.223338e-06 -1.488160e-05 -9.794922e-01 -3.656006e-02
2.415250e+07 9.060059e-01 4.071655e-01 9.201467e-07 -3.884733e-05 2.225861e-05 -2.717599e-06 -9.788818e-01 -3.771973e-02
2.437031e+07 9.044800e-01 4.107666e-01 -1.183897e-05 4.021078e-05 3.809668e-05 4.198588e-05 -9.794922e-01 -3.839111e-02
2.458812e+07 9.021606e-01 4.140625e-01 -1.151673e-05 -2.637133e-05 5.919114e-05 1.548976e-05 -9.790649e-01 -3.808594e-02
2.480594e+07 9.018555e-01 4.169922e-01 -5.003437e-05 2.264604e-05 -4.336424e-05 2.628937e-05 -9.786377e-01 -4.003906e-02
2.502375e+07 9.000244e-01 4.202881e-01 1.418218e-05 4.832447e-05 -1.940876e-06 4.757941e-05 -9.785156e-01 -3.997803e-02
2.524156e+07 8.987427e-01 4.241333e-01 -6.239861e-06 1.745392e-05 -3.694929e-05 -2.718717e-05 -9.784546e-01 -4.095459e-02
2.545938e+07 8.963013e-01 4.276733e-01 -3.300793e-05 2.625026e-05 4.380941e-06 8.986797e-06 -9.774780e-01 -4.187012e-02
2.567719e+07 8.949585e-01 4.315186e-01 -2.264045e-05 -2.836809e-06 -2.111122e-05 2.365932e-05 -9.783936e-01 -4.327393e-02
2.589500e+07 8.933105e-01 4.345093e-01 -9.723008e-06 3.465265e-05 -3.401563e-05 -3.316440e-05 -9.776611e-01 -4.364014e-02
2.611281e+07 8.922119e-01 4.381104e-01 3.916211e-05 8.381903e-07 -1.826882e-05 3.867783e-05 -9.769897e-01 -4.504395e-02
2.633062e+07 8.908691e-01 4.411621e-01 -3.350899e-06 -2.753362e-05 -1.532212e-05 4.174374e-05 -9.772949e-01 -4.553223e-02
2.654844e+07 8.893433e-01 4.440308e-01 1.175795e-05 -1.822691e-05 -2.986379e-05 -9.225681e-06 -9.774780e-01 -4.595947e-02
2.676625e+07 8.876953e-01 4.484253e-01 -3.237464e-05 -1.281686e-05 2.861768e-05 -1.775660e-05 -9.772949e-01 -4.681396e-02
2.698406e+07 8.859253e-01 4.520264e-01 -1.177751e-05 1.826324e-05 -9.255484e-06 2.991781e-05 -9.770508e-01 -4.772949e-02
2.720188e+07 8.845215e-01 4.550171e-01 -3.455393e-05 1.546927e-05 1.198146e-05 3.095716e-06 -9.762573e-01 -4.870605e-02
2.741969e+07 8.836060e-01 4.585571e-01 6.859191e-07 5.532056e-06 1.953915e-05 1.462176e-07 -9.768677e-01 -4.791260e-02
2.763750e+07 8.824463e-01 4.611206e-01 -1.528487e-05 5.811080e-05 -1.494214e-05 -1.514424e-05 -9.765625e-01 -4.980469e-02
2.785531e+07 8.806763e-01 4.660034e-01 1.454446e-05 3.811903e-06 2.855994e-05 9.233132e-06 -9.763794e-01 -4.998779e-02
2.807312e+07 8.789062e-01 4.687500e-01 -1.039170e-05 -1.560804e-05 -3.010221e-05 -6.245449e-06 -9.763184e-01 -5.120850e-02
2.829094e+07 8.775024e-01 4.719238e-01 -5.067140e-05 4.580989e-05 3.155880e-05 1.828372e-05 -9.765625e-01 -5.175781e-02
2.850875e+07 8.765869e-01 4.765015e-01 -1.251325e-05 -9.727664e-06 1.080148e-05 -3.317930e-05 -9.769287e-01 -5.218506e-02
2.872656e+07 8.754272e-01 4.798584e-01 -8.311123e-06 6.882101e-05 -2.589263e-05 3.009476e-05 -9.760132e-01 -5.303955e-02
2.894438e+07 8.739014e-01 4.829102e-01 4.031882e-05 -3.903359e-05 -2.436526e-05 2.708845e-05 -9.762573e-01 -5.346680e-02
2.916219e+07 8.729248e-01 4.865112e-01 -3.416091e-06 6.267056e-05 -7.698312e-06 2.117828e-05 -9.756470e-01 -5.444336e-02
2.938000e+07 8.713989e-01 4.907227e-01 -4.329532e-05 -2.853572e-05 8.991919e-06 1.825951e-05 -9.768066e-01 -5.541992e-02
2.959781e+07 8.701172e-01 4.921265e-01 9.804964e-06 5.546212e-05 1.050904e-05 2.736598e-05 -9.757080e-01 -5.621338e-02
2.981562e+07 8.687744e-01 4.971313e-01 -1.467764e-05 -3.812835e-06 -5.647168e-05 4.228204e-05 -9.760742e-01 -5.651855e-02
3.003344e+07 8.685303e-01 5.000610e-01 6.154925e-05 1.487508e-05 1.691282e-06 -3.957376e-05 -9.756470e-01 -5.731201e-02
3.025125e+07 8.654785e-01 5.031128e-01 2.103671e-05 3.143586e-05 -1.847744e-06 6.999075e-05 -9.760132e-01 -5.822754e-02
3.046906e+07 8.651733e-01 5.062256e-01 4.991889e-05 7.902831e-05 1.524296e-05 5.308539e-08 -9.763794e-01 -5.883789e-02
3.068688e+07 8.643188e-01 5.082397e-01 9.896234e-06 3.292412e-05 -2.126582e-05 -3.359839e-05 -9.762573e-01 -5.975342e-02
3.090469e+07 8.619385e-01 5.141602e-01 2.807565e-05 -3.600493e-06 -2.415478e-05 -6.121770e-05 -9.770508e-01 -6.091309e-02
3.112250e+07 8.602905e-01 5.177002e-01 -5.265698e-06 -1.823995e-06 3.800914e-05 -9.531155e-06 -9.761963e-01 -6.256104e-02
3.134031e+07 8.602905e-01 5.197754e-01 1.701154e-05 -2.363883e-05 1.191534e-05 7.105991e-06 -9.767456e-01 -6.286621e-02
3.155812e+07 8.574219e-01 5.242920e-01 4.138425e-05 8.393079e-06 -1.777615e-05 1.219753e-05 -9.765625e-01 -6.396484e-02
3.177594e+07 8.565063e-01 5.270996e-01 5.281065e-06 1.819804e-06 4.990026e-05 -6.698072e-06 -9.764404e-01 -6.463623e-02
3.199375e+07 8.547974e-01 5.310669e-01 4.145876e-05 8.445233e-06 1.850165e-05 1.335703e-05 -9.771729e-01 -6.640625e-02
3.221156e+07 8.527222e-01 5.344849e-01 2.022833e-06 -2.297200e-05 -4.823506e-05 -8.277595e-06 -9.766846e-01 -6.665039e-02
3.242938e+07 8.517456e-01 5.382690e-01 -5.068257e-05 1.796335e-05 2.394803e-05 -2.309121e-05 -9.763794e-01 -6.896973e-02
3.264719e+07 8.498535e-01 5.401611e-01 4.659593e-05 -4.905835e-05 -3.230758e-05 -9.771436e-06 -9.765625e-01 -6.890869e-02
3.286500e+07 8.482056e-01 5.436401e-01 5.084090e-06 1.955125e-05 5.225837e-05 -4.634261e-06 -9.763794e-01 -7.080078e-02
3.308281e+07 8.471069e-01 5.480347e-01 -1.956522e-05 5.089678e-06 -2.064370e-05 -1.120381e-05 -9.766846e-01 -7.135010e-02
3.330062e+07 8.455200e-01 5.512085e-01 7.541850e-06 3.826246e-05 2.423301e-05 -1.459569e-05 -9.770508e-01 -7.226562e-02
3.351844e+07 8.439941e-01 5.542603e-01 -8.772127e-06 -8.984469e-06 4.247203e-05 -1.402758e-05 -9.764404e-01 -7.354736e-02
3.373625e+07 8.424683e-01 5.571289e-01 1.592655e-05 5.517155e-06 2.166163e-05 7.968396e-06 -9.771118e-01 -7.403564e-02
3.395406e+07 8.408813e-01 5.612793e-01 1.195818e-06 4.803762e-05 -1.808628e-05 4.557520e-05 -9.776611e-01 -7.489014e-02
3.417188e+07 8.381958e-01 5.641479e-01 1.085177e-05 -1.411419e-05 -4.126877e-05 -1.820549e-05 -9.776001e-01 -7.604980e-02
3.438969e+07 8.365479e-01 5.676270e-01 1.737289e-05 3.583543e-05 3.723800e-05 2.694502e-05 -9.775391e-01 -7.714844e-02
3.460750e+07 8.353271e-01 5.701904e-01 3.355369e-05 2.360158e-05 1.189765e-05 2.900138e-06 -9.776001e-01 -7.891846e-02
3.482531e+07 8.350830e-01 5.730591e-01 1.792237e-05 5.993992e-05 4.574656e-06 -2.918206e-05 -9.776001e-01 -8.026123e-02
3.504312e+07 8.317261e-01 5.772095e-01 6.938353e-06 1.436472e-05 3.219210e-05 -3.000721e-06 -9.776001e-01 -8.105469e-02
3.526094e+07 8.303833e-01 5.805664e-01 1.540594e-05 -1.854543e-05 -1.446344e-06 -1.396146e-05 -9.777222e-01 -8.123779e-02
3.547875e+07 8.277588e-01 5.831299e-01 2.239831e-05 -4.174188e-06 -6.176531e-06 1.092814e-05 -9.788818e-01 -8.312988e-02
3.569656e+07 8.271484e-01 5.866089e-01 -8.004252e-06 -2.779067e-06 1.381896e-05 -7.905997e-06 -9.780884e-01 -8.294678e-02
3.591438e+07 8.258057e-01 5.886841e-01 -5.574897e-06 1.601689e-05 1.480337e-05 -1.119450e-05 -9.785767e-01 -8.483887e-02
3.613219e+07 8.236084e-01 5.922241e-01 1.417007e-05 1.091883e-05 5.753711e-06 -2.822839e-05 -9.790039e-01 -8.575439e-02
3.635000e+07 8.219604e-01 5.954590e-01 -4.698709e-05 3.160536e-05 -1.240894e-05 2.191588e-05 -9.796753e-01 -8.697510e-02
3.656781e+07 8.199463e-01 5.986938e-01 5.718321e-07 2.420135e-05 -1.141801e-05 1.867488e-05 -9.799194e-01 -8.770752e-02
3.678562e+07 8.189087e-01 6.004639e-01 3.530458e-05 -2.370216e-05 1.538545e-06 -2.385117e-05 -9.792480e-01 -8.953857e-02
3.700344e+07 8.163452e-01 6.043091e-01 -2.486631e-05 4.538894e-05 3.207475e-06 -4.339218e-05 -9.801025e-01 -9.014893e-02
3.722125e+07 8.148804e-01 6.068726e-01 -1.608767e-05 -5.606562e-06 2.241880e-05 -1.249276e-05 -9.810181e-01 -9.051514e-02
3.743906e+07 8.134155e-01 6.092529e-01 4.582480e-05 -2.045184e-06 -5.327631e-06 3.389549e-06 -9.807129e-01 -9.179688e-02
3.765688e+07 8.113403e-01 6.119995e-01 2.788007e-05 -2.313405e-06 -3.421120e-05 1.822785e-05 -9.802246e-01 -9.277344e-02
3.787469e+07 8.097534e-01 6.157227e-01 1.397729e-05 2.896413e-05 -5.229376e-06 7.735565e-06 -9.804077e-01 -9.381104e-02
3.809250e+07 8.065186e-01 6.181641e-01 -9.127427e-06 8.866191e-06 -2.786517e-06 1.851842e-05 -9.810181e-01 -9.460449e-02
3.831031e+07 8.060303e-01 6.210327e-01 3.629178e-05 4.284084e-05 1.381151e-05 -1.230650e-05 -9.819336e-01 -9.588623e-02
3.852812e+07 8.041992e-01 6.238403e-01 -1.532584e-05 6.910414e-07 6.018206e-06 2.267398e-05 -9.820557e-01 -9.564209e-02
3.874594e+07 8.022461e-01 6.262207e-01 -8.130446e-07 -6.321352e-06 -5.306304e-05 8.974224e-06 -9.822388e-01 -9.655762e-02
3.896375e+07 7.999878e-01 6.303101e-01 -1.372676e-05 1.331512e-05 -2.822466e-05 2.887100e-06 -9.821167e-01 -9.814453e-02
3.918156e+07 7.979736e-01 6.322021e-01 -5.196780e-07 3.607385e-05 -3.179722e-05 -9.011477e-06 -9.821777e-01 -9.826660e-02
3.939938e+07 7.955933e-01 6.343994e-01 -4.899502e-05 -4.136190e-05 2.231798e-06 2.121553e-06 -9.823608e-01 -1.001587e-01
3.961719e+07 7.943115e-01 6.373291e-01 -4.158914e-05 -6.295741e-05 -2.122018e-05 -2.018083e-05 -9.840088e-01 -9.997559e-02
3.983500e+07 7.919922e-01 6.411133e-01 2.563000e-05 3.923289e-05 -9.261072e-06 -2.158992e-05 -9.833374e-01 -1.013184e-01
4.005281e+07 7.897339e-01 6.434326e-01 4.209951e-05 2.688542e-05 -3.296882e-06 -4.573911e-05 -9.841919e-01 -1.024170e-01
4.027062e+07 7.882080e-01 6.455688e-01 -4.047528e-06 2.889335e-05 -1.117878e-06 -1.063803e-06 -9.837646e-01 -1.028442e-01
4.048844e+07 7.858887e-01 6.478882e-01 2.349354e-05 2.173707e-06 -1.134165e-05 2.760068e-05 -9.841919e-01 -1.040649e-01
4.070625e+07 7.835693e-01 6.502075e-01 4.190207e-05 -1.565367e-05 1.496822e-05 -5.828217e-05 -9.846802e-01 -1.049805e-01
4.092406e+07 7.814941e-01 6.542358e-01 3.003329e-05 -7.692724e-06 -1.046900e-05 1.994800e-05 -9.855347e-01 -1.051636e-01
4.114188e+07 7.800293e-01 6.555786e-01 -4.469603e-05 1.470372e-05 1.536775e-05 1.807697e-06 -9.857178e-01 -1.066895e-01
4.135969e+07 7.778320e-01 6.586914e-01 1.082849e-05 3.803521e-06 -1.222454e-05 -7.370487e-06 -9.857178e-01 -1.077881e-01
4.157750e+07 7.755127e-01 6.607666e-01 -3.630482e-05 -5.643815e-07 2.019200e-05 1.924206e-05 -9.863892e-01 -1.077881e-01
4.179531e+07 7.739258e-01 6.633301e-01 -5.884469e-05 -1.458451e-05 1.545809e-05 -4.097074e-05 -9.874268e-01 -1.094360e-01
4.201312e+07 7.709961e-01 6.669312e-01 1.404434e-06 -2.998672e-05 -1.929887e-05 -2.698228e-05 -9.872437e-01 -1.100464e-01
4.223094e+07 7.694702e-01 6.685791e-01 -1.609325e-06 -1.276378e-05 -1.579896e-05 2.782978e-05 -9.873657e-01 -1.109619e-01
4.244875e+07 7.670898e-01 6.710205e-01 -3.288686e-05 6.768852e-06 2.368540e-05 -2.034195e-05 -9.884644e-01 -1.111450e-01
4.266656e+07 7.653198e-01 6.735840e-01 2.120622e-05 -1.695752e-05 -1.066364e-05 -3.164448e-05 -9.884644e-01 -1.122437e-01
4.288438e+07 7.623291e-01 6.761475e-01 -3.026798e-07 1.822226e-05 3.620051e-05 -4.149973e-06 -9.890137e-01 -1.132812e-01
4.310219e+07 7.604980e-01 6.779175e-01 -3.423914e-05 -2.428889e-05 1.576357e-05 1.503527e-05 -9.890747e-01 -1.141968e-01
4.332000e+07 7.586670e-01 6.806641e-01 1.632795e-05 5.757436e-06 -1.780502e-05 3.899634e-05 -9.899292e-01 -1.151733e-01
4.353781e+07 7.556152e-01 6.832275e-01 -1.776777e-05 2.436899e-05 -2.053566e-07 -8.812640e-06 -9.908447e-01 -1.156616e-01
4.375562e+07 7.532959e-01 6.858521e-01 1.443084e-05 1.119357e-05 3.025122e-05 -2.717227e-05 -9.906616e-01 -1.154175e-01
4.397344e+07 7.515869e-01 6.881714e-01 1.009554e-05 -2.567656e-06 2.011750e-05 1.056679e-05 -9.909668e-01 -1.166992e-01
4.419125e+07 7.483521e-01 6.889648e-01 -1.090951e-05 -3.854744e-06 3.581680e-05 2.121553e-05 -9.917603e-01 -1.181641e-01
4.440906e+07 7.473755e-01 6.915283e-01 1.379848e-05 -5.650893e-05 1.788978e-05 8.414499e-06 -9.922485e-01 -1.180420e-01
4.462688e+07 7.443848e-01 6.938477e-01 1.783296e-05 -2.442487e-05 -1.057051e-05 2.015010e-05 -9.929199e-01 -1.186523e-01
4.484469e+07 7.418823e-01 6.970215e-01 1.042895e-05 -2.089702e-05 -1.913495e-05 -1.394097e-05 -9.923096e-01 -1.185913e-01
4.506250e+07 7.395020e-01 6.989136e-01 2.409332e-06 1.930445e-05 -3.036670e-05 2.726912e-05 -9.940796e-01 -1.195679e-01
4.528031e+07 7.375488e-01 7.012329e-01 2.769008e-05 -8.674338e-06 -2.905913e-05 -1.040660e-05 -9.941406e-01 -1.209106e-01
4.549812e+07 7.344360e-01 7.033691e-01 5.268306e-05 -1.834705e-05 7.834751e-06 3.144611e-06 -9.949951e-01 -1.213379e-01
4.571594e+07 7.321777e-01 7.062988e-01 -4.096329e-05 2.871454e-05 3.312901e-05 -7.404014e-06 -9.956665e-01 -1.215820e-01
4.593375e+07 7.291260e-01 7.078857e-01 1.677871e-05 -1.256354e-05 -2.939254e-05 -2.374314e-05 -9.952393e-01 -1.222534e-01
4.615156e+07 7.277832e-01 7.100830e-01 -1.016818e-05 2.574176e-06 3.038906e-05 -3.183633e-05 -9.962769e-01 -1.228638e-01
4.636938e+07 7.249756e-01 7.125244e-01 1.772679e-05 3.714673e-05 1.956150e-05 -2.046488e-05 -9.967041e-01 -1.234741e-01
4.658719e+07 7.223511e-01 7.145996e-01 -4.578382e-06 4.781783e-05 2.981722e-05 -1.069717e-05 -9.967651e-01 -1.245117e-01
4.680500e+07 7.192383e-01 7.167358e-01 -3.494509e-05 -6.139278e-06 9.836629e-06 -8.010305e-06 -9.981079e-01 -1.237793e-01
4.702281e+07 7.166138e-01 7.192993e-01 5.157664e-06 2.039783e-05 -4.033186e-05 3.988296e-05 -9.984131e-01 -1.248779e-01
4.724062e+07 7.145386e-01 7.212524e-01 -1.456030e-05 -1.135655e-05 -1.437031e-06 -1.446251e-05 -9.993286e-01 -1.263428e-01
4.745844e+07 7.117310e-01 7.234497e-01 3.186800e-05 2.370402e-05 -5.055219e-06 -2.666935e-05 -9.989014e-01 -1.272583e-01
4.767625e+07 7.096558e-01 7.248535e-01 9.068288e-06 9.413809e-06 -1.442339e-05 3.674068e-06 -1.000000e+00 -1.266479e-01
4.789406e+07 7.060547e-01 7.277832e-01 5.606562e-06 4.542246e-05 -1.151115e-05 -1.538359e-05 -1.000244e+00 -1.271973e-01
4.811188e+07 7.032471e-01 7.299805e-01 2.758019e-05 9.778887e-06 4.219450e-05 -1.209229e-05 -1.001038e+00 -1.276245e-01
4.832969e+07 7.012329e-01 7.312012e-01 -8.791685e-07 -4.998595e-05 -2.980232e-06 -3.347360e-05 -1.000549e+00 -1.283569e-01
4.854750e+07 6.981812e-01 7.344971e-01 -1.461059e-05 -1.138914e-05 -2.379064e-06 -6.664079e-06 -1.001892e+00 -1.286011e-01
4.876531e+07 6.963501e-01 7.363281e-01 -2.523698e-05 9.706244e-06 2.657063e-05 -1.402944e-05 -1.003052e+00 -1.300659e-01
4.898312e+07 6.928711e-01 7.380981e-01 -1.588836e-06 -1.302455e-05 -2.706610e-05 -8.370727e-06 -1.003357e+00 -1.306763e-01
4.920094e+07 6.904297e-01 7.402954e-01 -1.382641e-05 -4.913658e-06 4.186481e-05 -3.456138e-05 -1.003296e+00 -1.305542e-01
4.941875e+07 6.864624e-01 7.416992e-01 1.935847e-05 6.885268e-06 -3.728271e-05 -1.377612e-05 -1.003906e+00 -1.312866e-01
4.963656e+07 6.842041e-01 7.445068e-01 3.509223e-06 -3.614649e-05 -5.606562e-07 -2.691150e-05 -1.004150e+00 -1.314087e-01
4.985438e+07 6.815796e-01 7.465210e-01 -5.165115e-06 -2.057292e-05 -8.974224e-06 -5.258992e-05 -1.005737e+00 -1.319580e-01
5.007219e+07 6.785889e-01 7.477417e-01 2.967566e-05 4.336238e-06 9.075273e-06 4.300848e-06 -1.005432e+00 -1.326904e-01
5.029000e+07 6.754761e-01 7.503052e-01 1.029205e-05 -2.585351e-06 3.492087e-05 -5.019829e-05 -1.006348e+00 -1.326904e-01
5.050781e+07 6.734009e-01 7.517700e-01 1.199543e-06 3.166869e-05 -2.937764e-05 4.672259e-05 -1.006348e+00 -1.333008e-01
5.072562e+07 6.704102e-01 7.540894e-01 3.527850e-05 5.009025e-05 -5.830079e-07 -2.699159e-05 -1.006958e+00 -1.336670e-01
5.094344e+07 6.670532e-01 7.558594e-01 5.309656e-05 1.899898e-07 9.597279e-07 -7.897150e-06 -1.007080e+00 -1.339722e-01
5.116125e+07 6.647949e-01 7.573853e-01 3.490597e-05 2.497807e-05 -7.948838e-06 -3.207475e-06 -1.007812e+00 -1.345215e-01
5.137906e+07 6.616211e-01 7.597046e-01 -1.865532e-05 -3.864989e-07 4.299916e-05 1.038238e-05 -1.008728e+00 -1.343384e-01
5.159688e+07 6.590576e-01 7.609863e-01 4.369766e-06 -2.977811e-05 -1.006667e-05 3.593508e-06 -1.008911e+00 -1.351318e-01
5.181469e+07 6.560059e-01 7.639160e-01 1.310091e-05 -1.588836e-06 2.582371e-05 -6.167218e-06 -1.009094e+00 -1.348877e-01
5.203250e+07 6.519775e-01 7.655029e-01 4.607812e-05 -1.487881e-05 2.111867e-05 -1.508556e-05 -1.009460e+00 -1.358032e-01
5.225031e+07 6.494141e-01 7.675171e-01 1.708791e-05 -1.271721e-05 3.453111e-06 3.316207e-06 -1.010132e+00 -1.357422e-01
5.246812e+07 6.466064e-01 7.691040e-01 -2.425537e-05 -2.399087e-06 -2.513453e-05 -1.528114e-05 -1.010620e+00 -1.362915e-01
5.268594e+07 6.439819e-01 7.717285e-01 1.551956e-05 6.209686e-05 2.392381e-05 9.683892e-06 -1.011597e+00 -1.360474e-01
5.290375e+07 6.403809e-01 7.731323e-01 -2.106465e-05 -2.009049e-05 1.221802e-05 -1.042243e-05 -1.010803e+00 -1.362305e-01
5.312156e+07 6.373901e-01 7.749634e-01 -2.374873e-06 -1.971237e-05 4.234537e-05 -3.024563e-05 -1.012390e+00 -1.367188e-01
5.333938e+07 6.339722e-01 7.766113e-01 -3.741123e-05 -8.512288e-07 2.082065e-05 2.445839e-05 -1.011841e+00 -1.370850e-01
5.355719e+07 6.317139e-01 7.781982e-01 2.349727e-05 -4.170462e-06 3.307872e-05 1.404248e-05 -1.012329e+00 -1.369019e-01
5.377500e+07 6.281738e-01 7.801514e-01 -7.580034e-06 3.577676e-06 -2.963096e-05 -1.071580e-05 -1.013306e+00 -1.373291e-01
5.399281e+07 6.251831e-01 7.823486e-01 6.367452e-06 8.574221e-06 -6.652437e-06 6.925315e-06 -1.013550e+00 -1.375732e-01
5.421062e+07 6.215820e-01 7.839966e-01 -8.371193e-06 -2.998859e-06 2.756715e-06 -3.288873e-05 -1.014038e+00 -1.378784e-01
5.442844e+07 6.188965e-01 7.855835e-01 -2.634339e-05 3.151596e-06 -1.598522e-05 -6.478280e-06 -1.014465e+00 -1.384888e-01
5.464625e+07 6.155396e-01 7.875977e-01 -1.911819e-05 -2.576970e-05 1.671165e-05 -1.505390e-05 -1.014648e+00 -1.386108e-01
5.486406e+07 6.121216e-01 7.894287e-01 3.951043e-05 -4.723668e-06 4.759803e-05 -6.100908e-05 -1.014465e+00 -1.384888e-01
5.508188e+07 6.098022e-01 7.909546e-01 -1.876149e-05 -4.358590e-07 -2.838485e-05 -5.830079e-07 -1.015442e+00 -1.389160e-01
5.529969e+07 6.049805e-01 7.924805e-01 2.141292e-10 4.534400e-10 -4.172325e-07 -2.267025e-05 -1.015503e+00 -1.386108e-01
5.551750e+07 6.035767e-01 7.941895e-01 2.445653e-06 -2.437457e-05 1.665205e-05 -1.962483e-05 -1.016357e+00 -1.392212e-01
5.573531e+07 5.997314e-01 7.961426e-01 8.512288e-06 -4.114956e-05 3.223494e-05 -3.582239e-05 -1.016479e+00 -1.398315e-01
5.595312e+07 5.958252e-01 7.977905e-01 1.903623e-06 3.859960e-05 -1.280103e-05 -1.679733e-05 -1.017029e+00 -1.394043e-01
5.617094e+07 5.928955e-01 7.992554e-01 -2.047420e-05 3.053993e-05 -9.335577e-06 -1.345389e-05 -1.016907e+00 -1.395264e-01
5.638875e+07 5.902710e-01 8.008423e-01 -4.161149e-06 5.541369e-05 -9.607524e-06 -2.708845e-05 -1.017944e+00 -1.396484e-01
5.660656e+07 5.863037e-01 8.029175e-01 -2.126396e-05 2.398342e-05 8.925796e-06 -9.264797e-06 -1.018250e+00 -1.389771e-01
5.682438e+07 5.839844e-01 8.043823e-01 -7.953495e-06 -2.186373e-05 -2.007652e-05 2.086908e-05 -1.018921e+00 -1.395264e-01
5.704219e+07 5.797119e-01 8.063354e-01 4.600734e-07 -1.883321e-05 2.965331e-06 3.862195e-05 -1.018433e+00 -1.403198e-01
5.726000e+07 5.764771e-01 8.074341e-01 1.211651e-05 -3.361702e-05 -1.803879e-05 9.431504e-06 -1.018860e+00 -1.395264e-01
5.747781e+07 5.729370e-01 8.085327e-01 -1.557823e-05 -1.827627e-05 -2.568588e-06 -1.588091e-05 -1.018860e+00 -1.398315e-01
5.769562e+07 5.702515e-01 8.109741e-01 1.682807e-05 6.061047e-06 3.592856e-05 -2.801605e-05 -1.019653e+00 -1.396484e-01
5.791344e+07 5.656738e-01 8.119507e-01 -8.098781e-06 2.243929e-05 -1.184642e-05 3.778003e-05 -1.019531e+00 -1.398926e-01
5.813125e+07 5.627441e-01 8.139038e-01 -1.761969e-05 -1.269951e-05 5.122274e-06 3.180653e-05 -1.019836e+00 -1.397705e-01
5.834906e+07 5.596924e-01 8.157959e-01 2.024695e-06 -5.611684e-06 2.139807e-05 -1.520291e-05 -1.020020e+00 -1.395264e-01
5.856688e+07 5.553589e-01 8.168335e-01 2.340600e-05 -2.964213e-05 2.402626e-05 5.271286e-06 -1.020874e+00 -1.398926e-01
5.878469e+07 5.523682e-01 8.194580e-01 -2.168491e-05 -1.488253e-06 8.047558e-06 3.281515e-06 -1.020142e+00 -1.400146e-01
5.900250e+07 5.494995e-01 8.203735e-01 4.438311e-05 -3.480539e-05 -1.817942e-06 -3.763288e-05 -1.021179e+00 -1.405029e-01
5.922031e+07 5.455322e-01 8.213501e-01 -9.208452e-06 -9.698793e-06 8.206815e-06 1.241732e-05 -1.021362e+00 -1.404419e-01
5.943812e+07 5.427856e-01 8.229980e-01 -2.513453e-05 -5.365908e-05 8.648261e-06 -2.758391e-05 -1.021973e+00 -1.401367e-01
5.965594e+07 5.386963e-01 8.244019e-01 -9.221025e-06 -9.711832e-06 -8.821487e-06 1.844391e-05 -1.022400e+00 -1.403198e-01
5.987375e+07 5.364990e-01 8.262329e-01 -5.323812e-05 6.210059e-06 -1.548231e-05 3.002398e-05 -1.022583e+00 -1.396484e-01
6.009156e+07 5.314331e-01 8.281860e-01 1.457334e-05 -1.383014e-05 6.364658e-06 -2.985448e-05 -1.021973e+00 -1.401367e-01
6.030938e+07 5.286255e-01 8.295898e-01 -2.382137e-05 4.114583e-06 2.374873e-07 1.374353e-05 -1.022705e+00 -1.401367e-01
6.052719e+07 5.254517e-01 8.311768e-01 -2.413616e-05 -2.149493e-05 2.353452e-05 -3.136136e-05 -1.022644e+00 -1.392212e-01
6.074500e+07 5.216675e-01 8.330688e-01 1.050998e-05 -2.572313e-06 2.408400e-06 6.841961e-06 -1.023315e+00 -1.400146e-01
6.096281e+07 5.183716e-01 8.342896e-01 -2.590939e-05 9.793788e-06 -2.334081e-05 -2.254732e-05 -1.024109e+00 -1.389160e-01
6.118062e+07 5.150757e-01 8.369141e-01 1.698267e-05 2.207235e-06 2.246723e-05 3.301352e-05 -1.023071e+00 -1.397095e-01
6.139844e+07 5.119629e-01 8.378906e-01 -2.529845e-05 -1.357123e-05 -2.784841e-05 -2.500974e-05 -1.022705e+00 -1.401367e-01
6.161625e+07 5.080566e-01 8.390503e-01 4.021078e-05 3.363937e-06 -2.699718e-05 1.781434e-05 -1.023315e+00 -1.394653e-01
6.183406e+07 5.043945e-01 8.404541e-01 1.828279e-05 1.732353e-05 5.304813e-06 -5.378202e-05 -1.022583e+00 -1.390991e-01
6.205188e+07 5.008545e-01 8.422241e-01 -1.735147e-05 1.830049e-05 -2.913177e-06 4.500151e-05 -1.023193e+00 -1.397095e-01
6.226969e+07 4.973145e-01 8.437500e-01 -6.444752e-07 4.106760e-05 1.630653e-05 -1.835637e-06 -1.023560e+00 -1.381836e-01
6.248750e+07 4.941406e-01 8.453979e-01 1.638662e-06 -5.402602e-06 2.087560e-05 -6.915070e-06 -1.023804e+00 -1.385498e-01
6.270531e+07 4.906006e-01 8.463135e-01 1.636334e-06 -5.402137e-06 1.902878e-05 -2.323650e-05 -1.023193e+00 -1.380005e-01
6.292312e+07 4.869995e-01 8.480835e-01 -4.732236e-05 3.986061e-07 -2.436340e-05 -3.533438e-06 -1.022888e+00 -1.379395e-01
6.314094e+07 4.836426e-01 8.485107e-01 6.230082e-06 -1.063570e-06 -1.967233e-05 2.508983e-06 -1.024170e+00 -1.383057e-01
6.335875e+07 4.798584e-01 8.507690e-01 1.246482e-05 -2.133660e-06 6.752089e-06 -3.615580e-05 -1.024170e+00 -1.376953e-01
6.357656e+07 4.767456e-01 8.521118e-01 9.190757e-06 8.696225e-06 1.982693e-05 8.609146e-06 -1.025146e+00 -1.372681e-01
6.379438e+07 4.728394e-01 8.528442e-01 3.544800e-05 1.960434e-05 -2.507493e-05 1.054071e-05 -1.024719e+00 -1.372681e-01
6.401219e+07 4.694214e-01 8.546143e-01 -1.543202e-05 -7.630326e-06 -8.668751e-06 -2.616830e-05 -1.024658e+00 -1.367798e-01
6.423000e+07 4.656372e-01 8.560791e-01 -2.036057e-05 8.622184e-06 2.712943e-05 -1.791678e-05 -1.024414e+00 -1.368408e-01
6.444781e+07 4.624634e-01 8.572998e-01 1.841225e-05 1.739804e-05 -3.288873e-05 -7.446855e-06 -1.024719e+00 -1.360474e-01
6.466562e+07 4.581299e-01 8.586426e-01 3.289431e-06 -1.084805e-05 -1.053140e-05 -4.259311e-05 -1.024719e+00 -1.365356e-01
6.488344e+07 4.548340e-01 8.596191e-01 -1.529418e-05 3.091991e-05 -1.882296e-05 1.071393e-05 -1.025085e+00 -1.362305e-01
6.510125e+07 4.510498e-01 8.605957e-01 2.056360e-05 2.992898e-05 -3.878959e-06 -9.008218e-06 -1.024841e+00 -1.359863e-01
6.531906e+07 4.472046e-01 8.626099e-01 -2.958812e-06 -9.785872e-06 -3.412925e-05 -3.011897e-06 -1.024231e+00 -1.361084e-01
6.553688e+07 4.443970e-01 8.632202e-01 -3.425218e-05 -4.442409e-06 -1.815334e-05 -3.372319e-06 -1.024963e+00 -1.355591e-01
6.575469e+07 4.398804e-01 8.653564e-01 1.828931e-05 -2.115220e-05 -1.219800e-06 4.438451e-06 -1.024658e+00 -1.362915e-01
6.597250e+07 4.361572e-01 8.661499e-01 -9.560958e-06 1.194328e-05 3.863126e-05 -1.328625e-05 -1.024719e+00 -1.358032e-01
6.619031e+07 4.331055e-01 8.673706e-01 1.038611e-05 -1.467485e-05 4.580943e-06 -5.112961e-06 -1.025024e+00 -1.349487e-01
6.640812e+07 4.295044e-01 8.693237e-01 1.832098e-05 -2.117269e-05 -2.924353e-06 -3.585219e-05 -1.024353e+00 -1.354370e-01
6.662594e+07 4.250488e-01 8.703003e-01 4.110858e-06 -1.361687e-05 -5.091727e-05 -2.352148e-05 -1.024902e+00 -1.345825e-01
6.684375e+07 4.223022e-01 8.716431e-01 -1.089275e-05 -3.290363e-06 1.088716e-06 -1.564249e-05 -1.024231e+00 -1.341553e-01
6.706156e+07 4.180908e-01 8.721924e-01 -6.271992e-06 1.074281e-06 -9.458512e-06 2.291240e-05 -1.023804e+00 -1.345825e-01
6.727938e+07 4.144897e-01 8.741455e-01 -3.138371e-05 5.371869e-06 -3.387034e-05 -4.502013e-06 -1.024109e+00 -1.340332e-01
6.749719e+07 4.117432e-01 8.754272e-01 -1.256540e-05 2.153218e-06 1.806766e-05 2.729893e-05 -1.025024e+00 -1.339111e-01
6.771500e+07 4.075317e-01 8.759766e-01 3.494322e-06 2.785027e-05 -2.552941e-05 2.333149e-05 -1.024536e+00 -1.329956e-01
6.793281e+07 4.038696e-01 8.771973e-01 1.174491e-05 5.746260e-07 -3.531575e-06 2.458319e-05 -1.024597e+00 -1.336670e-01
6.815062e+07 3.995361e-01 8.782959e-01 -1.110882e-05 -4.209951e-05 4.835427e-06 1.729745e-05 -1.023865e+00 -1.328735e-01
6.836844e+07 3.962402e-01 8.801270e-01 1.144223e-05 2.134219e-05 1.988001e-05 -2.546236e-06 -1.024109e+00 -1.324463e-01
6.858625e+07 3.927612e-01 8.803101e-01 4.004687e-06 4.594028e-05 -1.216307e-05 -2.568588e-05 -1.023499e+00 -1.324463e-01
6.880406e+07 3.886108e-01 8.829956e-01 1.558568e-05 7.679686e-06 -2.034940e-06 7.442199e-06 -1.023804e+00 -1.317749e-01
6.902188e+07 3.854370e-01 8.839111e-01 -3.278255e-07 2.080388e-05 -1.556054e-05 -2.504699e-05 -1.023499e+00 -1.329956e-01
6.923969e+07 3.809204e-01 8.843384e-01 4.959479e-05 -5.923212e-06 -2.881140e-05 1.154840e-07 -1.023560e+00 -1.320801e-01
6.945750e+07 3.772583e-01 8.862305e-01 4.861504e-06 4.329532e-05 8.806121e-06 -8.797273e-06 -1.023438e+00 -1.317139e-01
6.967531e+07 3.729248e-01 8.862305e-01 4.249811e-05 -2.101064e-06 -3.945082e-06 2.611056e-05 -1.023376e+00 -1.321411e-01
6.989312e+07 3.698730e-01 8.878784e-01 -2.555735e-05 2.515875e-05 5.322695e-05 -1.908466e-05 -1.022888e+00 -1.318359e-01
7.011094e+07 3.659668e-01 8.888550e-01 -1.033023e-05 -4.502386e-05 -6.254762e-06 4.633144e-05 -1.022949e+00 -1.315918e-01
7.032875e+07 3.624268e-01 8.906250e-01 -1.819804e-06 -3.349222e-05 5.427282e-06 -8.133240e-06 -1.022644e+00 -1.322021e-01
7.054656e+07 3.581543e-01 8.914795e-01 -1.655892e-06 5.484559e-06 3.824197e-05 8.437783e-07 -1.021790e+00 -1.311646e-01
7.076438e+07 3.543091e-01 8.928223e-01 3.213435e-05 1.266971e-05 -2.293848e-05 1.750886e-06 -1.022461e+00 -1.309814e-01
7.098219e+07 3.507690e-01 8.937988e-01 1.857057e-06 3.351457e-05 4.573539e-05 -5.006790e-05 -1.021362e+00 -1.314697e-01
7.120000e+07 3.475342e-01 8.953857e-01 1.481362e-05 1.047738e-05 3.572740e-05 3.382564e-05 -1.021118e+00 -1.319580e-01
7.141781e+07 3.431396e-01 8.961792e-01 -4.976057e-06 1.647696e-05 -7.330906e-06 -8.425210e-06 -1.020569e+00 -1.306763e-01
7.163562e+07 3.400269e-01 8.977661e-01 1.732539e-05 2.233312e-06 -4.663318e-05 -1.756474e-05 -1.021484e+00 -1.309814e-01
7.185344e+07 3.364868e-01 8.980713e-01 3.768876e-05 1.438707e-05 1.794100e-05 4.892237e-06 -1.021179e+00 -1.303711e-01
7.207125e+07 3.321533e-01 8.993530e-01 -4.829839e-05 6.050617e-05 1.429208e-05 -1.699477e-05 -1.020752e+00 -1.303101e-01
7.228906e+07 3.280640e-01 9.004517e-01 -2.775714e-05 -4.744530e-05 -3.835931e-05 -8.177012e-07 -1.020874e+00 -1.298218e-01
7.250688e+07 3.240967e-01 9.014893e-01 -3.054738e-05 -1.824647e-05 -9.661540e-06 -2.354011e-05 -1.019653e+00 -1.300049e-01
7.272469e+07 3.201904e-01 9.028320e-01 -1.985207e-05 6.033108e-06 -5.724840e-06 2.096035e-05 -1.019409e+00 -1.296387e-01
7.294250e+07 3.163452e-01 9.041138e-01 1.456589e-06 -4.466251e-05 1.321454e-05 -1.221895e-06 -1.019165e+00 -1.298828e-01
7.316031e+07 3.124390e-01 9.049683e-01 3.390945e-05 7.227063e-06 -1.934543e-05 2.370030e-05 -1.018433e+00 -1.297607e-01
7.337812e+07 3.087769e-01 9.053345e-01 1.353677e-05 -4.941598e-06 -7.926673e-05 7.323921e-06 -1.018738e+00 -1.299438e-01
7.359594e+07 3.044434e-01 9.067993e-01 6.349757e-06 -1.094770e-06 -7.902272e-06 -1.826603e-05 -1.018005e+00 -1.295776e-01
7.381375e+07 3.024292e-01 9.082031e-01 3.335066e-06 -1.104735e-05 -2.021994e-05 -8.708797e-06 -1.018127e+00 -1.298828e-01
7.403156e+07 2.969971e-01 9.087524e-01 2.229959e-05 4.589558e-05 -3.997795e-05 -1.897477e-05 -1.017151e+00 -1.292725e-01
7.424938e+07 2.931519e-01 9.098511e-01 -1.875963e-05 -1.773611e-05 -8.195639e-06 3.003329e-05 -1.017212e+00 -1.298828e-01
7.446719e+07 2.893677e-01 9.110718e-01 -2.096407e-05 -3.043935e-05 5.601440e-06 3.142748e-06 -1.016235e+00 -1.293945e-01
7.468500e+07 2.851562e-01 9.122925e-01 -4.167669e-06 1.381803e-05 1.420267e-05 4.263036e-05 -1.015686e+00 -1.293335e-01
7.490281e+07 2.809448e-01 9.121094e-01 -4.424155e-05 -1.333654e-05 1.296960e-05 1.161080e-05 -1.015381e+00 -1.290283e-01
7.512062e+07 2.774048e-01 9.140015e-01 1.078099e-05 2.436154e-05 -1.462828e-05 -5.605631e-06 -1.015198e+00 -1.291504e-01
7.533844e+07 2.733765e-01 9.149170e-01 4.924834e-06 4.376471e-05 -3.011897e-06 -3.637373e-05 -1.015076e+00 -1.294556e-01
7.555625e+07 2.697754e-01 9.165039e-01 1.055002e-05 -1.494214e-05 -1.491979e-05 7.250346e-06 -1.014893e+00 -1.297607e-01
7.577406e+07 2.659302e-01 9.163208e-01 5.653873e-05 -7.160008e-06 4.486367e-05 -1.040846e-05 -1.014404e+00 -1.288452e-01
7.599188e+07 2.617798e-01 9.178467e-01 -3.872905e-06 -7.209368e-06 -2.176221e-05 8.626841e-06 -1.013550e+00 -1.294556e-01
7.620969e+07 2.579956e-01 9.187012e-01 -3.217719e-05 2.659671e-05 -4.516914e-06 1.656730e-05 -1.013123e+00 -1.291504e-01
7.642750e+07 2.552490e-01 9.192505e-01 1.192652e-05 5.625188e-07 -9.005889e-06 3.315136e-05 -1.012878e+00 -1.290283e-01
7.664531e+07 2.497559e-01 9.201660e-01 4.858524e-05 -5.252659e-07 -9.312294e-06 1.041358e-05 -1.012817e+00 -1.290894e-01
7.686312e+07 2.468872e-01 9.210205e-01 3.134273e-05 3.666990e-05 -9.165145e-06 2.179667e-05 -1.011719e+00 -1.289062e-01
7.708094e+07 2.421875e-01 9.221802e-01 -1.957640e-06 2.666004e-05 1.357589e-05 2.151541e-05 -1.011414e+00 -1.286011e-01
7.729875e+07 2.388916e-01 9.238281e-01 -1.469068e-05 -3.171898e-05 -5.358830e-06 -1.605786e-05 -1.011475e+00 -1.297607e-01
7.751656e+07 2.346802e-01 9.243164e-01 1.165085e-05 2.167560e-05 -1.057051e-05 -2.072752e-05 -1.009827e+00 -1.287842e-01
7.773438e+07 2.304688e-01 9.250488e-01 2.002716e-05 -6.092712e-06 1.016352e-05 -1.345202e-05 -1.009766e+00 -1.298828e-01
7.795219e+07 2.265015e-01 9.251099e-01 1.111627e-05 3.351830e-06 3.910996e-05 -6.966293e-07 -1.008850e+00 -1.301270e-01
7.817000e+07 2.233887e-01 9.266968e-01 -5.265698e-06 -2.284534e-05 5.384907e-05 4.921108e-06 -1.009399e+00 -1.301270e-01
7.838781e+07 2.182617e-01 9.268188e-01 -1.532957e-05 1.057051e-05 -1.740083e-05 -5.507469e-05 -1.008484e+00 -1.298828e-01
7.860562e+07 2.149048e-01 9.281616e-01 -3.110617e-07 2.115779e-05 -1.717918e-05 -3.228337e-05 -1.007263e+00 -1.304932e-01
7.882344e+07 2.106934e-01 9.281616e-01 -2.091192e-05 8.901581e-06 2.513081e-05 1.497753e-05 -1.007263e+00 -1.304932e-01
7.904125e+07 2.070312e-01 9.298706e-01 5.101040e-05 1.230091e-05 1.292769e-05 2.682209e-07 -1.006897e+00 -1.304321e-01
7.925906e+07 2.031250e-01 9.308472e-01 -1.504924e-05 -1.060031e-05 1.334120e-05 -1.246110e-06 -1.005920e+00 -1.306763e-01
7.947688e+07 1.983032e-01 9.313354e-01 -2.674572e-05 -3.237650e-05 -2.145395e-05 7.153489e-06 -1.005371e+00 -1.312256e-01
7.969469e+07 1.951904e-01 9.324951e-01 4.047900e-05 2.736226e-05 -3.000721e-06 3.496744e-05 -1.006287e+00 -1.302490e-01
7.991250e+07 1.914673e-01 9.327393e-01 3.153272e-05 3.684498e-05 -2.505630e-05 -3.557652e-06 -1.005005e+00 -1.306152e-01
8.013031e+07 1.875610e-01 9.340820e-01 -3.325008e-05 2.957135e-05 2.051983e-05 -1.557264e-05 -1.004333e+00 -1.314087e-01
8.034812e+07 1.834106e-01 9.342041e-01 1.284294e-05 -2.231449e-06 -5.648471e-06 -3.162306e-06 -1.003479e+00 -1.312866e-01
8.056594e+07 1.794434e-01 9.348755e-01 -5.114824e-05 -1.228601e-05 -2.672337e-05 2.492219e-06 -1.003357e+00 -1.312866e-01
8.078375e+07 1.759644e-01 9.361572e-01 2.709776e-05 1.121312e-05 -3.682636e-05 -8.391216e-06 -1.002869e+00 -1.327515e-01
8.100156e+07 1.717529e-01 9.370728e-01 1.482107e-05 -2.908520e-05 -1.918431e-05 -1.336262e-05 -1.002258e+00 -1.318970e-01
8.121938e+07 1.669312e-01 9.376831e-01 -2.237409e-05 -6.692484e-06 4.676729e-05 7.849187e-06 -1.001587e+00 -1.312866e-01
8.143719e+07 1.640015e-01 9.382935e-01 4.560500e-05 1.066923e-05 -5.517155e-06 8.285046e-06 -1.001343e+00 -1.332397e-01
8.165500e+07 1.596680e-01 9.395142e-01 3.582425e-05 2.295896e-05 -4.009344e-06 -9.252690e-06 -1.000427e+00 -1.323853e-01
8.187281e+07 1.555176e-01 9.390869e-01 4.280731e-05 4.033372e-05 6.116927e-05 -2.088025e-05 -9.995117e-01 -1.328735e-01
8.209062e+07 1.517334e-01 9.403687e-01 -1.343060e-05 -1.625065e-05 5.016476e-05 -4.313886e-06 -9.990234e-01 -1.332397e-01
8.230844e+07 1.478271e-01 9.411621e-01 -1.541525e-05 1.064129e-05 1.451094e-05 -1.729559e-05 -9.987793e-01 -1.333618e-01
8.252625e+07 1.438599e-01 9.415894e-01 8.435920e-06 -2.803095e-05 1.528300e-06 1.839269e-05 -9.985352e-01 -1.342163e-01
8.274406e+07 1.408081e-01 9.423828e-01 -5.637854e-05 4.470348e-06 -2.230704e-05 -1.421012e-05 -9.979858e-01 -1.340942e-01
8.296188e+07 1.358643e-01 9.430542e-01 -9.533949e-06 -8.972827e-06 -3.285706e-06 4.816055e-05 -9.967651e-01 -1.340332e-01
8.317969e+07 1.320190e-01 9.434204e-01 5.909242e-06 -1.964159e-05 -2.282113e-05 1.179241e-05 -9.965820e-01 -1.352539e-01
8.339750e+07 1.276245e-01 9.448242e-01 -1.769420e-05 -2.250075e-06 -1.829211e-05 -4.980713e-06 -9.966431e-01 -1.351929e-01
8.361531e+07 1.240845e-01 9.451294e-01 1.320429e-05 -2.359599e-05 -1.358613e-05 -1.024269e-05 -9.956665e-01 -1.359863e-01
8.383312e+07 1.203003e-01 9.458008e-01 4.503876e-06 2.585165e-05 -1.827069e-05 3.107637e-05 -9.957275e-01 -1.356812e-01
8.405094e+07 1.160889e-01 9.462891e-01 -1.606718e-05 5.340949e-05 1.454633e-05 -1.734402e-05 -9.953613e-01 -1.371460e-01
8.426875e+07 1.129150e-01 9.462280e-01 -4.358590e-05 2.257526e-06 6.931368e-06 -1.397915e-06 -9.943848e-01 -1.364136e-01
8.448656e+07 1.087646e-01 9.465332e-01 -4.246086e-05 -2.194941e-05 -5.536713e-06 8.330680e-06 -9.935913e-01 -1.374512e-01
8.470438e+07 1.046143e-01 9.474487e-01 1.435261e-05 1.351815e-05 4.274026e-05 -2.446584e-05 -9.938354e-01 -1.377563e-01
8.492219e+07 1.006470e-01 9.482422e-01 1.604483e-05 7.879920e-06 -1.943111e-05 1.113396e-05 -9.931030e-01 -1.376953e-01
8.514000e+07 9.667969e-02 9.487305e-01 -3.942475e-05 -1.184642e-05 -1.139566e-05 -6.379560e-06 -9.921875e-01 -1.388550e-01
8.535781e+07 9.289551e-02 9.494019e-01 -1.972541e-05 2.480298e-05 3.219768e-05 -3.394857e-05 -9.921875e-01 -1.383667e-01
8.557562e+07 8.850098e-02 9.494019e-01 -3.070757e-05 1.490116e-08 -2.306513e-05 2.998859e-07 -9.910278e-01 -1.387329e-01
8.579344e+07 8.471680e-02 9.501953e-01 -9.872951e-06 1.240987e-05 -2.557971e-05 9.477139e-06 -9.912109e-01 -1.396484e-01
8.601125e+07 8.135986e-02 9.503174e-01 -5.273148e-05 1.183525e-05 -3.003888e-05 1.715496e-06 -9.897461e-01 -1.400146e-01
8.622906e+07 7.690430e-02 9.516602e-01 -3.019162e-05 1.861155e-05 5.866401e-06 1.474377e-05 -9.895020e-01 -1.405640e-01
8.644688e+07 7.324219e-02 9.523926e-01 -2.821162e-05 -8.450821e-06 -1.631863e-05 -1.264829e-05 -9.884033e-01 -1.406250e-01
8.666469e+07 6.909180e-02 9.527588e-01 -1.965091e-06 -3.442913e-05 1.979060e-06 1.699012e-05 -9.877930e-01 -1.412354e-01
8.688250e+07 6.506348e-02 9.536133e-01 1.102686e-05 2.485514e-05 3.567152e-05 -1.007877e-05 -9.882812e-01 -1.412964e-01
8.710031e+07 6.134033e-02 9.531860e-01 3.475137e-05 7.348135e-06 -1.296401e-06 -3.162213e-05 -9.872437e-01 -1.420288e-01
8.731812e+07 5.670166e-02 9.539185e-01 -2.742931e-05 -1.130253e-05 -1.144130e-05 -6.405637e-06 -9.869995e-01 -1.423340e-01
8.753594e+07 5.279541e-02 9.536133e-01 1.611281e-05 7.909723e-06 -1.242012e-05 -1.489744e-05 -9.860840e-01 -1.427612e-01
8.775375e+07 4.980469e-02 9.544067e-01 -2.743490e-05 -1.130067e-05 2.414361e-05 8.188188e-06 -9.860229e-01 -1.432495e-01
8.797156e+07 4.510498e-02 9.553223e-01 -3.230013e-05 -1.584366e-05 -8.119270e-06 -1.869630e-05 -9.862061e-01 -1.439819e-01
8.818938e+07 4.144287e-02 9.558716e-01 -5.102716e-06 1.700129e-05 -7.816590e-06 4.475471e-06 -9.856567e-01 -1.448364e-01
8.840719e+07 3.784180e-02 9.555054e-01 -2.808124e-05 -3.002211e-05 -1.797453e-05 2.975389e-05 -9.852905e-01 -1.449585e-01
8.862500e+07 3.387451e-02 9.564209e-01 8.517876e-06 3.344752e-05 -9.754673e-06 2.376176e-05 -9.844971e-01 -1.455078e-01
8.884281e+07 3.033447e-02 9.564819e-01 -5.947426e-06 1.984462e-05 3.632903e-05 -6.146729e-08 -9.836426e-01 -1.463013e-01
8.906062e+07 2.551270e-02 9.573975e-01 9.068288e-06 -9.641517e-06 2.659275e-06 2.374989e-06 -9.826050e-01 -1.467285e-01
8.927844e+07 2.209473e-02 9.575195e-01 -2.862886e-06 -3.177300e-05 3.872626e-05 -2.090074e-05 -9.826660e-01 -1.470337e-01
8.949625e+07 1.800537e-02 9.574585e-01 1.192279e-05 2.213381e-05 -1.987629e-05 -1.201220e-05 -9.822998e-01 -1.481934e-01
8.971406e+07 1.452637e-02 9.575806e-01 -2.497062e-05 4.202127e-05 -1.090486e-05 3.648922e-06 -9.816284e-01 -1.482544e-01
8.993188e+07 1.043701e-02 9.581909e-01 1.306925e-05 -2.280809e-06 -3.279001e-05 -2.543814e-05 -9.820557e-01 -1.492920e-01
9.014969e+07 6.103516e-03 9.583130e-01 1.195073e-05 2.216920e-05 2.663769e-05 2.377480e-05 -9.816284e-01 -1.495361e-01
9.036750e+07 2.990723e-03 9.591675e-01 1.731887e-05 4.548579e-05 1.259241e-05 -9.840354e-06 -9.804077e-01 -1.511841e-01
9.058531e+07 -7.934570e-04 9.598389e-01 -1.422502e-05 -3.526174e-05 1.059845e-05 -2.696179e-05 -9.801025e-01 -1.514893e-01
9.080312e+07 -5.126953e-03 9.598999e-01 -3.187917e-05 2.859160e-06 -3.773719e-05 4.697591e-06 -9.804077e-01 -1.514893e-01
9.102094e+07 -8.972168e-03 9.597168e-01 -5.119480e-06 1.707394e-05 -1.201779e-05 -4.136004e-05 -9.792480e-01 -1.520386e-01
9.123875e+07 -1.306152e-02 9.601440e-01 -3.843941e-05 4.000962e-06 -7.340685e-06 -2.188981e-05 -9.790649e-01 -1.531372e-01
9.145656e+07 -1.654053e-02 9.603271e-01 -2.792291e-05 1.025945e-05 4.467741e-05 1.872331e-05 -9.788208e-01 -1.537476e-01
9.167438e+07 -2.038574e-02 9.615479e-01 -3.246963e-05 -1.594238e-05 -7.699244e-06 1.618266e-05 -9.776611e-01 -1.537476e-01
9.189219e+07 -2.459717e-02 9.609985e-01 4.363060e-05 4.100800e-05 -1.163222e-05 1.843460e-05 -9.779663e-01 -1.542358e-01
9.211000e+07 -2.838135e-02 9.609985e-01 1.123175e-06 -2.454408e-05 2.925750e-06 -1.083128e-05 -9.783936e-01 -1.551514e-01
9.232781e+07 -3.186035e-02 9.614868e-01 2.427213e-05 2.281182e-05 6.518885e-05 2.927333e-05 -9.777832e-01 -1.558838e-01
9.254562e+07 -3.564453e-02 9.610596e-01 -2.855062e-05 -8.545816e-06 4.818663e-05 -1.851097e-05 -9.772339e-01 -1.563721e-01
9.276344e+07 -3.991699e-02 9.617310e-01 -4.831702e-06 5.769357e-05 -3.155135e-05 -1.854077e-05 -9.768677e-01 -1.575317e-01
9.298125e+07 -4.394531e-02 9.623413e-01 -1.425855e-05 2.685934e-05 -1.922250e-05 -5.180389e-05 -9.764404e-01 -1.580811e-01
9.319906e+07 -4.718018e-02 9.633789e-01 -2.201460e-05 -9.702519e-06 9.477139e-06 -4.738942e-05 -9.762573e-01 -1.585083e-01
9.341688e+07 -5.169678e-02 9.617310e-01 -3.372878e-05 8.611009e-06 -1.004152e-05 -2.433918e-05 -9.761963e-01 -1.590576e-01
9.363469e+07 -5.541992e-02 9.625854e-01 -5.719718e-06 -1.714099e-06 -5.232543e-05 -1.582503e-05 -9.752808e-01 -1.602173e-01
9.385250e+07 -5.877686e-02 9.619751e-01 -2.745539e-05 2.919324e-05 4.190020e-06 -1.551211e-05 -9.752197e-01 -1.610718e-01
9.407031e+07 -6.237793e-02 9.626465e-01 2.663769e-05 3.604405e-05 6.970018e-06 2.352893e-05 -9.749146e-01 -1.616821e-01
9.428812e+07 -6.689453e-02 9.635010e-01 -1.430325e-05 2.691336e-05 -5.117618e-06 -1.805928e-05 -9.743042e-01 -1.623535e-01
9.450594e+07 -7.067871e-02 9.625854e-01 -5.988404e-07 -1.889933e-05 2.458692e-05 1.997501e-05 -9.738159e-01 -1.621704e-01
9.472375e+07 -7.440186e-02 9.630737e-01 -1.804065e-05 -2.282672e-06 -4.420057e-05 3.058463e-06 -9.733276e-01 -1.633911e-01
9.494156e+07 -7.800293e-02 9.635010e-01 3.160909e-06 1.031533e-05 -2.673641e-05 -1.223385e-05 -9.738159e-01 -1.639404e-01
9.515938e+07 -8.215332e-02 9.633789e-01 2.780370e-05 1.146272e-05 -3.109919e-06 -8.416828e-07 -9.729614e-01 -1.653442e-01
9.537719e+07 -8.569336e-02 9.629517e-01 8.577481e-06 -2.869964e-05 4.363433e-05 -1.323596e-05 -9.735718e-01 -1.654663e-01
9.559500e+07 -8.892822e-02 9.640503e-01 -2.438761e-05 -2.293102e-05 2.828613e-05 -5.733222e-06 -9.721069e-01 -1.666260e-01
9.581281e+07 -9.362793e-02 9.633179e-01 -1.492072e-05 8.046627e-06 1.818687e-05 -3.016554e-05 -9.732666e-01 -1.669312e-01
9.603062e+07 -9.741211e-02 9.628906e-01 2.237409e-05 -1.206808e-05 4.966184e-05 1.724809e-06 -9.720459e-01 -1.679077e-01
9.624844e+07 -1.013794e-01 9.625854e-01 -2.926029e-05 3.503449e-05 8.433126e-07 -3.113644e-06 -9.715576e-01 -1.679688e-01
9.646625e+07 -1.047974e-01 9.631958e-01 2.644956e-07 -2.184138e-05 5.831197e-05 -1.767278e-05 -9.722900e-01 -1.690063e-01
9.668406e+07 -1.087036e-01 9.633789e-01 1.284480e-05 -4.311278e-05 3.834255e-05 -1.806952e-05 -9.712524e-01 -1.689453e-01
9.690188e+07 -1.114502e-01 9.631958e-01 1.785718e-05 2.413057e-05 -1.339056e-05 2.483092e-05 -9.716187e-01 -1.702271e-01
9.711969e+07 -1.154175e-01 9.627075e-01 -3.134646e-05 5.029142e-08 8.413568e-06 -3.118627e-05 -9.712524e-01 -1.705322e-01
9.733750e+07 -1.189575e-01 9.624634e-01 1.322106e-05 -2.318993e-06 -3.616139e-05 -1.477078e-05 -9.703369e-01 -1.712646e-01
9.755531e+07 -1.223755e-01 9.633789e-01 -2.473965e-05 -1.119450e-06 -1.604017e-05 -2.648681e-06 -9.703979e-01 -1.721802e-01
9.777312e+07 -1.262207e-01 9.628296e-01 4.293397e-06 -1.439732e-05 3.165193e-05 6.858259e-06 -9.697876e-01 -1.728516e-01
9.799094e+07 -1.309204e-01 9.628906e-01 -5.211309e-05 6.407499e-06 8.949544e-06 4.095025e-06 -9.699707e-01 -1.738892e-01
9.820875e+07 -1.340942e-01 9.628906e-01 6.040558e-06 -2.017990e-05 -2.196431e-05 1.923367e-05 -9.700317e-01 -1.754150e-01
9.842656e+07 -1.379395e-01 9.612427e-01 1.763925e-05 4.608557e-05 -2.811477e-05 -7.592142e-06 -9.697266e-01 -1.752930e-01
9.864438e+07 -1.416626e-01 9.619141e-01 4.636124e-06 2.652220e-05 -1.468882e-05 2.959557e-05 -9.695435e-01 -1.766357e-01
9.886219e+07 -1.458740e-01 9.617310e-01 3.719702e-06 -3.344938e-05 1.733191e-05 -2.029352e-06 -9.689941e-01 -1.771851e-01
9.908000e+07 -1.485596e-01 9.621582e-01 4.311092e-06 -1.443084e-05 -6.565824e-07 1.493562e-05 -9.692383e-01 -1.777954e-01
9.929781e+07 -1.526489e-01 9.617920e-01 2.851710e-06 -3.059767e-05 8.729286e-06 1.746975e-05 -9.691772e-01 -1.788330e-01
9.951562e+07 -1.564941e-01 9.607544e-01 1.272932e-05 4.157051e-05 1.835823e-05 6.632879e-06 -9.691162e-01 -1.797485e-01
9.973344e+07 -1.591797e-01 9.615479e-01 3.449619e-06 -1.154840e-05 -1.398940e-05 -1.048390e-05 -9.683228e-01 -1.799316e-01
9.995125e+07 -1.641235e-01 9.602051e-01 2.802722e-05 1.152791e-05 -6.441958e-06 -1.350045e-05 -9.689941e-01 -1.806641e-01
1.001691e+08 -1.680908e-01 9.608154e-01 -5.782116e-06 -1.732726e-06 -4.736707e-06 4.245713e-05 -9.694214e-01 -1.821899e-01
1.003869e+08 -1.708984e-01 9.595947e-01 -2.632849e-05 -1.729839e-05 4.851446e-05 -5.435199e-06 -9.689331e-01 -1.822510e-01
1.006047e+08 -1.744995e-01 9.599609e-01 5.169772e-06 -1.734775e-05 1.296587e-05 1.803041e-06 -9.685059e-01 -1.829224e-01
1.008225e+08 -1.787109e-01 9.594116e-01 -3.203377e-05 4.400685e-05 1.828745e-05 -3.039464e-05 -9.688110e-01 -1.840210e-01
1.010403e+08 -1.817627e-01 9.591675e-01 3.325939e-05 -5.835667e-06 2.965331e-06 -1.098029e-05 -9.686279e-01 -1.850586e-01
1.012581e+08 -1.860352e-01 9.588013e-01 -1.477636e-05 -1.386832e-05 -4.123151e-05 -9.441748e-06 -9.682617e-01 -1.851196e-01
1.014759e+08 -1.893311e-01 9.575195e-01 -7.512514e-06 4.063360e-06 -8.563045e-06 -5.674083e-06 -9.675293e-01 -1.856689e-01
1.016938e+08 -1.931763e-01 9.590454e-01 1.615845e-05 -3.299676e-05 8.406118e-06 -6.164424e-06 -9.672241e-01 -1.868286e-01
1.019116e+08 -1.965942e-01 9.567261e-01 -7.296354e-05 -9.201467e-06 1.103245e-05 2.149399e-05 -9.675293e-01 -1.877441e-01
1.021294e+08 -2.001953e-01 9.572144e-01 3.822893e-05 -1.220033e-06 -3.558584e-05 -1.802482e-05 -9.679565e-01 -1.882324e-01
1.023472e+08 -2.037964e-01 9.564819e-01 -4.511699e-05 2.439320e-05 -1.801178e-06 -3.081933e-05 -9.669189e-01 -1.884155e-01
1.025650e+08 -2.075806e-01 9.566040e-01 7.524621e-06 -4.065223e-06 6.286893e-06 1.695938e-06 -9.670410e-01 -1.898193e-01
1.027828e+08 -2.109375e-01 9.568481e-01 4.932750e-06 4.631467e-06 2.780929e-06 -2.288073e-05 -9.677124e-01 -1.906738e-01
1.030006e+08 -2.146606e-01 9.555664e-01 4.330650e-06 -1.448300e-05 4.840782e-06 -5.445909e-06 -9.663696e-01 -1.914062e-01
1.032184e+08 -2.180786e-01 9.545288e-01 4.665926e-06 2.667494e-05 3.356673e-05 6.183982e-07 -9.675903e-01 -1.926880e-01
1.034362e+08 -2.219238e-01 9.547729e-01 -5.860254e-05 -3.644451e-05 -3.274903e-05 -3.764406e-06 -9.669189e-01 -1.929321e-01
1.036541e+08 -2.251587e-01 9.542847e-01 1.342595e-05 6.089360e-05 1.192652e-05 1.840759e-05 -9.672241e-01 -1.940308e-01
1.038719e+08 -2.286377e-01 9.539795e-01 -3.509223e-05 1.166202e-05 1.955591e-05 -9.944662e-06 -9.678955e-01 -1.942139e-01
1.040897e+08 -2.325439e-01 9.523926e-01 3.162213e-05 -4.470348e-08 -1.749210e-05 2.735294e-05 -9.674072e-01 -1.953125e-01
1.043075e+08 -2.365112e-01 9.529419e-01 -3.917143e-05 4.095957e-06 5.513430e-06 -2.048630e-05 -9.672241e-01 -1.962280e-01
1.045253e+08 -2.393188e-01 9.515991e-01 3.250130e-05 -2.948567e-06 -3.203750e-06 2.448447e-05 -9.672241e-01 -1.964722e-01
1.047431e+08 -2.432861e-01 9.508057e-01 -4.786998e-05 3.316998e-05 4.031137e-05 2.604350e-05 -9.675293e-01 -1.972046e-01
1.049609e+08 -2.462158e-01 9.498901e-01 4.082918e-06 7.541385e-06 1.957268e-05 -9.935349e-06 -9.677734e-01 -1.974487e-01
1.051788e+08 -2.495117e-01 9.505005e-01 3.288314e-05 3.828481e-05 1.158752e-05 -5.348586e-06 -9.674072e-01 -1.989746e-01
1.053966e+08 -2.534180e-01 9.496460e-01 6.137416e-07 1.918711e-05 -1.487695e-05 -3.276393e-05 -9.680176e-01 -1.995850e-01
1.056144e+08 -2.567749e-01 9.479980e-01 -4.505739e-05 2.376735e-06 -2.244487e-05 -2.971292e-05 -9.677124e-01 -2.007446e-01
1.058322e+08 -2.607422e-01 9.481812e-01 -2.116337e-05 2.850965e-05 2.421439e-07 -1.347624e-05 -9.672241e-01 -2.008057e-01
1.060500e+08 -2.636108e-01 9.473267e-01 6.339327e-05 -1.043081e-07 2.842396e-06 -4.831329e-05 -9.677124e-01 -2.015991e-01
1.062678e+08 -2.673340e-01 9.466553e-01 6.936491e-06 -2.328679e-05 1.117215e-05 -3.766268e-06 -9.680786e-01 -2.019043e-01
1.064856e+08 -2.708740e-01 9.458008e-01 4.082918e-06 7.556286e-06 2.910197e-05 -7.424504e-06 -9.675903e-01 -2.029419e-01
1.067034e+08 -2.747192e-01 9.452515e-01 -2.603047e-06 8.736737e-06 1.798198e-05 -2.905913e-05 -9.683228e-01 -2.034912e-01
1.069212e+08 -2.780762e-01 9.437256e-01 -1.040660e-05 3.491715e-05 1.645926e-05 -1.081731e-05 -9.672241e-01 -2.044678e-01
1.071391e+08 -2.816162e-01 9.447632e-01 -3.457628e-05 3.089756e-05 3.043376e-05 -1.218170e-05 -9.675903e-01 -2.052002e-01
1.073569e+08 -2.846680e-01 9.433594e-01 -1.513213e-05 8.184463e-06 -4.011905e-06 2.316432e-06 -9.683228e-01 -2.053833e-01
1.075747e+08 -2.885742e-01 9.421997e-01 4.721805e-06 2.679043e-05 3.486872e-05 -4.152581e-05 -9.682617e-01 -2.056274e-01
1.077925e+08 -2.915039e-01 9.418945e-01 6.074086e-06 -2.039969e-05 2.937391e-06 1.436006e-05 -9.675903e-01 -2.066040e-01
1.080103e+08 -2.951050e-01 9.399414e-01 -1.079403e-05 -6.396323e-06 -2.218038e-05 1.947954e-05 -9.686890e-01 -2.077026e-01
1.082281e+08 -2.986450e-01 9.399414e-01 4.093628e-06 7.573050e-06 1.560245e-05 1.775566e-05 -9.688721e-01 -2.081909e-01
1.084459e+08 -3.016968e-01 9.392700e-01 3.473833e-06 -1.167133e-05 5.104765e-05 3.742427e-05 -9.689941e-01 -2.081909e-01
1.086638e+08 -3.064575e-01 9.380493e-01 2.481230e-05 2.330914e-05 2.979301e-06 -1.108460e-05 -9.690552e-01 -2.103882e-01
1.088816e+08 -3.083496e-01 9.379272e-01 1.142733e-05 2.562627e-05 1.078285e-05 -2.208166e-06 -9.686279e-01 -2.097168e-01
1.090994e+08 -3.123169e-01 9.371948e-01 2.422556e-05 4.032627e-06 -3.527850e-06 -5.022809e-05 -9.693604e-01 -2.113647e-01
1.093172e+08 -3.156738e-01 9.353027e-01 1.839269e-05 2.296641e-06 1.456309e-05 9.004027e-06 -9.694214e-01 -2.121582e-01
1.095350e+08 -3.193970e-01 9.346313e-01 3.903732e-05 -4.561618e-05 4.376471e-05 1.579523e-06 -9.696655e-01 -2.127686e-01
1.097528e+08 -3.223267e-01 9.344482e-01 2.537109e-05 -2.106652e-05 -4.641712e-06 -8.049421e-06 -9.698486e-01 -2.135010e-01
1.099706e+08 -3.256226e-01 9.329224e-01 -2.833270e-05 -1.161173e-05 2.858043e-05 -1.783483e-05 -9.694214e-01 -2.136230e-01
1.101884e+08 -3.293457e-01 9.313965e-01 -1.501292e-06 -1.635402e-05 -4.495308e-05 -4.778802e-05 -9.704590e-01 -2.138672e-01
1.104062e+08 -3.320923e-01 9.313354e-01 -8.715317e-06 2.926402e-05 -1.184829e-05 -6.577931e-06 -9.713745e-01 -2.152100e-01
1.106241e+08 -3.356934e-01 9.309692e-01 -5.844049e-06 -1.742505e-06 6.123446e-06 1.525972e-05 -9.697876e-01 -2.153931e-01
1.108419e+08 -3.394775e-01 9.293213e-01 2.275594e-05 -1.234375e-05 4.719943e-05 1.434982e-05 -9.705200e-01 -2.147217e-01
1.110597e+08 -3.420410e-01 9.281616e-01 -2.037920e-05 2.577715e-05 1.205597e-05 1.854170e-05 -9.705811e-01 -2.155151e-01
1.112775e+08 -3.459473e-01 9.273682e-01 -2.861582e-05 1.058169e-05 -4.637986e-05 -1.752749e-05 -9.703369e-01 -2.164917e-01
1.114953e+08 -3.488159e-01 9.252930e-01 4.683062e-05 1.394004e-05 2.245232e-05 -7.595867e-06 -9.710693e-01 -2.173462e-01
1.117131e+08 -3.519897e-01 9.249878e-01 4.268438e-05 6.347895e-06 -7.425435e-06 1.503434e-05 -9.706421e-01 -2.181396e-01
1.119309e+08 -3.560791e-01 9.239502e-01 -1.668744e-05 -8.151866e-06 1.139753e-05 3.371574e-05 -9.710083e-01 -2.185059e-01
1.121488e+08 -3.594971e-01 9.228516e-01 -8.468051e-06 7.036142e-06 -3.245100e-05 6.644055e-06 -9.718018e-01 -2.189331e-01
1.123666e+08 -3.619995e-01 9.219360e-01 -3.899261e-05 -4.030392e-05 1.719967e-05 -2.606586e-05 -9.719238e-01 -2.197876e-01
1.125844e+08 -3.660889e-01 9.208374e-01 -7.362105e-06 -1.814682e-05 4.286692e-05 -7.275492e-06 -9.732056e-01 -2.198486e-01
1.128022e+08 -3.700562e-01 9.193726e-01 -1.407601e-05 -1.695566e-05 -3.737584e-05 1.211837e-05 -9.722900e-01 -2.210693e-01
1.130200e+08 -3.726196e-01 9.186401e-01 -2.694875e-05 4.731119e-06 6.171875e-06 -1.028646e-05 -9.733276e-01 -2.216797e-01
1.132378e+08 -3.752441e-01 9.171753e-01 5.303696e-05 -6.549060e-06 2.506189e-05 -1.715682e-05 -9.736328e-01 -2.220459e-01
1.134556e+08 -3.792725e-01 9.158325e-01 -2.616085e-06 8.795876e-06 -2.803095e-05 2.723187e-06 -9.734497e-01 -2.219849e-01
1.136734e+08 -3.817139e-01 9.152832e-01 -1.847092e-05 -2.301298e-06 2.229773e-05 5.977228e-06 -9.735718e-01 -2.232666e-01
1.138912e+08 -3.853149e-01 9.143066e-01 -2.647564e-05 -3.978610e-05 -6.074458e-05 -2.825260e-05 -9.735107e-01 -2.232666e-01
1.141091e+08 -3.881226e-01 9.126587e-01 -6.984919e-06 2.348423e-05 -6.277114e-07 -1.041312e-05 -9.747314e-01 -2.238159e-01
1.143269e+08 -3.915405e-01 9.102783e-01 -1.459569e-05 2.759136e-05 -1.316145e-05 -1.826324e-06 -9.743042e-01 -2.241821e-01
1.145447e+08 -3.945923e-01 9.103394e-01 -5.619600e-06 -2.404302e-05 1.275074e-05 3.408641e-06 -9.741821e-01 -2.251587e-01
1.147625e+08 -3.973999e-01 9.088135e-01 -2.847053e-05 -1.167133e-05 -3.508292e-05 -9.370968e-06 -9.739990e-01 -2.255249e-01
1.149803e+08 -4.008179e-01 9.078979e-01 3.574975e-05 -3.412925e-05 -1.298729e-05 1.020543e-05 -9.753418e-01 -2.263184e-01
1.151981e+08 -4.037476e-01 9.063721e-01 4.218519e-05 -1.300499e-05 8.927658e-06 1.777243e-05 -9.740601e-01 -2.259521e-01
1.154159e+08 -4.072266e-01 9.049072e-01 -1.484528e-05 4.991889e-05 -1.828931e-05 -3.396161e-05 -9.749756e-01 -2.265015e-01
1.156338e+08 -4.107056e-01 9.039307e-01 -2.458692e-07 2.229959e-05 -3.002957e-05 -5.420297e-05 -9.748535e-01 -2.268066e-01
1.158516e+08 -4.143066e-01 9.022217e-01 2.390146e-05 4.869699e-05 4.095584e-05 -5.065650e-05 -9.757080e-01 -2.271118e-01
1.160694e+08 -4.172363e-01 9.007568e-01 2.416596e-05 2.637692e-05 -4.884787e-06 -2.013333e-05 -9.764404e-01 -2.269287e-01
1.162872e+08 -4.201660e-01 8.994751e-01 -3.966317e-05 4.198402e-06 -2.748705e-05 -1.248159e-05 -9.765625e-01 -2.278442e-01
1.165050e+08 -4.224854e-01 8.983765e-01 -2.266839e-05 -9.952113e-06 -2.600439e-05 -5.215406e-06 -9.774780e-01 -2.283325e-01
1.167228e+08 -4.268799e-01 8.964844e-01 -4.846230e-05 3.363192e-05 2.960116e-05 3.020465e-05 -9.774780e-01 -2.287598e-01
1.169406e+08 -4.296875e-01 8.952026e-01 8.267350e-06 1.529139e-05 -1.045037e-05 6.323680e-07 -9.785156e-01 -2.295532e-01
1.171584e+08 -4.332275e-01 8.931274e-01 -1.593493e-05 -1.116842e-05 -4.875474e-06 -2.015941e-05 -9.788818e-01 -2.299805e-01
1.173762e+08 -4.356689e-01 8.937378e-01 3.261492e-06 1.060590e-05 -3.846362e-06 1.441780e-05 -9.790039e-01 -2.304077e-01
1.175941e+08 -4.386597e-01 8.906860e-01 1.750421e-06 -5.895738e-06 -2.111681e-05 -1.079123e-05 -9.783936e-01 -2.299805e-01
1.178119e+08 -4.415283e-01 8.905029e-01 -1.330487e-05 -2.000853e-05 -7.053837e-06 -1.217518e-05 -9.788208e-01 -2.307739e-01
1.180297e+08 -4.451294e-01 8.881226e-01 -2.972037e-05 1.362525e-05 5.340204e-06 -7.154420e-06 -9.786377e-01 -2.310791e-01
1.182475e+08 -4.476929e-01 8.867798e-01 -2.210028e-05 9.492040e-06 -9.613112e-06 2.317876e-05 -9.796143e-01 -2.315674e-01
1.184653e+08 -4.511108e-01 8.853149e-01 6.784685e-06 -1.196750e-06 -1.922715e-06 -5.663373e-06 -9.801636e-01 -2.320557e-01
1.186831e+08 -4.542236e-01 8.841553e-01 5.136430e-05 2.171472e-05 6.848946e-06 -2.566166e-05 -9.794922e-01 -2.324219e-01
1.189009e+08 -4.568481e-01 8.826904e-01 -1.972727e-05 2.305582e-05 -1.838896e-05 1.743529e-05 -9.799805e-01 -2.327881e-01
1.191188e+08 -4.603271e-01 8.802490e-01 2.802722e-05 -7.754192e-06 3.271922e-05 4.481897e-05 -9.807129e-01 -2.322998e-01
1.193366e+08 -4.636841e-01 8.784790e-01 -2.540275e-05 -1.113862e-06 -2.053939e-05 -3.334135e-07 -9.807129e-01 -2.327881e-01
1.195544e+08 -4.661865e-01 8.768921e-01 -1.110137e-06 2.542511e-05 1.647603e-05 2.678484e-06 -9.816284e-01 -2.331543e-01
1.197722e+08 -4.692383e-01 8.756104e-01 -1.686811e-05 -8.229166e-06 1.134351e-05 2.194755e-05 -9.815063e-01 -2.335205e-01
1.199900e+08 -4.727173e-01 8.749390e-01 -2.216175e-05 9.505078e-06 8.573756e-06 -3.216602e-05 -9.816284e-01 -2.343140e-01
1.202078e+08 -4.759521e-01 8.724976e-01 -8.165836e-06 4.911423e-05 -1.971051e-05 -2.936274e-05 -9.823608e-01 -2.340088e-01
1.204256e+08 -4.790039e-01 8.711548e-01 2.279505e-05 9.989366e-06 7.089227e-06 -3.945455e-05 -9.821167e-01 -2.341309e-01
1.206434e+08 -4.820557e-01 8.685303e-01 -3.929622e-05 2.379715e-05 -1.082197e-06 1.693610e-05 -9.829102e-01 -2.339478e-01
1.208612e+08 -4.852905e-01 8.671265e-01 2.258457e-05 3.251806e-05 4.310161e-05 6.347895e-06 -9.831543e-01 -2.341309e-01
1.210791e+08 -4.884644e-01 8.659668e-01 -1.524575e-05 -3.086403e-06 1.672469e-05 -3.447384e-05 -9.804077e-01 -2.349854e-01
1.212969e+08 -4.906006e-01 8.652344e-01 -4.544482e-05 3.252178e-05 2.793036e-05 -9.719282e-06 -9.821777e-01 -2.341919e-01
1.215147e+08 -4.938354e-01 8.626709e-01 -1.025386e-05 2.093054e-05 -2.373569e-05 2.022274e-05 -9.813843e-01 -2.354736e-01
1.217325e+08 -4.976196e-01 8.609009e-01 -1.473911e-05 -3.036112e-05 -1.920573e-05 3.638677e-05 -9.826660e-01 -2.344360e-01
1.219503e+08 -4.990234e-01 8.590698e-01 2.420507e-05 1.582503e-05 -1.722947e-06 -1.244247e-05 -9.811401e-01 -2.350464e-01
1.221681e+08 -5.026245e-01 8.571777e-01 1.451280e-05 9.496696e-06 1.920015e-05 -1.084618e-05 -9.811401e-01 -2.355347e-01
1.223859e+08 -5.063477e-01 8.556519e-01 1.024082e-05 -2.095103e-05 -1.141708e-05 1.074839e-05 -9.818115e-01 -2.358398e-01
1.226038e+08 -5.092773e-01 8.535156e-01 3.167661e-06 -4.840316e-06 1.539849e-05 3.540702e-05 -9.816284e-01 -2.360229e-01
1.228216e+08 -5.119019e-01 8.519897e-01 -1.752283e-05 1.620781e-05 8.376781e-06 -4.476402e-06 -9.823608e-01 -2.359619e-01
1.230394e+08 -5.150146e-01 8.505249e-01 -1.155585e-05 5.468354e-05 -1.923554e-05 -4.036725e-05 -9.821777e-01 -2.360840e-01
1.232572e+08 -5.188599e-01 8.475952e-01 1.026131e-05 -2.096966e-05 -6.506220e-06 3.255717e-05 -9.826050e-01 -2.365723e-01
1.234750e+08 -5.208130e-01 8.460693e-01 1.771003e-05 4.679896e-06 -1.809094e-05 2.094544e-06 -9.826660e-01 -2.366943e-01
1.236928e+08 -5.237427e-01 8.439941e-01 3.451109e-05 -5.107373e-06 2.301671e-05 -3.152713e-05 -9.829712e-01 -2.365112e-01
1.239106e+08 -5.270386e-01 8.423462e-01 -1.679361e-05 9.766780e-06 -1.581758e-05 1.019519e-05 -9.819336e-01 -2.369995e-01
1.241284e+08 -5.297241e-01 8.399048e-01 2.967753e-05 -8.277595e-06 -3.067404e-05 -2.963282e-05 -9.828491e-01 -2.371826e-01
1.243462e+08 -5.327148e-01 8.372803e-01 -5.115569e-05 3.583357e-05 -1.084059e-05 -4.489720e-05 -9.831543e-01 -2.366333e-01
1.245641e+08 -5.353394e-01 8.356323e-01 -5.770475e-06 -1.765694e-05 9.546056e-06 -3.887713e-05 -9.835205e-01 -2.374878e-01
1.247819e+08 -5.377808e-01 8.339844e-01 -1.473911e-05 -3.045984e-05 -4.003523e-06 5.052891e-06 -9.840698e-01 -2.373047e-01
1.249997e+08 -5.413818e-01 8.313599e-01 -1.699198e-05 -1.113676e-05 -1.870655e-05 3.211759e-05 -9.841919e-01 -2.380371e-01
1.252175e+08 -5.443115e-01 8.300781e-01 -2.877042e-05 2.277084e-05 -3.830530e-06 2.070609e-05 -9.835815e-01 -2.369995e-01
1.254353e+08 -5.465698e-01 8.278198e-01 -3.146380e-05 9.044260e-05 1.792982e-05 -1.773890e-05 -9.843750e-01 -2.377930e-01
1.256531e+08 -5.495605e-01 8.251343e-01 -2.917275e-05 -1.909398e-05 -1.278333e-05 3.908761e-06 -9.843140e-01 -2.382202e-01
1.258709e+08 -5.526733e-01 8.235474e-01 2.260320e-05 7.873401e-06 -1.202524e-05 -1.049880e-05 -9.833984e-01 -2.382812e-01
1.260888e+08 -5.558472e-01 8.211060e-01 -1.214445e-05 -7.964671e-06 -9.346753e-06 -2.243556e-05 -9.840698e-01 -2.389526e-01
1.263066e+08 -5.588989e-01 8.193359e-01 -1.608860e-05 3.337860e-06 1.184084e-05 -5.148351e-06 -9.838867e-01 -2.389526e-01
1.265244e+08 -5.610962e-01 8.166504e-01 2.263114e-05 7.884577e-06 4.394725e-05 -4.561618e-05 -9.843140e-01 -2.387085e-01
1.267422e+08 -5.641479e-01 8.140869e-01 -4.395843e-07 4.840642e-05 -5.367771e-05 -8.180737e-06 -9.849243e-01 -2.388306e-01
1.269600e+08 -5.669556e-01 8.120728e-01 -3.068522e-05 -6.210059e-06 3.403425e-05 -1.229346e-05 -9.841309e-01 -2.387085e-01
1.271778e+08 -5.695801e-01 8.105469e-01 2.035499e-05 2.726726e-05 -3.460050e-05 -9.017065e-06 -9.840698e-01 -2.388306e-01
1.273956e+08 -5.729370e-01 8.073120e-01 1.108088e-05 -2.750196e-05 2.832338e-05 -1.974031e-05 -9.838867e-01 -2.390137e-01
1.276134e+08 -5.748901e-01 8.064575e-01 -5.620532e-06 3.269408e-06 -4.022382e-06 5.067326e-06 -9.839478e-01 -2.390137e-01
1.278312e+08 -5.777588e-01 8.035889e-01 -2.598390e-06 -2.258830e-05 5.830452e-05 2.444908e-05 -9.847412e-01 -2.394409e-01
1.280491e+08 -5.809326e-01 8.007812e-01 9.266660e-07 1.452770e-05 -2.604537e-05 2.787635e-05 -9.848022e-01 -2.386475e-01
1.282669e+08 -5.842896e-01 7.986450e-01 -2.326258e-05 1.954101e-05 -2.238154e-05 -8.555129e-06 -9.840088e-01 -2.392578e-01
1.284847e+08 -5.866089e-01 7.969360e-01 1.232885e-05 2.898648e-05 2.145674e-05 -1.845695e-05 -9.845581e-01 -2.391968e-01
1.287025e+08 -5.894775e-01 7.933960e-01 4.713424e-06 -1.781061e-05 -9.923242e-06 -1.810491e-05 -9.843750e-01 -2.387085e-01
1.289203e+08 -5.919189e-01 7.911987e-01 -1.813099e-05 6.480142e-05 -2.795644e-05 -3.203750e-07 -9.847412e-01 -2.394409e-01
1.291381e+08 -5.950928e-01 7.888794e-01 -1.675077e-05 3.083609e-05 -1.994614e-05 1.528393e-05 -9.842529e-01 -2.395020e-01
1.293559e+08 -5.972290e-01 7.868652e-01 -4.691631e-05 -2.902001e-06 1.724344e-05 -3.329478e-06 -9.839478e-01 -2.392578e-01
1.295738e+08 -6.000977e-01 7.844849e-01 2.681650e-05 1.759455e-05 -4.031230e-06 5.068956e-06 -9.839478e-01 -2.389526e-01
1.297916e+08 -6.025391e-01 7.821655e-01 7.163733e-06 -1.622364e-05 -2.410822e-05 -2.111122e-05 -9.837646e-01 -2.395630e-01
1.300094e+08 -6.051636e-01 7.795410e-01 1.341105e-07 2.102926e-05 -1.509115e-05 -3.000535e-05 -9.835815e-01 -2.401733e-01
1.302272e+08 -6.077881e-01 7.773438e-01 1.128390e-05 -6.562099e-06 1.879036e-05 -6.485730e-06 -9.843140e-01 -2.391357e-01
1.304450e+08 -6.112061e-01 7.751465e-01 9.428710e-06 -3.566779e-05 2.009608e-05 2.622232e-05 -9.835815e-01 -2.385864e-01
1.306628e+08 -6.129761e-01 7.731323e-01 -2.587214e-06 -2.265908e-05 -2.899021e-05 2.423301e-05 -9.840698e-01 -2.396240e-01
1.308806e+08 -6.160889e-01 7.697754e-01 -2.441928e-06 -1.602573e-06 -2.301857e-05 -4.161149e-06 -9.838867e-01 -2.391968e-01
1.310984e+08 -6.189575e-01 7.664795e-01 1.632608e-05 1.770817e-05 1.838617e-05 1.365319e-05 -9.834595e-01 -2.393799e-01
1.313162e+08 -6.216431e-01 7.645264e-01 -4.117377e-06 -9.698793e-06 -2.289750e-05 3.737770e-05 -9.832153e-01 -2.396851e-01
1.315341e+08 -6.242676e-01 7.618408e-01 4.241243e-06 3.074296e-05 1.349859e-05 -3.413297e-05 -9.820557e-01 -2.394409e-01
1.317519e+08 -6.268311e-01 7.606812e-01 1.466554e-05 9.622425e-06 1.729093e-05 -3.341585e-06 -9.832764e-01 -2.386475e-01
1.319697e+08 -6.292725e-01 7.578735e-01 1.605041e-05 -2.442673e-05 -1.499988e-05 1.150370e-05 -9.824829e-01 -2.390747e-01
1.321875e+08 -6.322632e-01 7.551270e-01 3.060326e-06 -2.598204e-05 6.761402e-06 -1.708604e-05 -9.829712e-01 -2.387695e-01
1.324053e+08 -6.340942e-01 7.523804e-01 -3.870204e-05 3.753789e-05 -3.499910e-06 2.649240e-05 -9.822998e-01 -2.398071e-01
1.326231e+08 -6.367188e-01 7.488403e-01 4.115049e-06 9.707641e-06 -8.359551e-06 -4.717335e-05 -9.821167e-01 -2.394409e-01
1.328409e+08 -6.397705e-01 7.470093e-01 3.638305e-05 -1.810677e-05 -7.725321e-06 1.583528e-05 -9.818115e-01 -2.390747e-01
1.330588e+08 -6.418457e-01 7.441406e-01 -4.042313e-05 2.953410e-05 -1.383014e-06 1.892447e-05 -9.826050e-01 -2.396240e-01
1.332766e+08 -6.455078e-01 7.411499e-01 1.055561e-05 -7.264316e-08 -2.928078e-06 2.210587e-05 -9.817505e-01 -2.393188e-01
1.334944e+08 -6.480103e-01 7.388306e-01 -2.649426e-05 4.564971e-05 3.192015e-05 5.356967e-06 -9.812012e-01 -2.391968e-01
1.337122e+08 -6.505737e-01 7.360840e-01 -2.449495e-06 -1.611421e-06 -2.083741e-05 2.986938e-05 -9.819946e-01 -2.401123e-01
1.339300e+08 -6.531982e-01 7.337036e-01 2.588518e-05 -1.803972e-05 -9.811018e-06 -2.426095e-06 -9.805298e-01 -2.391357e-01
1.341478e+08 -6.553345e-01 7.308960e-01 2.254546e-05 -3.428757e-05 -4.468486e-06 2.529286e-05 -9.809570e-01 -2.394409e-01
1.343656e+08 -6.575317e-01 7.278442e-01 -5.805865e-06 -1.785904e-05 1.529232e-05 -4.750118e-05 -9.810181e-01 -2.393799e-01
1.345834e+08 -6.600342e-01 7.257690e-01 4.487112e-05 2.248213e-05 -1.709908e-06 -1.260918e-05 -9.803467e-01 -2.393188e-01
1.348012e+08 -6.632080e-01 7.229004e-01 1.639128e-05 1.778454e-05 3.088824e-05 -3.758818e-05 -9.794922e-01 -2.392578e-01
1.350191e+08 -6.652832e-01 7.202148e-01 3.110245e-05 2.744980e-05 -7.463619e-06 -2.013892e-05 -9.796753e-01 -2.390747e-01
1.352369e+08 -6.677246e-01 7.166138e-01 -1.071207e-05 -2.108142e-05 1.164339e-05 -3.674068e-05 -9.791260e-01 -2.389526e-01
1.354547e+08 -6.696167e-01 7.144775e-01 9.673648e-06 -1.471583e-05 2.837181e-05 -3.567897e-05 -9.790039e-01 -2.391357e-01
1.356725e+08 -6.728516e-01 7.122192e-01 1.858920e-05 -2.292730e-05 -9.987503e-06 -1.824647e-05 -9.792480e-01 -2.392578e-01
1.358903e+08 -6.755371e-01 7.088623e-01 -4.144013e-05 1.492351e-05 8.495059e-06 -4.510395e-06 -9.783325e-01 -2.393188e-01
1.361081e+08 -6.771851e-01 7.058716e-01 -1.520105e-05 3.922544e-05 1.306832e-05 1.187995e-05 -9.786987e-01 -2.382812e-01
1.363259e+08 -6.795044e-01 7.037354e-01 -2.597459e-05 1.808256e-05 1.731329e-05 2.258644e-05 -9.778442e-01 -2.393188e-01
1.365438e+08 -6.828613e-01 7.006836e-01 -8.912757e-06 8.208212e-06 5.093217e-05 -1.125038e-06 -9.771729e-01 -2.388916e-01
1.367616e+08 -6.857300e-01 6.983643e-01 2.700835e-05 1.776777e-05 -3.342517e-05 1.361221e-05 -9.765625e-01 -2.392578e-01
1.369794e+08 -6.876221e-01 6.953735e-01 2.456945e-06 1.616660e-06 -2.085418e-05 4.007481e-06 -9.766846e-01 -2.395020e-01
1.371972e+08 -6.898804e-01 6.923828e-01 1.965649e-05 1.293886e-05 -1.855753e-05 1.221150e-05 -9.761353e-01 -2.395630e-01
1.374150e+08 -6.924438e-01 6.878662e-01 -5.687121e-06 3.298745e-06 -2.881745e-06 -3.773253e-06 -9.758301e-01 -2.388306e-01
1.376328e+08 -6.952515e-01 6.853638e-01 -3.271177e-05 -1.446158e-05 2.278760e-05 -1.473352e-06 -9.747314e-01 -2.388916e-01
1.378506e+08 -6.973267e-01 6.838379e-01 -1.307018e-05 -1.549721e-06 3.677607e-05 -3.012456e-05 -9.753418e-01 -2.391357e-01
1.380684e+08 -6.995850e-01 6.797485e-01 -2.109446e-05 2.133660e-05 -2.581440e-05 -1.813658e-05 -9.740601e-01 -2.396240e-01
1.382862e+08 -7.023315e-01 6.777954e-01 -8.422881e-06 -4.078075e-05 3.108755e-06 -6.368384e-06 -9.741211e-01 -2.391357e-01
1.385041e+08 -7.044678e-01 6.744995e-01 4.919246e-06 3.235415e-06 4.234910e-05 -1.244806e-05 -9.735107e-01 -2.388306e-01
1.387219e+08 -7.073975e-01 6.713257e-01 8.814037e-06 -2.947636e-05 1.681317e-05 1.115724e-06 -9.732666e-01 -2.394409e-01
1.389397e+08 -7.103882e-01 6.683960e-01 1.243316e-05 2.934597e-05 1.823157e-05 -1.792517e-05 -9.727783e-01 -2.391357e-01
1.391575e+08 -7.121582e-01 6.660156e-01 8.383393e-05 -5.766004e-05 2.209097e-05 -1.290254e-05 -9.718018e-01 -2.393799e-01
1.393753e+08 -7.146606e-01 6.627808e-01 -2.463348e-06 -1.621665e-06 6.968156e-06 -1.333188e-06 -9.718628e-01 -2.394409e-01
1.395931e+08 -7.161255e-01 6.593018e-01 1.452304e-05 -3.279746e-05 -4.000589e-05 -5.353242e-06 -9.713745e-01 -2.388916e-01
1.398109e+08 -7.191162e-01 6.566772e-01 -5.149096e-05 8.486211e-06 -8.804724e-06 -2.721511e-05 -9.713745e-01 -2.394409e-01
1.400288e+08 -7.214966e-01 6.530151e-01 -7.383525e-05 -2.742559e-05 5.163997e-05 -4.740059e-05 -9.715576e-01 -2.406616e-01
1.402466e+08 -7.229614e-01 6.506348e-01 8.293428e-06 1.957826e-05 -4.136935e-05 -1.231395e-05 -9.693604e-01 -2.402954e-01
1.404644e+08 -7.257080e-01 6.478882e-01 -2.773851e-05 9.959564e-06 -3.064610e-05 1.743250e-05 -9.679565e-01 -2.404785e-01
1.406822e+08 -7.288208e-01 6.448975e-01 5.817972e-06 1.796428e-05 5.962793e-07 -4.454050e-06 -9.678955e-01 -2.408447e-01
1.409000e+08 -7.312622e-01 6.409912e-01 -2.946332e-05 1.806766e-06 -2.066232e-05 3.575347e-05 -9.683838e-01 -2.404175e-01
1.411178e+08 -7.326660e-01 6.381226e-01 5.817972e-06 1.799408e-05 -1.688302e-05 -4.303642e-05 -9.678345e-01 -2.412109e-01
1.413356e+08 -7.353516e-01 6.353760e-01 3.128126e-05 2.765656e-05 -3.295951e-05 9.192154e-06 -9.669189e-01 -2.401123e-01
1.415534e+08 -7.375488e-01 6.317749e-01 2.287701e-05 -1.322292e-05 -1.661107e-05 -1.129881e-05 -9.666138e-01 -2.413330e-01
1.417712e+08 -7.395630e-01 6.281128e-01 1.727603e-05 1.138728e-05 1.973845e-05 4.916452e-06 -9.664917e-01 -2.414551e-01
1.419891e+08 -7.419434e-01 6.266479e-01 1.335144e-05 4.421547e-05 1.441687e-05 -2.304092e-05 -9.656372e-01 -2.410889e-01
1.422069e+08 -7.447510e-01 6.223145e-01 -1.133233e-05 2.791919e-05 3.396347e-05 -7.916242e-06 -9.641724e-01 -2.412720e-01
1.424247e+08 -7.468872e-01 6.190186e-01 -2.361834e-06 1.969188e-05 1.695007e-06 1.270976e-05 -9.637451e-01 -2.416382e-01
1.426425e+08 -7.495117e-01 6.162720e-01 -2.220832e-05 -1.464784e-05 6.131828e-06 -2.869219e-05 -9.632568e-01 -2.416382e-01
1.428603e+08 -7.510376e-01 6.128540e-01 3.018603e-05 -2.967380e-05 -2.528168e-05 1.928955e-05 -9.625244e-01 -2.418213e-01
1.430781e+08 -7.530518e-01 6.100464e-01 -2.614968e-05 1.818128e-05 3.649667e-05 -9.851530e-06 -9.622803e-01 -2.416382e-01
1.432959e+08 -7.557373e-01 6.068726e-01 -1.223851e-05 1.319312e-05 -3.309548e-05 3.529526e-05 -9.619141e-01 -2.419434e-01
1.435138e+08 -7.586060e-01 6.030884e-01 1.706369e-05 -3.127567e-05 3.580190e-05 -2.129190e-05 -9.612427e-01 -2.415161e-01
1.437316e+08 -7.600098e-01 5.999146e-01 -1.575798e-06 1.314376e-05 -2.164859e-06 7.655472e-06 -9.603882e-01 -2.422485e-01
1.439494e+08 -7.619019e-01 5.972290e-01 5.934387e-06 3.937259e-05 4.093628e-06 -5.131820e-06 -9.594116e-01 -2.424927e-01
1.441672e+08 -7.636719e-01 5.945435e-01 2.471730e-06 1.628185e-06 1.525134e-05 -3.772974e-05 -9.586182e-01 -2.420654e-01
1.443850e+08 -7.665405e-01 5.911255e-01 1.012534e-05 4.922971e-05 -2.767891e-06 1.213234e-05 -9.585571e-01 -2.422485e-01
1.446028e+08 -7.678833e-01 5.875244e-01 4.159287e-06 9.841286e-06 2.860278e-05 3.223494e-05 -9.582520e-01 -2.431641e-01
1.448206e+08 -7.713623e-01 5.833130e-01 4.261732e-06 3.121980e-05 2.836064e-05 4.358590e-07 -9.573975e-01 -2.435913e-01
1.450384e+08 -7.733154e-01 5.816650e-01 2.532266e-05 -3.300048e-05 2.318434e-05 -1.166575e-05 -9.570312e-01 -2.438354e-01
1.452562e+08 -7.748413e-01 5.773926e-01 -2.937764e-05 4.450977e-05 -4.472211e-06 4.144944e-05 -9.558105e-01 -2.441406e-01
1.454741e+08 -7.766724e-01 5.741577e-01 3.046915e-05 1.297891e-05 -1.452863e-06 -2.292916e-05 -9.550781e-01 -2.434692e-01
1.456919e+08 -7.802734e-01 5.707397e-01 -4.071370e-05 7.258728e-05 3.107078e-05 -2.765283e-05 -9.546509e-01 -2.438354e-01
1.459097e+08 -7.813110e-01 5.673218e-01 1.822226e-05 2.623163e-05 1.183059e-05 5.009584e-06 -9.541016e-01 -2.442017e-01
1.461275e+08 -7.833252e-01 5.644531e-01 1.970120e-05 -8.290634e-06 1.702830e-05 -2.500229e-05 -9.523315e-01 -2.457275e-01
1.463453e+08 -7.860718e-01 5.601807e-01 -6.536022e-06 9.913929e-06 -6.264076e-06 -2.930313e-05 -9.534302e-01 -2.448730e-01
1.465631e+08 -7.879028e-01 5.574951e-01 -2.546981e-05 1.164339e-05 2.428889e-05 5.556270e-06 -9.525757e-01 -2.460327e-01
1.467809e+08 -7.897339e-01 5.545044e-01 -7.430557e-06 -4.901085e-06 -2.005603e-05 5.263835e-06 -9.514771e-01 -2.460327e-01
1.469988e+08 -7.920532e-01 5.510864e-01 1.486670e-05 9.806827e-06 -7.137656e-06 -1.462456e-05 -9.509888e-01 -2.463379e-01
1.472166e+08 -7.943726e-01 5.478516e-01 -9.022187e-06 8.274801e-06 2.478063e-05 -1.488626e-05 -9.503174e-01 -2.469482e-01
1.474344e+08 -7.966919e-01 5.432739e-01 -3.380887e-05 -8.093193e-06 2.998300e-05 -2.745539e-06 -9.494019e-01 -2.476196e-01
1.476522e+08 -7.980957e-01 5.404053e-01 -3.549084e-05 -1.632422e-05 1.160055e-05 1.523551e-05 -9.489136e-01 -2.476807e-01
1.478700e+08 -8.002930e-01 5.375977e-01 3.688782e-05 -3.966689e-05 9.553041e-06 -3.262423e-06 -9.472656e-01 -2.483521e-01
1.480878e+08 -8.022461e-01 5.339355e-01 3.143214e-05 2.790801e-05 -1.389347e-05 -2.352148e-05 -9.477539e-01 -2.492676e-01
1.483056e+08 -8.045044e-01 5.307007e-01 -2.053194e-05 1.492165e-05 1.816079e-06 -1.342967e-05 -9.464111e-01 -2.485352e-01
1.485234e+08 -8.054199e-01 5.264282e-01 -2.541766e-05 3.307126e-05 5.196780e-06 1.208205e-05 -9.461670e-01 -2.489624e-01
1.487412e+08 -8.088379e-01 5.235596e-01 -1.078285e-05 -2.137944e-05 4.538894e-05 1.586974e-06 -9.443359e-01 -2.496948e-01
1.489591e+08 -8.097534e-01 5.205688e-01 -1.638196e-05 2.478249e-05 2.262741e-05 3.495812e-05 -9.440918e-01 -2.496948e-01
1.491769e+08 -8.118896e-01 5.166016e-01 -2.787262e-05 3.147684e-05 -6.411225e-06 -3.148802e-06 -9.442749e-01 -2.490845e-01
1.493947e+08 -8.137817e-01 5.139771e-01 1.656730e-05 1.806673e-05 2.625398e-05 8.104369e-06 -9.428101e-01 -2.504883e-01
1.496125e+08 -8.162231e-01 5.101929e-01 -2.641417e-05 -3.190711e-06 -2.384931e-05 1.614727e-05 -9.421997e-01 -2.509155e-01
1.498303e+08 -8.185425e-01 5.062866e-01 2.721325e-05 -3.397465e-06 1.296680e-05 -1.989584e-05 -9.412231e-01 -2.521362e-01
1.500481e+08 -8.205566e-01 5.034790e-01 1.225807e-05 -3.469922e-05 5.946308e-05 -1.035631e-06 -9.407349e-01 -2.526855e-01
1.502659e+08 -8.223877e-01 4.992065e-01 -3.279187e-06 4.959758e-06 2.544839e-06 -1.934357e-06 -9.396362e-01 -2.524414e-01
1.504838e+08 -8.240967e-01 4.954224e-01 -7.934868e-07 6.604474e-06 2.967753e-05 -8.502975e-06 -9.397583e-01 -2.521362e-01
1.507016e+08 -8.258667e-01 4.921265e-01 -3.618561e-05 3.315508e-05 -5.447073e-06 -1.883833e-06 -9.389648e-01 -2.533569e-01
1.509194e+08 -8.282471e-01 4.885864e-01 -5.692244e-06 2.478994e-05 3.661215e-05 -2.583861e-05 -9.385376e-01 -2.538452e-01
1.511372e+08 -8.298340e-01 4.855347e-01 -1.570024e-05 -3.241003e-06 -1.028553e-05 -8.245930e-06 -9.374390e-01 -2.537842e-01
1.513550e+08 -8.320312e-01 4.818115e-01 2.564304e-05 9.821728e-06 -3.564730e-05 2.708100e-05 -9.369507e-01 -2.546997e-01
1.515728e+08 -8.344727e-01 4.788818e-01 -2.547912e-05 3.312714e-05 6.271526e-06 2.940558e-05 -9.359131e-01 -2.551880e-01
1.517906e+08 -8.353271e-01 4.754028e-01 2.485467e-06 1.644017e-06 -5.568378e-06 -1.787487e-05 -9.356689e-01 -2.561035e-01
1.520084e+08 -8.372803e-01 4.716187e-01 -3.364868e-06 -1.650490e-05 -1.635309e-05 -5.650334e-06 -9.343872e-01 -2.560425e-01
1.522262e+08 -8.400879e-01 4.678345e-01 -3.053062e-05 8.361414e-06 4.266016e-05 1.382641e-05 -9.332886e-01 -2.570190e-01
1.524441e+08 -8.416748e-01 4.637451e-01 -3.131665e-05 3.646128e-05 9.052455e-06 1.723412e-05 -9.334106e-01 -2.582397e-01
1.526619e+08 -8.428345e-01 4.606323e-01 -1.396611e-05 2.645515e-05 -1.355354e-05 -1.783948e-05 -9.316406e-01 -2.584839e-01
1.528797e+08 -8.441162e-01 4.573364e-01 -4.372746e-05 2.823025e-05 -1.186784e-05 -5.041249e-06 -9.315186e-01 -2.592163e-01
1.530975e+08 -8.463135e-01 4.532471e-01 -3.471226e-05 -1.508743e-06 1.477264e-05 8.876435e-06 -9.308472e-01 -2.585449e-01
1.533153e+08 -8.482056e-01 4.492188e-01 -9.867363e-06 1.490675e-05 -2.356246e-05 2.188981e-05 -9.298096e-01 -2.602539e-01
1.535331e+08 -8.497314e-01 4.460449e-01 -2.638623e-05 1.824647e-05 -1.763925e-06 -2.880022e-05 -9.287109e-01 -2.605591e-01
1.537509e+08 -8.519897e-01 4.428711e-01 1.578778e-05 2.474524e-05 2.075452e-05 -9.735115e-06 -9.286499e-01 -2.610474e-01
1.539688e+08 -8.530884e-01 4.385986e-01 -3.309548e-05 -1.478754e-05 1.616590e-05 -2.634525e-05 -9.273682e-01 -2.622070e-01
1.541866e+08 -8.555908e-01 4.362183e-01 2.399273e-05 1.590699e-06 -4.270114e-05 -1.384877e-05 -9.276733e-01 -2.626953e-01
1.544044e+08 -8.568726e-01 4.324951e-01 -2.641790e-05 1.828559e-05 -2.657063e-05 2.078712e-06 -9.270630e-01 -2.628174e-01
1.546222e+08 -8.593140e-01 4.287109e-01 -3.150851e-05 -2.804585e-05 1.637358e-05 5.672686e-06 -9.261475e-01 -2.639160e-01
1.548400e+08 -8.602905e-01 4.246216e-01 -1.156423e-05 6.651506e-06 -1.584645e-06 3.211666e-06 -9.251099e-01 -2.645264e-01
1.550578e+08 -8.621216e-01 4.204712e-01 1.082197e-05 2.147816e-05 2.374500e-05 1.013279e-05 -9.244995e-01 -2.649536e-01
1.552756e+08 -8.639526e-01 4.173584e-01 -8.136034e-06 4.470348e-05 1.381990e-05 7.614493e-06 -9.241943e-01 -2.654419e-01
1.554934e+08 -8.658447e-01 4.137573e-01 -5.021691e-06 -2.480485e-05 -4.737079e-05 1.179427e-05 -9.229736e-01 -2.669067e-01
1.557112e+08 -8.674316e-01 4.101562e-01 5.837530e-06 1.818314e-05 4.410744e-06 -7.374212e-05 -9.224854e-01 -2.669067e-01
1.559291e+08 -8.689575e-01 4.064331e-01 9.076670e-06 -8.291099e-06 -4.234351e-05 -8.087605e-06 -9.214478e-01 -2.673340e-01
1.561469e+08 -8.713379e-01 4.028931e-01 9.108335e-07 3.642403e-05 1.558848e-05 -2.188981e-05 -9.215698e-01 -2.683716e-01
1.563647e+08 -8.724976e-01 3.988037e-01 9.145588e-06 1.322199e-05 7.467344e-06 2.046861e-05 -9.212646e-01 -2.684326e-01
1.565825e+08 -8.747559e-01 3.951416e-01 1.676381e-06 8.277129e-06 7.664785e-06 -5.810987e-06 -9.199219e-01 -2.696533e-01
1.568003e+08 -8.763428e-01 3.917236e-01 -3.897958e-05 -3.300607e-05 4.554540e-05 1.691282e-06 -9.186401e-01 -2.703247e-01
1.570181e+08 -8.773193e-01 3.875732e-01 -1.406670e-05 4.998408e-06 2.272241e-05 -7.165596e-06 -9.183350e-01 -2.713623e-01
1.572359e+08 -8.792725e-01 3.842773e-01 -1.991540e-05 -1.321733e-05 2.458692e-05 3.771484e-05 -9.183960e-01 -2.722168e-01
1.574538e+08 -8.804321e-01 3.804321e-01 4.475564e-05 8.203089e-06 -1.753494e-05 1.932774e-05 -9.176025e-01 -2.729492e-01
1.576716e+08 -8.820801e-01 3.775024e-01 -4.927628e-06 1.823995e-05 3.874535e-06 5.108770e-06 -9.171143e-01 -2.731323e-01
1.578894e+08 -8.844604e-01 3.735962e-01 4.217401e-05 -1.500547e-05 -1.542270e-05 -4.419126e-06 -9.157715e-01 -2.734985e-01
1.581072e+08 -8.858032e-01 3.702393e-01 -1.080334e-05 -2.152845e-05 -1.999363e-05 -2.107862e-05 -9.155884e-01 -2.753906e-01
1.583250e+08 -8.876343e-01 3.657227e-01 -1.164712e-05 -1.487229e-05 2.599135e-05 2.447516e-06 -9.149780e-01 -2.749634e-01
1.585428e+08 -8.886719e-01 3.618164e-01 3.475882e-05 -1.993589e-05 2.420135e-05 3.196485e-05 -9.137573e-01 -2.767334e-01
1.587606e+08 -8.909302e-01 3.580322e-01 -1.673587e-06 -8.283183e-06 2.296455e-05 4.097447e-05 -9.134521e-01 -2.772217e-01
1.589784e+08 -8.919678e-01 3.544922e-01 -8.285046e-06 1.669396e-06 -2.274103e-05 7.158145e-06 -9.129028e-01 -2.782593e-01
1.591962e+08 -8.936768e-01 3.505859e-01 -3.350899e-06 -1.656916e-05 -7.679220e-06 5.810987e-06 -9.124756e-01 -2.785034e-01
1.594141e+08 -8.949585e-01 3.468628e-01 8.428469e-07 1.491234e-05 -4.003756e-05 1.621433e-05 -9.113159e-01 -2.800903e-01
1.596319e+08 -8.964233e-01 3.428955e-01 8.940697e-07 3.646500e-05 1.645088e-05 2.174545e-05 -9.110107e-01 -2.800293e-01
1.598497e+08 -8.980103e-01 3.400269e-01 -1.408719e-05 4.995614e-06 -9.808689e-06 2.957322e-05 -9.110107e-01 -2.813721e-01
1.600675e+08 -8.997803e-01 3.350220e-01 -2.650730e-05 1.830049e-05 -3.356114e-05 3.542006e-05 -9.107666e-01 -2.820435e-01
1.602853e+08 -9.007568e-01 3.328857e-01 -2.652034e-05 1.829118e-05 2.558529e-05 -1.938455e-05 -9.101562e-01 -2.834473e-01
1.605031e+08 -9.017334e-01 3.287354e-01 -2.817251e-05 9.994954e-06 3.526919e-06 -6.582122e-07 -9.089355e-01 -2.845459e-01
1.607209e+08 -9.036255e-01 3.239746e-01 -4.176050e-06 -3.150478e-05 -4.461035e-05 -4.656613e-07 -9.083862e-01 -2.853394e-01
1.609388e+08 -9.059448e-01 3.204346e-01 -1.742411e-05 -1.159962e-05 6.976351e-05 1.768023e-05 -9.079590e-01 -2.860718e-01
1.611566e+08 -9.064941e-01 3.162231e-01 -1.077726e-05 8.381903e-09 7.050578e-06 -1.305714e-06 -9.072876e-01 -2.867432e-01
1.613744e+08 -9.085083e-01 3.134766e-01 2.900138e-05 -1.660734e-05 3.036112e-06 -3.855489e-05 -9.063110e-01 -2.877808e-01
1.615922e+08 -9.090576e-01 3.089600e-01 -3.650412e-05 -9.935349e-06 -2.399646e-05 1.613609e-05 -9.061279e-01 -2.888794e-01
1.618100e+08 -9.107666e-01 3.055420e-01 3.281981e-06 -2.655573e-05 -1.536123e-05 1.161918e-05 -9.061890e-01 -2.890015e-01
1.620278e+08 -9.125977e-01 3.017578e-01 -1.664460e-05 -3.983825e-05 -4.904345e-06 -2.247281e-05 -9.055176e-01 -2.906494e-01
1.622456e+08 -9.132690e-01 2.980957e-01 1.491420e-05 -1.163501e-05 -1.474284e-05 7.118098e-06 -9.044189e-01 -2.908325e-01
1.624634e+08 -9.152832e-01 2.947388e-01 2.736971e-05 1.820736e-05 -4.147738e-05 -6.917864e-06 -9.031982e-01 -2.914429e-01
1.626812e+08 -9.168701e-01 2.908325e-01 2.736412e-05 -2.492219e-05 1.088250e-05 -1.224596e-05 -9.036255e-01 -2.927856e-01
1.628991e+08 -9.183350e-01 2.874146e-01 -8.237548e-07 6.639864e-06 2.922490e-05 -3.959984e-06 -9.035034e-01 -2.940674e-01
1.631169e+08 -9.194336e-01 2.827148e-01 2.075918e-05 2.816506e-05 1.375005e-05 -2.444535e-05 -9.022217e-01 -2.943115e-01
1.633347e+08 -9.208984e-01 2.791138e-01 -9.085983e-06 2.988242e-05 1.891144e-05 -1.227856e-05 -9.023438e-01 -2.951050e-01
1.635525e+08 -9.216919e-01 2.747803e-01 -1.328252e-05 -2.322532e-05 1.291931e-05 2.245232e-05 -9.013672e-01 -2.968140e-01
1.637703e+08 -9.232178e-01 2.716064e-01 1.825485e-05 -1.662318e-05 -5.358830e-06 3.022701e-05 -9.017334e-01 -2.974854e-01
1.639881e+08 -9.244995e-01 2.676392e-01 6.055087e-05 -1.003221e-05 1.800526e-05 2.508052e-06 -9.003906e-01 -2.979126e-01
1.642059e+08 -9.249878e-01 2.638550e-01 -3.296882e-06 4.813075e-05 -3.819354e-06 1.093559e-05 -9.000854e-01 -2.991333e-01
1.644238e+08 -9.270630e-01 2.603149e-01 1.495145e-05 3.152713e-05 -3.923662e-06 -2.119504e-05 -8.994141e-01 -3.000488e-01
1.646416e+08 -9.279785e-01 2.565308e-01 -1.908466e-05 2.324581e-05 -2.352148e-05 -2.048537e-05 -8.992310e-01 -3.010864e-01
1.648594e+08 -9.302979e-01 2.529907e-01 -1.992844e-05 -1.327880e-05 2.498738e-05 -3.095530e-05 -8.986206e-01 -3.021851e-01
1.650772e+08 -9.317017e-01 2.493896e-01 -1.159869e-05 2.822652e-05 2.006628e-05 3.723800e-05 -8.983154e-01 -3.026123e-01
1.652950e+08 -9.323730e-01 2.455444e-01 -1.652166e-06 -2.987683e-05 5.587935e-08 1.607649e-05 -8.973999e-01 -3.041992e-01
1.655128e+08 -9.326782e-01 2.415161e-01 -2.075173e-05 1.494773e-05 1.359731e-06 2.312288e-05 -8.978271e-01 -3.049316e-01
1.657306e+08 -9.345703e-01 2.369385e-01 -4.644692e-05 4.813448e-05 -5.813316e-06 -7.700175e-06 -8.964844e-01 -3.057251e-01
1.659484e+08 -9.361572e-01 2.332764e-01 -3.738143e-05 -3.332272e-06 -2.916344e-05 3.607944e-05 -8.970947e-01 -3.070068e-01
1.661662e+08 -9.371338e-01 2.292480e-01 -2.656877e-05 1.826696e-05 3.371388e-07 5.787704e-06 -8.966675e-01 -3.076172e-01
1.663841e+08 -9.376831e-01 2.257080e-01 -3.322400e-05 -1.495890e-05 -4.433468e-05 5.271286e-06 -8.959961e-01 -3.090210e-01
1.666019e+08 -9.392700e-01 2.218628e-01 -4.148111e-06 -9.968877e-06 -1.826137e-05 2.383627e-05 -8.956909e-01 -3.099365e-01
1.668197e+08 -9.404907e-01 2.182007e-01 -8.311123e-06 -1.993217e-05 3.749877e-05 -4.641712e-05 -8.957520e-01 -3.103638e-01
1.670375e+08 -9.415283e-01 2.146606e-01 1.246203e-05 8.299015e-06 5.521812e-06 1.798943e-05 -8.952026e-01 -3.115845e-01
1.672553e+08 -9.431152e-01 2.102051e-01 4.319847e-05 -2.980232e-08 6.069429e-06 -1.867302e-05 -8.949585e-01 -3.125000e-01
1.674731e+08 -9.442139e-01 2.065430e-01 1.495890e-05 9.968877e-06 1.381151e-05 -8.401461e-06 -8.945312e-01 -3.139038e-01
1.676909e+08 -9.452515e-01 2.034912e-01 -1.327693e-05 4.155934e-05 -3.768317e-05 -1.788512e-05 -8.943481e-01 -3.144531e-01
1.679088e+08 -9.462891e-01 1.995239e-01 4.149042e-06 -1.162477e-05 -2.544560e-05 -7.005408e-06 -8.934937e-01 -3.154907e-01
1.681266e+08 -9.473267e-01 1.954346e-01 8.311123e-06 -2.325885e-05 -9.303913e-07 1.480244e-05 -8.934326e-01 -3.168335e-01
1.683444e+08 -9.489136e-01 1.913452e-01 8.358620e-07 -6.646384e-06 -2.894551e-05 9.730458e-06 -8.933105e-01 -3.179932e-01
1.685622e+08 -9.488525e-01 1.867676e-01 -3.243983e-05 2.158619e-05 -3.871042e-06 -5.136477e-06 -8.933716e-01 -3.190918e-01
1.687800e+08 -9.500732e-01 1.838989e-01 5.153194e-05 -1.639128e-06 5.269051e-05 -1.559407e-05 -8.931885e-01 -3.197021e-01
1.689978e+08 -9.514771e-01 1.798706e-01 2.491288e-06 1.663575e-06 6.067567e-06 -1.867674e-05 -8.921509e-01 -3.208008e-01
1.692156e+08 -9.526978e-01 1.758423e-01 -2.159365e-05 -1.490116e-08 1.899805e-05 3.819354e-06 -8.912964e-01 -3.215332e-01
1.694334e+08 -9.530029e-01 1.719360e-01 8.318573e-06 4.159287e-05 1.611002e-05 1.604762e-05 -8.927002e-01 -3.226929e-01
1.696512e+08 -9.545898e-01 1.680298e-01 1.081266e-05 5.587935e-09 3.541820e-05 9.573996e-06 -8.920288e-01 -3.237915e-01
1.698691e+08 -9.560547e-01 1.642456e-01 4.326552e-05 -2.157688e-05 -1.229160e-05 -2.701394e-05 -8.914795e-01 -3.247070e-01
1.700869e+08 -9.566650e-01 1.610107e-01 -4.161149e-06 1.164805e-05 2.385303e-05 1.023896e-05 -8.919678e-01 -3.254395e-01
1.703047e+08 -9.578247e-01 1.558838e-01 2.497993e-05 -2.659857e-05 -9.654555e-06 3.234018e-06 -8.912964e-01 -3.269043e-01
1.705225e+08 -9.582520e-01 1.526489e-01 -2.326816e-05 -8.316711e-06 -2.190471e-05 -7.687137e-06 -8.905640e-01 -3.272095e-01
1.707403e+08 -9.598999e-01 1.482544e-01 -1.080893e-05 2.161041e-05 1.309440e-06 2.319552e-05 -8.905640e-01 -3.282471e-01
1.709581e+08 -9.602661e-01 1.441650e-01 -1.327135e-05 -2.330914e-05 2.884306e-06 -1.223199e-05 -8.903809e-01 -3.300171e-01
1.711759e+08 -9.616699e-01 1.409912e-01 2.508983e-06 -1.995638e-05 -1.098216e-05 -1.995172e-05 -8.898926e-01 -3.305054e-01
1.713938e+08 -9.627686e-01 1.366577e-01 -1.997873e-05 2.992712e-05 2.483465e-05 2.767518e-05 -8.900146e-01 -3.309937e-01
1.716116e+08 -9.628296e-01 1.336060e-01 5.155429e-05 -1.639128e-06 4.519522e-05 7.075816e-05 -8.897705e-01 -3.323975e-01
1.718294e+08 -9.649048e-01 1.293335e-01 -7.482246e-06 -5.000737e-06 -8.714385e-06 -1.159590e-05 -8.898315e-01 -3.334351e-01
1.720472e+08 -9.653320e-01 1.253052e-01 2.830289e-05 -9.950250e-06 -1.068413e-05 -4.637986e-05 -8.895264e-01 -3.347168e-01
1.722650e+08 -9.655151e-01 1.215210e-01 9.126961e-06 1.331698e-05 -8.362811e-06 1.032185e-05 -8.887329e-01 -3.354492e-01
1.724828e+08 -9.666138e-01 1.181030e-01 1.415145e-05 -4.966743e-06 -2.129003e-05 -1.221336e-05 -8.888550e-01 -3.369141e-01
1.727006e+08 -9.675293e-01 1.143188e-01 2.995506e-05 -1.618639e-06 2.226979e-05 2.961420e-05 -8.888550e-01 -3.377075e-01
1.729184e+08 -9.686890e-01 1.107178e-01 -9.199604e-06 2.995133e-05 -7.730909e-06 5.813781e-06 -8.886108e-01 -3.388672e-01
1.731362e+08 -9.691772e-01 1.071777e-01 -5.587935e-08 4.327297e-05 -2.421811e-05 -3.218837e-05 -8.888550e-01 -3.395996e-01
1.733541e+08 -9.699707e-01 1.030884e-01 -8.299947e-06 -1.999363e-05 5.815644e-06 7.726252e-06 -8.892212e-01 -3.400269e-01
1.735719e+08 -9.716797e-01 9.844971e-02 3.746338e-05 3.380701e-06 -3.452227e-05 -8.357689e-06 -8.893433e-01 -3.418579e-01
1.737897e+08 -9.716187e-01 9.503174e-02 -2.082810e-05 1.494214e-05 3.741495e-05 1.221523e-05 -8.883667e-01 -3.424683e-01
1.740075e+08 -9.728394e-01 9.069824e-02 3.831089e-05 -3.298745e-06 1.131929e-05 2.579950e-05 -8.894043e-01 -3.432007e-01
1.742253e+08 -9.729614e-01 8.728027e-02 2.495199e-05 1.669861e-05 1.804996e-05 2.559274e-06 -8.886719e-01 -3.448486e-01
1.744431e+08 -9.739380e-01 8.288574e-02 -5.001947e-05 9.905547e-06 -5.158409e-05 2.259761e-05 -8.892212e-01 -3.457031e-01
1.746609e+08 -9.746094e-01 7.971191e-02 3.080815e-05 1.337379e-05 2.291426e-05 2.514757e-05 -8.884277e-01 -3.469238e-01
1.748788e+08 -9.751587e-01 7.580566e-02 -3.497116e-05 -2.340227e-05 2.266373e-06 8.383300e-06 -8.890381e-01 -3.479614e-01
1.750966e+08 -9.761353e-01 7.153320e-02 -2.083555e-05 -6.705523e-06 1.225527e-05 -2.130028e-05 -8.890381e-01 -3.489990e-01
1.753144e+08 -9.771729e-01 6.866455e-02 1.920760e-05 -2.329797e-05 8.046627e-06 -1.615752e-05 -8.881226e-01 -3.497925e-01
1.755322e+08 -9.779663e-01 6.402588e-02 1.502689e-05 -1.165178e-05 -4.202127e-06 -1.097377e-05 -8.892822e-01 -3.508301e-01
1.757500e+08 -9.783936e-01 6.018066e-02 -2.000667e-05 8.290634e-06 2.034009e-05 1.096539e-05 -8.885498e-01 -3.515625e-01
1.759678e+08 -9.792480e-01 5.560303e-02 -2.916530e-05 -5.066395e-06 1.452398e-05 -1.291465e-05 -8.887329e-01 -3.525391e-01
1.761856e+08 -9.793091e-01 5.249023e-02 -1.164153e-05 -1.502782e-05 4.100427e-05 2.771616e-05 -8.890381e-01 -3.532104e-01
1.764034e+08 -9.814453e-01 4.913330e-02 -1.334306e-05 -1.699664e-06 2.486445e-05 -2.069585e-05 -8.893433e-01 -3.546753e-01
1.766212e+08 -9.804688e-01 4.516602e-02 -1.749955e-05 -1.170952e-05 1.485832e-05 9.034760e-06 -8.890381e-01 -3.552856e-01
1.768391e+08 -9.817505e-01 4.052734e-02 4.144385e-06 1.001358e-05 -2.099667e-05 9.698793e-06 -8.881226e-01 -3.564453e-01
1.770569e+08 -9.821167e-01 3.723145e-02 5.797483e-06 1.835916e-05 -3.360584e-05 -2.324581e-05 -8.884888e-01 -3.572998e-01
1.772747e+08 -9.824219e-01 3.436279e-02 1.590326e-05 -1.831912e-05 -1.782924e-05 -4.521385e-05 -8.890381e-01 -3.585205e-01
1.774925e+08 -9.836426e-01 3.002930e-02 9.948388e-06 2.839230e-05 2.872199e-06 -4.461035e-05 -8.892212e-01 -3.589478e-01
1.777103e+08 -9.840698e-01 2.648926e-02 -3.353227e-06 5.000737e-06 2.229959e-05 -2.592802e-06 -8.895874e-01 -3.605347e-01
1.779281e+08 -9.840698e-01 2.239990e-02 1.339801e-05 -2.000853e-05 4.167482e-05 -9.069219e-06 -8.893433e-01 -3.607788e-01
1.781459e+08 -9.846191e-01 1.739502e-02 -5.638693e-06 3.044028e-06 2.438203e-05 -2.781115e-05 -8.890381e-01 -3.621826e-01
1.783638e+08 -9.854736e-01 1.507568e-02 -2.865866e-05 -3.407337e-05 3.654324e-05 1.353398e-05 -8.905029e-01 -3.627930e-01
1.785816e+08 -9.858398e-01 1.062012e-02 2.811849e-05 5.472824e-05 4.267134e-05 -4.079379e-05 -8.894653e-01 -3.638306e-01
1.787994e+08 -9.863892e-01 7.385254e-03 -2.443790e-05 -1.010112e-05 1.110788e-05 -1.875125e-05 -8.905640e-01 -3.643188e-01
1.790172e+08 -9.866333e-01 2.929688e-03 -5.263090e-05 -2.986193e-05 3.585406e-05 -2.799556e-06 -8.906860e-01 -3.653564e-01
1.792350e+08 -9.869385e-01 -4.882812e-04 5.153008e-06 1.762249e-05 1.879409e-05 -8.629635e-06 -8.904419e-01 -3.664551e-01
1.794528e+08 -9.874878e-01 -4.333496e-03 -1.455657e-05 -2.420135e-05 1.801550e-05 1.449417e-05 -8.905029e-01 -3.666992e-01
1.796706e+08 -9.877319e-01 -7.751465e-03 1.551397e-05 -1.715031e-05 1.969375e-05 1.977105e-05 -8.908081e-01 -3.677979e-01
1.798884e+08 -9.883423e-01 -1.116943e-02 1.363456e-05 -4.463829e-06 -4.071929e-05 1.869164e-05 -8.914795e-01 -3.684082e-01
1.801062e+08 -9.885254e-01 -1.617432e-02 2.350309e-06 1.648208e-06 2.725050e-05 -2.159365e-05 -8.916626e-01 -3.698730e-01
1.803241e+08 -9.896240e-01 -2.020264e-02 3.822148e-06 -6.044284e-05 1.669303e-05 5.304441e-05 -8.922119e-01 -3.706665e-01
1.805419e+08 -9.893799e-01 -2.325439e-02 -3.332086e-05 -3.745407e-05 1.279358e-05 -1.345109e-05 -8.911743e-01 -3.721313e-01
1.807597e+08 -9.900513e-01 -2.752686e-02 2.807006e-06 1.599267e-05 1.361407e-05 -3.656559e-05 -8.914795e-01 -3.720703e-01
1.809775e+08 -9.901123e-01 -3.216553e-02 4.699919e-06 3.301306e-06 -8.266419e-06 2.501719e-05 -8.917847e-01 -3.736572e-01
1.811953e+08 -9.909668e-01 -3.527832e-02 -1.175515e-05 -8.244067e-06 -2.510101e-05 1.147948e-05 -8.920288e-01 -3.737183e-01
1.814131e+08 -9.917603e-01 -3.875732e-02 2.260879e-05 -1.219846e-05 1.696311e-05 -2.598763e-05 -8.920898e-01 -3.753052e-01
1.816309e+08 -9.918213e-01 -4.266357e-02 1.740642e-05 5.201437e-06 3.873557e-05 2.329051e-05 -8.923950e-01 -3.758545e-01
1.818488e+08 -9.909668e-01 -4.602051e-02 1.558289e-05 -5.222857e-05 -4.148483e-05 -4.929677e-05 -8.930664e-01 -3.767700e-01
1.820666e+08 -9.926147e-01 -4.998779e-02 6.547198e-06 2.567470e-05 4.008412e-06 2.703071e-05 -8.931885e-01 -3.781738e-01
1.822844e+08 -9.924927e-01 -5.328369e-02 1.791213e-05 -1.552142e-05 -9.289011e-06 3.614277e-05 -8.937988e-01 -3.785400e-01
1.825022e+08 -9.933472e-01 -5.725098e-02 -1.510605e-05 3.154576e-05 2.232008e-05 -3.757514e-05 -8.939209e-01 -3.791504e-01
1.827200e+08 -9.923706e-01 -6.066895e-02 9.089708e-07 2.873875e-05 1.282524e-05 -1.346134e-05 -8.942261e-01 -3.800659e-01
1.829378e+08 -9.931641e-01 -6.500244e-02 1.733750e-05 7.541478e-05 -1.003966e-06 1.109764e-05 -8.945312e-01 -3.807983e-01
1.831556e+08 -9.932251e-01 -6.835938e-02 -2.168678e-05 5.859882e-06 2.560206e-05 -7.152557e-06 -8.948975e-01 -3.820190e-01
1.833734e+08 -9.942627e-01 -7.232666e-02 -2.499670e-05 1.057610e-05 2.589636e-05 -1.487695e-05 -8.954468e-01 -3.824463e-01
1.835912e+08 -9.937134e-01 -7.598877e-02 1.404434e-06 8.020550e-06 1.718570e-05 -1.393352e-05 -8.959961e-01 -3.836060e-01
1.838091e+08 -9.942017e-01 -7.879639e-02 7.551163e-06 -1.578871e-05 2.614036e-05 -2.262928e-05 -8.957520e-01 -3.834229e-01
1.840269e+08 -9.937134e-01 -8.245850e-02 -1.562014e-05 5.232543e-05 -6.695278e-06 -2.125558e-05 -8.960571e-01 -3.843994e-01
1.842447e+08 -9.947510e-01 -8.758545e-02 1.653843e-05 -2.354570e-05 1.853798e-05 1.891330e-05 -8.964844e-01 -3.849487e-01
1.844625e+08 -9.954224e-01 -8.996582e-02 -4.764274e-05 -1.236796e-05 9.173993e-06 3.409572e-06 -8.970337e-01 -3.864746e-01
1.846803e+08 -9.952393e-01 -9.405518e-02 2.687424e-05 1.185015e-05 -9.381212e-06 -1.549069e-05 -8.973999e-01 -3.871460e-01
1.848981e+08 -9.956055e-01 -9.741211e-02 2.545305e-05 3.825873e-06 -8.089468e-06 3.718771e-05 -8.966675e-01 -3.873901e-01
1.851159e+08 -9.960327e-01 -1.015015e-01 8.978881e-06 -7.768627e-06 -8.038245e-06 1.737848e-05 -8.975830e-01 -3.883057e-01
1.853338e+08 -9.956055e-01 -1.048584e-01 5.805120e-05 1.263246e-05 -4.087575e-06 -7.265247e-06 -8.986206e-01 -3.892822e-01
1.855516e+08 -9.959106e-01 -1.087646e-01 -3.755558e-06 -9.683892e-06 -1.761969e-05 -1.021195e-05 -8.982544e-01 -3.895874e-01
1.857694e+08 -9.962158e-01 -1.130981e-01 -7.823110e-08 3.516115e-05 3.886037e-05 2.337061e-05 -8.980713e-01 -3.906860e-01
1.859872e+08 -9.957886e-01 -1.165161e-01 2.212450e-05 4.373118e-05 -2.457574e-05 -2.379529e-05 -8.991089e-01 -3.911743e-01
1.862050e+08 -9.957886e-01 -1.206665e-01 -6.470829e-06 -6.090850e-05 -5.095033e-06 3.849855e-06 -8.987427e-01 -3.919678e-01
1.864228e+08 -9.966431e-01 -1.236572e-01 -9.883195e-06 -2.104789e-05 4.144199e-05 -1.437962e-05 -8.997803e-01 -3.925781e-01
1.866406e+08 -9.960327e-01 -1.270142e-01 2.506748e-05 -1.056865e-05 2.949312e-05 7.862225e-06 -8.998413e-01 -3.934326e-01
1.868584e+08 -9.956055e-01 -1.305542e-01 -1.563318e-05 1.721829e-05 -1.273118e-05 -2.617016e-05 -9.006958e-01 -3.936157e-01
1.870762e+08 -9.963379e-01 -1.353760e-01 5.684327e-06 -3.062189e-06 -4.000962e-05 -4.424900e-05 -9.014893e-01 -3.947754e-01
1.872941e+08 -9.961548e-01 -1.380615e-01 -2.647005e-05 2.568588e-06 -7.323921e-06 1.401920e-05 -9.011230e-01 -3.940430e-01
1.875119e+08 -9.964600e-01 -1.414185e-01 8.003786e-06 3.381446e-05 -2.961233e-05 1.200475e-05 -9.019775e-01 -3.951416e-01
1.877297e+08 -9.950562e-01 -1.455688e-01 -2.648495e-05 2.546236e-06 3.619352e-06 2.920395e-06 -9.020386e-01 -3.964233e-01
1.879475e+08 -9.959717e-01 -1.482544e-01 -1.410395e-05 -4.521385e-05 2.375804e-05 -4.770234e-06 -9.027710e-01 -3.973389e-01
1.881653e+08 -9.959106e-01 -1.530762e-01 -1.794286e-05 -1.966581e-05 -4.462898e-06 2.033729e-05 -9.030151e-01 -3.972778e-01
1.883831e+08 -9.959106e-01 -1.569214e-01 -9.606592e-07 6.382354e-06 -1.923088e-05 1.640711e-05 -9.031982e-01 -3.979492e-01
1.886009e+08 -9.953613e-01 -1.604614e-01 2.171658e-05 2.937391e-05 3.410317e-05 1.954660e-05 -9.039917e-01 -3.980713e-01
1.888188e+08 -9.953003e-01 -1.639404e-01 -1.232605e-05 1.251232e-05 -2.220273e-05 2.997741e-05 -9.041138e-01 -3.988037e-01
1.890366e+08 -9.951172e-01 -1.669922e-01 1.137331e-05 -6.128103e-06 3.465824e-05 4.021451e-06 -9.046631e-01 -3.997192e-01
1.892544e+08 -9.952393e-01 -1.709595e-01 -1.137890e-05 6.120652e-06 5.500391e-06 2.040062e-05 -9.046631e-01 -4.008179e-01
1.894722e+08 -9.949341e-01 -1.740723e-01 2.038479e-05 -1.391955e-05 2.936833e-05 -4.254282e-06 -9.051514e-01 -4.006958e-01
1.896900e+08 -9.948730e-01 -1.773682e-01 -1.998059e-05 2.834015e-05 5.377457e-06 -1.163036e-05 -9.051514e-01 -4.020386e-01
1.899078e+08 -9.938354e-01 -1.813965e-01 -4.731584e-06 -3.324822e-06 -1.290999e-05 1.352932e-05 -9.066772e-01 -4.013062e-01
1.901256e+08 -9.938965e-01 -1.846313e-01 -2.844073e-05 1.533702e-05 8.185394e-06 1.458637e-05 -9.064331e-01 -4.014282e-01
1.903434e+08 -9.933472e-01 -1.892700e-01 2.084300e-05 5.047768e-07 -5.941838e-06 -2.477132e-05 -9.070435e-01 -4.019165e-01
1.905612e+08 -9.937134e-01 -1.918945e-01 3.241003e-06 3.055669e-05 -1.888722e-05 -1.124758e-05 -9.070435e-01 -4.031372e-01
1.907791e+08 -9.932861e-01 -1.945801e-01 1.401640e-06 8.061528e-06 4.300848e-06 1.942925e-05 -9.079590e-01 -4.036865e-01
1.909969e+08 -9.932861e-01 -1.989136e-01 -1.274049e-05 -3.723614e-05 1.721922e-05 5.902722e-06 -9.080200e-01 -4.034424e-01
1.912147e+08 -9.934692e-01 -2.027588e-01 4.406273e-05 2.689660e-06 -1.666136e-05 3.054738e-05 -9.079590e-01 -4.041138e-01
1.914325e+08 -9.924927e-01 -2.055054e-01 -2.850406e-05 1.533888e-05 -5.732849e-05 1.709908e-06 -9.088745e-01 -4.053955e-01
1.916503e+08 -9.924927e-01 -2.089233e-01 9.465031e-06 6.663613e-06 8.083880e-06 -1.746230e-05 -9.084473e-01 -4.058838e-01
1.918681e+08 -9.915771e-01 -2.135010e-01 1.183338e-05 8.323230e-06 -4.953146e-05 -7.975847e-06 -9.089966e-01 -4.053955e-01
1.920859e+08 -9.910889e-01 -2.167358e-01 2.440065e-06 -3.367476e-05 1.164060e-05 5.397014e-06 -9.100952e-01 -4.053955e-01
1.923038e+08 -9.915161e-01 -2.208252e-01 2.841279e-05 2.002157e-05 -3.167661e-06 1.444947e-06 -9.104614e-01 -4.067993e-01
1.925216e+08 -9.902954e-01 -2.238770e-01 -1.712143e-05 9.206124e-06 3.907830e-06 -4.844973e-06 -9.109497e-01 -4.071655e-01
1.927394e+08 -9.897461e-01 -2.273560e-01 -2.131052e-05 -1.503527e-05 -3.315322e-05 2.124533e-05 -9.110107e-01 -4.081421e-01
1.929572e+08 -9.898071e-01 -2.301636e-01 -2.475083e-05 2.508424e-05 2.985820e-05 -5.193427e-05 -9.110718e-01 -4.075317e-01
1.931750e+08 -9.882812e-01 -2.333984e-01 -2.380274e-05 1.868233e-05 4.846370e-06 3.905967e-06 -9.119263e-01 -4.083252e-01
1.933928e+08 -9.882202e-01 -2.373047e-01 -5.275942e-06 1.756940e-05 2.023578e-05 4.434586e-05 -9.132690e-01 -4.088745e-01
1.936106e+08 -9.886475e-01 -2.409668e-01 -8.262694e-06 7.223710e-05 -7.086433e-06 6.297603e-06 -9.134521e-01 -4.091187e-01
1.938284e+08 -9.873047e-01 -2.453613e-01 1.722947e-05 -4.461780e-05 -2.789125e-05 2.955459e-05 -9.131470e-01 -4.097900e-01
1.940462e+08 -9.869995e-01 -2.476196e-01 1.610070e-05 3.259256e-05 -3.311224e-05 1.305714e-06 -9.142456e-01 -4.089355e-01
1.942641e+08 -9.856567e-01 -2.522583e-01 2.187304e-05 -5.882233e-06 -1.671538e-05 3.057159e-05 -9.141846e-01 -4.096680e-01
1.944819e+08 -9.854126e-01 -2.551880e-01 2.803281e-06 1.616310e-05 -6.612390e-07 3.553741e-05 -9.141846e-01 -4.099731e-01
1.946997e+08 -9.851074e-01 -2.586060e-01 -2.479553e-05 2.515316e-05 -1.427159e-05 -1.955219e-05 -9.153442e-01 -4.107666e-01
1.949175e+08 -9.846191e-01 -2.619019e-01 -7.121824e-06 -5.013309e-06 -8.402392e-06 2.529100e-05 -9.156494e-01 -4.109497e-01
1.951353e+08 -9.841919e-01 -2.652588e-01 6.224960e-06 -2.400577e-05 -3.052130e-05 1.545809e-05 -9.160156e-01 -4.101562e-01
1.953531e+08 -9.837646e-01 -2.686157e-01 -1.099519e-05 2.066791e-05 -5.035661e-06 -1.610443e-05 -9.161377e-01 -4.114990e-01
1.955709e+08 -9.828491e-01 -2.719116e-01 -4.422665e-05 -2.700835e-06 6.468594e-05 -2.793223e-05 -9.163818e-01 -4.108276e-01
1.957888e+08 -9.817505e-01 -2.761230e-01 6.809831e-06 -4.493818e-05 -1.680199e-05 -1.545995e-06 -9.164429e-01 -4.122314e-01
1.960066e+08 -9.812012e-01 -2.801514e-01 -3.712066e-05 2.264977e-06 2.362393e-05 3.062189e-06 -9.171143e-01 -4.116211e-01
1.962244e+08 -9.806519e-01 -2.833862e-01 -1.674704e-05 2.374873e-05 -2.316386e-05 1.342967e-06 -9.171143e-01 -4.125366e-01
1.964422e+08 -9.798584e-01 -2.862549e-01 2.021343e-05 -6.399676e-05 -1.677778e-06 -5.372101e-06 -9.176636e-01 -4.130249e-01
1.966600e+08 -9.799805e-01 -2.901001e-01 -5.181879e-06 -1.787487e-05 -2.075545e-05 3.312714e-06 -9.176025e-01 -4.129639e-01
1.968778e+08 -9.784546e-01 -2.923584e-01 -8.415431e-06 -4.860759e-05 3.089197e-06 1.854263e-05 -9.180908e-01 -4.132080e-01
1.970956e+08 -9.775391e-01 -2.962646e-01 2.376153e-06 1.674984e-06 2.344511e-05 -9.158626e-06 -9.183350e-01 -4.135132e-01
1.973134e+08 -9.776611e-01 -2.998657e-01 -2.570078e-05 -3.879890e-06 -8.041505e-06 -2.481043e-06 -9.184570e-01 -4.127197e-01
1.975312e+08 -9.758911e-01 -3.029785e-01 -2.087280e-05 -3.601797e-05 -2.708286e-06 5.841721e-06 -9.191284e-01 -4.130249e-01
1.977491e+08 -9.750366e-01 -3.069458e-01 5.291775e-05 -1.962855e-05 1.143664e-05 -3.897399e-05 -9.191284e-01 -4.130859e-01
1.979669e+08 -9.744873e-01 -3.103638e-01 8.102506e-06 -1.402106e-06 1.308136e-05 1.861434e-05 -9.190063e-01 -4.141846e-01
1.981847e+08 -9.734497e-01 -3.128662e-01 5.730893e-06 -3.079884e-06 3.992952e-05 2.019852e-05 -9.197388e-01 -4.143066e-01
1.984025e+08 -9.727173e-01 -3.159790e-01 2.487935e-05 -2.519973e-05 -8.940697e-08 2.001505e-05 -9.203491e-01 -4.145508e-01
1.986203e+08 -9.721680e-01 -3.193970e-01 -2.769753e-05 8.985400e-06 3.160723e-05 -2.672896e-05 -9.212646e-01 -4.140625e-01
1.988381e+08 -9.699707e-01 -3.227539e-01 3.783964e-06 9.788200e-06 -3.270805e-06 -3.078021e-05 -9.207764e-01 -4.147339e-01
1.990559e+08 -9.692993e-01 -3.269043e-01 2.195314e-05 -5.912036e-06 -5.730428e-06 1.951121e-05 -9.216919e-01 -4.147339e-01
1.992738e+08 -9.683228e-01 -3.286743e-01 -3.354857e-06 4.758826e-06 -8.344650e-07 2.344325e-05 -9.213867e-01 -4.157715e-01
1.994916e+08 -9.674072e-01 -3.330078e-01 3.032386e-06 -5.486608e-05 3.380142e-05 -1.691841e-05 -9.219971e-01 -4.157104e-01
1.997094e+08 -9.660645e-01 -3.367310e-01 -6.170012e-06 -1.147110e-05 -2.526306e-05 -2.847053e-05 -9.221191e-01 -4.154663e-01
1.999272e+08 -9.649658e-01 -3.402100e-01 4.535913e-05 -3.684312e-06 1.477636e-05 2.402812e-05 -9.227905e-01 -4.154053e-01
2.001450e+08 -9.647827e-01 -3.433838e-01 8.568168e-07 2.910569e-05 7.590745e-06 -1.918990e-06 -9.223022e-01 -4.153442e-01
2.003628e+08 -9.629517e-01 -3.473511e-01 1.482666e-05 -1.090858e-05 -5.795620e-06 -1.274794e-05 -9.216919e-01 -4.158325e-01
2.005806e+08 -9.615479e-01 -3.499146e-01 -3.875233e-05 2.969243e-05 2.888963e-05 3.143214e-05 -9.226074e-01 -4.157715e-01
2.007984e+08 -9.613037e-01 -3.537598e-01 1.190510e-05 8.399598e-06 -4.190393e-05 1.441687e-05 -9.230347e-01 -4.160767e-01
2.010162e+08 -9.604492e-01 -3.560791e-01 -4.876032e-05 8.411705e-06 1.498684e-05 3.625453e-05 -9.238892e-01 -4.163208e-01
2.012341e+08 -9.591064e-01 -3.596191e-01 8.553267e-06 1.315493e-05 7.347763e-05 -2.113357e-05 -9.234009e-01 -4.158936e-01
2.014519e+08 -9.577026e-01 -3.631592e-01 -3.727525e-05 2.268702e-06 4.734471e-05 -2.615154e-05 -9.240112e-01 -4.162598e-01
2.016697e+08 -9.567261e-01 -3.666992e-01 -2.437271e-05 4.218891e-06 -1.003034e-05 -5.401671e-08 -9.234009e-01 -4.159546e-01
2.018875e+08 -9.553833e-01 -3.698120e-01 9.792857e-07 -6.451737e-06 -1.791120e-05 9.690411e-06 -9.243164e-01 -4.166260e-01
2.021053e+08 -9.545898e-01 -3.720093e-01 -1.162291e-05 4.178658e-05 -3.277324e-06 2.151448e-05 -9.241333e-01 -4.169312e-01
2.023231e+08 -9.531250e-01 -3.756714e-01 3.926642e-05 -1.516752e-05 1.239404e-05 -3.028847e-05 -9.244385e-01 -4.169312e-01
2.025409e+08 -9.519043e-01 -3.796997e-01 -2.590194e-05 3.170222e-05 2.907589e-05 1.141056e-05 -9.240112e-01 -4.160767e-01
2.027588e+08 -9.511719e-01 -3.822632e-01 3.023818e-05 -4.293770e-05 1.116190e-05 2.111588e-05 -9.244385e-01 -4.160767e-01
2.029766e+08 -9.497681e-01 -3.864746e-01 -2.215058e-05 4.149973e-05 3.010966e-06 -1.370534e-05 -9.237671e-01 -4.169312e-01
2.031944e+08 -9.486084e-01 -3.885498e-01 2.777763e-05 -8.996576e-06 4.719943e-05 -3.848225e-05 -9.249268e-01 -4.167480e-01
2.034122e+08 -9.476318e-01 -3.928223e-01 4.773494e-06 3.363006e-06 -2.834946e-05 -1.487322e-05 -9.249878e-01 -4.166870e-01
2.036300e+08 -9.462891e-01 -3.958740e-01 -3.298372e-05 -8.979812e-06 -2.461113e-05 2.047792e-05 -9.248657e-01 -4.168701e-01
2.038478e+08 -9.437256e-01 -3.991699e-01 -2.020039e-05 2.862327e-05 -3.262609e-05 -3.448129e-05 -9.246216e-01 -4.165649e-01
2.040656e+08 -9.430542e-01 -4.021606e-01 1.586322e-05 -1.740456e-05 1.220265e-06 9.860960e-07 -9.249878e-01 -4.171753e-01
2.042834e+08 -9.419556e-01 -4.059448e-01 -1.715682e-05 -2.636574e-05 3.898330e-05 -7.748604e-07 -9.254150e-01 -4.155884e-01
2.045012e+08 -9.396973e-01 -4.088745e-01 1.670793e-05 1.179334e-05 -7.607974e-06 1.916196e-06 -9.254150e-01 -4.169312e-01
2.047191e+08 -9.389038e-01 -4.119263e-01 -8.273870e-06 3.708526e-05 1.799315e-06 -1.470279e-05 -9.255371e-01 -4.172974e-01
2.049369e+08 -9.368896e-01 -4.155273e-01 2.455711e-05 -3.987178e-05 -4.260987e-05 3.014319e-05 -9.250488e-01 -4.172363e-01
2.051547e+08 -9.359741e-01 -4.184570e-01 2.807006e-06 1.629815e-05 1.203269e-05 -2.385117e-06 -9.256592e-01 -4.175415e-01
2.053725e+08 -9.346924e-01 -4.213867e-01 3.794208e-05 -2.334267e-05 -2.222136e-06 -4.221499e-05 -9.260254e-01 -4.174805e-01
2.055903e+08 -9.329224e-01 -4.255981e-01 -3.386661e-05 -3.819354e-05 4.004687e-06 2.751127e-05 -9.254150e-01 -4.169922e-01
2.058081e+08 -9.314575e-01 -4.280396e-01 -1.152512e-05 6.186776e-06 -3.109872e-05 -9.018928e-06 -9.260254e-01 -4.176636e-01
2.060259e+08 -9.301758e-01 -4.313354e-01 -4.226342e-06 -2.445281e-05 6.910414e-06 3.389642e-05 -9.257202e-01 -4.172974e-01
2.062438e+08 -9.289551e-01 -4.347534e-01 4.190952e-07 1.461525e-05 -5.347654e-06 -8.380972e-06 -9.255981e-01 -4.176025e-01
2.064616e+08 -9.265137e-01 -4.382324e-01 -7.727183e-06 1.603086e-05 -4.497543e-05 -2.437085e-05 -9.258423e-01 -4.176025e-01
2.066794e+08 -9.252930e-01 -4.402466e-01 -3.378373e-06 4.781876e-06 2.920628e-05 4.383922e-05 -9.261475e-01 -4.182129e-01
2.068972e+08 -9.252930e-01 -4.436035e-01 5.768612e-06 -3.094785e-06 3.267825e-05 2.132729e-06 -9.254150e-01 -4.180298e-01
2.071150e+08 -9.225464e-01 -4.470215e-01 -4.559010e-05 3.680587e-06 -3.906339e-05 7.506460e-07 -9.257812e-01 -4.176636e-01
2.073328e+08 -9.202271e-01 -4.498901e-01 1.054630e-05 2.775341e-07 -1.575798e-05 -3.298745e-05 -9.249268e-01 -4.173584e-01
2.075506e+08 -9.188232e-01 -4.538574e-01 4.781876e-06 3.373949e-06 -4.377216e-06 3.288127e-05 -9.249268e-01 -4.174805e-01
2.077684e+08 -9.176636e-01 -4.569092e-01 -2.112240e-05 -5.662441e-07 1.147483e-05 1.333468e-05 -9.257812e-01 -4.177856e-01
2.079862e+08 -9.160767e-01 -4.601440e-01 -9.567011e-06 -6.757677e-06 -2.277084e-06 1.031021e-05 -9.249268e-01 -4.177856e-01
2.082041e+08 -9.143066e-01 -4.631348e-01 1.674984e-05 1.183059e-05 5.016103e-05 4.059449e-05 -9.249878e-01 -4.180298e-01
2.084219e+08 -9.129028e-01 -4.665527e-01 -1.477636e-05 -2.477504e-05 -1.147855e-05 -1.334772e-05 -9.248047e-01 -4.173584e-01
2.086397e+08 -9.105225e-01 -4.694214e-01 2.295524e-05 2.339855e-05 -1.463015e-05 2.055615e-05 -9.255981e-01 -4.180908e-01
2.088575e+08 -9.085693e-01 -4.719849e-01 2.523884e-06 -3.409944e-05 -1.338311e-06 1.916010e-05 -9.254150e-01 -4.176025e-01
2.090753e+08 -9.069824e-01 -4.756470e-01 -1.592841e-05 1.748372e-05 3.861450e-05 -5.178154e-06 -9.259033e-01 -4.179688e-01
2.092931e+08 -9.052124e-01 -4.783936e-01 -8.311123e-06 3.718771e-05 1.450069e-05 -4.097819e-07 -9.249268e-01 -4.177856e-01
2.095109e+08 -9.041748e-01 -4.819336e-01 5.059317e-05 -3.609806e-05 -1.615100e-05 2.745725e-05 -9.252930e-01 -4.179688e-01
2.097288e+08 -9.019775e-01 -4.848633e-01 -5.367212e-06 1.775380e-05 4.227646e-05 -3.468059e-05 -9.246826e-01 -4.185791e-01
2.099466e+08 -9.011230e-01 -4.879761e-01 2.185628e-05 -5.640835e-05 2.433360e-05 7.513911e-06 -9.251709e-01 -4.181519e-01
2.101644e+08 -8.985596e-01 -4.910278e-01 5.782582e-06 -3.105961e-06 1.516659e-06 -6.882939e-06 -9.253540e-01 -4.178467e-01
2.103822e+08 -8.963623e-01 -4.948730e-01 -3.945082e-06 2.595223e-05 2.662651e-05 2.970546e-05 -9.249268e-01 -4.180908e-01
2.106000e+08 -8.947144e-01 -4.969482e-01 -1.825392e-06 -2.285838e-05 -3.069453e-05 2.787076e-05 -9.246826e-01 -4.194336e-01
2.108178e+08 -8.926392e-01 -4.996338e-01 1.752004e-05 -4.513934e-05 1.575053e-05 5.802140e-07 -9.244995e-01 -4.193115e-01
2.110356e+08 -8.910522e-01 -5.032959e-01 -4.656613e-06 8.299202e-05 3.028102e-05 1.974404e-07 -9.244995e-01 -4.191284e-01
2.112534e+08 -8.900757e-01 -5.065308e-01 -1.413748e-06 -8.175615e-06 6.760471e-06 2.172031e-05 -9.233398e-01 -4.183350e-01
2.114712e+08 -8.869629e-01 -5.103149e-01 4.793983e-06 3.383728e-06 -7.838011e-06 -4.291348e-05 -9.230957e-01 -4.185181e-01
2.116891e+08 -8.851318e-01 -5.128174e-01 -3.572553e-05 2.507120e-05 1.631305e-05 -4.766136e-05 -9.230957e-01 -4.194946e-01
2.119069e+08 -8.840332e-01 -5.162964e-01 9.758398e-06 -2.907030e-05 -9.513460e-06 -1.583900e-05 -9.232178e-01 -4.197388e-01
2.121247e+08 -8.816528e-01 -5.195923e-01 1.980923e-06 -1.299009e-05 -5.366746e-06 -8.416828e-06 -9.231567e-01 -4.193115e-01
2.123425e+08 -8.795776e-01 -5.222778e-01 -3.958121e-06 2.597086e-05 -1.285039e-05 5.836599e-06 -9.227905e-01 -4.193115e-01
2.125603e+08 -8.777466e-01 -5.252686e-01 3.938749e-05 2.060458e-05 2.414174e-05 -3.732368e-05 -9.224243e-01 -4.190674e-01
2.127781e+08 -8.750610e-01 -5.275879e-01 8.194242e-06 -1.408160e-06 -7.871538e-06 -4.291907e-05 -9.224854e-01 -4.199219e-01
2.129959e+08 -8.732300e-01 -5.320435e-01 5.018711e-05 -1.500919e-05 -2.405792e-05 -1.545623e-05 -9.234009e-01 -4.194336e-01
2.132138e+08 -8.716431e-01 -5.341797e-01 -3.460795e-05 -1.727417e-05 -1.498312e-05 2.850778e-05 -9.219971e-01 -4.204102e-01
2.134316e+08 -8.696289e-01 -5.371704e-01 -5.134195e-05 5.736947e-05 5.051121e-05 -3.222749e-05 -9.219971e-01 -4.200439e-01
2.136494e+08 -8.670044e-01 -5.401611e-01 -1.144037e-05 -2.967753e-05 -6.172806e-06 -3.751740e-05 -9.216309e-01 -4.196167e-01
2.138672e+08 -8.653564e-01 -5.437012e-01 -5.389005e-05 -3.083795e-05 4.398078e-05 -9.082258e-06 -9.221802e-01 -4.202271e-01
2.140850e+08 -8.633423e-01 -5.465698e-01 -5.258992e-05 1.324713e-05 5.399808e-05 4.379824e-05 -9.207764e-01 -4.204102e-01
2.143028e+08 -8.606567e-01 -5.492554e-01 -3.811903e-06 -9.899959e-06 2.453220e-06 1.988374e-06 -9.209595e-01 -4.207764e-01
2.145206e+08 -8.585205e-01 -5.522461e-01 -1.484156e-05 -2.489612e-05 -3.967062e-05 2.884492e-05 -9.206543e-01 -4.207764e-01
2.147384e+08 -8.574219e-01 -5.554810e-01 3.423542e-05 2.566725e-06 -2.913922e-05 8.046627e-07 -9.207153e-01 -4.213257e-01
2.149562e+08 -8.550415e-01 -5.585327e-01 -1.414213e-06 -8.207746e-06 -3.173761e-05 1.904368e-05 -9.208374e-01 -4.207764e-01
2.151741e+08 -8.522949e-01 -5.615234e-01 -7.098541e-05 2.912804e-05 2.608635e-05 1.299940e-05 -9.198608e-01 -4.204102e-01
2.153919e+08 -8.504028e-01 -5.646362e-01 1.220033e-05 -2.742931e-05 3.042631e-06 -1.381245e-05 -9.193115e-01 -4.218750e-01
2.156097e+08 -8.486328e-01 -5.669556e-01 -1.043268e-05 -3.625639e-05 -4.332513e-06 -1.978688e-05 -9.197998e-01 -4.219360e-01
2.158275e+08 -8.452759e-01 -5.714722e-01 5.904585e-07 -2.123415e-05 -7.069670e-06 -1.388509e-05 -9.192505e-01 -4.218140e-01
2.160453e+08 -8.425293e-01 -5.736694e-01 8.102506e-07 2.945028e-05 2.835505e-05 2.674758e-06 -9.191284e-01 -4.223022e-01
2.162631e+08 -8.412476e-01 -5.766602e-01 4.805857e-06 3.405148e-06 -2.485141e-05 2.056733e-05 -9.184570e-01 -4.229736e-01
2.164809e+08 -8.383179e-01 -5.795898e-01 3.128871e-05 2.213940e-05 -4.862249e-05 2.975762e-05 -9.192505e-01 -4.230957e-01
2.166988e+08 -8.369141e-01 -5.819092e-01 4.122406e-05 -4.303455e-05 -1.228508e-05 -9.968877e-06 -9.186401e-01 -4.223633e-01
2.169166e+08 -8.345947e-01 -5.858154e-01 -7.212162e-06 -5.107839e-06 -1.275446e-05 -1.442805e-05 -9.176636e-01 -4.235840e-01
2.171344e+08 -8.328247e-01 -5.882568e-01 -1.443177e-05 -1.023151e-05 2.070516e-05 -2.804026e-05 -9.176636e-01 -4.241943e-01
2.173522e+08 -8.295288e-01 -5.911865e-01 1.003593e-05 2.155080e-05 4.911795e-06 3.987923e-06 -9.172974e-01 -4.237671e-01
2.175700e+08 -8.278809e-01 -5.941162e-01 -2.266839e-05 -8.819625e-06 -3.073737e-05 -2.493523e-05 -9.169922e-01 -4.243164e-01
2.177878e+08 -8.253784e-01 -5.975952e-01 -1.603365e-05 1.755916e-05 3.041700e-05 2.160668e-07 -9.165039e-01 -4.243774e-01
2.180056e+08 -8.223877e-01 -6.011353e-01 3.569946e-05 1.081079e-05 2.072752e-05 3.726967e-05 -9.158936e-01 -4.248047e-01
2.182234e+08 -8.196411e-01 -6.033936e-01 -1.342408e-05 -1.673773e-05 5.071983e-06 1.635961e-05 -9.149170e-01 -4.248657e-01
2.184412e+08 -8.176880e-01 -6.052246e-01 9.628944e-06 6.816350e-06 -1.549721e-06 -2.573244e-05 -9.154663e-01 -4.252319e-01
2.186591e+08 -8.159790e-01 -6.087036e-01 6.638467e-06 2.637692e-05 3.568269e-05 2.894923e-05 -9.154663e-01 -4.248657e-01
2.188769e+08 -8.125610e-01 -6.116333e-01 -9.806827e-06 2.919510e-05 -9.234063e-07 -8.909032e-06 -9.146729e-01 -4.251099e-01
2.190947e+08 -8.109131e-01 -6.140137e-01 -1.922995e-05 7.316470e-05 6.745011e-05 -2.281368e-05 -9.147949e-01 -4.257202e-01
2.193125e+08 -8.078613e-01 -6.176147e-01 -2.527423e-05 2.551824e-05 4.043244e-05 2.058223e-05 -9.148560e-01 -4.259033e-01
2.195303e+08 -8.054199e-01 -6.209717e-01 -3.415393e-06 4.820060e-06 -3.136508e-05 -9.145588e-06 -9.144897e-01 -4.266357e-01
2.197481e+08 -8.029785e-01 -6.245728e-01 5.419366e-06 -1.785811e-05 -1.492538e-05 8.303672e-06 -9.139404e-01 -4.267578e-01
2.199659e+08 -8.002930e-01 -6.262207e-01 -3.170222e-05 -3.692508e-05 -1.031067e-05 -1.244713e-05 -9.133301e-01 -4.271240e-01
2.201838e+08 -7.984619e-01 -6.293945e-01 3.251806e-05 -2.038293e-05 2.792105e-06 2.676435e-05 -9.133911e-01 -4.272461e-01
2.204016e+08 -7.954712e-01 -6.326904e-01 6.218441e-06 1.164433e-05 -3.784895e-05 2.646260e-05 -9.129639e-01 -4.276733e-01
2.206194e+08 -7.932739e-01 -6.351929e-01 2.430938e-05 -1.898035e-05 1.936033e-05 -4.146993e-05 -9.130859e-01 -4.286499e-01
2.208372e+08 -7.904663e-01 -6.388550e-01 1.601875e-06 -2.783351e-05 -2.063066e-05 4.048459e-05 -9.134521e-01 -4.280396e-01
2.210550e+08 -7.872314e-01 -6.418457e-01 -8.102506e-07 -2.950989e-05 2.186000e-05 -6.753951e-06 -9.118652e-01 -4.281006e-01
2.212728e+08 -7.855225e-01 -6.436157e-01 2.331100e-05 -1.244247e-05 1.030415e-05 -2.023578e-05 -9.118042e-01 -4.296265e-01
2.214906e+08 -7.825317e-01 -6.464233e-01 -1.429394e-05 4.057586e-05 -5.999114e-06 7.383991e-06 -9.114990e-01 -4.297485e-01
2.217084e+08 -7.805176e-01 -6.493530e-01 -2.067350e-05 -2.191216e-05 6.774440e-06 2.184883e-05 -9.111938e-01 -4.300537e-01
2.219262e+08 -7.781372e-01 -6.527710e-01 -2.609752e-05 -4.047528e-06 -2.264045e-05 1.024455e-05 -9.102173e-01 -4.306030e-01
2.221441e+08 -7.755127e-01 -6.552124e-01 6.228685e-06 1.165085e-05 3.235415e-06 -1.462875e-06 -9.107056e-01 -4.306030e-01
2.223619e+08 -7.723389e-01 -6.582031e-01 -1.467019e-05 2.579018e-05 -3.126636e-05 3.226101e-06 -9.094849e-01 -4.313965e-01
2.225797e+08 -7.695923e-01 -6.619873e-01 2.370961e-05 2.318993e-06 -3.621355e-05 -8.214265e-07 -9.093018e-01 -4.318848e-01
2.227975e+08 -7.680664e-01 -6.638184e-01 3.983080e-05 -1.526251e-05 -2.712570e-05 1.071021e-05 -9.098511e-01 -4.327393e-01
2.230153e+08 -7.650757e-01 -6.666260e-01 3.638864e-05 -1.044199e-05 5.780160e-05 1.940876e-06 -9.091797e-01 -4.326172e-01
2.232331e+08 -7.623291e-01 -6.707153e-01 5.833805e-06 -3.114343e-06 -1.375191e-05 4.208833e-05 -9.089355e-01 -4.334106e-01
2.234509e+08 -7.590942e-01 -6.730957e-01 -5.224347e-05 -8.083880e-06 2.914667e-05 -1.316518e-05 -9.079590e-01 -4.332886e-01
2.236688e+08 -7.571411e-01 -6.751099e-01 2.110936e-05 3.673881e-05 2.359040e-05 -1.311302e-06 -9.090576e-01 -4.341431e-01
2.238866e+08 -7.543335e-01 -6.776733e-01 -1.568347e-06 -5.915016e-05 -3.653951e-05 7.165596e-06 -9.083862e-01 -4.344482e-01
2.241044e+08 -7.508545e-01 -6.810913e-01 7.078052e-06 -4.574284e-05 -1.558289e-05 2.418831e-05 -9.073486e-01 -4.348145e-01
2.243222e+08 -7.486572e-01 -6.835938e-01 4.086271e-05 -2.177432e-05 -3.871322e-05 2.997927e-05 -9.075317e-01 -4.351196e-01
2.245400e+08 -7.451172e-01 -6.857300e-01 8.871779e-06 -2.271868e-05 -3.312714e-05 -1.464784e-05 -9.066162e-01 -4.362793e-01
2.247578e+08 -7.427368e-01 -6.899414e-01 -4.284456e-05 3.488734e-05 2.822094e-05 1.067296e-05 -9.067383e-01 -4.354858e-01
2.249756e+08 -7.404175e-01 -6.922607e-01 4.440546e-06 -1.136586e-05 -9.248033e-07 -8.953270e-06 -9.068604e-01 -4.367676e-01
2.251934e+08 -7.366333e-01 -6.958008e-01 -1.751073e-05 9.331852e-06 -4.474772e-06 4.558824e-07 -9.057007e-01 -4.370728e-01
2.254112e+08 -7.341919e-01 -6.981201e-01 -3.658235e-06 4.096702e-05 1.547392e-06 -6.942078e-06 -9.063110e-01 -4.376831e-01
2.256291e+08 -7.319336e-01 -7.007446e-01 8.650124e-06 1.339521e-05 -1.639128e-07 2.037361e-05 -9.064331e-01 -4.376831e-01
2.258469e+08 -7.297974e-01 -7.028198e-01 -1.410022e-05 4.521571e-06 3.628246e-05 3.355369e-05 -9.062500e-01 -4.383545e-01
2.260647e+08 -7.258911e-01 -7.064819e-01 2.757087e-05 1.230277e-05 -2.261251e-06 -5.519763e-05 -9.055786e-01 -4.392090e-01
2.262825e+08 -7.238159e-01 -7.086792e-01 8.258037e-06 -1.407228e-06 -5.251495e-06 3.934372e-06 -9.057007e-01 -4.393311e-01
2.265003e+08 -7.203979e-01 -7.112427e-01 2.352521e-05 3.849342e-05 1.467764e-05 -3.316253e-05 -9.050293e-01 -4.405518e-01
2.267181e+08 -7.177734e-01 -7.141113e-01 -5.230308e-06 -1.822785e-05 1.095887e-05 -3.390945e-06 -9.049072e-01 -4.402466e-01
2.269359e+08 -7.149048e-01 -7.169189e-01 -5.578995e-05 -3.259629e-06 1.699664e-05 -4.359148e-05 -9.044800e-01 -4.410400e-01
2.271538e+08 -7.119141e-01 -7.191162e-01 -2.559274e-06 -5.268678e-05 -1.558661e-05 -8.570030e-06 -9.041748e-01 -4.420776e-01
2.273716e+08 -7.081909e-01 -7.228394e-01 2.541207e-05 -2.555177e-05 -2.178457e-05 1.918525e-05 -9.041748e-01 -4.420776e-01
2.275894e+08 -7.058716e-01 -7.252808e-01 2.693757e-05 3.367849e-05 1.050346e-05 -7.869210e-06 -9.035034e-01 -4.429932e-01
2.278072e+08 -7.032471e-01 -7.282104e-01 -4.270300e-05 -1.277775e-06 5.891547e-06 -1.984183e-05 -9.033813e-01 -4.437866e-01
2.280250e+08 -7.004395e-01 -7.308960e-01 3.061257e-06 -1.963787e-05 -1.211837e-05 4.765391e-05 -9.025879e-01 -4.447021e-01
2.282428e+08 -6.974487e-01 -7.332764e-01 -6.981194e-06 -4.132092e-05 -4.823878e-05 2.643466e-05 -9.025269e-01 -4.451904e-01
2.284606e+08 -6.948853e-01 -7.356567e-01 -1.361594e-05 -6.784499e-05 4.796311e-06 -8.418225e-06 -9.026489e-01 -4.456787e-01
2.286784e+08 -6.914062e-01 -7.389526e-01 -1.769513e-06 -2.308190e-05 -1.591817e-05 -6.426126e-07 -9.022827e-01 -4.460449e-01
2.288962e+08 -6.876831e-01 -7.416992e-01 3.066845e-06 -1.965184e-05 -1.188647e-05 -5.583279e-06 -9.020386e-01 -4.475708e-01
2.291141e+08 -6.857910e-01 -7.439575e-01 -1.030136e-05 1.449231e-05 1.609884e-05 -1.976546e-05 -9.016724e-01 -4.470215e-01
2.293319e+08 -6.815796e-01 -7.472534e-01 2.175197e-05 1.543947e-05 3.573857e-05 -1.606718e-05 -9.017334e-01 -4.472656e-01
2.295497e+08 -6.796875e-01 -7.496948e-01 -2.340600e-05 1.245737e-05 -1.482852e-05 -1.208577e-05 -9.014893e-01 -4.482422e-01
2.297675e+08 -6.770630e-01 -7.514648e-01 -1.755729e-05 9.352341e-06 2.877787e-05 -1.767837e-05 -9.015503e-01 -4.489746e-01
2.299853e+08 -6.738892e-01 -7.553711e-01 -4.136190e-05 6.984919e-06 1.547858e-05 -3.847294e-06 -9.015503e-01 -4.495850e-01
2.302031e+08 -6.696777e-01 -7.578735e-01 1.170486e-05 -6.228685e-06 4.528556e-07 4.485948e-06 -9.008789e-01 -4.499512e-01
2.304209e+08 -6.673584e-01 -7.598267e-01 -2.380461e-05 -2.343208e-06 -1.917779e-05 8.195639e-07 -9.015503e-01 -4.500732e-01
2.306388e+08 -6.643066e-01 -7.632446e-01 -3.590249e-05 -1.094677e-05 2.113357e-05 2.960116e-05 -9.013672e-01 -4.512939e-01
2.308566e+08 -6.613159e-01 -7.644653e-01 -1.513958e-05 1.107622e-05 1.546741e-05 -3.845431e-06 -9.009399e-01 -4.514771e-01
2.310744e+08 -6.578369e-01 -7.680664e-01 -1.795217e-05 -5.477108e-06 1.671351e-05 -2.831221e-06 -9.010620e-01 -4.522095e-01
2.312922e+08 -6.554565e-01 -7.710571e-01 -3.169291e-05 1.385622e-05 -3.101863e-05 4.058890e-05 -9.004517e-01 -4.528198e-01
2.315100e+08 -6.519775e-01 -7.732544e-01 -4.451722e-06 1.139008e-05 -2.419017e-05 2.967380e-05 -9.005127e-01 -4.525757e-01
2.317278e+08 -6.495361e-01 -7.764282e-01 1.757219e-05 -9.349547e-06 -8.719042e-06 2.584234e-05 -9.005737e-01 -4.541016e-01
2.319456e+08 -6.463623e-01 -7.781372e-01 3.162771e-06 3.139116e-05 -2.152845e-05 1.125969e-05 -9.005737e-01 -4.548950e-01
2.321634e+08 -6.434937e-01 -7.811279e-01 -1.796149e-05 -5.488284e-06 4.529580e-05 -4.544854e-05 -9.006958e-01 -4.556274e-01
2.323812e+08 -6.398926e-01 -7.836304e-01 -3.588945e-05 -1.095422e-05 1.820736e-06 1.796242e-05 -8.995361e-01 -4.558716e-01
2.325991e+08 -6.365356e-01 -7.862549e-01 2.344698e-05 -1.247413e-05 1.834892e-05 3.556348e-05 -9.002686e-01 -4.567871e-01
2.328169e+08 -6.339722e-01 -7.882690e-01 2.858788e-05 -4.524365e-05 -1.021707e-05 -9.592623e-08 -8.995972e-01 -4.579468e-01
2.330347e+08 -6.301270e-01 -7.917480e-01 1.041032e-05 3.657863e-05 4.366785e-05 -5.565584e-06 -9.000244e-01 -4.583130e-01
2.332525e+08 -6.273804e-01 -7.934570e-01 -1.898408e-05 1.070090e-06 8.783303e-06 1.951866e-05 -8.994141e-01 -4.587402e-01
2.334703e+08 -6.239624e-01 -7.963867e-01 -1.657382e-05 2.794899e-06 3.313459e-05 2.313405e-06 -8.999023e-01 -4.600830e-01
2.336881e+08 -6.213989e-01 -7.982178e-01 -6.519258e-07 2.141483e-05 1.992472e-05 2.861209e-05 -8.998413e-01 -4.605103e-01
2.339059e+08 -6.178589e-01 -8.012695e-01 3.389828e-05 2.412125e-05 1.451094e-05 2.009515e-05 -8.999023e-01 -4.614868e-01
2.341238e+08 -6.148071e-01 -8.037720e-01 -1.279451e-05 -3.831461e-05 -6.897375e-06 -3.448874e-05 -8.987427e-01 -4.624023e-01
2.343416e+08 -6.116333e-01 -8.061523e-01 1.900084e-05 -1.074746e-06 -1.756661e-05 -3.908947e-05 -8.999023e-01 -4.625854e-01
2.345594e+08 -6.083374e-01 -8.090210e-01 -1.240894e-05 2.764910e-05 -2.297387e-05 -4.763529e-05 -8.991699e-01 -4.636230e-01
2.347772e+08 -6.052246e-01 -8.110352e-01 1.026783e-06 -6.557908e-06 -2.098083e-05 2.823398e-05 -8.981934e-01 -4.637451e-01
2.349950e+08 -6.007690e-01 -8.142700e-01 4.486740e-05 -1.183152e-05 1.584459e-05 -1.180172e-05 -8.994751e-01 -4.635010e-01
2.352128e+08 -5.983276e-01 -8.165283e-01 -8.289702e-06 1.392327e-06 3.866293e-05 -2.206117e-05 -8.994141e-01 -4.649048e-01
2.354306e+08 -5.952148e-01 -8.185425e-01 -1.762062e-06 -2.313964e-05 2.724221e-11 2.693668e-10 -8.992310e-01 -4.651489e-01
2.356484e+08 -5.922241e-01 -8.214111e-01 3.088266e-06 -1.972169e-05 -2.307072e-05 -1.470745e-05 -9.003296e-01 -4.671631e-01
2.358662e+08 -5.895996e-01 -8.231201e-01 -8.276402e-11 -4.951062e-10 -1.050159e-05 -2.505817e-05 -8.986206e-01 -4.673462e-01
2.360841e+08 -5.863647e-01 -8.256226e-01 1.035910e-05 -1.453329e-05 7.809140e-07 -3.487337e-06 -9.000244e-01 -4.682007e-01
2.363019e+08 -5.825195e-01 -8.287354e-01 -2.627634e-05 -4.125759e-06 4.206412e-05 -1.106225e-05 -8.998413e-01 -4.685669e-01
2.365197e+08 -5.795898e-01 -8.307495e-01 9.684358e-06 6.901100e-06 -1.630280e-05 7.329509e-06 -8.994751e-01 -4.689331e-01
2.367375e+08 -5.762329e-01 -8.326416e-01 -2.247654e-05 5.891547e-06 -1.798384e-05 1.834705e-06 -8.997192e-01 -4.704590e-01
2.369553e+08 -5.731201e-01 -8.358154e-01 -1.005828e-05 -2.177618e-05 -2.340041e-05 -6.724149e-06 -9.004517e-01 -4.701538e-01
2.371731e+08 -5.695801e-01 -8.383179e-01 -3.872067e-05 2.356246e-05 -9.047799e-07 -8.997507e-06 -9.005737e-01 -4.711304e-01
2.373909e+08 -5.663452e-01 -8.408813e-01 -2.774410e-06 -1.659337e-05 2.809335e-06 -5.964190e-06 -8.998413e-01 -4.717407e-01
2.376088e+08 -5.622559e-01 -8.432007e-01 -7.320195e-07 -2.975203e-05 -4.267320e-06 2.541766e-05 -9.007568e-01 -4.721680e-01
2.378266e+08 -5.595093e-01 -8.444214e-01 6.631017e-07 -2.145208e-05 -2.803747e-06 5.964190e-06 -9.008179e-01 -4.727783e-01
2.380444e+08 -5.563965e-01 -8.468628e-01 -3.870390e-05 2.356619e-05 8.530915e-07 -3.645197e-05 -9.006348e-01 -4.729004e-01
2.382622e+08 -5.527954e-01 -8.493042e-01 -3.143959e-05 2.874434e-05 3.396533e-05 -1.152977e-06 -9.006348e-01 -4.739380e-01
2.384800e+08 -5.492554e-01 -8.525391e-01 -1.556054e-05 -3.791414e-06 7.881317e-07 -3.489433e-06 -8.994751e-01 -4.747925e-01
2.386978e+08 -5.468140e-01 -8.543091e-01 1.696404e-05 1.207646e-05 -9.914860e-06 -8.095521e-06 -9.004517e-01 -4.748535e-01
2.389156e+08 -5.422974e-01 -8.566895e-01 -2.388470e-05 -2.399087e-06 -3.596768e-06 9.454321e-06 -9.010620e-01 -4.759521e-01
2.391334e+08 -5.396729e-01 -8.585205e-01 -1.453236e-05 -1.037586e-05 -6.500632e-07 1.597591e-05 -9.003906e-01 -4.769287e-01
2.393512e+08 -5.346680e-01 -8.615723e-01 -4.155934e-05 6.958842e-06 4.604459e-06 1.204014e-05 -9.017944e-01 -4.785767e-01
2.395691e+08 -5.331421e-01 -8.637695e-01 4.847767e-06 3.457535e-06 4.517287e-05 7.960945e-06 -9.011230e-01 -4.782715e-01
2.397869e+08 -5.286865e-01 -8.667603e-01 -1.176633e-05 6.233342e-06 1.002848e-05 -2.488866e-05 -9.013672e-01 -4.792480e-01
2.400047e+08 -5.259399e-01 -8.682861e-01 -5.436316e-05 -3.146380e-05 3.108755e-05 3.782101e-05 -9.014893e-01 -4.797974e-01
2.402225e+08 -5.220947e-01 -8.705444e-01 2.111308e-05 -1.420453e-05 2.476946e-05 2.027862e-05 -9.017944e-01 -4.807739e-01
2.404403e+08 -5.188599e-01 -8.737793e-01 -2.005510e-05 7.634982e-06 -3.303960e-05 2.263300e-05 -9.024658e-01 -4.802856e-01
2.406581e+08 -5.155640e-01 -8.751221e-01 2.144650e-05 6.910414e-07 9.345822e-06 -8.896459e-06 -9.016113e-01 -4.818115e-01
2.408759e+08 -5.126953e-01 -8.776855e-01 2.974831e-05 -7.003546e-07 2.594665e-06 1.453701e-05 -9.020996e-01 -4.820557e-01
2.410938e+08 -5.091553e-01 -8.792114e-01 3.445894e-07 1.487415e-05 -1.003034e-05 -2.060831e-05 -9.018555e-01 -4.830322e-01
2.413116e+08 -5.054932e-01 -8.823853e-01 2.594106e-05 -1.074001e-05 4.845671e-06 -8.451752e-06 -9.025269e-01 -4.831543e-01
2.415294e+08 -5.015259e-01 -8.838501e-01 -1.176447e-05 6.228685e-06 -4.725531e-06 -2.455711e-05 -9.027710e-01 -4.841309e-01
2.417472e+08 -4.987183e-01 -8.867798e-01 -8.657575e-06 -1.348928e-05 7.899944e-07 -3.493624e-06 -9.029541e-01 -4.840698e-01
2.419650e+08 -4.954224e-01 -8.878174e-01 1.035165e-06 -6.581657e-06 1.182221e-05 -6.877817e-06 -9.041748e-01 -4.851685e-01
2.421828e+08 -4.918823e-01 -8.905640e-01 -1.662131e-05 2.774410e-06 3.108568e-05 -7.651746e-06 -9.042969e-01 -4.860229e-01
2.424006e+08 -4.880371e-01 -8.933105e-01 -4.950166e-05 2.316758e-05 -1.687091e-06 -5.522277e-06 -9.037476e-01 -4.863892e-01
2.426184e+08 -4.850464e-01 -8.956909e-01 -3.116205e-06 1.973659e-05 9.705313e-06 -1.690257e-05 -9.042969e-01 -4.873047e-01
2.428362e+08 -4.814453e-01 -8.981323e-01 -6.230548e-06 -1.177378e-05 -5.748589e-06 -5.681068e-07 -9.049072e-01 -4.874878e-01
2.430541e+08 -4.790649e-01 -8.995361e-01 3.498420e-05 1.768954e-05 2.919883e-05 7.303432e-06 -9.054565e-01 -4.884644e-01
2.432719e+08 -4.745483e-01 -9.013062e-01 4.187971e-05 7.983297e-06 -1.318287e-05 -6.650575e-06 -9.048462e-01 -4.887695e-01
2.434897e+08 -4.711304e-01 -9.039307e-01 2.043322e-05 7.268041e-06 2.355501e-05 -2.625957e-05 -9.058228e-01 -4.888916e-01
2.437075e+08 -4.679565e-01 -9.053955e-01 -1.662970e-05 2.763234e-06 -5.294569e-06 3.944617e-06 -9.053955e-01 -4.902344e-01
2.439253e+08 -4.642944e-01 -9.081421e-01 1.117587e-08 -5.127862e-05 -6.198417e-06 -5.069189e-06 -9.061279e-01 -4.902344e-01
2.441431e+08 -4.601440e-01 -9.107666e-01 9.335577e-06 4.329905e-05 3.404915e-05 -1.106411e-06 -9.061890e-01 -4.906616e-01
2.443609e+08 -4.569702e-01 -9.125977e-01 6.575137e-06 2.667867e-05 2.739392e-05 -1.069717e-05 -9.069214e-01 -4.913330e-01
2.445788e+08 -4.534912e-01 -9.146729e-01 3.848784e-05 -3.845990e-05 -2.988614e-05 8.659437e-06 -9.070435e-01 -4.921875e-01
2.447966e+08 -4.509277e-01 -9.168091e-01 2.771616e-06 1.663435e-05 -1.329370e-05 2.640113e-05 -9.076538e-01 -4.920654e-01
2.450144e+08 -4.469604e-01 -9.184570e-01 -2.217107e-05 -3.051572e-05 1.713168e-05 -1.082476e-05 -9.079590e-01 -4.935913e-01
2.452322e+08 -4.434204e-01 -9.212036e-01 1.420826e-05 -4.500151e-06 -5.647540e-06 1.195539e-05 -9.078979e-01 -4.942017e-01
2.454500e+08 -4.401245e-01 -9.224243e-01 -5.269423e-05 -8.333474e-06 1.398195e-05 3.164634e-06 -9.088135e-01 -4.944458e-01
2.456678e+08 -4.360962e-01 -9.255371e-01 2.427399e-05 1.734309e-05 -1.354422e-05 1.342036e-06 -9.096680e-01 -4.949951e-01
2.458856e+08 -4.334106e-01 -9.277344e-01 2.010353e-05 -7.610768e-06 2.560951e-05 1.684390e-05 -9.087524e-01 -4.957886e-01
2.461034e+08 -4.285889e-01 -9.285889e-01 -5.793199e-05 2.460927e-05 1.194701e-05 5.655922e-06 -9.100952e-01 -4.960327e-01
2.463212e+08 -4.257202e-01 -9.310303e-01 -4.021451e-05 -3.609061e-05 3.619585e-06 -9.474810e-06 -9.104004e-01 -4.966431e-01
2.465391e+08 -4.223022e-01 -9.329834e-01 -1.874194e-05 1.594517e-05 2.103113e-05 -4.082173e-05 -9.107056e-01 -4.975586e-01
2.467569e+08 -4.176636e-01 -9.361572e-01 2.255850e-05 -5.876645e-06 3.276160e-06 -1.462875e-06 -9.116211e-01 -4.972534e-01
2.469747e+08 -4.148560e-01 -9.371338e-01 3.923103e-05 -8.657575e-06 5.172566e-06 2.911501e-05 -9.123535e-01 -4.979858e-01
2.471925e+08 -4.111328e-01 -9.387817e-01 -1.213979e-05 -8.683652e-06 -1.689419e-06 -5.529728e-06 -9.124146e-01 -4.982910e-01
2.474103e+08 -4.075928e-01 -9.414062e-01 6.577000e-06 2.671592e-05 -5.960464e-08 4.558265e-05 -9.127197e-01 -4.982910e-01
2.476281e+08 -4.040527e-01 -9.433594e-01 -1.495704e-05 2.601556e-05 -3.308617e-05 2.264045e-05 -9.134521e-01 -4.993896e-01
2.478459e+08 -4.006348e-01 -9.459229e-01 -1.840852e-05 3.087148e-05 -6.260350e-06 4.051998e-05 -9.133911e-01 -4.995728e-01
2.480638e+08 -3.978882e-01 -9.472656e-01 1.181103e-05 -6.249174e-06 -1.978129e-06 6.062165e-05 -9.148560e-01 -5.002441e-01
2.482816e+08 -3.937378e-01 -9.486084e-01 -1.350977e-05 -1.701247e-05 3.768690e-05 -1.056306e-05 -9.139404e-01 -5.001221e-01
2.484994e+08 -3.895874e-01 -9.505005e-01 -2.328120e-05 2.740137e-05 2.991222e-05 -8.637086e-06 -9.149780e-01 -5.007324e-01
2.487172e+08 -3.866577e-01 -9.532471e-01 7.674098e-06 -3.125705e-05 -2.273731e-05 3.530458e-05 -9.161987e-01 -5.014038e-01
2.489350e+08 -3.839111e-01 -9.539185e-01 7.245690e-07 -2.153963e-05 1.170859e-05 2.618320e-05 -9.160156e-01 -5.020752e-01
2.491528e+08 -3.796997e-01 -9.567871e-01 2.801418e-06 -3.473647e-05 7.250346e-06 -1.895893e-05 -9.165039e-01 -5.018311e-01
2.493706e+08 -3.763428e-01 -9.581909e-01 3.855675e-06 -4.133210e-05 -3.997050e-05 3.360584e-05 -9.166870e-01 -5.023193e-01
2.495884e+08 -3.725586e-01 -9.606323e-01 -6.631017e-07 -2.987683e-05 3.257580e-05 -3.971532e-05 -9.175415e-01 -5.024414e-01
2.498062e+08 -3.692017e-01 -9.619751e-01 5.699694e-05 -1.803786e-05 -1.290068e-05 3.091618e-05 -9.180908e-01 -5.027466e-01
2.500241e+08 -3.650513e-01 -9.641113e-01 -1.320522e-05 -2.092682e-06 1.866929e-05 -3.033690e-05 -9.186401e-01 -5.031738e-01
2.502419e+08 -3.616943e-01 -9.659424e-01 1.380220e-06 8.338131e-06 2.834573e-05 -1.667067e-06 -9.183960e-01 -5.035400e-01
2.504597e+08 -3.591919e-01 -9.678345e-01 -3.812835e-06 -1.008250e-05 -2.611615e-05 2.428144e-05 -9.196167e-01 -5.039673e-01
2.506775e+08 -3.544312e-01 -9.694824e-01 -6.237999e-06 -1.182780e-05 1.250952e-05 2.270378e-05 -9.196777e-01 -5.041504e-01
2.508953e+08 -3.508911e-01 -9.714966e-01 -3.272295e-05 3.539957e-05 -2.711639e-05 2.682209e-06 -9.201660e-01 -5.050049e-01
2.511131e+08 -3.468018e-01 -9.732666e-01 -2.811290e-05 -2.749451e-05 -1.382641e-05 2.188794e-05 -9.204712e-01 -5.053101e-01
2.513309e+08 -3.427124e-01 -9.749756e-01 5.590729e-06 -1.807511e-05 7.981434e-06 -3.498979e-05 -9.216919e-01 -5.058594e-01
2.515488e+08 -3.413696e-01 -9.765625e-01 -3.688410e-05 1.036189e-05 1.391023e-05 -9.370036e-06 -9.221802e-01 -5.061035e-01
2.517666e+08 -3.364258e-01 -9.786377e-01 2.437271e-05 -3.402494e-05 -4.442409e-07 -4.521571e-06 -9.221191e-01 -5.054932e-01
2.519844e+08 -3.333130e-01 -9.801025e-01 1.320615e-05 2.101064e-06 -9.480864e-07 3.661402e-05 -9.228516e-01 -5.053101e-01
2.522022e+08 -3.293457e-01 -9.819946e-01 3.862381e-05 1.290441e-05 6.832182e-06 3.470294e-05 -9.248047e-01 -5.060425e-01
2.524200e+08 -3.252563e-01 -9.831543e-01 -1.078565e-05 -3.613532e-07 2.348237e-05 6.815419e-06 -9.244995e-01 -5.065918e-01
2.526378e+08 -3.218384e-01 -9.852905e-01 5.920883e-06 -3.124122e-06 1.772121e-05 6.252900e-06 -9.252319e-01 -5.067749e-01
2.528556e+08 -3.189087e-01 -9.875488e-01 -1.470372e-05 4.105270e-05 -2.429821e-05 -3.321096e-06 -9.260254e-01 -5.075684e-01
2.530734e+08 -3.150024e-01 -9.891968e-01 -1.078378e-05 -3.594905e-07 -4.610047e-06 -1.210254e-05 -9.257202e-01 -5.063477e-01
2.532912e+08 -3.110962e-01 -9.910278e-01 9.406358e-06 -7.995870e-06 -2.057757e-05 -2.766028e-07 -9.270020e-01 -5.070190e-01
2.535091e+08 -3.075562e-01 -9.929199e-01 2.643652e-05 4.215166e-06 -3.662519e-05 -9.927899e-07 -9.266357e-01 -5.072632e-01
2.537269e+08 -3.047485e-01 -9.944458e-01 3.342330e-05 -5.519018e-06 -2.351962e-05 -6.826594e-06 -9.273682e-01 -5.076294e-01
2.539447e+08 -3.005981e-01 -9.951172e-01 3.553368e-05 -1.875497e-05 5.144626e-06 -2.903678e-05 -9.285889e-01 -5.070801e-01
2.541625e+08 -2.974243e-01 -9.976807e-01 -6.260350e-06 -1.184456e-05 1.552328e-05 -1.636986e-05 -9.290771e-01 -5.072021e-01
2.543803e+08 -2.935791e-01 -9.993286e-01 1.533888e-05 -1.112651e-05 3.068708e-05 3.353506e-05 -9.293823e-01 -5.076294e-01
2.545981e+08 -2.899170e-01 -1.000732e+00 -1.155585e-05 2.123229e-05 -2.208725e-05 1.929700e-05 -9.298096e-01 -5.088501e-01
2.548159e+08 -2.861328e-01 -1.002197e+00 -3.556162e-05 1.873821e-05 -1.303386e-05 1.841318e-05 -9.296265e-01 -5.080566e-01
2.550338e+08 -2.827759e-01 -1.003357e+00 -2.305582e-05 4.249811e-05 -1.214258e-05 2.745725e-05 -9.313354e-01 -5.076904e-01
2.552516e+08 -2.786865e-01 -1.005249e+00 -2.095662e-05 2.925843e-05 1.570024e-05 8.734874e-06 -9.318237e-01 -5.079346e-01
2.554694e+08 -2.752686e-01 -1.007141e+00 3.175810e-06 -1.986139e-05 2.982095e-05 2.449006e-05 -9.319458e-01 -5.081177e-01
2.556872e+08 -2.716675e-01 -1.009033e+00 -1.502968e-05 2.612174e-05 -8.612406e-06 5.416106e-06 -9.325562e-01 -5.079346e-01
2.559050e+08 -2.684326e-01 -1.009705e+00 1.958385e-05 -3.761053e-05 -2.164207e-05 2.384186e-05 -9.328613e-01 -5.079346e-01
2.561228e+08 -2.642212e-01 -1.011108e+00 7.315539e-06 5.241483e-06 8.940697e-08 1.255423e-05 -9.338379e-01 -5.079956e-01
2.563406e+08 -2.602539e-01 -1.012817e+00 -1.991168e-05 2.264604e-05 2.122484e-06 1.007551e-05 -9.346924e-01 -5.078125e-01
2.565584e+08 -2.569580e-01 -1.015320e+00 5.260110e-06 -3.313273e-05 8.856878e-07 9.058509e-06 -9.350586e-01 -5.079346e-01
2.567762e+08 -2.535400e-01 -1.016052e+00 1.049135e-05 -1.464039e-05 -9.498093e-06 -3.639143e-06 -9.356689e-01 -5.084229e-01
2.569941e+08 -2.509155e-01 -1.017700e+00 -5.935784e-06 3.129244e-06 -2.558902e-05 -4.343688e-06 -9.356079e-01 -5.082397e-01
2.572119e+08 -2.459106e-01 -1.018982e+00 6.262213e-06 1.187529e-05 2.361648e-05 1.941063e-05 -9.365234e-01 -5.083618e-01
2.574297e+08 -2.427979e-01 -1.020325e+00 -2.412125e-05 4.921481e-05 1.119543e-05 9.198673e-06 -9.377441e-01 -5.072632e-01
2.576475e+08 -2.394409e-01 -1.021667e+00 9.440817e-06 -8.012168e-06 -1.678523e-05 1.537148e-05 -9.375610e-01 -5.084229e-01
2.578653e+08 -2.366333e-01 -1.022644e+00 -5.614012e-06 1.813844e-05 -3.108010e-05 -2.553686e-05 -9.377441e-01 -5.079346e-01
2.580831e+08 -2.326660e-01 -1.024658e+00 -1.637824e-05 -3.388710e-05 -1.188368e-05 -5.145371e-05 -9.390869e-01 -5.073853e-01
2.583009e+08 -2.276001e-01 -1.025330e+00 -7.357448e-07 2.164580e-05 1.022685e-05 -1.241546e-05 -9.392090e-01 -5.075073e-01
2.585188e+08 -2.243652e-01 -1.027649e+00 -9.767711e-06 -7.007271e-06 -7.020310e-06 -1.603272e-06 -9.400635e-01 -5.074463e-01
2.587366e+08 -2.201538e-01 -1.029419e+00 -6.020069e-05 5.293265e-05 1.279917e-05 2.195127e-06 -9.397583e-01 -5.073242e-01
2.589544e+08 -2.176514e-01 -1.029663e+00 3.036112e-05 1.438521e-05 1.429580e-05 4.091114e-05 -9.404297e-01 -5.073242e-01
2.591722e+08 -2.138062e-01 -1.030701e+00 2.093054e-05 2.239831e-05 7.124618e-07 -1.607835e-05 -9.415283e-01 -5.068359e-01
2.593900e+08 -2.114258e-01 -1.032166e+00 -1.710374e-05 -1.227390e-05 1.359824e-05 -1.338311e-06 -9.419556e-01 -5.073242e-01
2.596078e+08 -2.054443e-01 -1.034119e+00 -2.411567e-05 -2.499670e-06 4.016981e-05 -4.619360e-05 -9.418945e-01 -5.064697e-01
2.598256e+08 -2.039185e-01 -1.035828e+00 2.568960e-05 7.766485e-05 -1.494586e-05 -1.227576e-05 -9.421997e-01 -5.064697e-01
2.600434e+08 -1.992798e-01 -1.036377e+00 -1.604110e-05 -1.891423e-05 2.612174e-05 2.149306e-05 -9.426880e-01 -5.061035e-01
2.602612e+08 -1.953735e-01 -1.038208e+00 -1.021288e-05 2.969988e-05 -1.661852e-05 -1.784880e-05 -9.429932e-01 -5.064087e-01
2.604791e+08 -1.921387e-01 -1.038818e+00 -2.560392e-05 4.085526e-05 -1.164339e-05 -1.374539e-05 -9.436646e-01 -5.054321e-01
2.606969e+08 -1.888428e-01 -1.039795e+00 5.953945e-06 -3.132969e-06 5.625188e-07 -4.124828e-05 -9.436646e-01 -5.058594e-01
2.609147e+08 -1.848145e-01 -1.042236e+00 -1.434702e-05 4.520640e-06 -2.849847e-06 6.005634e-06 -9.443359e-01 -5.045776e-01
2.611325e+08 -1.815186e-01 -1.042969e+00 -4.097819e-07 3.674440e-05 -2.537481e-05 3.339164e-05 -9.460449e-01 -5.045776e-01
2.613503e+08 -1.787720e-01 -1.044739e+00 -8.733012e-06 -1.366902e-05 -2.665956e-11 -2.721379e-10 -9.466553e-01 -5.043945e-01
2.615681e+08 -1.739502e-01 -1.045349e+00 -3.081374e-05 2.234988e-05 -2.716295e-05 1.523830e-05 -9.456787e-01 -5.034790e-01
2.617859e+08 -1.707153e-01 -1.046448e+00 2.935529e-05 2.104603e-05 2.679229e-05 -7.193536e-06 -9.461670e-01 -5.036621e-01
2.620038e+08 -1.679688e-01 -1.047607e+00 -6.187707e-06 -6.373972e-05 -2.787821e-05 3.137253e-05 -9.469604e-01 -5.032959e-01
2.622216e+08 -1.628418e-01 -1.048706e+00 5.045161e-05 -8.318573e-06 2.270378e-05 -2.197921e-06 -9.479980e-01 -5.035400e-01
2.624394e+08 -1.598511e-01 -1.049866e+00 7.338822e-06 5.264767e-06 1.076795e-05 4.680362e-06 -9.476929e-01 -5.028076e-01
2.626572e+08 -1.561890e-01 -1.050049e+00 1.542829e-05 -1.118425e-05 -2.181157e-05 1.128577e-05 -9.487915e-01 -5.021362e-01
2.628750e+08 -1.533813e-01 -1.051819e+00 -3.457069e-05 -3.964826e-05 -2.162531e-05 -2.195872e-05 -9.482422e-01 -5.021362e-01
2.630928e+08 -1.488647e-01 -1.053040e+00 1.224969e-05 8.784235e-06 1.216121e-05 -4.013628e-05 -9.495239e-01 -5.018311e-01
2.633106e+08 -1.451416e-01 -1.054077e+00 9.478536e-06 -8.039176e-06 -1.963787e-05 3.398396e-05 -9.494019e-01 -5.014038e-01
2.635284e+08 -1.420288e-01 -1.055054e+00 1.362711e-05 1.719035e-05 -4.125014e-05 1.200661e-05 -9.494019e-01 -5.004883e-01
2.637462e+08 -1.386719e-01 -1.055908e+00 3.013946e-05 -6.556511e-07 1.105480e-05 -1.597684e-05 -9.501953e-01 -4.999390e-01
2.639641e+08 -1.342773e-01 -1.057434e+00 -3.611483e-05 3.777444e-06 -2.059992e-05 1.231115e-05 -9.501343e-01 -5.003052e-01
2.641819e+08 -1.328735e-01 -1.058411e+00 -2.943538e-05 -2.111867e-05 4.899222e-06 -8.511823e-06 -9.516602e-01 -5.001831e-01
2.643997e+08 -1.276245e-01 -1.058777e+00 -3.198534e-05 2.908334e-05 1.362804e-05 -1.316890e-06 -9.521484e-01 -4.992065e-01
2.646175e+08 -1.241455e-01 -1.060120e+00 -9.402633e-06 -4.389882e-05 2.000853e-05 2.903864e-05 -9.524536e-01 -4.987183e-01
2.648353e+08 -1.212769e-01 -1.061523e+00 -3.175810e-07 -1.507625e-05 1.239218e-05 -2.354383e-06 -9.503784e-01 -4.981689e-01
2.650531e+08 -1.166382e-01 -1.061768e+00 1.470651e-05 1.054723e-05 1.606159e-05 -1.187064e-05 -9.509277e-01 -4.973755e-01
2.652709e+08 -1.132202e-01 -1.063477e+00 -3.156066e-05 -7.778406e-06 2.379529e-05 -3.901869e-05 -9.515991e-01 -4.970703e-01
2.654888e+08 -1.098633e-01 -1.064331e+00 -4.180521e-05 2.204254e-05 1.944695e-05 -7.282943e-07 -9.522705e-01 -4.963379e-01
2.657066e+08 -1.073608e-01 -1.064453e+00 -5.541369e-06 -3.371015e-05 4.672259e-05 -3.416091e-06 -9.519653e-01 -4.964600e-01
2.659244e+08 -1.030884e-01 -1.065674e+00 1.858175e-05 2.075359e-05 1.283828e-05 2.200715e-06 -9.528809e-01 -4.957275e-01
2.661422e+08 -9.875488e-02 -1.067444e+00 -2.007000e-05 2.277270e-05 8.734874e-06 7.198192e-06 -9.523315e-01 -4.954834e-01
2.663600e+08 -9.570312e-02 -1.067322e+00 -2.902001e-06 3.512390e-05 -1.695100e-05 2.788380e-06 -9.530640e-01 -4.948730e-01
2.665778e+08 -9.228516e-02 -1.068726e+00 -3.019907e-05 6.332994e-07 -9.545125e-06 -3.668945e-06 -9.530640e-01 -4.935913e-01
2.667956e+08 -8.898926e-02 -1.068848e+00 8.112751e-06 -1.649279e-05 -1.136959e-05 3.669970e-05 -9.532471e-01 -4.932861e-01
2.670134e+08 -8.483887e-02 -1.070618e+00 -3.483705e-05 1.221895e-05 1.704041e-05 9.845011e-06 -9.541016e-01 -4.933472e-01
2.672312e+08 -8.123779e-02 -1.070923e+00 -2.457062e-06 -1.764158e-06 3.180094e-05 -1.571514e-05 -9.539795e-01 -4.925537e-01
2.674491e+08 -7.757568e-02 -1.072021e+00 4.326552e-05 -1.359731e-05 5.653128e-06 -2.469122e-05 -9.533691e-01 -4.921875e-01
2.676669e+08 -7.482910e-02 -1.072510e+00 3.438443e-05 2.470426e-05 3.659166e-05 2.174266e-05 -9.537964e-01 -4.916992e-01
2.678847e+08 -7.061768e-02 -1.073181e+00 1.057331e-05 -1.474842e-05 -1.322944e-05 5.872920e-06 -9.542847e-01 -4.899292e-01
2.681025e+08 -6.738281e-02 -1.074341e+00 -1.197308e-05 6.305985e-06 -4.482269e-05 -1.176819e-05 -9.542236e-01 -4.905396e-01
2.683203e+08 -6.256104e-02 -1.075378e+00 4.166737e-06 2.533570e-05 1.304783e-06 1.367368e-05 -9.541016e-01 -4.899292e-01
2.685381e+08 -6.066895e-02 -1.075806e+00 3.850088e-06 1.021102e-05 -1.080707e-05 -4.709698e-06 -9.547119e-01 -4.890747e-01
2.687559e+08 -5.700684e-02 -1.076782e+00 -3.630295e-05 5.585328e-05 -3.824942e-05 -1.474284e-05 -9.539185e-01 -4.881592e-01
2.689738e+08 -5.395508e-02 -1.076294e+00 -7.245690e-06 -5.739555e-05 7.058494e-06 1.617707e-06 -9.544678e-01 -4.885864e-01
2.691916e+08 -5.029297e-02 -1.076721e+00 2.289005e-05 -5.949289e-06 -3.485195e-05 -3.540888e-06 -9.545288e-01 -4.873657e-01
2.694094e+08 -4.681396e-02 -1.077820e+00 1.507998e-05 2.573617e-05 -2.479739e-05 1.734123e-05 -9.544678e-01 -4.871826e-01
2.696272e+08 -4.315186e-02 -1.079163e+00 1.230743e-05 8.833595e-06 -9.160489e-06 7.227436e-05 -9.547119e-01 -4.866943e-01
2.698450e+08 -3.991699e-02 -1.078552e+00 -3.062002e-05 -1.448952e-05 3.279559e-05 6.053597e-06 -9.549561e-01 -4.853516e-01
2.700628e+08 -3.564453e-02 -1.079590e+00 -9.965152e-06 4.506111e-05 -1.037354e-05 -1.513399e-07 -9.539795e-01 -4.854736e-01
2.702806e+08 -3.320312e-02 -1.079712e+00 2.245605e-05 3.105775e-05 -2.273358e-05 1.486577e-05 -9.539185e-01 -4.844360e-01
2.704984e+08 -2.929688e-02 -1.080811e+00 3.691204e-05 2.651662e-05 2.928637e-05 4.092604e-05 -9.534302e-01 -4.840088e-01
2.707162e+08 -2.508545e-02 -1.082153e+00 -7.385854e-06 -5.304348e-06 -5.444977e-06 -8.697156e-06 -9.535522e-01 -4.833374e-01
2.709341e+08 -2.148438e-02 -1.081848e+00 4.659221e-05 -3.370643e-05 3.101863e-05 -2.486631e-05 -9.531860e-01 -4.826050e-01
2.711519e+08 -1.879883e-02 -1.082520e+00 -3.108755e-05 2.248026e-05 -1.877639e-05 -1.546834e-05 -9.536743e-01 -4.824219e-01
2.713697e+08 -1.525879e-02 -1.083435e+00 4.122779e-05 -2.458692e-07 1.532491e-05 -8.394942e-06 -9.528198e-01 -4.815063e-01
2.715875e+08 -1.165771e-02 -1.083435e+00 -9.462237e-07 -4.550070e-05 -1.813285e-05 2.709590e-05 -9.532471e-01 -4.809570e-01
2.718053e+08 -8.117676e-03 -1.083740e+00 -8.912757e-06 3.840029e-05 3.859401e-06 -5.569682e-05 -9.527588e-01 -4.801636e-01
2.720231e+08 -5.187988e-03 -1.083618e+00 2.153218e-06 -1.338962e-05 2.614595e-05 -3.684312e-06 -9.523926e-01 -4.797363e-01
2.722409e+08 -9.765625e-04 -1.084778e+00 -4.926696e-05 -3.539026e-05 -8.566305e-06 3.079884e-05 -9.522095e-01 -4.791870e-01
2.724588e+08 2.746582e-03 -1.083740e+00 1.370534e-05 1.732912e-05 -6.148592e-05 -4.470348e-06 -9.523926e-01 -4.793091e-01
2.726766e+08 5.493164e-03 -1.085205e+00 -1.983717e-05 3.804639e-05 -3.624707e-06 2.225116e-05 -9.522705e-01 -4.772339e-01
2.728944e+08 9.338379e-03 -1.085754e+00 -2.049096e-05 7.702038e-06 -3.196299e-06 2.683513e-05 -9.519043e-01 -4.776611e-01
2.731122e+08 1.281738e-02 -1.086670e+00 2.680905e-05 4.295260e-06 8.814968e-07 9.151176e-06 -9.515991e-01 -4.764404e-01
2.733300e+08 1.599121e-02 -1.085449e+00 4.450977e-05 -2.036989e-05 2.422370e-05 2.417155e-05 -9.514160e-01 -4.758301e-01
2.735478e+08 1.928711e-02 -1.086182e+00 3.560260e-05 1.808256e-05 -2.535805e-05 1.229346e-07 -9.512939e-01 -4.750366e-01
2.737656e+08 2.276611e-02 -1.086548e+00 -3.681332e-05 4.087016e-05 -7.447787e-06 6.484799e-06 -9.513550e-01 -4.752808e-01
2.739834e+08 2.673340e-02 -1.086792e+00 1.389999e-06 8.477829e-06 -2.506538e-06 -2.066954e-06 -9.506226e-01 -4.747925e-01
2.742012e+08 3.027344e-02 -1.087219e+00 1.773424e-05 -2.465583e-05 1.056120e-06 -3.703125e-05 -9.498901e-01 -4.742432e-01
2.744191e+08 3.320312e-02 -1.088074e+00 3.884919e-05 -2.022833e-06 -1.173094e-05 -1.388509e-05 -9.500732e-01 -4.729004e-01
2.746369e+08 3.698730e-02 -1.087524e+00 2.019666e-05 -2.289005e-05 -1.634471e-06 7.083174e-06 -9.495239e-01 -4.728394e-01
2.748547e+08 4.083252e-02 -1.088257e+00 5.241483e-06 1.873448e-05 1.940876e-05 5.821511e-05 -9.492798e-01 -4.721680e-01
2.750725e+08 4.339600e-02 -1.087952e+00 -2.575293e-05 -1.104176e-05 2.584234e-05 4.446134e-06 -9.489136e-01 -4.721069e-01
2.752903e+08 4.705811e-02 -1.088379e+00 -2.762116e-05 1.757778e-05 -8.341391e-06 -2.666377e-06 -9.481201e-01 -4.714355e-01
2.755081e+08 5.029297e-02 -1.088745e+00 -4.430488e-05 3.554299e-05 -1.948327e-06 2.792664e-05 -9.476318e-01 -4.711304e-01
2.757259e+08 5.364990e-02 -1.088684e+00 1.095235e-05 3.892928e-07 -2.704002e-05 7.221475e-06 -9.472046e-01 -4.703369e-01
2.759438e+08 5.700684e-02 -1.088135e+00 1.895055e-05 3.611669e-05 -3.846176e-05 -2.749823e-05 -9.466553e-01 -4.699097e-01
2.761616e+08 6.054688e-02 -1.088318e+00 -1.450349e-05 4.545785e-06 5.275384e-05 -2.816692e-05 -9.460449e-01 -4.686890e-01
2.763794e+08 6.372070e-02 -1.088013e+00 4.636124e-06 -1.164991e-05 -2.282672e-05 1.490302e-05 -9.458618e-01 -4.688110e-01
2.765972e+08 6.719971e-02 -1.088318e+00 2.084114e-05 7.487833e-06 2.969615e-05 2.025440e-05 -9.456177e-01 -4.678955e-01
2.768150e+08 7.104492e-02 -1.087646e+00 -6.655231e-05 1.956895e-05 -2.912618e-05 9.717420e-06 -9.451294e-01 -4.675903e-01
2.770328e+08 7.366943e-02 -1.087463e+00 -3.011711e-05 1.583621e-05 5.091541e-06 1.684856e-05 -9.453125e-01 -4.664917e-01
2.772506e+08 7.714844e-02 -1.088196e+00 6.025191e-06 -3.166031e-06 5.088001e-05 -2.570450e-07 -9.444580e-01 -4.662476e-01
2.774684e+08 8.062744e-02 -1.087891e+00 1.048110e-05 3.755093e-05 8.920208e-06 3.268197e-05 -9.438477e-01 -4.661255e-01
2.776862e+08 8.471680e-02 -1.087952e+00 2.826937e-05 1.281686e-05 1.469534e-05 2.057385e-05 -9.434814e-01 -4.651489e-01
2.779041e+08 8.813477e-02 -1.087524e+00 5.530193e-06 3.396906e-05 2.380461e-05 6.968156e-06 -9.420776e-01 -4.647217e-01
2.781219e+08 9.191895e-02 -1.087646e+00 -1.699198e-05 2.769753e-06 -1.620967e-05 1.196284e-05 -9.420166e-01 -4.638672e-01
2.783397e+08 9.588623e-02 -1.086426e+00 -5.552545e-06 -3.398210e-05 -2.014637e-05 -2.930313e-05 -9.415283e-01 -4.633179e-01
2.785575e+08 9.814453e-02 -1.086548e+00 -2.132356e-05 2.964959e-05 2.812035e-05 4.009157e-05 -9.407959e-01 -4.629517e-01
2.787753e+08 1.021729e-01 -1.086548e+00 -1.097564e-05 -3.911555e-07 1.897849e-05 -4.343875e-05 -9.409790e-01 -4.627075e-01
2.789931e+08 1.047363e-01 -1.087219e+00 3.561378e-06 -4.939735e-06 1.980923e-05 3.744662e-05 -9.394531e-01 -4.628906e-01
2.792109e+08 1.083984e-01 -1.086243e+00 -9.272248e-06 2.332963e-05 -9.234063e-06 -1.184549e-05 -9.392700e-01 -4.610596e-01
2.794288e+08 1.119385e-01 -1.085938e+00 -1.750514e-05 3.993511e-05 3.701076e-05 -2.437085e-05 -9.385376e-01 -4.614868e-01
2.796466e+08 1.154785e-01 -1.086182e+00 6.328337e-06 1.205783e-05 -3.272668e-06 1.420453e-05 -9.379883e-01 -4.611816e-01
2.798644e+08 1.184082e-01 -1.085510e+00 2.303906e-05 -5.949289e-06 2.708659e-05 -7.228926e-06 -9.381104e-01 -4.606934e-01
2.800822e+08 1.222534e-01 -1.085510e+00 3.267080e-06 -2.017058e-05 9.078532e-06 -2.635270e-05 -9.364014e-01 -4.609985e-01
2.803000e+08 1.246338e-01 -1.084961e+00 -2.304092e-05 5.925074e-06 2.825633e-06 -1.880433e-05 -9.357300e-01 -4.604492e-01
2.805178e+08 1.290894e-01 -1.084717e+00 3.926456e-05 1.325645e-05 -3.843196e-05 -2.136454e-06 -9.350586e-01 -4.600830e-01
2.807356e+08 1.321411e-01 -1.084534e+00 -3.204122e-05 4.447997e-05 2.750568e-05 -1.536496e-05 -9.339600e-01 -4.593506e-01
2.809534e+08 1.350098e-01 -1.084290e+00 -1.949538e-05 9.918585e-07 1.000380e-05 -4.434027e-06 -9.343872e-01 -4.590454e-01
2.811712e+08 1.384277e-01 -1.083679e+00 -4.440174e-05 3.558397e-05 -1.547579e-05 -4.313886e-06 -9.326782e-01 -4.581909e-01
2.813891e+08 1.433105e-01 -1.082703e+00 7.417519e-06 5.335081e-06 2.513989e-06 2.079410e-06 -9.320068e-01 -4.576416e-01
2.816069e+08 1.450806e-01 -1.082703e+00 1.087785e-06 -6.731134e-06 -2.655946e-05 3.730878e-05 -9.320679e-01 -4.578247e-01
2.818247e+08 1.488037e-01 -1.082642e+00 2.611428e-05 2.629124e-05 -2.267212e-05 -1.870096e-05 -9.312744e-01 -4.569092e-01
2.820425e+08 1.530762e-01 -1.082458e+00 2.798252e-05 -2.373010e-06 1.467392e-05 7.883646e-06 -9.306030e-01 -4.564819e-01
2.822603e+08 1.563721e-01 -1.081360e+00 2.966262e-05 2.135895e-05 -1.838990e-05 1.752749e-06 -9.295044e-01 -4.562988e-01
2.824781e+08 1.597290e-01 -1.081055e+00 -1.702458e-05 2.763234e-06 5.699694e-06 -3.765523e-05 -9.295654e-01 -4.565430e-01
2.826959e+08 1.626587e-01 -1.080627e+00 -4.585832e-05 -4.059821e-05 1.883414e-05 2.839603e-06 -9.281616e-01 -4.563599e-01
2.829138e+08 1.654663e-01 -1.080200e+00 1.483038e-05 1.067854e-05 -1.127832e-05 3.404915e-06 -9.270020e-01 -4.554443e-01
2.831316e+08 1.693726e-01 -1.079529e+00 8.231029e-06 -1.661386e-05 1.532584e-05 -3.396347e-05 -9.264526e-01 -4.562988e-01
2.833494e+08 1.727905e-01 -1.079224e+00 -1.291186e-05 -3.936514e-05 3.312528e-05 -7.862598e-05 -9.252930e-01 -4.552002e-01
2.835672e+08 1.759033e-01 -1.078369e+00 -1.344364e-05 -2.182089e-06 -1.531467e-05 3.396347e-05 -9.243774e-01 -4.547729e-01
2.837850e+08 1.795654e-01 -1.078003e+00 -2.991594e-05 3.105588e-05 1.746230e-06 1.840293e-05 -9.248047e-01 -4.550171e-01
2.840028e+08 1.831055e-01 -1.077454e+00 2.187677e-06 -1.345482e-05 -2.761185e-05 2.628192e-06 -9.235840e-01 -4.546509e-01
2.842206e+08 1.865234e-01 -1.075073e+00 1.427345e-05 -1.975149e-05 -3.426149e-05 5.563721e-06 -9.216919e-01 -4.550781e-01
2.844384e+08 1.890259e-01 -1.074829e+00 -1.425669e-05 1.978874e-05 1.373421e-05 -1.407415e-05 -9.224243e-01 -4.537964e-01
2.846562e+08 1.925659e-01 -1.075500e+00 3.483891e-05 -2.749264e-05 5.625188e-07 3.014319e-05 -9.209595e-01 -4.538574e-01
2.848741e+08 1.965332e-01 -1.073914e+00 1.541153e-05 4.118681e-05 1.418963e-05 -9.478070e-06 -9.204712e-01 -4.539795e-01
2.850919e+08 1.998901e-01 -1.072815e+00 -5.487353e-06 3.361516e-05 -2.305023e-05 -1.058541e-05 -9.186401e-01 -4.537964e-01
2.853097e+08 2.042847e-01 -1.072388e+00 3.372878e-05 -2.075173e-05 3.005750e-05 -2.604909e-05 -9.183350e-01 -4.533081e-01
2.855275e+08 2.058105e-01 -1.071228e+00 -2.690963e-05 -4.377216e-06 -3.422797e-05 1.835823e-05 -9.179077e-01 -4.536133e-01
2.857453e+08 2.099609e-01 -1.071228e+00 -1.482666e-05 5.694106e-05 6.247777e-06 -7.567462e-06 -9.161377e-01 -4.540405e-01
2.859631e+08 2.135620e-01 -1.069519e+00 1.016073e-05 2.237409e-05 -2.463534e-05 2.206489e-05 -9.157104e-01 -4.532471e-01
2.861809e+08 2.164307e-01 -1.068848e+00 8.205348e-11 5.084360e-10 1.419988e-05 -9.480864e-06 -9.146729e-01 -4.533691e-01
2.863988e+08 2.199707e-01 -1.068176e+00 7.414725e-06 5.354639e-06 2.967194e-05 -1.791678e-05 -9.141846e-01 -4.531250e-01
2.866166e+08 2.229004e-01 -1.066772e+00 -1.811981e-05 9.468757e-06 -4.407763e-05 -2.367795e-05 -9.127808e-01 -4.531860e-01
2.868344e+08 2.265625e-01 -1.066772e+00 4.033744e-05 6.623566e-06 -7.955357e-06 1.919921e-06 -9.114990e-01 -4.533691e-01
2.870522e+08 2.301025e-01 -1.065552e+00 3.567897e-06 -4.940666e-06 3.010966e-06 1.946744e-05 -9.111938e-01 -4.527588e-01
2.872700e+08 2.333984e-01 -1.064026e+00 -6.612390e-06 4.033744e-05 -9.220093e-07 -2.198666e-05 -9.097900e-01 -4.531860e-01
2.874878e+08 2.377930e-01 -1.062927e+00 1.016073e-05 2.238527e-05 -1.752377e-05 2.371520e-05 -9.098511e-01 -4.531250e-01
2.877056e+08 2.395630e-01 -1.062622e+00 4.526973e-05 -5.749986e-05 -2.588332e-05 2.107210e-05 -9.085693e-01 -4.522705e-01
2.879234e+08 2.428589e-01 -1.062134e+00 1.263246e-05 -4.353374e-05 3.232807e-05 9.706244e-06 -9.081421e-01 -4.525146e-01
2.881412e+08 2.466431e-01 -1.060547e+00 -1.427531e-05 1.977012e-05 2.547540e-05 -2.568029e-05 -9.070435e-01 -4.524536e-01
2.883591e+08 2.495728e-01 -1.059570e+00 6.603077e-06 2.731383e-05 -4.169764e-06 5.047768e-06 -9.066772e-01 -4.520264e-01
2.885769e+08 2.530518e-01 -1.058044e+00 -4.919991e-05 4.724413e-05 5.401671e-07 3.016740e-05 -9.060059e-01 -4.529419e-01
2.887947e+08 2.575684e-01 -1.056763e+00 3.296882e-05 1.210719e-06 1.603924e-05 3.453530e-05 -9.054565e-01 -4.521484e-01
2.890125e+08 2.602539e-01 -1.056641e+00 -3.565568e-06 4.942995e-06 7.959548e-06 -1.913868e-06 -9.035645e-01 -4.517822e-01
2.892303e+08 2.641602e-01 -1.055664e+00 -3.030524e-06 3.542565e-05 -8.320436e-06 2.288446e-05 -9.027710e-01 -4.529419e-01
2.894481e+08 2.670898e-01 -1.054504e+00 1.345668e-05 2.191402e-06 4.190952e-08 1.279078e-05 -9.023438e-01 -4.522095e-01
2.896659e+08 2.710571e-01 -1.053223e+00 -1.289696e-05 -3.940612e-05 -1.244619e-05 4.071929e-05 -9.010620e-01 -4.526367e-01
2.898838e+08 2.741699e-01 -1.052124e+00 -1.370441e-05 -1.744740e-05 3.521144e-05 -9.149313e-06 -8.998413e-01 -4.531860e-01
2.901016e+08 2.781982e-01 -1.050781e+00 -1.593120e-05 -4.000030e-06 4.740432e-05 -3.293157e-06 -8.995972e-01 -4.536743e-01
2.903194e+08 2.804565e-01 -1.049377e+00 3.159232e-05 -7.262453e-06 -1.625903e-05 2.480671e-05 -8.988647e-01 -4.528809e-01
2.905372e+08 2.838135e-01 -1.048828e+00 -6.567687e-06 -2.733618e-05 -1.450814e-05 4.327856e-05 -8.977051e-01 -4.535522e-01
2.907550e+08 2.872314e-01 -1.046875e+00 -4.257262e-05 6.817281e-06 4.875287e-05 2.330169e-05 -8.966675e-01 -4.533691e-01
2.909728e+08 2.905273e-01 -1.045898e+00 -5.196780e-07 -3.048033e-05 1.996756e-06 -2.812408e-05 -8.958740e-01 -4.541626e-01
2.911906e+08 2.944336e-01 -1.044983e+00 -1.209322e-05 6.309710e-06 -5.010050e-06 8.622650e-06 -8.951416e-01 -4.542847e-01
2.914084e+08 2.975464e-01 -1.043640e+00 -2.776273e-05 1.755357e-05 2.259575e-05 -1.960061e-05 -8.939209e-01 -4.545898e-01
2.916262e+08 3.006592e-01 -1.041992e+00 -9.879470e-06 -7.153489e-06 -5.293638e-06 4.240312e-05 -8.930054e-01 -4.547729e-01
2.918441e+08 3.047485e-01 -1.040771e+00 3.571156e-06 -4.939269e-06 4.329905e-05 1.457520e-05 -8.919067e-01 -4.544067e-01
2.920619e+08 3.073120e-01 -1.039124e+00 2.036057e-05 -2.294034e-05 3.153645e-05 1.334026e-05 -8.920898e-01 -4.553833e-01
2.922797e+08 3.091431e-01 -1.038025e+00 6.048009e-06 -3.152527e-06 -4.398171e-07 -4.616799e-06 -8.909912e-01 -4.553833e-01
2.924975e+08 3.137817e-01 -1.035706e+00 -2.362207e-05 -2.461486e-05 -6.268732e-06 7.576309e-06 -8.904419e-01 -4.554443e-01
2.927153e+08 3.175659e-01 -1.035400e+00 -2.608635e-05 -2.641045e-05 -1.298916e-05 1.053605e-05 -8.894653e-01 -4.559937e-01
2.929331e+08 3.207397e-01 -1.033813e+00 -2.008490e-05 3.817119e-05 -5.330145e-05 1.549721e-05 -8.883057e-01 -4.558105e-01
2.931509e+08 3.241577e-01 -1.032593e+00 -3.625825e-05 1.894310e-05 8.568168e-08 2.562627e-05 -8.875732e-01 -4.553223e-01
2.933688e+08 3.273926e-01 -1.030701e+00 -1.730490e-05 -1.251139e-05 2.608448e-05 1.735426e-05 -8.868408e-01 -4.558105e-01
2.935866e+08 3.317261e-01 -1.028870e+00 -4.370138e-05 1.359358e-05 5.794689e-05 -3.088266e-06 -8.862915e-01 -4.563599e-01
2.938044e+08 3.348999e-01 -1.027954e+00 5.794689e-06 -1.839083e-05 -2.097990e-05 1.245551e-05 -8.843994e-01 -4.567871e-01
2.940222e+08 3.388062e-01 -1.026917e+00 1.284853e-05 3.943965e-05 -1.094490e-05 -4.806556e-06 -8.841553e-01 -4.569702e-01
2.942400e+08 3.410034e-01 -1.026062e+00 -6.296858e-05 2.979115e-05 -1.742505e-06 -1.849420e-05 -8.839722e-01 -4.570312e-01
2.944578e+08 3.452148e-01 -1.023682e+00 -5.773455e-05 4.857779e-05 1.041405e-05 -3.827177e-05 -8.826294e-01 -4.572754e-01
2.946756e+08 3.477173e-01 -1.021973e+00 1.651421e-05 -3.324263e-05 1.515914e-05 1.256075e-05 -8.822021e-01 -4.575195e-01
2.948934e+08 3.505859e-01 -1.021484e+00 9.622891e-06 -8.104369e-06 8.464791e-06 1.552794e-05 -8.818359e-01 -4.573975e-01
2.951112e+08 3.551636e-01 -1.019348e+00 8.263625e-06 -1.661386e-05 -4.221220e-06 -7.769093e-06 -8.803101e-01 -4.584961e-01
2.953291e+08 3.575439e-01 -1.017456e+00 -7.160008e-06 9.875745e-06 2.393685e-05 -5.748123e-06 -8.789062e-01 -4.591675e-01
2.955469e+08 3.616333e-01 -1.015564e+00 -2.497248e-05 -3.313459e-05 -1.333654e-06 -2.668798e-05 -8.786011e-01 -4.590454e-01
2.957647e+08 3.644409e-01 -1.014282e+00 -1.646392e-05 -3.451854e-05 2.098363e-05 -1.246575e-05 -8.782349e-01 -4.595947e-01
2.959825e+08 3.684692e-01 -1.012573e+00 2.199411e-05 8.530915e-07 -8.909032e-06 -3.298372e-05 -8.775635e-01 -4.600830e-01
2.962003e+08 3.711548e-01 -1.008057e+00 3.343262e-05 1.071207e-05 -3.597140e-05 -4.688278e-06 -8.768311e-01 -4.611816e-01
2.964181e+08 3.739014e-01 -1.007874e+00 -4.409626e-05 -1.812354e-05 -2.954155e-06 -6.305054e-06 -8.769531e-01 -4.622803e-01
2.966359e+08 3.782959e-01 -1.005859e+00 1.380779e-05 2.537481e-05 1.647882e-05 -1.077354e-05 -8.759155e-01 -4.625244e-01
2.968538e+08 3.807373e-01 -1.003906e+00 2.731942e-05 1.274422e-05 1.240335e-05 1.871958e-06 -8.743896e-01 -4.624023e-01
2.970716e+08 3.848877e-01 -1.002441e+00 9.335577e-06 1.595076e-05 2.197176e-05 1.738779e-05 -8.737183e-01 -4.628296e-01
2.972894e+08 3.875122e-01 -1.000671e+00 2.940558e-05 -1.559034e-06 -2.828985e-05 -6.206706e-05 -8.737793e-01 -4.627075e-01
2.975072e+08 3.898926e-01 -9.992676e-01 2.161041e-05 1.190975e-05 2.565049e-05 2.025813e-05 -8.727417e-01 -4.636230e-01
2.977250e+08 3.944702e-01 -9.976807e-01 1.249835e-06 -8.573756e-06 1.210812e-05 -1.027808e-05 -8.716431e-01 -4.639282e-01
2.979428e+08 3.974609e-01 -9.956665e-01 3.022701e-05 -7.262453e-06 1.922529e-05 3.304332e-06 -8.707275e-01 -4.641113e-01
2.981606e+08 4.014893e-01 -9.938965e-01 -2.779067e-06 -2.081878e-05 -4.469417e-06 -1.943950e-05 -8.688354e-01 -4.650879e-01
2.983784e+08 4.052124e-01 -9.912720e-01 -1.601316e-05 2.976134e-05 -1.474936e-05 1.612585e-05 -8.692017e-01 -4.651489e-01
2.985962e+08 4.079590e-01 -9.898071e-01 -1.184270e-05 1.194887e-06 2.746470e-06 1.408719e-05 -8.687134e-01 -4.650269e-01
2.988141e+08 4.104004e-01 -9.884033e-01 -1.561083e-05 2.689287e-05 -3.099442e-06 4.914030e-05 -8.675537e-01 -4.663696e-01
2.990319e+08 4.140625e-01 -9.859619e-01 -9.216368e-06 6.287917e-05 -4.071742e-06 1.265574e-05 -8.671265e-01 -4.675293e-01
2.992497e+08 4.188232e-01 -9.837646e-01 -2.091751e-06 1.427997e-05 -2.667494e-05 1.857616e-05 -8.660889e-01 -4.671631e-01
2.994675e+08 4.215088e-01 -9.825439e-01 4.468020e-06 9.403564e-06 2.410822e-05 7.187948e-06 -8.659058e-01 -4.674683e-01
2.996853e+08 4.240112e-01 -9.805908e-01 1.923554e-05 -1.178309e-05 2.450868e-05 -8.398667e-06 -8.650513e-01 -4.685059e-01
2.999031e+08 4.274292e-01 -9.791870e-01 -3.832392e-05 -1.726113e-05 -1.668558e-05 -2.910197e-05 -8.639526e-01 -4.680786e-01
3.001209e+08 4.309692e-01 -9.769287e-01 3.998727e-05 5.856156e-06 1.270697e-05 1.404528e-05 -8.633423e-01 -4.686890e-01
3.003388e+08 4.338379e-01 -9.745483e-01 4.716218e-06 4.738569e-05 3.998354e-05 -2.789684e-05 -8.627319e-01 -4.696655e-01
3.005566e+08 4.382324e-01 -9.735107e-01 -2.227724e-05 -4.703179e-05 -1.010019e-06 -8.755829e-06 -8.619995e-01 -4.702759e-01
3.007744e+08 4.412231e-01 -9.713745e-01 -8.903444e-06 -1.880992e-05 6.516464e-06 -1.073349e-05 -8.610229e-01 -4.711304e-01
3.009922e+08 4.446411e-01 -9.691772e-01 1.058914e-05 7.390045e-06 -1.985952e-05 2.002716e-05 -8.609009e-01 -4.718628e-01
3.012100e+08 4.478760e-01 -9.672852e-01 2.397224e-05 3.560819e-05 -1.762249e-05 2.976321e-05 -8.602905e-01 -4.721680e-01
3.014278e+08 4.509277e-01 -9.652100e-01 6.047264e-05 -1.447648e-05 -2.299994e-05 2.150796e-05 -8.595581e-01 -4.722290e-01
3.016456e+08 4.543457e-01 -9.635620e-01 -5.969778e-06 -3.880449e-05 -2.727285e-05 -5.718321e-06 -8.586426e-01 -4.730835e-01
3.018634e+08 4.575806e-01 -9.614258e-01 -2.898276e-05 -1.309440e-06 4.804507e-05 -2.552941e-05 -8.586426e-01 -4.727173e-01
3.020812e+08 4.612427e-01 -9.589233e-01 -3.512017e-05 6.761402e-07 3.953464e-06 1.506042e-05 -8.579102e-01 -4.743042e-01
3.022991e+08 4.637451e-01 -9.570923e-01 1.783483e-05 3.760867e-05 -3.580004e-05 3.522262e-05 -8.568726e-01 -4.741211e-01
3.025169e+08 4.687500e-01 -9.555054e-01 -1.671165e-05 -5.371869e-06 -5.019829e-06 2.387352e-05 -8.557739e-01 -4.752808e-01
3.027347e+08 4.713745e-01 -9.532471e-01 3.198162e-06 1.797918e-05 -1.322385e-05 -1.843832e-05 -8.558350e-01 -4.759521e-01
3.029525e+08 4.744263e-01 -9.513550e-01 -1.352746e-05 1.261197e-05 -5.915388e-05 -5.081296e-05 -8.556519e-01 -4.762573e-01
3.031703e+08 4.771729e-01 -9.491577e-01 -2.244115e-05 -6.198883e-06 -1.465529e-05 -1.161080e-05 -8.547974e-01 -4.763184e-01
3.033881e+08 4.808960e-01 -9.473877e-01 -8.651055e-06 1.917034e-05 1.700781e-05 -6.408431e-06 -8.546143e-01 -4.778442e-01
3.036059e+08 4.844360e-01 -9.446411e-01 -4.421547e-05 2.267584e-05 3.238022e-05 1.793727e-06 -8.531494e-01 -4.783325e-01
3.038238e+08 4.869995e-01 -9.429932e-01 -2.779067e-06 -2.084300e-05 6.820541e-06 1.429114e-06 -8.529663e-01 -4.786377e-01
3.040416e+08 4.910889e-01 -9.407959e-01 -1.587905e-05 -1.109298e-05 9.475742e-06 -4.426576e-06 -8.521118e-01 -4.792480e-01
3.042594e+08 4.944458e-01 -9.383545e-01 -1.143105e-05 -1.682900e-06 -3.368128e-06 9.263866e-06 -8.515625e-01 -4.799805e-01
3.044772e+08 4.974365e-01 -9.356689e-01 7.807277e-06 -1.345295e-05 -3.245100e-05 -2.176873e-05 -8.515625e-01 -4.796143e-01
3.046950e+08 5.006104e-01 -9.340210e-01 9.581447e-06 5.394220e-05 -2.147630e-06 1.023291e-05 -8.500977e-01 -4.807739e-01
3.049128e+08 5.041504e-01 -9.318848e-01 -1.680106e-06 1.143012e-05 4.425645e-06 6.718561e-05 -8.500366e-01 -4.815674e-01
3.051306e+08 5.070801e-01 -9.296265e-01 -7.468089e-05 -8.065253e-06 1.278706e-05 3.401004e-05 -8.489380e-01 -4.819336e-01
3.053484e+08 5.109253e-01 -9.276123e-01 3.177859e-05 2.217852e-05 -9.477604e-06 4.416797e-06 -8.491211e-01 -4.826050e-01
3.055662e+08 5.137329e-01 -9.255371e-01 4.375726e-05 -1.983717e-05 -4.321523e-05 2.936646e-05 -8.482056e-01 -4.830322e-01
3.057841e+08 5.171509e-01 -9.231567e-01 4.452188e-06 9.410549e-06 -3.157416e-06 1.474516e-06 -8.479004e-01 -4.838257e-01
3.060019e+08 5.204468e-01 -9.202881e-01 4.889816e-05 2.470240e-05 -1.527462e-05 1.173560e-05 -8.472900e-01 -4.841919e-01
3.062197e+08 5.245361e-01 -9.182129e-01 -8.357316e-05 5.188584e-05 -3.498048e-06 -3.066473e-05 -8.468628e-01 -4.856567e-01
3.064375e+08 5.269775e-01 -9.157715e-01 -5.713198e-06 -8.423813e-07 -1.915451e-05 1.661386e-05 -8.459473e-01 -4.860229e-01
3.066553e+08 5.304565e-01 -9.138184e-01 -6.221980e-05 2.586842e-05 -2.708286e-06 5.354360e-05 -8.460693e-01 -4.869995e-01
3.068731e+08 5.341187e-01 -9.113770e-01 -6.977934e-06 7.733703e-06 4.091673e-05 8.620322e-06 -8.455811e-01 -4.873047e-01
3.070909e+08 5.374756e-01 -9.094238e-01 -7.407740e-06 1.059007e-05 -2.886169e-05 -3.885478e-05 -8.451538e-01 -4.879761e-01
3.073088e+08 5.401611e-01 -9.069824e-01 5.352497e-05 -6.686896e-06 -2.353638e-05 1.711771e-05 -8.441162e-01 -4.883423e-01
3.075266e+08 5.435181e-01 -9.047241e-01 2.371520e-05 -2.341345e-06 -2.634712e-05 -1.694821e-05 -8.444824e-01 -4.888916e-01
3.077444e+08 5.473022e-01 -9.027710e-01 -2.941862e-05 1.490116e-06 4.382059e-05 -5.010515e-06 -8.437500e-01 -4.893188e-01
3.079622e+08 5.500488e-01 -8.996582e-01 1.375750e-05 -5.346909e-05 6.035902e-06 -1.510978e-05 -8.433228e-01 -4.905396e-01
3.081800e+08 5.532837e-01 -8.983154e-01 -6.980263e-06 7.732771e-06 2.729706e-06 1.411512e-05 -8.429565e-01 -4.903564e-01
3.083978e+08 5.555420e-01 -8.956299e-01 -1.672562e-05 -5.396083e-06 6.316695e-06 -2.948567e-06 -8.419800e-01 -4.918213e-01
3.086156e+08 5.596924e-01 -8.931274e-01 -3.430992e-05 -5.062670e-06 9.823591e-06 2.773106e-05 -8.421021e-01 -4.916382e-01
3.088334e+08 5.626221e-01 -8.907471e-01 -1.673587e-05 -5.383044e-06 -1.278706e-05 -3.405288e-05 -8.421021e-01 -4.918823e-01
3.090512e+08 5.656128e-01 -8.894043e-01 2.526678e-06 -1.716055e-05 2.883188e-05 1.889095e-05 -8.414917e-01 -4.931641e-01
3.092691e+08 5.697021e-01 -8.866577e-01 -6.948039e-05 -4.429370e-06 1.078285e-05 1.653470e-05 -8.411255e-01 -4.935913e-01
3.094869e+08 5.726929e-01 -8.834229e-01 3.923049e-10 -2.911236e-10 -5.093217e-05 -8.616596e-06 -8.406372e-01 -4.947510e-01
3.097047e+08 5.758057e-01 -8.809204e-01 8.910894e-06 1.885742e-05 -2.247654e-05 -2.184324e-05 -8.405762e-01 -4.949341e-01
3.099225e+08 5.791626e-01 -8.793945e-01 -2.288632e-05 -3.397465e-06 -1.861900e-05 4.099682e-05 -8.396606e-01 -4.959717e-01
3.101403e+08 5.823975e-01 -8.759155e-01 -1.589395e-05 -1.111068e-05 3.539585e-05 2.815761e-05 -8.391724e-01 -4.957886e-01
3.103581e+08 5.859375e-01 -8.735352e-01 9.363890e-05 -7.599592e-07 5.884096e-06 1.264829e-05 -8.388672e-01 -4.972534e-01
3.105759e+08 5.880737e-01 -8.711548e-01 8.894131e-06 1.886114e-05 1.141988e-05 -6.860122e-06 -8.383179e-01 -4.984131e-01
3.107938e+08 5.925903e-01 -8.684082e-01 1.715682e-05 2.545305e-06 -5.573407e-05 2.740696e-05 -8.378296e-01 -4.981689e-01
3.110116e+08 5.960083e-01 -8.664551e-01 5.919486e-06 3.889017e-05 1.144223e-05 -6.850809e-06 -8.381348e-01 -4.988403e-01
3.112294e+08 5.983887e-01 -8.632812e-01 -2.903491e-05 -1.393259e-06 7.160008e-06 -5.404651e-05 -8.375854e-01 -4.998779e-01
3.114472e+08 6.021118e-01 -8.611450e-01 1.167506e-05 3.973395e-05 9.530224e-06 1.556333e-05 -8.375244e-01 -4.996948e-01
3.116650e+08 6.040039e-01 -8.590698e-01 -3.604032e-05 6.346032e-06 3.726035e-05 5.707145e-06 -8.372192e-01 -5.007324e-01
3.118828e+08 6.079712e-01 -8.557739e-01 1.800992e-05 -3.165565e-06 1.363549e-05 2.893619e-06 -8.359375e-01 -5.017700e-01
3.121006e+08 6.105347e-01 -8.531494e-01 3.602915e-05 -6.347895e-06 3.214926e-06 1.848675e-05 -8.361816e-01 -5.017090e-01
3.123184e+08 6.135254e-01 -8.515015e-01 -7.623807e-06 -2.743863e-05 1.851469e-06 4.527718e-05 -8.356934e-01 -5.016479e-01
3.125362e+08 6.170654e-01 -8.485718e-01 -2.862513e-05 -4.256144e-06 2.344139e-05 3.062561e-05 -8.359375e-01 -5.031738e-01
3.127541e+08 6.206055e-01 -8.462524e-01 -1.274981e-06 8.591451e-06 2.435036e-05 -5.550683e-07 -8.358765e-01 -5.038452e-01
3.129719e+08 6.240845e-01 -8.442993e-01 1.123175e-05 4.261732e-05 3.697351e-05 -2.640858e-05 -8.354492e-01 -5.036621e-01
3.131897e+08 6.263428e-01 -8.403931e-01 3.394485e-05 7.981434e-06 -2.927147e-05 -2.328306e-05 -8.353882e-01 -5.050049e-01
3.134075e+08 6.293945e-01 -8.379517e-01 -2.586283e-05 1.663528e-05 1.042895e-05 -1.560990e-05 -8.344727e-01 -5.048828e-01
3.136253e+08 6.335449e-01 -8.348999e-01 -3.161281e-05 1.577474e-05 4.041381e-05 -1.565553e-05 -8.342896e-01 -5.062256e-01
3.138431e+08 6.365967e-01 -8.328857e-01 -1.358148e-05 1.261942e-05 2.246164e-05 2.187118e-05 -8.345337e-01 -5.061646e-01
3.140609e+08 6.394653e-01 -8.304443e-01 4.027970e-06 1.230184e-05 -8.272473e-06 5.377457e-06 -8.341675e-01 -5.064087e-01
3.142788e+08 6.424561e-01 -8.278198e-01 -2.130866e-06 1.432560e-05 -2.019946e-05 7.840805e-06 -8.341675e-01 -5.075073e-01
3.144966e+08 6.458130e-01 -8.258667e-01 3.496185e-05 4.034489e-05 1.731887e-05 5.809590e-06 -8.336182e-01 -5.076904e-01
3.147144e+08 6.476440e-01 -8.230591e-01 1.762342e-05 -2.915040e-07 6.612390e-07 -2.338551e-05 -8.335571e-01 -5.091553e-01
3.149322e+08 6.512451e-01 -8.205566e-01 -6.623566e-05 -2.747029e-05 -1.948141e-05 4.435889e-06 -8.336182e-01 -5.097656e-01
3.151500e+08 6.550293e-01 -8.175659e-01 -7.011462e-06 7.744879e-06 -2.951734e-05 -1.553819e-05 -8.335571e-01 -5.102539e-01
3.153678e+08 6.575928e-01 -8.148804e-01 2.035126e-05 2.062507e-05 -3.302470e-05 4.150160e-05 -8.326416e-01 -5.111084e-01
3.155856e+08 6.611938e-01 -8.121948e-01 2.648868e-05 1.859851e-05 4.049391e-05 2.431497e-05 -8.312988e-01 -5.114136e-01
3.158034e+08 6.639404e-01 -8.098145e-01 4.311278e-05 -1.407787e-05 -1.400709e-06 2.681091e-05 -8.321533e-01 -5.117798e-01
3.160212e+08 6.672974e-01 -8.071289e-01 -1.908466e-05 -2.923235e-05 2.101250e-05 2.872199e-05 -8.320312e-01 -5.124512e-01
3.162391e+08 6.701660e-01 -8.040771e-01 2.758577e-05 5.098805e-05 6.061979e-06 -1.512375e-05 -8.317871e-01 -5.128174e-01
3.164569e+08 6.724854e-01 -8.010254e-01 -1.548883e-05 -1.402572e-05 -2.698041e-05 2.636015e-05 -8.314209e-01 -5.130615e-01
3.166747e+08 6.765747e-01 -7.977295e-01 -1.548510e-05 -1.402292e-05 -4.874542e-05 -1.892447e-05 -8.308105e-01 -5.131836e-01
3.168925e+08 6.801147e-01 -7.960815e-01 1.575425e-05 -2.694875e-05 -1.337007e-05 2.927519e-05 -8.308105e-01 -5.147095e-01
3.171103e+08 6.828003e-01 -7.922363e-01 -2.736226e-06 -2.093986e-05 3.226101e-06 3.848411e-05 -8.309937e-01 -5.155029e-01
3.173281e+08 6.853638e-01 -7.907104e-01 1.702644e-05 -3.558211e-05 2.340786e-05 1.067854e-05 -8.308105e-01 -5.155640e-01
3.175459e+08 6.881714e-01 -7.872925e-01 -3.842823e-05 -1.745299e-05 4.190952e-08 1.996569e-05 -8.303833e-01 -5.156250e-01
3.177638e+08 6.914062e-01 -7.846680e-01 1.465902e-06 2.954528e-05 3.994443e-05 -7.078052e-08 -8.308105e-01 -5.162964e-01
3.179816e+08 6.946411e-01 -7.824097e-01 -1.702271e-05 3.558397e-05 4.424714e-06 1.948420e-05 -8.302002e-01 -5.167236e-01
3.181994e+08 6.971436e-01 -7.798462e-01 2.424233e-05 -5.189329e-06 -2.219155e-05 -9.695068e-06 -8.305054e-01 -5.172119e-01
3.184172e+08 7.008667e-01 -7.773438e-01 1.893844e-05 -8.908100e-06 -1.680665e-05 1.854915e-05 -8.303223e-01 -5.180054e-01
3.186350e+08 7.036743e-01 -7.736816e-01 2.324581e-05 -3.755838e-05 1.095887e-05 -1.121033e-05 -8.287964e-01 -5.187378e-01
3.188528e+08 7.067871e-01 -7.708130e-01 3.851950e-06 -2.584606e-05 -1.899991e-05 8.787028e-06 -8.304443e-01 -5.186157e-01
3.190706e+08 7.095947e-01 -7.685547e-01 -5.294383e-05 8.679926e-07 -1.464225e-05 -1.168251e-05 -8.291016e-01 -5.192261e-01
3.192884e+08 7.127075e-01 -7.656860e-01 6.429851e-06 -4.307553e-05 2.146326e-05 1.314003e-05 -8.298950e-01 -5.195312e-01
3.195062e+08 7.147827e-01 -7.626953e-01 -5.426258e-05 9.488314e-06 -3.239885e-05 -1.914799e-06 -8.292847e-01 -5.203247e-01
3.197241e+08 7.183838e-01 -7.600708e-01 -2.915412e-05 -1.408160e-06 -2.728775e-05 1.416542e-05 -8.298950e-01 -5.201416e-01
3.199419e+08 7.203369e-01 -7.572021e-01 -2.576038e-06 1.722760e-05 7.580966e-07 1.656450e-05 -8.289795e-01 -5.208740e-01
3.201597e+08 7.236938e-01 -7.544556e-01 -2.555363e-05 1.382641e-05 1.539849e-05 2.824515e-05 -8.298340e-01 -5.214233e-01
3.203775e+08 7.277222e-01 -7.513428e-01 -3.597140e-05 4.456192e-05 -2.908520e-06 1.365691e-05 -8.292847e-01 -5.214844e-01
3.205953e+08 7.293091e-01 -7.478027e-01 -4.553795e-05 -9.708107e-06 1.537800e-05 2.822094e-05 -8.291626e-01 -5.220947e-01
3.208131e+08 7.330933e-01 -7.458496e-01 -2.421439e-06 5.547330e-05 -1.144875e-05 6.840564e-06 -8.289795e-01 -5.234375e-01
3.210309e+08 7.359619e-01 -7.426147e-01 -2.370402e-05 4.051998e-05 1.412351e-05 -1.268461e-05 -8.286743e-01 -5.242310e-01
3.212488e+08 7.384033e-01 -7.402954e-01 6.603543e-06 -4.890375e-06 6.533042e-05 8.165836e-06 -8.283081e-01 -5.234985e-01
3.214666e+08 7.418213e-01 -7.365112e-01 2.023950e-05 -1.756474e-05 -2.556853e-05 1.951307e-05 -8.284912e-01 -5.238647e-01
3.216844e+08 7.447510e-01 -7.334595e-01 2.734363e-06 2.096966e-05 6.092712e-06 4.871283e-06 -8.273315e-01 -5.241089e-01
3.219022e+08 7.474365e-01 -7.312012e-01 2.291054e-06 2.384931e-05 1.705345e-05 -6.351620e-06 -8.271484e-01 -5.250244e-01
3.221200e+08 7.510986e-01 -7.280884e-01 2.973527e-05 3.680028e-05 -3.241561e-05 3.804080e-05 -8.272095e-01 -5.255737e-01
3.223378e+08 7.523804e-01 -7.256470e-01 -7.472001e-06 1.064129e-05 3.724732e-05 -1.419522e-05 -8.272705e-01 -5.258789e-01
3.225556e+08 7.556152e-01 -7.219849e-01 -8.764677e-06 1.927093e-05 -3.964826e-05 5.217642e-05 -8.274536e-01 -5.260620e-01
3.227734e+08 7.587280e-01 -7.203369e-01 1.408812e-05 -1.552701e-05 -1.488253e-06 -1.316424e-05 -8.269043e-01 -5.264282e-01
3.229912e+08 7.612305e-01 -7.175903e-01 -1.237169e-05 4.036352e-06 3.978051e-05 2.772361e-05 -8.274536e-01 -5.267334e-01
3.232091e+08 7.633057e-01 -7.135620e-01 2.150424e-06 -1.438241e-05 5.126931e-06 1.607463e-05 -8.267822e-01 -5.269775e-01
3.234269e+08 7.668457e-01 -7.110596e-01 3.322586e-05 1.378544e-05 1.170672e-05 2.533570e-05 -8.265381e-01 -5.273438e-01
3.236447e+08 7.701416e-01 -7.081299e-01 2.214871e-05 9.194016e-06 -6.240979e-05 -2.193823e-05 -8.262329e-01 -5.272827e-01
3.238625e+08 7.734985e-01 -7.048340e-01 1.064874e-05 7.484108e-06 -2.171844e-05 3.461167e-05 -8.264771e-01 -5.285034e-01
3.240803e+08 7.758789e-01 -7.017212e-01 5.051494e-06 4.486367e-05 -4.071556e-05 3.406778e-06 -8.259277e-01 -5.279541e-01
3.242981e+08 7.781982e-01 -6.992798e-01 -3.497303e-05 -2.302229e-06 -1.022033e-05 2.779067e-05 -8.262329e-01 -5.288696e-01
3.245159e+08 7.811890e-01 -6.962891e-01 -8.517876e-06 -2.187490e-05 -8.028001e-06 3.753603e-05 -8.265991e-01 -5.285034e-01
3.247338e+08 7.834473e-01 -6.929321e-01 -1.351908e-05 5.092844e-05 -1.920760e-05 5.652755e-05 -8.256226e-01 -5.290527e-01
3.249516e+08 7.863770e-01 -6.904297e-01 3.798306e-05 -1.787394e-05 8.327886e-06 3.459863e-05 -8.259277e-01 -5.291748e-01
3.251694e+08 7.896729e-01 -6.873779e-01 2.345443e-05 5.569309e-07 3.119744e-05 -1.903065e-05 -8.254395e-01 -5.296631e-01
3.253872e+08 7.913208e-01 -6.837158e-01 3.773160e-05 2.332218e-05 -2.628937e-05 2.290308e-05 -8.257446e-01 -5.305786e-01
3.256050e+08 7.944336e-01 -6.815796e-01 -4.350767e-05 -2.419204e-05 4.903413e-07 4.386529e-06 -8.256226e-01 -5.308838e-01
3.258228e+08 7.966919e-01 -6.785278e-01 -3.436580e-06 2.303720e-05 -2.021622e-05 7.816590e-06 -8.256226e-01 -5.302734e-01
3.260406e+08 8.008423e-01 -6.751709e-01 -4.899222e-06 -6.622169e-06 2.558157e-05 -5.951151e-05 -8.254395e-01 -5.309448e-01
3.262584e+08 8.023682e-01 -6.727905e-01 3.327802e-05 1.381896e-05 7.318798e-06 5.839393e-06 -8.251343e-01 -5.316162e-01
3.264762e+08 8.057861e-01 -6.683960e-01 8.647330e-07 -5.765352e-06 -1.900364e-05 -1.121778e-05 -8.253174e-01 -5.319214e-01
3.266941e+08 8.077393e-01 -6.660156e-01 -4.035234e-05 -6.072223e-06 1.266412e-05 -2.584234e-05 -8.248291e-01 -5.324097e-01
3.269119e+08 8.101196e-01 -6.633301e-01 3.501400e-05 2.298504e-06 -1.315866e-05 1.466833e-06 -8.245850e-01 -5.324097e-01
3.271297e+08 8.133545e-01 -6.602783e-01 -2.176873e-05 -1.209788e-05 -2.045371e-05 3.559887e-05 -8.245850e-01 -5.325928e-01
3.273475e+08 8.159790e-01 -6.566162e-01 -9.214506e-06 2.218969e-05 1.120940e-05 9.695068e-07 -8.236084e-01 -5.324707e-01
3.275653e+08 8.187256e-01 -6.538086e-01 1.449138e-06 2.968870e-05 -2.923422e-05 1.658313e-05 -8.239136e-01 -5.327759e-01
3.277831e+08 8.212280e-01 -6.510620e-01 8.100271e-05 -2.916902e-05 2.531707e-05 -3.171153e-05 -8.236694e-01 -5.327759e-01
3.280009e+08 8.240967e-01 -6.467285e-01 -8.949079e-06 -1.903716e-05 -1.072651e-05 3.410038e-06 -8.237915e-01 -5.335693e-01
3.282188e+08 8.267822e-01 -6.445312e-01 -1.818407e-05 3.173947e-06 5.362555e-06 8.288305e-06 -8.238525e-01 -5.342407e-01
3.284366e+08 8.291626e-01 -6.412354e-01 2.579764e-05 2.452359e-05 3.410038e-06 1.072604e-05 -8.229370e-01 -5.340576e-01
3.286544e+08 8.312988e-01 -6.387939e-01 2.899393e-05 4.270673e-05 3.194809e-05 3.753789e-05 -8.231812e-01 -5.339355e-01
3.288722e+08 8.334961e-01 -6.354370e-01 -2.844259e-05 -7.210299e-06 -5.850568e-06 -1.267437e-05 -8.236694e-01 -5.342407e-01
3.290900e+08 8.365479e-01 -6.326294e-01 -2.972409e-05 1.423061e-06 -1.925323e-05 1.658220e-05 -8.226318e-01 -5.345459e-01
3.293078e+08 8.394775e-01 -6.300049e-01 -4.330650e-07 2.885703e-06 -1.462176e-06 6.828923e-06 -8.226318e-01 -5.341797e-01
3.295256e+08 8.420410e-01 -6.262817e-01 9.386800e-06 1.616776e-05 2.145395e-05 -6.825663e-06 -8.227539e-01 -5.347900e-01
3.297434e+08 8.439331e-01 -6.235962e-01 -6.641261e-06 4.908536e-06 -4.887115e-07 -4.387693e-06 -8.225708e-01 -5.346680e-01
3.299612e+08 8.469849e-01 -6.200562e-01 3.322586e-05 -2.455153e-05 3.416557e-06 -9.265263e-06 -8.224487e-01 -5.360718e-01
3.301791e+08 8.490601e-01 -6.173096e-01 3.551692e-05 -5.811453e-07 1.779292e-05 1.023710e-05 -8.217773e-01 -5.357056e-01
3.303969e+08 8.524170e-01 -6.148682e-01 7.204711e-06 3.062375e-05 1.000613e-05 2.000108e-05 -8.219604e-01 -5.361328e-01
3.306147e+08 8.535156e-01 -6.106567e-01 -1.400337e-05 5.400926e-05 3.654743e-06 2.921792e-06 -8.216553e-01 -5.358887e-01
3.308325e+08 8.573608e-01 -6.074829e-01 -4.051253e-06 -1.242105e-05 -5.871058e-06 4.730001e-05 -8.217773e-01 -5.357056e-01
3.310503e+08 8.588257e-01 -6.044922e-01 1.961924e-05 2.657995e-05 -8.532312e-06 -6.821472e-06 -8.204956e-01 -5.364990e-01
3.312681e+08 8.612671e-01 -6.005249e-01 -2.738088e-06 -2.108514e-05 -5.579740e-05 2.726912e-05 -8.204346e-01 -5.361938e-01
3.314859e+08 8.638916e-01 -5.972900e-01 -3.772415e-05 1.502596e-05 -6.597489e-06 3.069639e-05 -8.208618e-01 -5.368652e-01
3.317038e+08 8.668823e-01 -5.960083e-01 -5.060434e-05 2.196059e-05 1.853518e-05 -1.318567e-05 -8.205566e-01 -5.369263e-01
3.319216e+08 8.690796e-01 -5.910645e-01 4.798174e-05 -4.623085e-06 5.595386e-06 2.048165e-05 -8.203735e-01 -5.371094e-01
3.321394e+08 8.709717e-01 -5.889893e-01 5.784258e-05 8.661300e-06 1.974497e-05 -1.218915e-05 -8.204956e-01 -5.371704e-01
3.323572e+08 8.737183e-01 -5.859375e-01 7.081777e-06 -7.808208e-06 1.536589e-05 8.287840e-06 -8.198853e-01 -5.369873e-01
3.325750e+08 8.764038e-01 -5.824585e-01 -6.781891e-06 -3.354996e-05 2.292730e-05 -1.365878e-05 -8.192749e-01 -5.378418e-01
3.327928e+08 8.779907e-01 -5.794067e-01 1.604669e-05 1.127552e-05 2.339855e-05 -2.926402e-05 -8.193970e-01 -5.368652e-01
3.330106e+08 8.814697e-01 -5.767212e-01 -1.822133e-05 3.185123e-06 3.808737e-05 -3.760308e-05 -8.193359e-01 -5.372925e-01
3.332284e+08 8.829346e-01 -5.722046e-01 -7.524155e-06 1.070648e-05 3.628433e-06 4.291721e-05 -8.195190e-01 -5.373535e-01
3.334462e+08 8.855591e-01 -5.695801e-01 1.014024e-05 -2.808310e-05 7.282943e-07 1.658406e-05 -8.187256e-01 -5.382690e-01
3.336641e+08 8.878784e-01 -5.665894e-01 -2.226979e-05 -9.259209e-06 -3.731810e-05 -2.587959e-05 -8.175049e-01 -5.375977e-01
3.338819e+08 8.897095e-01 -5.630493e-01 3.611669e-06 1.534168e-05 -5.559623e-05 -5.289912e-07 -8.176880e-01 -5.381470e-01
3.340997e+08 8.922119e-01 -5.611572e-01 1.737196e-05 2.603047e-06 -3.318861e-05 1.482666e-06 -8.179932e-01 -5.379639e-01
3.343175e+08 8.942871e-01 -5.571289e-01 -3.024936e-05 4.310161e-06 2.610683e-05 -5.511940e-05 -8.167725e-01 -5.385742e-01
3.345353e+08 8.965454e-01 -5.539551e-01 2.505258e-05 3.038347e-05 1.097377e-05 8.781441e-06 -8.172607e-01 -5.377808e-01
3.347531e+08 8.988647e-01 -5.505371e-01 -2.662465e-05 1.967698e-05 -3.658421e-05 -2.929196e-05 -8.161011e-01 -5.378418e-01
3.349709e+08 9.017944e-01 -5.476685e-01 3.179535e-06 1.825206e-05 -1.224689e-06 1.904182e-05 -8.164673e-01 -5.391846e-01
3.351888e+08 9.041138e-01 -5.436401e-01 -8.470565e-05 -2.753735e-05 -3.908994e-06 4.878500e-06 -8.159180e-01 -5.390015e-01
3.354066e+08 9.061890e-01 -5.404053e-01 -2.707727e-05 2.257526e-05 3.026240e-05 -7.785857e-06 -8.153076e-01 -5.388184e-01
3.356244e+08 9.080811e-01 -5.379028e-01 -1.146644e-05 3.679097e-05 -2.123602e-05 1.901947e-05 -8.149414e-01 -5.397339e-01
3.358422e+08 9.108887e-01 -5.340576e-01 1.171976e-05 4.029274e-05 1.516752e-05 -2.389960e-05 -8.154907e-01 -5.394897e-01
3.360600e+08 9.124146e-01 -5.315552e-01 -7.099938e-06 7.823110e-06 1.000427e-05 5.587935e-09 -8.149414e-01 -5.391846e-01
3.362778e+08 9.143677e-01 -5.281372e-01 1.115445e-05 4.655682e-06 -3.486872e-05 -4.393235e-05 -8.140259e-01 -5.403442e-01
3.364956e+08 9.168091e-01 -5.248413e-01 1.232699e-05 -4.260242e-05 -1.219392e-06 -9.769574e-07 -8.140259e-01 -5.394287e-01
3.367134e+08 9.194946e-01 -5.211182e-01 2.012961e-05 2.380088e-05 -4.177913e-06 3.270246e-05 -8.139648e-01 -5.402832e-01
3.369312e+08 9.212036e-01 -5.187378e-01 3.478862e-05 5.247071e-06 -1.441035e-05 2.050493e-05 -8.131714e-01 -5.401611e-01
3.371491e+08 9.237061e-01 -5.150757e-01 -3.986429e-10 2.940794e-10 -1.203269e-06 -2.099853e-05 -8.131104e-01 -5.399170e-01
3.373669e+08 9.253540e-01 -5.115356e-01 6.674789e-06 -4.929956e-06 -2.709962e-05 6.316230e-06 -8.131104e-01 -5.401611e-01
3.375847e+08 9.265747e-01 -5.086670e-01 -1.597218e-05 2.724677e-05 1.024455e-08 -2.000760e-05 -8.121338e-01 -5.401001e-01
3.378025e+08 9.291992e-01 -5.055542e-01 -2.593547e-05 -2.467632e-05 2.298690e-05 -3.368221e-05 -8.118286e-01 -5.403442e-01
3.380203e+08 9.315186e-01 -5.027466e-01 8.874573e-06 -1.942832e-05 6.083399e-06 2.492405e-05 -8.117676e-01 -5.408325e-01
3.382381e+08 9.329224e-01 -4.995117e-01 -4.597381e-05 -9.935349e-06 9.764452e-06 7.822178e-06 -8.109131e-01 -5.407715e-01
3.384559e+08 9.361572e-01 -4.960938e-01 2.323091e-05 3.496185e-06 2.126209e-05 9.993091e-07 -8.117065e-01 -5.406494e-01
3.386738e+08 9.373779e-01 -4.920044e-01 1.959316e-05 -1.187250e-05 2.782419e-05 1.029857e-05 -8.098755e-01 -5.404053e-01
3.388916e+08 9.395752e-01 -4.899902e-01 -3.179535e-06 -1.829304e-05 -2.053659e-05 1.563225e-05 -8.101807e-01 -5.413208e-01
3.391094e+08 9.415283e-01 -4.852905e-01 1.600385e-05 -2.728030e-05 3.036484e-05 -4.781783e-05 -8.096313e-01 -5.416260e-01
3.393272e+08 9.437866e-01 -4.831543e-01 1.073815e-05 7.560477e-06 3.352761e-05 -4.935637e-05 -8.089600e-01 -5.413818e-01
3.395450e+08 9.455566e-01 -4.790039e-01 1.292396e-05 -6.960705e-06 -5.085021e-07 1.563877e-05 -8.081055e-01 -5.410156e-01
3.397628e+08 9.473877e-01 -4.763184e-01 -7.241964e-06 -3.079884e-05 9.473413e-06 5.572289e-05 -8.081665e-01 -5.421753e-01
3.399806e+08 9.493408e-01 -4.725342e-01 -2.498366e-05 8.113682e-06 -4.180335e-05 1.460873e-05 -8.076782e-01 -5.415039e-01
3.401984e+08 9.510498e-01 -4.694824e-01 -2.949499e-05 -1.471490e-06 -1.319684e-05 1.451932e-06 -8.078613e-01 -5.416260e-01
3.404162e+08 9.533081e-01 -4.656982e-01 2.195127e-06 -1.451839e-05 6.385148e-06 -2.297014e-05 -8.064575e-01 -5.418701e-01
3.406341e+08 9.550781e-01 -4.633789e-01 -9.499490e-08 -3.863871e-05 -7.264316e-05 3.810972e-05 -8.059692e-01 -5.422974e-01
3.408519e+08 9.572144e-01 -4.600830e-01 -8.837134e-05 3.420562e-05 -2.106093e-05 3.128685e-05 -8.056641e-01 -5.417480e-01
3.410697e+08 9.591675e-01 -4.566650e-01 1.205970e-05 -1.143664e-06 -8.815899e-06 2.103020e-05 -8.047485e-01 -5.429077e-01
3.412875e+08 9.606323e-01 -4.533691e-01 1.118705e-05 4.672445e-06 -4.055351e-05 -6.460398e-05 -8.049927e-01 -5.430908e-01
3.415053e+08 9.619751e-01 -4.501343e-01 1.304783e-05 3.169477e-05 -1.956616e-05 4.380941e-06 -8.046875e-01 -5.421143e-01
3.417231e+08 9.649048e-01 -4.468384e-01 -2.181344e-05 2.642721e-05 3.981218e-05 4.800782e-05 -8.037720e-01 -5.419922e-01
3.419409e+08 9.664307e-01 -4.437256e-01 1.085922e-05 4.626438e-05 1.272745e-05 -5.854294e-06 -8.037720e-01 -5.429077e-01
3.421588e+08 9.680786e-01 -4.395142e-01 3.214926e-05 -1.596473e-05 3.354438e-05 -2.930872e-05 -8.030396e-01 -5.429077e-01
3.423766e+08 9.699707e-01 -4.360352e-01 -6.299093e-05 2.319366e-05 -1.189299e-06 -2.103578e-05 -8.025513e-01 -5.426025e-01
3.425944e+08 9.716797e-01 -4.337769e-01 1.393631e-05 2.591312e-05 -3.036112e-05 7.793307e-06 -8.021851e-01 -5.432129e-01
3.428122e+08 9.730835e-01 -4.299316e-01 3.842637e-05 -1.797080e-05 1.610629e-05 2.498925e-05 -8.014526e-01 -5.433960e-01
3.430300e+08 9.758911e-01 -4.260864e-01 -3.260560e-05 1.888722e-05 -4.839897e-05 -3.490224e-05 -8.013916e-01 -5.430908e-01
3.432478e+08 9.767456e-01 -4.239502e-01 -1.374260e-05 5.151704e-05 -3.008917e-05 -2.011657e-05 -8.012695e-01 -5.438232e-01
3.434656e+08 9.783325e-01 -4.206543e-01 5.818903e-05 8.765608e-06 5.884562e-06 -7.337425e-06 -7.999268e-01 -5.433960e-01
3.436834e+08 9.802856e-01 -4.165039e-01 4.400499e-07 -2.910383e-06 5.191192e-06 -2.398528e-05 -8.000488e-01 -5.433960e-01
3.439012e+08 9.821777e-01 -4.140625e-01 2.583489e-05 -5.268678e-05 -1.449138e-06 -1.323409e-05 -7.999878e-01 -5.437622e-01
3.441191e+08 9.838257e-01 -4.103394e-01 -1.561828e-05 2.442114e-05 2.224743e-05 2.992526e-05 -7.984619e-01 -5.439453e-01
3.443369e+08 9.852295e-01 -4.069214e-01 2.769381e-05 -2.556853e-05 -2.446398e-05 -1.964718e-05 -7.977905e-01 -5.440063e-01
3.445547e+08 9.871826e-01 -4.043579e-01 -2.595410e-05 1.391210e-05 -7.346738e-06 -5.893875e-06 -7.970581e-01 -5.451050e-01
3.447725e+08 9.887085e-01 -4.006958e-01 3.893301e-05 -2.092309e-05 3.560632e-05 -3.180280e-05 -7.974243e-01 -5.451660e-01
3.449903e+08 9.907837e-01 -3.968506e-01 2.107769e-05 1.808628e-05 2.180971e-05 5.437061e-06 -7.960815e-01 -5.447998e-01
3.452081e+08 9.918823e-01 -3.931274e-01 9.350479e-07 3.289990e-05 -2.276152e-06 3.039278e-05 -7.945557e-01 -5.458984e-01
3.454259e+08 9.931641e-01 -3.913574e-01 -4.942063e-06 -6.705523e-06 -6.009638e-05 1.220778e-05 -7.947388e-01 -5.452881e-01
3.456438e+08 9.942017e-01 -3.871460e-01 -1.880806e-05 6.099232e-06 -1.668092e-05 1.076143e-05 -7.949829e-01 -5.454102e-01
3.458616e+08 9.966431e-01 -3.830566e-01 1.162291e-05 -3.698654e-05 3.412366e-06 1.079915e-05 -7.935181e-01 -5.472412e-01
3.460794e+08 9.984741e-01 -3.793945e-01 3.811345e-05 2.364628e-05 3.467873e-05 -4.064851e-05 -7.930298e-01 -5.454712e-01
3.462972e+08 9.994507e-01 -3.771362e-01 -3.097579e-06 2.038479e-05 -2.256408e-05 -2.002344e-06 -7.922974e-01 -5.462646e-01
3.465150e+08 1.000854e+00 -3.742065e-01 2.374500e-05 6.370246e-07 -9.552576e-06 -1.571700e-05 -7.913818e-01 -5.467529e-01
3.467328e+08 1.001709e+00 -3.701172e-01 2.147257e-05 -2.356246e-05 1.378357e-06 5.346537e-05 -7.911987e-01 -5.471802e-01
3.469506e+08 1.004395e+00 -3.665161e-01 2.274290e-06 2.417527e-05 -2.669170e-05 -2.952293e-05 -7.899170e-01 -5.467529e-01
3.471684e+08 1.005188e+00 -3.629150e-01 -3.195554e-05 -6.451458e-05 -3.334321e-05 -1.872331e-05 -7.905884e-01 -5.469360e-01
3.473862e+08 1.006775e+00 -3.607178e-01 4.941598e-06 6.719027e-06 -3.938330e-06 4.905974e-06 -7.894897e-01 -5.476685e-01
3.476041e+08 1.008667e+00 -3.567505e-01 -7.168856e-06 7.855706e-06 2.825260e-05 2.518296e-06 -7.889404e-01 -5.480957e-01
3.478219e+08 1.009521e+00 -3.532715e-01 -3.005937e-05 1.395121e-06 2.582744e-05 -1.959130e-05 -7.887573e-01 -5.478516e-01
3.480397e+08 1.010376e+00 -3.495483e-01 -5.388632e-05 -3.807619e-05 2.577156e-05 5.532056e-07 -7.877808e-01 -5.485840e-01
3.482575e+08 1.012451e+00 -3.470459e-01 6.685406e-05 -7.703900e-06 3.928505e-05 1.140311e-05 -7.875977e-01 -5.488892e-01
3.484753e+08 1.013794e+00 -3.438110e-01 -4.945323e-06 -6.722752e-06 1.130160e-05 1.011416e-06 -7.864990e-01 -5.490723e-01
3.486931e+08 1.014954e+00 -3.406982e-01 -4.446134e-06 2.916716e-05 -1.677871e-05 3.091805e-05 -7.861328e-01 -5.488281e-01
3.489109e+08 1.016296e+00 -3.375244e-01 -2.274290e-06 -2.423115e-05 -6.208196e-06 3.538653e-05 -7.858887e-01 -5.491943e-01
3.491288e+08 1.017761e+00 -3.335571e-01 2.294406e-05 4.528090e-05 -3.445148e-05 1.270510e-05 -7.847290e-01 -5.491943e-01
3.493466e+08 1.019043e+00 -3.301392e-01 -1.707487e-05 -5.583279e-06 -4.474074e-06 2.064090e-05 -7.850342e-01 -5.496216e-01
3.495644e+08 1.020386e+00 -3.265991e-01 1.882948e-05 -6.081536e-06 -1.653098e-05 2.308190e-05 -7.831421e-01 -5.493774e-01
3.497822e+08 1.021179e+00 -3.234863e-01 3.863312e-05 2.081692e-05 -7.726252e-06 -7.082522e-05 -7.831421e-01 -5.509033e-01
3.500000e+08 1.023315e+00 -3.197021e-01 1.256261e-05 -4.046597e-06 -2.689287e-05 3.093854e-05 -7.815552e-01 -5.511475e-01
