# Hz S <built-in function format> R 50
! RAW DATA - UNCALIBRATED
1.500000e+06 -2.889633e-02 1.401901e-03 1.987964e-04 -1.327544e-04 7.239729e-05 6.151199e-05 1.052673e+00 1.191406e-01
1.717812e+06 -2.946281e-02 2.346039e-04 3.420934e-05 1.281500e-06 -1.968816e-06 -3.423728e-05 1.013489e+00 2.317505e-01
1.935625e+06 -3.024101e-02 -5.264282e-04 3.514253e-05 -2.023019e-05 -3.656372e-06 1.928583e-05 8.986816e-01 3.946533e-01
2.153438e+06 -3.093529e-02 -1.161575e-03 -5.016103e-06 3.467873e-05 -3.537908e-05 1.463108e-05 7.749634e-01 6.250610e-01
2.371250e+06 -3.158569e-02 -1.632690e-03 -3.920123e-05 7.374212e-06 -1.158193e-05 -4.572049e-05 6.474609e-01 7.627563e-01
2.589062e+06 -3.215981e-02 -1.983643e-03 -2.095476e-07 -1.899526e-05 -1.587905e-06 -1.928955e-05 4.237061e-01 9.145508e-01
2.806875e+06 -3.278923e-02 -2.185822e-03 4.052743e-05 1.046434e-05 6.468967e-06 -3.322586e-05 2.838745e-01 1.029358e+00
3.024688e+06 -3.337860e-02 -2.330780e-03 2.434850e-05 -2.163462e-05 1.008855e-05 -1.140404e-06 8.288574e-02 1.006104e+00
3.242500e+06 -3.395462e-02 -2.506256e-03 3.306568e-05 5.111843e-05 -1.258403e-05 -1.170672e-06 -1.371460e-01 1.021118e+00
3.460312e+06 -3.462219e-02 -2.683640e-03 4.619360e-06 2.841093e-05 1.027249e-05 2.201460e-05 -3.005981e-01 9.201050e-01
3.678125e+06 -3.510094e-02 -2.479553e-03 -2.301484e-05 4.814565e-05 -1.935288e-06 4.268065e-05 -5.361938e-01 7.813721e-01
3.895938e+06 -3.543091e-02 -2.559662e-03 -4.453585e-05 -1.607835e-05 1.040474e-05 1.592096e-05 -7.154541e-01 6.554565e-01
4.113750e+06 -3.593445e-02 -2.450943e-03 2.353452e-05 2.560206e-05 -2.226233e-05 6.826594e-06 -8.607178e-01 4.468384e-01
4.331562e+06 -3.654099e-02 -2.176285e-03 -7.205643e-06 -1.783203e-05 4.442409e-06 -2.585724e-05 -9.915771e-01 2.583008e-01
4.549375e+06 -3.693581e-02 -2.082825e-03 1.114886e-05 -1.567788e-05 -3.739819e-05 6.242841e-05 -1.021423e+00 4.431152e-02
4.767188e+06 -3.747559e-02 -1.903534e-03 3.957748e-05 3.790855e-05 -4.551560e-05 1.704693e-05 -1.049744e+00 -1.777954e-01
4.985000e+06 -3.778458e-02 -1.689911e-03 -4.006550e-05 -6.090850e-06 4.044920e-05 -9.825453e-06 -9.456787e-01 -3.372803e-01
5.202812e+06 -3.834724e-02 -1.344681e-03 -2.536550e-05 -1.583248e-06 -4.228204e-07 2.751127e-05 -7.828979e-01 -5.699463e-01
5.420625e+06 -3.891563e-02 -1.066208e-03 2.469309e-05 5.921349e-06 -5.573034e-06 5.823001e-05 -6.402588e-01 -7.355957e-01
5.638438e+06 -3.929520e-02 -8.258820e-04 -3.908947e-05 -4.677474e-05 -4.511699e-05 -1.974404e-07 -4.064941e-01 -8.575439e-01
5.856250e+06 -3.967667e-02 -4.405975e-04 -2.655201e-05 -2.632290e-05 3.717840e-06 7.887837e-06 -2.027588e-01 -9.807129e-01
6.074062e+06 -4.019737e-02 -8.392334e-05 1.186877e-05 4.951656e-05 1.933239e-05 -2.779998e-06 -7.629395e-03 -9.726562e-01
6.291875e+06 -4.061699e-02 4.520416e-04 -1.530908e-05 1.624878e-05 2.744980e-05 -3.749132e-05 2.377319e-01 -9.589844e-01
6.509688e+06 -4.098701e-02 8.964539e-04 -1.598056e-05 9.368174e-06 2.057664e-05 1.550559e-05 3.995361e-01 -8.929443e-01
6.727500e+06 -4.140854e-02 1.489639e-03 4.307181e-05 -2.507120e-05 -1.589581e-05 1.393259e-05 5.902100e-01 -7.350464e-01
6.945312e+06 -4.149055e-02 1.949310e-03 -2.016872e-05 -9.935349e-06 4.559755e-05 -2.192333e-05 7.634888e-01 -6.060791e-01
7.163125e+06 -4.193115e-02 2.471924e-03 1.487881e-05 1.328811e-05 -1.045596e-05 -1.126900e-05 8.816528e-01 -4.240723e-01
7.380938e+06 -4.233551e-02 3.021240e-03 -1.826324e-05 -2.573803e-05 3.367662e-05 4.973263e-07 1.007324e+00 -2.507324e-01
7.598750e+06 -4.248619e-02 3.814697e-03 1.517497e-05 2.050959e-05 3.604218e-06 8.233823e-06 1.041016e+00 -9.716797e-02
7.816562e+06 -4.260254e-02 4.367828e-03 -1.578033e-05 -3.457814e-05 6.522518e-06 -8.633360e-06 1.065063e+00 7.635498e-02
8.034375e+06 -4.278564e-02 4.877090e-03 1.070928e-05 -1.542550e-05 3.464520e-06 -2.783164e-05 9.798584e-01 1.997070e-01
8.252188e+06 -4.292870e-02 5.514145e-03 1.072977e-05 -6.656162e-06 -2.123602e-05 2.262183e-05 8.314819e-01 4.200439e-01
8.470000e+06 -4.309845e-02 6.269455e-03 1.854450e-05 -6.786734e-05 8.080155e-06 1.187902e-06 7.385864e-01 6.040649e-01
8.687812e+06 -4.310608e-02 6.895065e-03 3.054179e-05 -2.251193e-05 5.060807e-05 -2.373755e-05 5.521240e-01 7.308960e-01
8.905625e+06 -4.307556e-02 7.642746e-03 8.292496e-06 -2.629869e-05 -1.628883e-06 1.780037e-05 3.491211e-01 8.872681e-01
9.123438e+06 -4.305649e-02 8.249283e-03 3.456324e-05 -6.266683e-05 -7.869210e-06 6.127637e-06 1.737671e-01 9.567871e-01
9.341250e+06 -4.285812e-02 8.893967e-03 -7.859245e-05 3.641099e-05 -1.520291e-05 -7.007271e-06 -5.975342e-02 9.721069e-01
9.559062e+06 -4.278946e-02 9.338379e-03 -2.724677e-05 -2.641045e-05 -1.704507e-05 -2.456270e-05 -2.634277e-01 9.368896e-01
9.776875e+06 -4.263115e-02 1.001167e-02 -1.136214e-05 1.195297e-04 4.490092e-05 -8.907169e-06 -4.830322e-01 8.045044e-01
9.994688e+06 -4.256058e-02 1.068115e-02 5.129725e-05 -3.132969e-06 -3.665313e-05 1.599826e-05 -6.888123e-01 6.599731e-01
1.021250e+07 -4.239082e-02 1.111603e-02 -1.100823e-05 1.589023e-05 2.330914e-05 -2.790615e-05 -8.356323e-01 4.412842e-01
1.043031e+07 -4.195595e-02 1.182747e-02 -1.791120e-05 2.840534e-07 5.223602e-05 -1.657382e-05 -9.892578e-01 2.000732e-01
1.064812e+07 -4.191971e-02 1.221848e-02 -5.661696e-05 1.667812e-05 -4.901551e-06 1.221336e-05 -1.043945e+00 1.202393e-02
1.086594e+07 -4.165649e-02 1.290131e-02 4.327856e-06 -1.360290e-05 3.918633e-05 5.883723e-05 -1.020691e+00 -2.317505e-01
1.108375e+07 -4.140091e-02 1.323128e-02 -9.210315e-06 1.336448e-07 2.990663e-05 -1.601502e-05 -9.806519e-01 -4.004517e-01
1.130156e+07 -4.081726e-02 1.376915e-02 -5.535781e-06 8.420646e-05 -3.482215e-06 -1.378637e-05 -7.985840e-01 -5.549927e-01
1.151938e+07 -4.057503e-02 1.404572e-02 -1.825020e-05 9.540468e-06 -1.284294e-05 4.974194e-06 -6.393433e-01 -7.352905e-01
1.173719e+07 -4.029846e-02 1.454353e-02 4.550908e-06 -4.720408e-06 2.811663e-06 -9.426847e-06 -4.770508e-01 -8.217773e-01
1.195500e+07 -3.995895e-02 1.488304e-02 2.384186e-05 4.092604e-05 2.510101e-05 1.006760e-05 -2.712402e-01 -9.030151e-01
1.217281e+07 -3.953362e-02 1.526070e-02 -4.151091e-05 2.415478e-05 -2.648681e-05 -5.293638e-06 -1.159668e-01 -9.503784e-01
1.239062e+07 -3.929329e-02 1.554108e-02 1.553819e-05 -3.044866e-05 9.113923e-06 -3.489852e-05 5.517578e-02 -9.495850e-01
1.260844e+07 -3.881645e-02 1.586914e-02 1.196554e-11 5.612719e-10 7.526949e-06 -2.973899e-05 1.930542e-01 -9.328613e-01
1.282625e+07 -3.846931e-02 1.599884e-02 1.408998e-05 4.344620e-06 4.461035e-06 1.563877e-05 3.524170e-01 -8.348389e-01
1.304406e+07 -3.814888e-02 1.625252e-02 -9.210315e-06 9.633601e-06 -2.201647e-06 -1.876708e-05 5.445557e-01 -7.634277e-01
1.326188e+07 -3.782654e-02 1.634216e-02 -4.302710e-05 -3.870577e-06 -4.321896e-05 -2.360530e-05 6.767273e-01 -6.519775e-01
1.347969e+07 -3.747940e-02 1.650810e-02 -2.274849e-05 -6.597489e-06 4.318915e-05 2.757274e-05 8.516846e-01 -4.812012e-01
1.369750e+07 -3.717041e-02 1.685333e-02 -4.256889e-05 -2.228096e-05 -2.317596e-06 6.907620e-06 9.815674e-01 -3.479614e-01
1.391531e+07 -3.683090e-02 1.683235e-02 -5.587935e-08 6.676838e-05 -1.564249e-05 2.453104e-05 1.023438e+00 -1.343994e-01
1.413312e+07 -3.636169e-02 1.706314e-02 -1.214817e-05 7.391907e-06 -4.902482e-06 -4.542992e-05 1.059204e+00 8.483887e-02
1.435094e+07 -3.620148e-02 1.698875e-02 1.613423e-05 5.723909e-06 1.173094e-05 2.937019e-05 9.735718e-01 3.017578e-01
1.456875e+07 -3.596687e-02 1.715469e-02 -7.867813e-05 2.819300e-05 -2.870709e-05 3.802404e-05 8.533325e-01 5.499268e-01
1.478656e+07 -3.560257e-02 1.716042e-02 -4.724413e-05 -3.328547e-05 2.166256e-06 4.115887e-05 6.696777e-01 7.227173e-01
1.500438e+07 -3.533363e-02 1.719284e-02 -1.184735e-05 -1.463201e-05 4.502013e-06 -1.047645e-05 4.185181e-01 8.803101e-01
1.522219e+07 -3.513527e-02 1.730156e-02 -2.489053e-05 -7.411465e-06 -1.593493e-05 -2.362020e-05 1.918945e-01 9.863892e-01
1.544000e+07 -3.497887e-02 1.729012e-02 3.910065e-05 -4.168227e-05 -9.432435e-06 5.344674e-05 -5.303955e-02 9.716187e-01
1.565781e+07 -3.468132e-02 1.721382e-02 -2.827123e-05 -1.794286e-05 6.602705e-05 1.581386e-05 -3.007202e-01 9.301147e-01
1.587562e+07 -3.451729e-02 1.729584e-02 2.030842e-05 -3.275648e-05 -1.678802e-05 -6.258488e-06 -4.782104e-01 8.078003e-01
1.609344e+07 -3.437233e-02 1.706886e-02 5.960464e-07 -2.339482e-05 1.344085e-05 3.642589e-05 -6.740112e-01 6.403809e-01
1.631125e+07 -3.423309e-02 1.714516e-02 1.826324e-05 -1.728907e-05 3.759749e-05 4.316308e-05 -7.899780e-01 4.793091e-01
1.652906e+07 -3.407669e-02 1.712990e-02 1.351535e-05 -3.089942e-05 3.598444e-05 4.226528e-05 -8.769531e-01 2.728882e-01
1.674688e+07 -3.394318e-02 1.713181e-02 -5.141646e-05 1.563877e-05 2.737530e-05 -5.852431e-06 -9.685059e-01 1.137695e-01
1.696469e+07 -3.386879e-02 1.702690e-02 -4.349276e-06 -1.432747e-05 1.939014e-06 -3.276952e-05 -9.661865e-01 -3.881836e-02
1.718250e+07 -3.375244e-02 1.711273e-02 4.652515e-05 2.178922e-05 1.540128e-05 5.303882e-06 -9.921265e-01 -1.974487e-01
1.740031e+07 -3.363991e-02 1.701736e-02 -2.744608e-05 -1.162663e-05 -3.276393e-05 -3.609061e-05 -9.580078e-01 -2.855835e-01
1.761812e+07 -3.378868e-02 1.692581e-02 -2.006255e-05 1.413934e-05 9.574462e-06 -3.500842e-06 -8.786011e-01 -4.428711e-01
1.783594e+07 -3.365898e-02 1.697350e-02 -1.151580e-05 1.561549e-05 7.687137e-06 -1.924764e-05 -8.093872e-01 -5.589600e-01
1.805375e+07 -3.370476e-02 1.697922e-02 1.827255e-06 -2.062134e-05 1.286529e-05 3.314018e-05 -6.816711e-01 -6.840210e-01
1.827156e+07 -3.358269e-02 1.693535e-02 -4.498661e-05 1.766905e-05 -2.396293e-06 -1.144968e-05 -5.690308e-01 -8.031616e-01
1.848938e+07 -3.373718e-02 1.690292e-02 -3.537536e-05 -9.609386e-06 2.435036e-05 -2.946891e-05 -3.774414e-01 -8.525391e-01
1.870719e+07 -3.379822e-02 1.697350e-02 7.349998e-06 5.200878e-05 8.082762e-05 8.307397e-06 -1.624756e-01 -9.171753e-01
1.892500e+07 -3.365707e-02 1.707077e-02 -4.387647e-05 -7.487833e-06 -2.083927e-05 -5.428120e-05 4.980469e-02 -9.028931e-01
1.914281e+07 -3.381348e-02 1.688576e-02 -2.468377e-05 -2.602674e-05 3.639236e-05 -1.674518e-06 3.268433e-01 -8.502808e-01
1.936062e+07 -3.400421e-02 1.703644e-02 2.750568e-05 3.430620e-05 1.977757e-05 1.272745e-05 5.241699e-01 -7.681274e-01
1.957844e+07 -3.396034e-02 1.721764e-02 1.175329e-06 3.827037e-06 1.975242e-05 -2.755783e-06 6.956787e-01 -5.578308e-01
1.979625e+07 -3.404808e-02 1.717949e-02 -1.175702e-05 4.734844e-05 -1.370162e-05 -5.497411e-05 8.898926e-01 -3.397827e-01
2.001406e+07 -3.418732e-02 1.734543e-02 -7.260591e-06 3.268383e-05 -3.304146e-05 5.595386e-06 9.542236e-01 -1.212769e-01
2.023188e+07 -3.424263e-02 1.736069e-02 -7.398427e-06 -8.040667e-05 5.816109e-06 1.915265e-05 9.398193e-01 1.594849e-01
2.044969e+07 -3.440475e-02 1.751328e-02 -4.709512e-05 -7.726252e-06 -2.963655e-05 -2.973899e-05 9.086914e-01 4.132690e-01
2.066750e+07 -3.446198e-02 1.760292e-02 6.955490e-05 -3.512204e-05 -3.804080e-05 3.004260e-05 7.940674e-01 6.357422e-01
2.088531e+07 -3.467560e-02 1.767349e-02 -1.602620e-05 -2.223998e-05 -2.323091e-05 -3.074855e-05 6.505127e-01 8.092041e-01
2.110312e+07 -3.463364e-02 1.793480e-02 -7.842481e-05 3.353879e-05 -1.979992e-05 3.143959e-05 4.752197e-01 9.123535e-01
2.132094e+07 -3.488159e-02 1.813507e-02 1.231208e-05 -5.105510e-05 3.341399e-05 -2.272800e-05 3.266602e-01 1.002869e+00
2.153875e+07 -3.499222e-02 1.826859e-02 -3.136322e-05 -1.285784e-05 -4.647300e-07 -1.710374e-05 1.611938e-01 9.558105e-01
2.175656e+07 -3.520584e-02 1.862717e-02 -7.273629e-05 -2.367049e-05 -3.335625e-05 1.011416e-06 -5.169678e-02 9.433594e-01
2.197438e+07 -3.516579e-02 1.865578e-02 3.621355e-05 -3.520399e-05 -2.547167e-06 -1.868885e-05 -1.458130e-01 9.354248e-01
2.219219e+07 -3.538895e-02 1.888847e-02 -4.299730e-05 1.364946e-05 -1.233257e-05 -3.039092e-05 -2.890015e-01 8.395996e-01
2.241000e+07 -3.554153e-02 1.932907e-02 1.934916e-05 -3.032945e-05 -1.943111e-05 -2.345443e-05 -4.307251e-01 7.894897e-01
2.262781e+07 -3.564644e-02 1.955795e-02 6.519258e-06 4.994497e-05 -2.080947e-05 3.354810e-05 -5.312195e-01 6.957397e-01
2.284562e+07 -3.557396e-02 1.982498e-02 1.756847e-05 -7.118657e-05 -3.078580e-05 6.863847e-05 -6.976624e-01 6.099548e-01
2.306344e+07 -3.571892e-02 2.011681e-02 3.784336e-05 2.682209e-05 -1.433305e-05 3.288686e-05 -7.949829e-01 4.881592e-01
2.328125e+07 -3.592300e-02 2.037621e-02 1.053698e-05 -2.785400e-05 -1.541153e-05 -7.885508e-06 -9.070435e-01 2.919312e-01
2.349906e+07 -3.599548e-02 2.063179e-02 -5.592406e-05 3.331155e-05 5.653501e-05 -1.400709e-06 -1.000244e+00 1.218872e-01
2.371688e+07 -3.594208e-02 2.105522e-02 4.176050e-05 3.173202e-05 1.071207e-05 3.237464e-05 -1.018738e+00 -1.357422e-01
2.393469e+07 -3.607368e-02 2.143478e-02 1.452491e-05 4.975125e-05 -2.479553e-05 9.271502e-05 -1.018188e+00 -3.835449e-01
2.415250e+07 -3.609848e-02 2.174950e-02 -2.599694e-05 1.184084e-05 -5.134195e-05 -3.322959e-06 -8.849487e-01 -5.664673e-01
2.437031e+07 -3.628349e-02 2.210426e-02 -3.986433e-05 7.590652e-05 2.955832e-05 1.197495e-05 -7.136841e-01 -8.233032e-01
2.458812e+07 -3.612900e-02 2.242851e-02 -1.998618e-05 5.317479e-05 7.972121e-07 -7.954612e-05 -5.206299e-01 -9.407959e-01
2.480594e+07 -3.619957e-02 2.281380e-02 -2.434477e-06 -2.330542e-05 9.665266e-06 -2.796017e-05 -2.228394e-01 -9.771729e-01
2.502375e+07 -3.615761e-02 2.325821e-02 -3.546104e-05 3.786758e-06 -5.158409e-05 1.769885e-05 4.473877e-02 -9.946289e-01
2.524156e+07 -3.614044e-02 2.361870e-02 -7.757545e-05 -6.239861e-06 -3.805384e-06 -3.329292e-05 3.078613e-01 -9.075928e-01
2.545938e+07 -3.615570e-02 2.399063e-02 -3.142282e-05 2.266467e-05 8.009374e-06 -7.781759e-05 5.335693e-01 -7.591553e-01
2.567719e+07 -3.601646e-02 2.443886e-02 -8.773059e-05 2.373755e-05 7.469207e-05 1.106411e-06 7.067566e-01 -5.825500e-01
2.589500e+07 -3.594971e-02 2.473259e-02 -4.734471e-05 3.034249e-05 -1.460873e-05 3.366917e-05 8.562622e-01 -4.284668e-01
2.611281e+07 -3.589249e-02 2.517700e-02 -6.250292e-05 -4.608929e-05 -2.927706e-05 -5.194545e-05 8.748779e-01 -2.630005e-01
2.633062e+07 -3.584290e-02 2.568817e-02 9.649992e-05 -3.980845e-05 8.461997e-06 -3.604591e-05 8.825073e-01 -4.956055e-02
2.654844e+07 -3.563690e-02 2.594566e-02 6.802753e-05 -2.256408e-05 4.790723e-06 5.014613e-05 9.201660e-01 9.124756e-02
2.676625e+07 -3.553963e-02 2.633667e-02 2.447329e-05 -2.674758e-06 2.424046e-05 1.129694e-05 8.883667e-01 2.251587e-01
2.698406e+07 -3.549385e-02 2.676010e-02 1.342595e-05 2.927519e-05 -3.380328e-05 8.837134e-05 8.756104e-01 3.871460e-01
2.720188e+07 -3.528786e-02 2.712822e-02 -6.280094e-05 -5.279854e-05 -4.008412e-06 1.126155e-04 8.540039e-01 4.840698e-01
2.741969e+07 -3.507805e-02 2.732277e-02 -9.469688e-06 -4.008040e-05 6.148592e-05 4.693866e-06 8.328857e-01 6.250610e-01
2.763750e+07 -3.496170e-02 2.783203e-02 -2.788380e-05 4.312396e-05 -2.694502e-05 -3.362633e-05 7.644043e-01 6.959839e-01
2.785531e+07 -3.463364e-02 2.803040e-02 3.308803e-05 -2.392754e-05 1.227763e-05 5.653128e-06 5.920410e-01 8.054199e-01
2.807312e+07 -3.459167e-02 2.848244e-02 9.845197e-05 3.067404e-05 3.074855e-05 6.315112e-05 4.544678e-01 8.958740e-01
2.829094e+07 -3.445625e-02 2.876663e-02 4.631281e-05 7.224083e-05 5.723909e-05 2.616271e-05 2.215576e-01 9.353027e-01
2.850875e+07 -3.413391e-02 2.923775e-02 2.638064e-05 2.834387e-05 2.717599e-06 -2.604909e-05 -4.925537e-02 9.731445e-01
2.872656e+07 -3.391457e-02 2.941704e-02 7.320568e-05 -3.335997e-05 5.163252e-06 3.646687e-05 -2.507324e-01 9.188232e-01
2.894438e+07 -3.381538e-02 2.966690e-02 -2.882816e-05 -2.335198e-05 -2.929196e-05 4.802644e-05 -5.007324e-01 7.844238e-01
2.916219e+07 -3.362083e-02 3.023529e-02 -5.660951e-05 -4.585832e-05 6.180257e-05 -5.039945e-05 -7.229004e-01 6.211548e-01
2.938000e+07 -3.322029e-02 3.040314e-02 4.450604e-05 -2.017990e-05 -2.402999e-05 1.969188e-05 -8.392334e-01 4.022827e-01
2.959781e+07 -3.306961e-02 3.066635e-02 6.304681e-05 -1.408160e-06 -2.986379e-05 -4.138239e-05 -8.934937e-01 1.558228e-01
2.981562e+07 -3.296852e-02 3.092003e-02 2.655946e-05 2.855062e-05 1.714472e-05 1.073536e-05 -8.847656e-01 -1.162720e-01
3.003344e+07 -3.260422e-02 3.130913e-02 -9.667128e-06 5.915761e-05 9.088963e-05 -3.401190e-05 -8.138428e-01 -3.942261e-01
3.025125e+07 -3.224373e-02 3.156281e-02 -3.195554e-05 -7.991493e-05 -3.378093e-05 1.970679e-05 -6.935730e-01 -5.853882e-01
3.046906e+07 -3.194046e-02 3.179169e-02 -2.355315e-05 2.926216e-05 -5.735829e-05 -1.885742e-05 -5.222778e-01 -7.745361e-01
3.068688e+07 -3.181648e-02 3.200912e-02 -3.876910e-05 -6.486848e-05 -3.679842e-05 -7.965788e-05 -3.803101e-01 -9.357910e-01
3.090469e+07 -3.139877e-02 3.229332e-02 1.580641e-05 -7.563457e-05 5.923212e-06 8.706003e-05 -2.273560e-01 -9.592285e-01
3.112250e+07 -3.124046e-02 3.249741e-02 4.196540e-06 -1.119543e-05 -6.172061e-05 1.772493e-05 -4.309082e-02 -9.808350e-01
3.134031e+07 -3.096771e-02 3.263855e-02 2.025813e-05 -8.787215e-05 5.207583e-05 7.741153e-05 8.007812e-02 -1.009521e+00
3.155812e+07 -3.076553e-02 3.296852e-02 -3.308430e-05 1.969375e-05 -7.171184e-06 5.701557e-05 2.013550e-01 -9.510498e-01
3.177594e+07 -3.045273e-02 3.321838e-02 1.793820e-05 1.935009e-05 -1.149997e-05 5.282462e-05 3.229980e-01 -8.720703e-01
3.199375e+07 -3.035164e-02 3.334808e-02 -5.616993e-05 1.123548e-05 -8.922070e-06 -6.143376e-05 4.553223e-01 -8.250122e-01
3.221156e+07 -3.001785e-02 3.356743e-02 4.052371e-05 9.967387e-05 1.198575e-04 5.787611e-05 5.377197e-01 -7.509766e-01
3.242938e+07 -2.962494e-02 3.368950e-02 -4.602224e-05 -4.981831e-05 -3.151037e-05 9.290874e-06 6.497498e-01 -5.765991e-01
3.264719e+07 -2.934837e-02 3.375816e-02 2.180040e-05 -5.782396e-05 3.644265e-06 1.468975e-05 7.934570e-01 -4.606323e-01
3.286500e+07 -2.922440e-02 3.405952e-02 -2.163928e-06 5.739275e-06 -4.825741e-05 -3.781170e-06 8.474121e-01 -3.115234e-01
3.308281e+07 -2.884674e-02 3.417778e-02 6.313622e-05 -9.673834e-05 4.457310e-05 -1.111254e-05 9.014893e-01 -7.495117e-02
3.330062e+07 -2.866936e-02 3.443718e-02 3.283285e-05 1.903996e-05 -4.500151e-05 -2.563000e-05 9.143066e-01 1.434326e-01
3.351844e+07 -2.829170e-02 3.445053e-02 8.091331e-05 3.726035e-05 -4.308298e-05 -1.800992e-05 8.620605e-01 3.860474e-01
3.373625e+07 -2.811813e-02 3.462791e-02 1.667999e-05 -7.529743e-06 2.264790e-05 3.715046e-05 8.012695e-01 6.218872e-01
3.395406e+07 -2.782249e-02 3.476334e-02 2.236106e-06 -5.941838e-06 4.689023e-05 -5.920231e-05 6.030273e-01 7.834473e-01
3.417188e+07 -2.756310e-02 3.494453e-02 -3.719330e-05 -4.879013e-05 -2.085138e-05 8.661300e-06 3.817749e-01 9.744873e-01
3.438969e+07 -2.731705e-02 3.504181e-02 8.739531e-05 2.631545e-05 6.265938e-05 -4.462525e-05 1.986694e-01 1.049744e+00
3.460750e+07 -2.699661e-02 3.518295e-02 -3.658794e-05 2.131052e-05 4.124828e-05 3.110617e-05 -9.338379e-02 1.034058e+00
3.482531e+07 -2.686501e-02 3.534889e-02 -5.135313e-05 5.823374e-05 1.074523e-04 1.020432e-04 -3.474121e-01 9.616699e-01
3.504312e+07 -2.638817e-02 3.527260e-02 5.220994e-05 4.944950e-05 7.538870e-05 -3.608316e-05 -5.705566e-01 8.023071e-01
3.526094e+07 -2.632523e-02 3.538895e-02 6.391108e-05 -1.147389e-05 2.821721e-05 1.543947e-05 -7.764282e-01 6.595459e-01
3.547875e+07 -2.578163e-02 3.550529e-02 2.210215e-05 5.239993e-05 7.830933e-05 7.950515e-05 -8.566895e-01 4.196777e-01
3.569656e+07 -2.565193e-02 3.566742e-02 3.543124e-05 2.199225e-05 7.358193e-05 3.449246e-05 -9.387817e-01 1.671753e-01
3.591438e+07 -2.547836e-02 3.572083e-02 7.285178e-05 1.124889e-04 -3.738329e-06 1.328439e-05 -9.617310e-01 1.965332e-02
3.613219e+07 -2.529335e-02 3.573608e-02 1.202896e-05 4.261360e-05 -2.510846e-05 5.108863e-05 -8.768921e-01 -1.866455e-01
3.635000e+07 -2.507973e-02 3.586578e-02 1.466274e-05 3.637373e-05 -5.592406e-05 -1.119301e-04 -8.081665e-01 -3.560181e-01
3.656781e+07 -2.476883e-02 3.584480e-02 -8.653104e-05 6.084889e-05 8.529425e-05 -6.301701e-05 -7.149658e-01 -4.907227e-01
3.678562e+07 -2.458191e-02 3.596687e-02 1.180917e-05 4.374236e-05 -4.368275e-05 -6.283820e-05 -6.568298e-01 -6.378784e-01
3.700344e+07 -2.435303e-02 3.603935e-02 -3.136694e-06 -6.317720e-05 -5.804002e-06 -6.660074e-05 -5.861206e-01 -7.482300e-01
3.722125e+07 -2.409744e-02 3.592110e-02 1.237392e-04 7.152557e-07 8.096918e-06 3.272668e-05 -5.316162e-01 -8.432007e-01
3.743906e+07 -2.392960e-02 3.618622e-02 7.024407e-05 -5.706400e-05 -7.520244e-05 -3.692880e-05 -4.696045e-01 -8.948975e-01
3.765688e+07 -2.358246e-02 3.618050e-02 -1.491420e-05 -2.641603e-05 1.149345e-05 1.650117e-05 -3.051758e-01 -9.440918e-01
3.787469e+07 -2.336502e-02 3.632927e-02 1.775473e-05 -4.378334e-05 3.015436e-05 -4.046410e-05 -1.226807e-01 -9.517822e-01
3.809250e+07 -2.324104e-02 3.622246e-02 -2.788566e-05 -3.508106e-05 -6.241351e-05 -6.199628e-05 1.275635e-01 -9.415283e-01
3.831031e+07 -2.298546e-02 3.638840e-02 3.662705e-05 8.194894e-05 -2.839044e-05 1.494400e-05 3.496094e-01 -9.250488e-01
3.852812e+07 -2.273941e-02 3.627014e-02 -2.568588e-05 1.402013e-05 -2.713129e-05 5.740300e-05 5.559082e-01 -7.694092e-01
3.874594e+07 -2.249908e-02 3.641701e-02 -4.463643e-05 4.072860e-05 2.398342e-05 2.091751e-05 7.597046e-01 -5.551758e-01
3.896375e+07 -2.224350e-02 3.631592e-02 -2.788007e-05 -5.207956e-05 -1.160204e-04 1.344830e-05 8.770752e-01 -3.491211e-01
3.918156e+07 -2.220535e-02 3.637886e-02 1.183972e-04 6.862730e-05 5.225837e-05 -4.590303e-05 8.884888e-01 -2.258301e-02
3.939938e+07 -2.195930e-02 3.648567e-02 2.682582e-05 1.921132e-05 6.353948e-06 -4.439615e-06 8.681641e-01 2.928467e-01
3.961719e+07 -2.181816e-02 3.644753e-02 -1.258217e-05 2.295338e-05 1.245216e-04 -1.151860e-05 7.488403e-01 5.211792e-01
3.983500e+07 -2.154922e-02 3.659058e-02 -2.053380e-05 -5.566329e-05 2.478808e-05 -3.138743e-05 5.595093e-01 7.470093e-01
4.005281e+07 -2.139473e-02 3.654289e-02 -5.850196e-05 1.373887e-05 1.274887e-05 -8.968636e-06 3.512573e-01 8.740234e-01
4.027062e+07 -2.117729e-02 3.654671e-02 -5.150586e-05 1.013279e-05 6.210804e-05 -9.433925e-05 1.069336e-01 9.270020e-01
4.048844e+07 -2.112961e-02 3.653717e-02 1.960620e-05 -4.287064e-05 -5.676970e-05 -2.643093e-05 -6.262207e-02 9.502563e-01
4.070625e+07 -2.075386e-02 3.658104e-02 -1.280569e-05 6.400049e-06 -1.994520e-05 -4.128926e-05 -2.547607e-01 8.578491e-01
4.092406e+07 -2.054787e-02 3.655434e-02 -3.939494e-05 -2.972782e-05 3.850833e-05 -5.055219e-05 -4.374390e-01 8.148804e-01
4.114188e+07 -2.047157e-02 3.656197e-02 1.345277e-04 7.785857e-05 3.473647e-05 2.243929e-05 -5.152588e-01 7.618408e-01
4.135969e+07 -2.030182e-02 3.653526e-02 2.726167e-05 -4.642457e-05 -2.821535e-05 3.860518e-05 -6.162720e-01 7.189941e-01
4.157750e+07 -2.005577e-02 3.659058e-02 -3.116205e-05 -3.218278e-05 8.030981e-05 7.342175e-05 -6.383057e-01 6.296082e-01
4.179531e+07 -1.987648e-02 3.652191e-02 -6.503612e-05 -6.772578e-05 -3.462844e-05 1.551770e-05 -7.312012e-01 5.142822e-01
4.201312e+07 -1.975250e-02 3.671837e-02 -5.224347e-05 -2.429634e-05 3.183261e-06 3.133528e-05 -7.736816e-01 4.287720e-01
4.223094e+07 -1.965141e-02 3.664970e-02 5.169585e-05 -8.303672e-06 -4.502386e-05 3.911555e-07 -8.524780e-01 2.342529e-01
4.244875e+07 -1.948929e-02 3.669357e-02 -7.331371e-05 9.909272e-07 -9.173527e-06 -2.591498e-05 -9.249268e-01 8.135986e-02
4.266656e+07 -1.914597e-02 3.666306e-02 -1.092553e-04 -2.964586e-05 -2.148747e-05 4.806370e-05 -8.946533e-01 -1.042480e-01
4.288438e+07 -1.916313e-02 3.660011e-02 -2.542324e-05 -3.811158e-05 -7.690489e-05 8.966774e-06 -8.826904e-01 -3.413086e-01
4.310219e+07 -1.894569e-02 3.659630e-02 -3.659725e-05 -4.648045e-05 6.435066e-05 -1.300499e-04 -7.542725e-01 -5.068970e-01
4.332000e+07 -1.875305e-02 3.650475e-02 1.612306e-05 9.196252e-05 7.944182e-05 2.105534e-05 -5.661621e-01 -7.134399e-01
4.353781e+07 -1.875305e-02 3.663254e-02 -3.096461e-05 -5.187467e-05 3.134832e-05 -3.710203e-05 -3.830566e-01 -8.391724e-01
4.375562e+07 -1.876068e-02 3.653526e-02 -6.976724e-05 7.800758e-05 3.226101e-05 -5.293638e-06 -9.497070e-02 -9.207764e-01
4.397344e+07 -1.847649e-02 3.656960e-02 -1.802295e-05 -4.230440e-05 2.145022e-05 5.593151e-05 1.528931e-01 -9.631958e-01
4.419125e+07 -1.837158e-02 3.677177e-02 2.736598e-05 -1.231059e-04 -3.435835e-05 2.961047e-05 3.746338e-01 -8.850098e-01
4.440906e+07 -1.819801e-02 3.661537e-02 -3.529899e-05 1.468509e-05 3.754720e-05 5.172566e-05 6.228027e-01 -7.863770e-01
4.462688e+07 -1.796150e-02 3.653145e-02 -7.133558e-05 -1.828745e-05 1.021549e-04 7.583946e-05 7.785034e-01 -5.986938e-01
4.484469e+07 -1.789856e-02 3.659439e-02 -1.123473e-04 1.120195e-04 -1.029298e-04 -2.691895e-05 9.627686e-01 -3.765259e-01
4.506250e+07 -1.771927e-02 3.649521e-02 -9.439886e-05 -2.861768e-05 5.107373e-05 1.649186e-05 1.022644e+00 -2.353516e-01
4.528031e+07 -1.757240e-02 3.660393e-02 0.000000e+00 0.000000e+00 0.000000e+00 0.000000e+00 0.000000e+00 0.000000e+00
4.549812e+07 -1.757812e-02 3.644753e-02 0.000000e+00 0.000000e+00 0.000000e+00 0.000000e+00 0.000000e+00 0.000000e+00
4.571594e+07 -1.744843e-02 3.661537e-02 0.000000e+00 0.000000e+00 0.000000e+00 0.000000e+00 0.000000e+00 0.000000e+00
4.593375e+07 -1.736832e-02 3.652191e-02 0.000000e+00 0.000000e+00 0.000000e+00 0.000000e+00 0.000000e+00 0.000000e+00
4.615156e+07 -1.722908e-02 3.653526e-02 0.000000e+00 0.000000e+00 0.000000e+00 0.000000e+00 0.000000e+00 0.000000e+00
4.636938e+07 -1.724052e-02 3.656387e-02 0.000000e+00 0.000000e+00 0.000000e+00 0.000000e+00 0.000000e+00 0.000000e+00
4.658719e+07 -1.696205e-02 3.661919e-02 0.000000e+00 0.000000e+00 0.000000e+00 0.000000e+00 0.000000e+00 0.000000e+00
4.680500e+07 -1.686096e-02 3.641701e-02 0.000000e+00 0.000000e+00 0.000000e+00 0.000000e+00 0.000000e+00 0.000000e+00
4.702281e+07 -1.675224e-02 3.652382e-02 0.000000e+00 0.000000e+00 0.000000e+00 0.000000e+00 0.000000e+00 0.000000e+00
4.724062e+07 -1.664925e-02 3.653336e-02 0.000000e+00 0.000000e+00 0.000000e+00 0.000000e+00 0.000000e+00 0.000000e+00
4.745844e+07 -1.663780e-02 3.655434e-02 0.000000e+00 0.000000e+00 0.000000e+00 0.000000e+00 0.000000e+00 0.000000e+00
4.767625e+07 -1.638412e-02 3.653145e-02 0.000000e+00 0.000000e+00 0.000000e+00 0.000000e+00 0.000000e+00 0.000000e+00
4.789406e+07 -1.629066e-02 3.661919e-02 0.000000e+00 0.000000e+00 0.000000e+00 0.000000e+00 0.000000e+00 0.000000e+00
4.811188e+07 -1.640892e-02 3.668976e-02 0.000000e+00 0.000000e+00 0.000000e+00 0.000000e+00 0.000000e+00 0.000000e+00
4.832969e+07 -1.596642e-02 3.651237e-02 0.000000e+00 0.000000e+00 0.000000e+00 0.000000e+00 0.000000e+00 0.000000e+00
4.854750e+07 -1.624107e-02 3.643799e-02 0.000000e+00 0.000000e+00 0.000000e+00 0.000000e+00 0.000000e+00 0.000000e+00
4.876531e+07 -1.593781e-02 3.656578e-02 0.000000e+00 0.000000e+00 0.000000e+00 0.000000e+00 0.000000e+00 0.000000e+00
4.898312e+07 -1.585388e-02 3.639030e-02 0.000000e+00 0.000000e+00 0.000000e+00 0.000000e+00 0.000000e+00 0.000000e+00
4.920094e+07 -1.589203e-02 3.655624e-02 0.000000e+00 0.000000e+00 0.000000e+00 0.000000e+00 0.000000e+00 0.000000e+00
4.941875e+07 -1.576233e-02 3.671837e-02 0.000000e+00 0.000000e+00 0.000000e+00 0.000000e+00 0.000000e+00 0.000000e+00
4.963656e+07 -1.572418e-02 3.654480e-02 0.000000e+00 0.000000e+00 0.000000e+00 0.000000e+00 0.000000e+00 0.000000e+00
4.985438e+07 -1.556778e-02 3.653717e-02 0.000000e+00 0.000000e+00 0.000000e+00 0.000000e+00 0.000000e+00 0.000000e+00
5.007219e+07 -1.555824e-02 3.649330e-02 0.000000e+00 0.000000e+00 0.000000e+00 0.000000e+00 0.000000e+00 0.000000e+00
5.029000e+07 -1.548576e-02 3.652573e-02 0.000000e+00 0.000000e+00 0.000000e+00 0.000000e+00 0.000000e+00 0.000000e+00
5.050781e+07 -1.516342e-02 3.625488e-02 0.000000e+00 0.000000e+00 0.000000e+00 0.000000e+00 0.000000e+00 0.000000e+00
5.072562e+07 -1.521111e-02 3.644562e-02 0.000000e+00 0.000000e+00 0.000000e+00 0.000000e+00 0.000000e+00 0.000000e+00
5.094344e+07 -1.512909e-02 3.654671e-02 0.000000e+00 0.000000e+00 0.000000e+00 0.000000e+00 0.000000e+00 0.000000e+00
5.116125e+07 -1.517105e-02 3.676033e-02 0.000000e+00 0.000000e+00 0.000000e+00 0.000000e+00 0.000000e+00 0.000000e+00
5.137906e+07 -1.490402e-02 3.660011e-02 0.000000e+00 0.000000e+00 0.000000e+00 0.000000e+00 0.000000e+00 0.000000e+00
5.159688e+07 -1.482010e-02 3.646660e-02 0.000000e+00 0.000000e+00 0.000000e+00 0.000000e+00 0.000000e+00 0.000000e+00
5.181469e+07 -1.474762e-02 3.648949e-02 0.000000e+00 0.000000e+00 0.000000e+00 0.000000e+00 0.000000e+00 0.000000e+00
5.203250e+07 -1.461792e-02 3.643799e-02 0.000000e+00 0.000000e+00 0.000000e+00 0.000000e+00 0.000000e+00 0.000000e+00
5.225031e+07 -1.462555e-02 3.665733e-02 0.000000e+00 0.000000e+00 0.000000e+00 0.000000e+00 0.000000e+00 0.000000e+00
5.246812e+07 -1.452637e-02 3.646660e-02 0.000000e+00 0.000000e+00 0.000000e+00 0.000000e+00 0.000000e+00 0.000000e+00
5.268594e+07 -1.442909e-02 3.661728e-02 0.000000e+00 0.000000e+00 0.000000e+00 0.000000e+00 0.000000e+00 0.000000e+00
5.290375e+07 -1.438332e-02 3.661346e-02 0.000000e+00 0.000000e+00 0.000000e+00 0.000000e+00 0.000000e+00 0.000000e+00
5.312156e+07 -1.424026e-02 3.637886e-02 0.000000e+00 0.000000e+00 0.000000e+00 0.000000e+00 0.000000e+00 0.000000e+00
5.333938e+07 -1.438332e-02 3.650093e-02 0.000000e+00 0.000000e+00 0.000000e+00 0.000000e+00 0.000000e+00 0.000000e+00
5.355719e+07 -1.429176e-02 3.653908e-02 0.000000e+00 0.000000e+00 0.000000e+00 0.000000e+00 0.000000e+00 0.000000e+00
5.377500e+07 -1.413918e-02 3.656197e-02 0.000000e+00 0.000000e+00 0.000000e+00 0.000000e+00 0.000000e+00 0.000000e+00
5.399281e+07 -1.416016e-02 3.658295e-02 0.000000e+00 0.000000e+00 0.000000e+00 0.000000e+00 0.000000e+00 0.000000e+00
5.421062e+07 -1.420593e-02 3.660393e-02 0.000000e+00 0.000000e+00 0.000000e+00 0.000000e+00 0.000000e+00 0.000000e+00
5.442844e+07 -1.388741e-02 3.663635e-02 0.000000e+00 0.000000e+00 0.000000e+00 0.000000e+00 0.000000e+00 0.000000e+00
5.464625e+07 -1.386833e-02 3.653336e-02 0.000000e+00 0.000000e+00 0.000000e+00 0.000000e+00 0.000000e+00 0.000000e+00
5.486406e+07 -1.388550e-02 3.659248e-02 0.000000e+00 0.000000e+00 0.000000e+00 0.000000e+00 0.000000e+00 0.000000e+00
5.508188e+07 -1.397324e-02 3.662300e-02 0.000000e+00 0.000000e+00 0.000000e+00 0.000000e+00 0.000000e+00 0.000000e+00
5.529969e+07 -1.383972e-02 3.660583e-02 0.000000e+00 0.000000e+00 0.000000e+00 0.000000e+00 0.000000e+00 0.000000e+00
5.551750e+07 -1.382637e-02 3.656578e-02 0.000000e+00 0.000000e+00 0.000000e+00 0.000000e+00 0.000000e+00 0.000000e+00
5.573531e+07 -1.373672e-02 3.658485e-02 0.000000e+00 0.000000e+00 0.000000e+00 0.000000e+00 0.000000e+00 0.000000e+00
5.595312e+07 -1.373100e-02 3.668404e-02 0.000000e+00 0.000000e+00 0.000000e+00 0.000000e+00 0.000000e+00 0.000000e+00
5.617094e+07 -1.352119e-02 3.655624e-02 0.000000e+00 0.000000e+00 0.000000e+00 0.000000e+00 0.000000e+00 0.000000e+00
5.638875e+07 -1.346207e-02 3.655624e-02 0.000000e+00 0.000000e+00 0.000000e+00 0.000000e+00 0.000000e+00 0.000000e+00
5.660656e+07 -1.349068e-02 3.665161e-02 0.000000e+00 0.000000e+00 0.000000e+00 0.000000e+00 0.000000e+00 0.000000e+00
5.682438e+07 -1.354599e-02 3.668404e-02 0.000000e+00 0.000000e+00 0.000000e+00 0.000000e+00 0.000000e+00 0.000000e+00
5.704219e+07 -1.340485e-02 3.659821e-02 0.000000e+00 0.000000e+00 0.000000e+00 0.000000e+00 0.000000e+00 0.000000e+00
5.726000e+07 -1.328468e-02 3.659630e-02 0.000000e+00 0.000000e+00 0.000000e+00 0.000000e+00 0.000000e+00 0.000000e+00
5.747781e+07 -1.334190e-02 3.666687e-02 0.000000e+00 0.000000e+00 0.000000e+00 0.000000e+00 0.000000e+00 0.000000e+00
5.769562e+07 -1.333618e-02 3.680420e-02 0.000000e+00 0.000000e+00 0.000000e+00 0.000000e+00 0.000000e+00 0.000000e+00
5.791344e+07 -1.320839e-02 3.663254e-02 0.000000e+00 0.000000e+00 0.000000e+00 0.000000e+00 0.000000e+00 0.000000e+00
5.813125e+07 -1.323318e-02 3.670120e-02 0.000000e+00 0.000000e+00 0.000000e+00 0.000000e+00 0.000000e+00 0.000000e+00
5.834906e+07 -1.318550e-02 3.681946e-02 0.000000e+00 0.000000e+00 0.000000e+00 0.000000e+00 0.000000e+00 0.000000e+00
5.856688e+07 -1.309967e-02 3.684425e-02 0.000000e+00 0.000000e+00 0.000000e+00 0.000000e+00 0.000000e+00 0.000000e+00
5.878469e+07 -1.310349e-02 3.690910e-02 0.000000e+00 0.000000e+00 0.000000e+00 0.000000e+00 0.000000e+00 0.000000e+00
5.900250e+07 -1.302338e-02 3.700447e-02 0.000000e+00 0.000000e+00 0.000000e+00 0.000000e+00 0.000000e+00 0.000000e+00
5.922031e+07 -1.288414e-02 3.679848e-02 0.000000e+00 0.000000e+00 0.000000e+00 0.000000e+00 0.000000e+00 0.000000e+00
5.943812e+07 -1.288033e-02 3.699493e-02 0.000000e+00 0.000000e+00 0.000000e+00 0.000000e+00 0.000000e+00 0.000000e+00
5.965594e+07 -1.283073e-02 3.696632e-02 0.000000e+00 0.000000e+00 0.000000e+00 0.000000e+00 0.000000e+00 0.000000e+00
5.987375e+07 -1.284599e-02 3.700447e-02 0.000000e+00 0.000000e+00 0.000000e+00 0.000000e+00 0.000000e+00 0.000000e+00
6.009156e+07 -1.282883e-02 3.699875e-02 0.000000e+00 0.000000e+00 0.000000e+00 0.000000e+00 0.000000e+00 0.000000e+00
6.030938e+07 -1.281357e-02 3.713608e-02 0.000000e+00 0.000000e+00 0.000000e+00 0.000000e+00 0.000000e+00 0.000000e+00
6.052719e+07 -1.275826e-02 3.716469e-02 0.000000e+00 0.000000e+00 0.000000e+00 0.000000e+00 0.000000e+00 0.000000e+00
6.074500e+07 -1.272011e-02 3.719330e-02 0.000000e+00 0.000000e+00 0.000000e+00 0.000000e+00 0.000000e+00 0.000000e+00
6.096281e+07 -1.273727e-02 3.715324e-02 0.000000e+00 0.000000e+00 0.000000e+00 0.000000e+00 0.000000e+00 0.000000e+00
6.118062e+07 -1.267052e-02 3.711510e-02 0.000000e+00 0.000000e+00 0.000000e+00 0.000000e+00 0.000000e+00 0.000000e+00
6.139844e+07 -1.259804e-02 3.718948e-02 0.000000e+00 0.000000e+00 0.000000e+00 0.000000e+00 0.000000e+00 0.000000e+00
6.161625e+07 -1.252937e-02 3.722572e-02 0.000000e+00 0.000000e+00 0.000000e+00 0.000000e+00 0.000000e+00 0.000000e+00
6.183406e+07 -1.258850e-02 3.733444e-02 0.000000e+00 0.000000e+00 0.000000e+00 0.000000e+00 0.000000e+00 0.000000e+00
6.205188e+07 -1.248169e-02 3.741646e-02 0.000000e+00 0.000000e+00 0.000000e+00 0.000000e+00 0.000000e+00 0.000000e+00
6.226969e+07 -1.241493e-02 3.734970e-02 0.000000e+00 0.000000e+00 0.000000e+00 0.000000e+00 0.000000e+00 0.000000e+00
6.248750e+07 -1.243591e-02 3.740120e-02 0.000000e+00 0.000000e+00 0.000000e+00 0.000000e+00 0.000000e+00 0.000000e+00
6.270531e+07 -1.230812e-02 3.753281e-02 0.000000e+00 0.000000e+00 0.000000e+00 0.000000e+00 0.000000e+00 0.000000e+00
6.292312e+07 -1.227188e-02 3.757095e-02 0.000000e+00 0.000000e+00 0.000000e+00 0.000000e+00 0.000000e+00 0.000000e+00
6.314094e+07 -1.231384e-02 3.763771e-02 0.000000e+00 0.000000e+00 0.000000e+00 0.000000e+00 0.000000e+00 0.000000e+00
6.335875e+07 -1.202774e-02 3.754997e-02 0.000000e+00 0.000000e+00 0.000000e+00 0.000000e+00 0.000000e+00 0.000000e+00
6.357656e+07 -1.225853e-02 3.774643e-02 0.000000e+00 0.000000e+00 0.000000e+00 0.000000e+00 0.000000e+00 0.000000e+00
6.379438e+07 -1.214409e-02 3.782463e-02 0.000000e+00 0.000000e+00 0.000000e+00 0.000000e+00 0.000000e+00 0.000000e+00
6.401219e+07 -1.211929e-02 3.798866e-02 0.000000e+00 0.000000e+00 0.000000e+00 0.000000e+00 0.000000e+00 0.000000e+00
6.423000e+07 -1.203346e-02 3.787994e-02 0.000000e+00 0.000000e+00 0.000000e+00 0.000000e+00 0.000000e+00 0.000000e+00
6.444781e+07 -1.205826e-02 3.797531e-02 0.000000e+00 0.000000e+00 0.000000e+00 0.000000e+00 0.000000e+00 0.000000e+00
6.466562e+07 -1.182938e-02 3.800392e-02 0.000000e+00 0.000000e+00 0.000000e+00 0.000000e+00 0.000000e+00 0.000000e+00
6.488344e+07 -1.192474e-02 3.804207e-02 0.000000e+00 0.000000e+00 0.000000e+00 0.000000e+00 0.000000e+00 0.000000e+00
6.510125e+07 -1.191711e-02 3.815079e-02 0.000000e+00 0.000000e+00 0.000000e+00 0.000000e+00 0.000000e+00 0.000000e+00
6.531906e+07 -1.166534e-02 3.808975e-02 0.000000e+00 0.000000e+00 0.000000e+00 0.000000e+00 0.000000e+00 0.000000e+00
6.553688e+07 -1.177025e-02 3.818893e-02 0.000000e+00 0.000000e+00 0.000000e+00 0.000000e+00 0.000000e+00 0.000000e+00
6.575469e+07 -1.167297e-02 3.825569e-02 0.000000e+00 0.000000e+00 0.000000e+00 0.000000e+00 0.000000e+00 0.000000e+00
6.597250e+07 -1.160049e-02 3.837013e-02 0.000000e+00 0.000000e+00 0.000000e+00 0.000000e+00 0.000000e+00 0.000000e+00
6.619031e+07 -1.159668e-02 3.845215e-02 0.000000e+00 0.000000e+00 0.000000e+00 0.000000e+00 0.000000e+00 0.000000e+00
6.640812e+07 -1.154709e-02 3.856659e-02 0.000000e+00 0.000000e+00 0.000000e+00 0.000000e+00 0.000000e+00 0.000000e+00
6.662594e+07 -1.147079e-02 3.858948e-02 0.000000e+00 0.000000e+00 0.000000e+00 0.000000e+00 0.000000e+00 0.000000e+00
6.684375e+07 -1.150322e-02 3.855705e-02 0.000000e+00 0.000000e+00 0.000000e+00 0.000000e+00 0.000000e+00 0.000000e+00
6.706156e+07 -1.144791e-02 3.866768e-02 0.000000e+00 0.000000e+00 0.000000e+00 0.000000e+00 0.000000e+00 0.000000e+00
6.727938e+07 -1.128578e-02 3.881073e-02 0.000000e+00 0.000000e+00 0.000000e+00 0.000000e+00 0.000000e+00 0.000000e+00
6.749719e+07 -1.125717e-02 3.885841e-02 0.000000e+00 0.000000e+00 0.000000e+00 0.000000e+00 0.000000e+00 0.000000e+00
6.771500e+07 -1.111794e-02 3.903198e-02 0.000000e+00 0.000000e+00 0.000000e+00 0.000000e+00 0.000000e+00 0.000000e+00
6.793281e+07 -1.111794e-02 3.894424e-02 0.000000e+00 0.000000e+00 0.000000e+00 0.000000e+00 0.000000e+00 0.000000e+00
6.815062e+07 -1.093292e-02 3.889465e-02 0.000000e+00 0.000000e+00 0.000000e+00 0.000000e+00 0.000000e+00 0.000000e+00
6.836844e+07 -1.102638e-02 3.916931e-02 0.000000e+00 0.000000e+00 0.000000e+00 0.000000e+00 0.000000e+00 0.000000e+00
6.858625e+07 -1.099777e-02 3.924942e-02 0.000000e+00 0.000000e+00 0.000000e+00 0.000000e+00 0.000000e+00 0.000000e+00
6.880406e+07 -1.090240e-02 3.918648e-02 0.000000e+00 0.000000e+00 0.000000e+00 0.000000e+00 0.000000e+00 0.000000e+00
6.902188e+07 -1.086235e-02 3.938293e-02 0.000000e+00 0.000000e+00 0.000000e+00 0.000000e+00 0.000000e+00 0.000000e+00
6.923969e+07 -1.080132e-02 3.942680e-02 0.000000e+00 0.000000e+00 0.000000e+00 0.000000e+00 0.000000e+00 0.000000e+00
6.945750e+07 -1.086235e-02 3.942490e-02 0.000000e+00 0.000000e+00 0.000000e+00 0.000000e+00 0.000000e+00 0.000000e+00
6.967531e+07 -1.069641e-02 3.945541e-02 0.000000e+00 0.000000e+00 0.000000e+00 0.000000e+00 0.000000e+00 0.000000e+00
6.989312e+07 -1.080704e-02 3.962708e-02 0.000000e+00 0.000000e+00 0.000000e+00 0.000000e+00 0.000000e+00 0.000000e+00
7.011094e+07 -1.049995e-02 3.960800e-02 0.000000e+00 0.000000e+00 0.000000e+00 0.000000e+00 0.000000e+00 0.000000e+00
7.032875e+07 -1.061630e-02 3.981590e-02 0.000000e+00 0.000000e+00 0.000000e+00 0.000000e+00 0.000000e+00 0.000000e+00
7.054656e+07 -1.037216e-02 3.979492e-02 0.000000e+00 0.000000e+00 0.000000e+00 0.000000e+00 0.000000e+00 0.000000e+00
7.076438e+07 -1.045799e-02 3.992081e-02 0.000000e+00 0.000000e+00 0.000000e+00 0.000000e+00 0.000000e+00 0.000000e+00
7.098219e+07 -1.036644e-02 4.000473e-02 0.000000e+00 0.000000e+00 0.000000e+00 0.000000e+00 0.000000e+00 0.000000e+00
7.120000e+07 -1.016808e-02 3.998375e-02 0.000000e+00 0.000000e+00 0.000000e+00 0.000000e+00 0.000000e+00 0.000000e+00
7.141781e+07 -1.017380e-02 4.018974e-02 0.000000e+00 0.000000e+00 0.000000e+00 0.000000e+00 0.000000e+00 0.000000e+00
7.163562e+07 -1.002502e-02 4.021454e-02 0.000000e+00 0.000000e+00 0.000000e+00 0.000000e+00 0.000000e+00 0.000000e+00
7.185344e+07 -9.927750e-03 4.029846e-02 0.000000e+00 0.000000e+00 0.000000e+00 0.000000e+00 0.000000e+00 0.000000e+00
7.207125e+07 -9.874344e-03 4.044533e-02 0.000000e+00 0.000000e+00 0.000000e+00 0.000000e+00 0.000000e+00 0.000000e+00
7.228906e+07 -9.819031e-03 4.043770e-02 0.000000e+00 0.000000e+00 0.000000e+00 0.000000e+00 0.000000e+00 0.000000e+00
7.250688e+07 -9.723663e-03 4.044724e-02 0.000000e+00 0.000000e+00 0.000000e+00 0.000000e+00 0.000000e+00 0.000000e+00
7.272469e+07 -9.565353e-03 4.061127e-02 0.000000e+00 0.000000e+00 0.000000e+00 0.000000e+00 0.000000e+00 0.000000e+00
7.294250e+07 -9.473801e-03 4.057693e-02 0.000000e+00 0.000000e+00 0.000000e+00 0.000000e+00 0.000000e+00 0.000000e+00
7.316031e+07 -9.393692e-03 4.077339e-02 0.000000e+00 0.000000e+00 0.000000e+00 0.000000e+00 0.000000e+00 0.000000e+00
7.337812e+07 -9.426117e-03 4.070663e-02 0.000000e+00 0.000000e+00 0.000000e+00 0.000000e+00 0.000000e+00 0.000000e+00
7.359594e+07 -9.319305e-03 4.086494e-02 0.000000e+00 0.000000e+00 0.000000e+00 0.000000e+00 0.000000e+00 0.000000e+00
7.381375e+07 -9.250641e-03 4.080582e-02 0.000000e+00 0.000000e+00 0.000000e+00 0.000000e+00 0.000000e+00 0.000000e+00
7.403156e+07 -9.130478e-03 4.091644e-02 0.000000e+00 0.000000e+00 0.000000e+00 0.000000e+00 0.000000e+00 0.000000e+00
7.424938e+07 -9.037018e-03 4.099274e-02 0.000000e+00 0.000000e+00 0.000000e+00 0.000000e+00 0.000000e+00 0.000000e+00
7.446719e+07 -9.002686e-03 4.111671e-02 0.000000e+00 0.000000e+00 0.000000e+00 0.000000e+00 0.000000e+00 0.000000e+00
7.468500e+07 -8.834839e-03 4.106712e-02 0.000000e+00 0.000000e+00 0.000000e+00 0.000000e+00 0.000000e+00 0.000000e+00
7.490281e+07 -8.852005e-03 4.118729e-02 0.000000e+00 0.000000e+00 0.000000e+00 0.000000e+00 0.000000e+00 0.000000e+00
7.512062e+07 -8.733749e-03 4.120827e-02 0.000000e+00 0.000000e+00 0.000000e+00 0.000000e+00 0.000000e+00 0.000000e+00
7.533844e+07 -8.537292e-03 4.149437e-02 0.000000e+00 0.000000e+00 0.000000e+00 0.000000e+00 0.000000e+00 0.000000e+00
7.555625e+07 -8.472443e-03 4.153442e-02 0.000000e+00 0.000000e+00 0.000000e+00 0.000000e+00 0.000000e+00 0.000000e+00
7.577406e+07 -8.329391e-03 4.150772e-02 0.000000e+00 0.000000e+00 0.000000e+00 0.000000e+00 0.000000e+00 0.000000e+00
7.599188e+07 -8.275986e-03 4.160881e-02 0.000000e+00 0.000000e+00 0.000000e+00 0.000000e+00 0.000000e+00 0.000000e+00
7.620969e+07 -8.172989e-03 4.164124e-02 0.000000e+00 0.000000e+00 0.000000e+00 0.000000e+00 0.000000e+00 0.000000e+00
7.642750e+07 -8.140564e-03 4.167557e-02 0.000000e+00 0.000000e+00 0.000000e+00 0.000000e+00 0.000000e+00 0.000000e+00
7.664531e+07 -7.907867e-03 4.179382e-02 0.000000e+00 0.000000e+00 0.000000e+00 0.000000e+00 0.000000e+00 0.000000e+00
7.686312e+07 -7.936478e-03 4.189873e-02 0.000000e+00 0.000000e+00 0.000000e+00 0.000000e+00 0.000000e+00 0.000000e+00
7.708094e+07 -7.846832e-03 4.182243e-02 0.000000e+00 0.000000e+00 0.000000e+00 0.000000e+00 0.000000e+00 0.000000e+00
7.729875e+07 -7.747650e-03 4.189682e-02 0.000000e+00 0.000000e+00 0.000000e+00 0.000000e+00 0.000000e+00 0.000000e+00
7.751656e+07 -7.593155e-03 4.198265e-02 0.000000e+00 0.000000e+00 0.000000e+00 0.000000e+00 0.000000e+00 0.000000e+00
7.773438e+07 -7.625580e-03 4.209518e-02 0.000000e+00 0.000000e+00 0.000000e+00 0.000000e+00 0.000000e+00 0.000000e+00
7.795219e+07 -7.446289e-03 4.216576e-02 0.000000e+00 0.000000e+00 0.000000e+00 0.000000e+00 0.000000e+00 0.000000e+00
7.817000e+07 -7.299423e-03 4.218483e-02 0.000000e+00 0.000000e+00 0.000000e+00 0.000000e+00 0.000000e+00 0.000000e+00
7.838781e+07 -7.223129e-03 4.213524e-02 0.000000e+00 0.000000e+00 0.000000e+00 0.000000e+00 0.000000e+00 0.000000e+00
7.860562e+07 -7.120132e-03 4.249573e-02 0.000000e+00 0.000000e+00 0.000000e+00 0.000000e+00 0.000000e+00 0.000000e+00
7.882344e+07 -6.851196e-03 4.232407e-02 0.000000e+00 0.000000e+00 0.000000e+00 0.000000e+00 0.000000e+00 0.000000e+00
7.904125e+07 -6.818771e-03 4.238319e-02 0.000000e+00 0.000000e+00 0.000000e+00 0.000000e+00 0.000000e+00 0.000000e+00
7.925906e+07 -6.675720e-03 4.249191e-02 0.000000e+00 0.000000e+00 0.000000e+00 0.000000e+00 0.000000e+00 0.000000e+00
7.947688e+07 -6.702423e-03 4.258537e-02 0.000000e+00 0.000000e+00 0.000000e+00 0.000000e+00 0.000000e+00 0.000000e+00
7.969469e+07 -6.471634e-03 4.272079e-02 0.000000e+00 0.000000e+00 0.000000e+00 0.000000e+00 0.000000e+00 0.000000e+00
7.991250e+07 -6.475449e-03 4.264450e-02 0.000000e+00 0.000000e+00 0.000000e+00 0.000000e+00 0.000000e+00 0.000000e+00
8.013031e+07 -6.307602e-03 4.263115e-02 0.000000e+00 0.000000e+00 0.000000e+00 0.000000e+00 0.000000e+00 0.000000e+00
8.034812e+07 -6.050110e-03 4.278946e-02 0.000000e+00 0.000000e+00 0.000000e+00 0.000000e+00 0.000000e+00 0.000000e+00
8.056594e+07 -5.994797e-03 4.281235e-02 0.000000e+00 0.000000e+00 0.000000e+00 0.000000e+00 0.000000e+00 0.000000e+00
8.078375e+07 -5.935669e-03 4.286766e-02 0.000000e+00 0.000000e+00 0.000000e+00 0.000000e+00 0.000000e+00 0.000000e+00
8.100156e+07 -5.792618e-03 4.284668e-02 0.000000e+00 0.000000e+00 0.000000e+00 0.000000e+00 0.000000e+00 0.000000e+00
8.121938e+07 -5.588531e-03 4.299927e-02 0.000000e+00 0.000000e+00 0.000000e+00 0.000000e+00 0.000000e+00 0.000000e+00
8.143719e+07 -5.662918e-03 4.302979e-02 0.000000e+00 0.000000e+00 0.000000e+00 0.000000e+00 0.000000e+00 0.000000e+00
8.165500e+07 -5.453110e-03 4.306030e-02 0.000000e+00 0.000000e+00 0.000000e+00 0.000000e+00 0.000000e+00 0.000000e+00
8.187281e+07 -5.210876e-03 4.308319e-02 0.000000e+00 0.000000e+00 0.000000e+00 0.000000e+00 0.000000e+00 0.000000e+00
8.209062e+07 -5.130768e-03 4.320908e-02 0.000000e+00 0.000000e+00 0.000000e+00 0.000000e+00 0.000000e+00 0.000000e+00
8.230844e+07 -5.046844e-03 4.323387e-02 0.000000e+00 0.000000e+00 0.000000e+00 0.000000e+00 0.000000e+00 0.000000e+00
8.252625e+07 -4.940033e-03 4.339790e-02 0.000000e+00 0.000000e+00 0.000000e+00 0.000000e+00 0.000000e+00 0.000000e+00
8.274406e+07 -4.766464e-03 4.342461e-02 0.000000e+00 0.000000e+00 0.000000e+00 0.000000e+00 0.000000e+00 0.000000e+00
8.296188e+07 -4.598618e-03 4.328346e-02 0.000000e+00 0.000000e+00 0.000000e+00 0.000000e+00 0.000000e+00 0.000000e+00
8.317969e+07 -4.610062e-03 4.344177e-02 0.000000e+00 0.000000e+00 0.000000e+00 0.000000e+00 0.000000e+00 0.000000e+00
8.339750e+07 -4.587173e-03 4.361153e-02 0.000000e+00 0.000000e+00 0.000000e+00 0.000000e+00 0.000000e+00 0.000000e+00
8.361531e+07 -4.217148e-03 4.338646e-02 0.000000e+00 0.000000e+00 0.000000e+00 0.000000e+00 0.000000e+00 0.000000e+00
8.383312e+07 -4.333496e-03 4.347610e-02 0.000000e+00 0.000000e+00 0.000000e+00 0.000000e+00 0.000000e+00 0.000000e+00
8.405094e+07 -4.112244e-03 4.366302e-02 0.000000e+00 0.000000e+00 0.000000e+00 0.000000e+00 0.000000e+00 0.000000e+00
8.426875e+07 -4.142761e-03 4.360008e-02 0.000000e+00 0.000000e+00 0.000000e+00 0.000000e+00 0.000000e+00 0.000000e+00
8.448656e+07 -3.789902e-03 4.355240e-02 0.000000e+00 0.000000e+00 0.000000e+00 0.000000e+00 0.000000e+00 0.000000e+00
8.470438e+07 -3.601074e-03 4.351807e-02 0.000000e+00 0.000000e+00 0.000000e+00 0.000000e+00 0.000000e+00 0.000000e+00
8.492219e+07 -3.496170e-03 4.358482e-02 0.000000e+00 0.000000e+00 0.000000e+00 0.000000e+00 0.000000e+00 0.000000e+00
8.514000e+07 -3.408432e-03 4.364967e-02 0.000000e+00 0.000000e+00 0.000000e+00 0.000000e+00 0.000000e+00 0.000000e+00
8.535781e+07 -3.192902e-03 4.379082e-02 0.000000e+00 0.000000e+00 0.000000e+00 0.000000e+00 0.000000e+00 0.000000e+00
8.557562e+07 -3.173828e-03 4.387665e-02 0.000000e+00 0.000000e+00 0.000000e+00 0.000000e+00 0.000000e+00 0.000000e+00
8.579344e+07 -3.021240e-03 4.380989e-02 0.000000e+00 0.000000e+00 0.000000e+00 0.000000e+00 0.000000e+00 0.000000e+00
8.601125e+07 -2.817154e-03 4.388618e-02 0.000000e+00 0.000000e+00 0.000000e+00 0.000000e+00 0.000000e+00 0.000000e+00
8.622906e+07 -2.639771e-03 4.407310e-02 0.000000e+00 0.000000e+00 0.000000e+00 0.000000e+00 0.000000e+00 0.000000e+00
8.644688e+07 -2.635956e-03 4.382515e-02 0.000000e+00 0.000000e+00 0.000000e+00 0.000000e+00 0.000000e+00 0.000000e+00
8.666469e+07 -2.464294e-03 4.377174e-02 0.000000e+00 0.000000e+00 0.000000e+00 0.000000e+00 0.000000e+00 0.000000e+00
8.688250e+07 -2.206802e-03 4.385757e-02 0.000000e+00 0.000000e+00 0.000000e+00 0.000000e+00 0.000000e+00 0.000000e+00
8.710031e+07 -2.080917e-03 4.396820e-02 0.000000e+00 0.000000e+00 0.000000e+00 0.000000e+00 0.000000e+00 0.000000e+00
8.731812e+07 -2.227783e-03 4.383850e-02 0.000000e+00 0.000000e+00 0.000000e+00 0.000000e+00 0.000000e+00 0.000000e+00
8.753594e+07 -2.075195e-03 4.405785e-02 0.000000e+00 0.000000e+00 0.000000e+00 0.000000e+00 0.000000e+00 0.000000e+00
8.775375e+07 -1.752853e-03 4.385185e-02 0.000000e+00 0.000000e+00 0.000000e+00 0.000000e+00 0.000000e+00 0.000000e+00
8.797156e+07 -1.628876e-03 4.408455e-02 0.000000e+00 0.000000e+00 0.000000e+00 0.000000e+00 0.000000e+00 0.000000e+00
8.818938e+07 -1.632690e-03 4.401588e-02 0.000000e+00 0.000000e+00 0.000000e+00 0.000000e+00 0.000000e+00 0.000000e+00
8.840719e+07 -1.285553e-03 4.393959e-02 0.000000e+00 0.000000e+00 0.000000e+00 0.000000e+00 0.000000e+00 0.000000e+00
8.862500e+07 -1.361847e-03 4.402924e-02 0.000000e+00 0.000000e+00 0.000000e+00 0.000000e+00 0.000000e+00 0.000000e+00
8.884281e+07 -1.096725e-03 4.416275e-02 0.000000e+00 0.000000e+00 0.000000e+00 0.000000e+00 0.000000e+00 0.000000e+00
8.906062e+07 -1.045227e-03 4.403496e-02 0.000000e+00 0.000000e+00 0.000000e+00 0.000000e+00 0.000000e+00 0.000000e+00
8.927844e+07 -8.678436e-04 4.400444e-02 0.000000e+00 0.000000e+00 0.000000e+00 0.000000e+00 0.000000e+00 0.000000e+00
8.949625e+07 -6.637573e-04 4.406738e-02 0.000000e+00 0.000000e+00 0.000000e+00 0.000000e+00 0.000000e+00 0.000000e+00
8.971406e+07 -5.626678e-04 4.414558e-02 0.000000e+00 0.000000e+00 0.000000e+00 0.000000e+00 0.000000e+00 0.000000e+00
8.993188e+07 -4.310608e-04 4.409027e-02 0.000000e+00 0.000000e+00 0.000000e+00 0.000000e+00 0.000000e+00 0.000000e+00
9.014969e+07 -2.918243e-04 4.411888e-02 0.000000e+00 0.000000e+00 0.000000e+00 0.000000e+00 0.000000e+00 0.000000e+00
9.036750e+07 -9.536743e-05 4.400635e-02 0.000000e+00 0.000000e+00 0.000000e+00 0.000000e+00 0.000000e+00 0.000000e+00
9.058531e+07 -8.201599e-05 4.400826e-02 0.000000e+00 0.000000e+00 0.000000e+00 0.000000e+00 0.000000e+00 0.000000e+00
9.080312e+07 1.087189e-04 4.403496e-02 0.000000e+00 0.000000e+00 0.000000e+00 0.000000e+00 0.000000e+00 0.000000e+00
9.102094e+07 2.803802e-04 4.407692e-02 0.000000e+00 0.000000e+00 0.000000e+00 0.000000e+00 0.000000e+00 0.000000e+00
9.123875e+07 3.528595e-04 4.397202e-02 0.000000e+00 0.000000e+00 0.000000e+00 0.000000e+00 0.000000e+00 0.000000e+00
9.145656e+07 4.310608e-04 4.383469e-02 0.000000e+00 0.000000e+00 0.000000e+00 0.000000e+00 0.000000e+00 0.000000e+00
9.167438e+07 7.495880e-04 4.393768e-02 0.000000e+00 0.000000e+00 0.000000e+00 0.000000e+00 0.000000e+00 0.000000e+00
9.189219e+07 7.915497e-04 4.411125e-02 0.000000e+00 0.000000e+00 0.000000e+00 0.000000e+00 0.000000e+00 0.000000e+00
9.211000e+07 9.689331e-04 4.415703e-02 0.000000e+00 0.000000e+00 0.000000e+00 0.000000e+00 0.000000e+00 0.000000e+00
9.232781e+07 1.237869e-03 4.401207e-02 0.000000e+00 0.000000e+00 0.000000e+00 0.000000e+00 0.000000e+00 0.000000e+00
9.254562e+07 1.260757e-03 4.405785e-02 0.000000e+00 0.000000e+00 0.000000e+00 0.000000e+00 0.000000e+00 0.000000e+00
9.276344e+07 1.382828e-03 4.393196e-02 0.000000e+00 0.000000e+00 0.000000e+00 0.000000e+00 0.000000e+00 0.000000e+00
9.298125e+07 1.441956e-03 4.404449e-02 0.000000e+00 0.000000e+00 0.000000e+00 0.000000e+00 0.000000e+00 0.000000e+00
9.319906e+07 1.642227e-03 4.399872e-02 0.000000e+00 0.000000e+00 0.000000e+00 0.000000e+00 0.000000e+00 0.000000e+00
9.341688e+07 1.771927e-03 4.396057e-02 0.000000e+00 0.000000e+00 0.000000e+00 0.000000e+00 0.000000e+00 0.000000e+00
9.363469e+07 1.819611e-03 4.405403e-02 0.000000e+00 0.000000e+00 0.000000e+00 0.000000e+00 0.000000e+00 0.000000e+00
9.385250e+07 1.920700e-03 4.393387e-02 0.000000e+00 0.000000e+00 0.000000e+00 0.000000e+00 0.000000e+00 0.000000e+00
9.407031e+07 2.166748e-03 4.376602e-02 0.000000e+00 0.000000e+00 0.000000e+00 0.000000e+00 0.000000e+00 0.000000e+00
9.428812e+07 2.338409e-03 4.383850e-02 0.000000e+00 0.000000e+00 0.000000e+00 0.000000e+00 0.000000e+00 0.000000e+00
9.450594e+07 2.359390e-03 4.380989e-02 0.000000e+00 0.000000e+00 0.000000e+00 0.000000e+00 0.000000e+00 0.000000e+00
9.472375e+07 2.391815e-03 4.396629e-02 0.000000e+00 0.000000e+00 0.000000e+00 0.000000e+00 0.000000e+00 0.000000e+00
9.494156e+07 2.662659e-03 4.388237e-02 0.000000e+00 0.000000e+00 0.000000e+00 0.000000e+00 0.000000e+00 0.000000e+00
9.515938e+07 2.639771e-03 4.394150e-02 0.000000e+00 0.000000e+00 0.000000e+00 0.000000e+00 0.000000e+00 0.000000e+00
9.537719e+07 2.901077e-03 4.385757e-02 0.000000e+00 0.000000e+00 0.000000e+00 0.000000e+00 0.000000e+00 0.000000e+00
9.559500e+07 2.983093e-03 4.373360e-02 0.000000e+00 0.000000e+00 0.000000e+00 0.000000e+00 0.000000e+00 0.000000e+00
9.581281e+07 3.210068e-03 4.372406e-02 0.000000e+00 0.000000e+00 0.000000e+00 0.000000e+00 0.000000e+00 0.000000e+00
9.603062e+07 3.271103e-03 4.366684e-02 0.000000e+00 0.000000e+00 0.000000e+00 0.000000e+00 0.000000e+00 0.000000e+00
9.624844e+07 3.517151e-03 4.367828e-02 0.000000e+00 0.000000e+00 0.000000e+00 0.000000e+00 0.000000e+00 0.000000e+00
9.646625e+07 3.627777e-03 4.360008e-02 0.000000e+00 0.000000e+00 0.000000e+00 0.000000e+00 0.000000e+00 0.000000e+00
9.668406e+07 3.730774e-03 4.368973e-02 0.000000e+00 0.000000e+00 0.000000e+00 0.000000e+00 0.000000e+00 0.000000e+00
9.690188e+07 3.887177e-03 4.367447e-02 0.000000e+00 0.000000e+00 0.000000e+00 0.000000e+00 0.000000e+00 0.000000e+00
9.711969e+07 3.978729e-03 4.357529e-02 0.000000e+00 0.000000e+00 0.000000e+00 0.000000e+00 0.000000e+00 0.000000e+00
9.733750e+07 4.043579e-03 4.357529e-02 0.000000e+00 0.000000e+00 0.000000e+00 0.000000e+00 0.000000e+00 0.000000e+00
9.755531e+07 4.154205e-03 4.348946e-02 0.000000e+00 0.000000e+00 0.000000e+00 0.000000e+00 0.000000e+00 0.000000e+00
9.777312e+07 4.306793e-03 4.347801e-02 0.000000e+00 0.000000e+00 0.000000e+00 0.000000e+00 0.000000e+00 0.000000e+00
9.799094e+07 4.432678e-03 4.335403e-02 0.000000e+00 0.000000e+00 0.000000e+00 0.000000e+00 0.000000e+00 0.000000e+00
9.820875e+07 4.648209e-03 4.326248e-02 0.000000e+00 0.000000e+00 0.000000e+00 0.000000e+00 0.000000e+00 0.000000e+00
9.842656e+07 4.734039e-03 4.346085e-02 0.000000e+00 0.000000e+00 0.000000e+00 0.000000e+00 0.000000e+00 0.000000e+00
9.864438e+07 4.768372e-03 4.315567e-02 0.000000e+00 0.000000e+00 0.000000e+00 0.000000e+00 0.000000e+00 0.000000e+00
9.886219e+07 4.926682e-03 4.325676e-02 0.000000e+00 0.000000e+00 0.000000e+00 0.000000e+00 0.000000e+00 0.000000e+00
9.908000e+07 5.071640e-03 4.320145e-02 0.000000e+00 0.000000e+00 0.000000e+00 0.000000e+00 0.000000e+00 0.000000e+00
9.929781e+07 5.149841e-03 4.323578e-02 0.000000e+00 0.000000e+00 0.000000e+00 0.000000e+00 0.000000e+00 0.000000e+00
9.951562e+07 5.247116e-03 4.326439e-02 0.000000e+00 0.000000e+00 0.000000e+00 0.000000e+00 0.000000e+00 0.000000e+00
9.973344e+07 5.380630e-03 4.306030e-02 0.000000e+00 0.000000e+00 0.000000e+00 0.000000e+00 0.000000e+00 0.000000e+00
9.995125e+07 5.592346e-03 4.304504e-02 0.000000e+00 0.000000e+00 0.000000e+00 0.000000e+00 0.000000e+00 0.000000e+00
1.001691e+08 5.548477e-03 4.306221e-02 0.000000e+00 0.000000e+00 0.000000e+00 0.000000e+00 0.000000e+00 0.000000e+00
1.003869e+08 5.859375e-03 4.304504e-02 0.000000e+00 0.000000e+00 0.000000e+00 0.000000e+00 0.000000e+00 0.000000e+00
1.006047e+08 5.964279e-03 4.297829e-02 0.000000e+00 0.000000e+00 0.000000e+00 0.000000e+00 0.000000e+00 0.000000e+00
1.008225e+08 6.013870e-03 4.294968e-02 0.000000e+00 0.000000e+00 0.000000e+00 0.000000e+00 0.000000e+00 0.000000e+00
1.010403e+08 6.046295e-03 4.300117e-02 0.000000e+00 0.000000e+00 0.000000e+00 0.000000e+00 0.000000e+00 0.000000e+00
1.012581e+08 6.130219e-03 4.269600e-02 0.000000e+00 0.000000e+00 0.000000e+00 0.000000e+00 0.000000e+00 0.000000e+00
1.014759e+08 6.555557e-03 4.274559e-02 0.000000e+00 0.000000e+00 0.000000e+00 0.000000e+00 0.000000e+00 0.000000e+00
1.016938e+08 6.698608e-03 4.294777e-02 0.000000e+00 0.000000e+00 0.000000e+00 0.000000e+00 0.000000e+00 0.000000e+00
1.019116e+08 6.610870e-03 4.274368e-02 0.000000e+00 0.000000e+00 0.000000e+00 0.000000e+00 0.000000e+00 0.000000e+00
1.021294e+08 6.816864e-03 4.253769e-02 0.000000e+00 0.000000e+00 0.000000e+00 0.000000e+00 0.000000e+00 0.000000e+00
1.023472e+08 6.895065e-03 4.270554e-02 0.000000e+00 0.000000e+00 0.000000e+00 0.000000e+00 0.000000e+00 0.000000e+00
1.025650e+08 6.980896e-03 4.255867e-02 0.000000e+00 0.000000e+00 0.000000e+00 0.000000e+00 0.000000e+00 0.000000e+00
1.027828e+08 7.255554e-03 4.241943e-02 0.000000e+00 0.000000e+00 0.000000e+00 0.000000e+00 0.000000e+00 0.000000e+00
1.030006e+08 7.305145e-03 4.264641e-02 0.000000e+00 0.000000e+00 0.000000e+00 0.000000e+00 0.000000e+00 0.000000e+00
1.032184e+08 7.333755e-03 4.246140e-02 0.000000e+00 0.000000e+00 0.000000e+00 0.000000e+00 0.000000e+00 0.000000e+00
1.034362e+08 7.497787e-03 4.240608e-02 0.000000e+00 0.000000e+00 0.000000e+00 0.000000e+00 0.000000e+00 0.000000e+00
1.036541e+08 7.703781e-03 4.222870e-02 0.000000e+00 0.000000e+00 0.000000e+00 0.000000e+00 0.000000e+00 0.000000e+00
1.038719e+08 7.764816e-03 4.236031e-02 0.000000e+00 0.000000e+00 0.000000e+00 0.000000e+00 0.000000e+00 0.000000e+00
1.040897e+08 7.959366e-03 4.227257e-02 0.000000e+00 0.000000e+00 0.000000e+00 0.000000e+00 0.000000e+00 0.000000e+00
1.043075e+08 8.089066e-03 4.228210e-02 0.000000e+00 0.000000e+00 0.000000e+00 0.000000e+00 0.000000e+00 0.000000e+00
1.045253e+08 8.169174e-03 4.216576e-02 0.000000e+00 0.000000e+00 0.000000e+00 0.000000e+00 0.000000e+00 0.000000e+00
1.047431e+08 8.260727e-03 4.200363e-02 0.000000e+00 0.000000e+00 0.000000e+00 0.000000e+00 0.000000e+00 0.000000e+00
1.049609e+08 8.270264e-03 4.214859e-02 0.000000e+00 0.000000e+00 0.000000e+00 0.000000e+00 0.000000e+00 0.000000e+00
1.051788e+08 8.543015e-03 4.208183e-02 0.000000e+00 0.000000e+00 0.000000e+00 0.000000e+00 0.000000e+00 0.000000e+00
1.053966e+08 8.527756e-03 4.195976e-02 0.000000e+00 0.000000e+00 0.000000e+00 0.000000e+00 0.000000e+00 0.000000e+00
1.056144e+08 8.731842e-03 4.179764e-02 0.000000e+00 0.000000e+00 0.000000e+00 0.000000e+00 0.000000e+00 0.000000e+00
1.058322e+08 8.880615e-03 4.194069e-02 0.000000e+00 0.000000e+00 0.000000e+00 0.000000e+00 0.000000e+00 0.000000e+00
1.060500e+08 8.947372e-03 4.178047e-02 0.000000e+00 0.000000e+00 0.000000e+00 0.000000e+00 0.000000e+00 0.000000e+00
1.062678e+08 9.117126e-03 4.170609e-02 0.000000e+00 0.000000e+00 0.000000e+00 0.000000e+00 0.000000e+00 0.000000e+00
1.064856e+08 9.176254e-03 4.168320e-02 0.000000e+00 0.000000e+00 0.000000e+00 0.000000e+00 0.000000e+00 0.000000e+00
1.067034e+08 9.271622e-03 4.166031e-02 0.000000e+00 0.000000e+00 0.000000e+00 0.000000e+00 0.000000e+00 0.000000e+00
1.069212e+08 9.458542e-03 4.147339e-02 0.000000e+00 0.000000e+00 0.000000e+00 0.000000e+00 0.000000e+00 0.000000e+00
1.071391e+08 9.534836e-03 4.136467e-02 0.000000e+00 0.000000e+00 0.000000e+00 0.000000e+00 0.000000e+00 0.000000e+00
1.073569e+08 9.613037e-03 4.154968e-02 0.000000e+00 0.000000e+00 0.000000e+00 0.000000e+00 0.000000e+00 0.000000e+00
1.075747e+08 9.651184e-03 4.120827e-02 0.000000e+00 0.000000e+00 0.000000e+00 0.000000e+00 0.000000e+00 0.000000e+00
1.077925e+08 9.826660e-03 4.147530e-02 0.000000e+00 0.000000e+00 0.000000e+00 0.000000e+00 0.000000e+00 0.000000e+00
1.080103e+08 9.981155e-03 4.132271e-02 0.000000e+00 0.000000e+00 0.000000e+00 0.000000e+00 0.000000e+00 0.000000e+00
1.082281e+08 1.011467e-02 4.125595e-02 0.000000e+00 0.000000e+00 0.000000e+00 0.000000e+00 0.000000e+00 0.000000e+00
1.084459e+08 1.024628e-02 4.098701e-02 0.000000e+00 0.000000e+00 0.000000e+00 0.000000e+00 0.000000e+00 0.000000e+00
1.086638e+08 1.022720e-02 4.113197e-02 0.000000e+00 0.000000e+00 0.000000e+00 0.000000e+00 0.000000e+00 0.000000e+00
1.088816e+08 1.038551e-02 4.104805e-02 0.000000e+00 0.000000e+00 0.000000e+00 0.000000e+00 0.000000e+00 0.000000e+00
1.090994e+08 1.050949e-02 4.092598e-02 0.000000e+00 0.000000e+00 0.000000e+00 0.000000e+00 0.000000e+00 0.000000e+00
1.093172e+08 1.065636e-02 4.084587e-02 0.000000e+00 0.000000e+00 0.000000e+00 0.000000e+00 0.000000e+00 0.000000e+00
1.095350e+08 1.070976e-02 4.107857e-02 0.000000e+00 0.000000e+00 0.000000e+00 0.000000e+00 0.000000e+00 0.000000e+00
1.097528e+08 1.089096e-02 4.089165e-02 0.000000e+00 0.000000e+00 0.000000e+00 0.000000e+00 0.000000e+00 0.000000e+00
1.099706e+08 1.090813e-02 4.058266e-02 0.000000e+00 0.000000e+00 0.000000e+00 0.000000e+00 0.000000e+00 0.000000e+00
1.101884e+08 1.111984e-02 4.068756e-02 0.000000e+00 0.000000e+00 0.000000e+00 0.000000e+00 0.000000e+00 0.000000e+00
1.104062e+08 1.125336e-02 4.061127e-02 0.000000e+00 0.000000e+00 0.000000e+00 0.000000e+00 0.000000e+00 0.000000e+00
1.106241e+08 1.123047e-02 4.026222e-02 0.000000e+00 0.000000e+00 0.000000e+00 0.000000e+00 0.000000e+00 0.000000e+00
1.108419e+08 1.132011e-02 4.036713e-02 0.000000e+00 0.000000e+00 0.000000e+00 0.000000e+00 0.000000e+00 0.000000e+00
1.110597e+08 1.159286e-02 4.035759e-02 0.000000e+00 0.000000e+00 0.000000e+00 0.000000e+00 0.000000e+00 0.000000e+00
1.112775e+08 1.162338e-02 4.031563e-02 0.000000e+00 0.000000e+00 0.000000e+00 0.000000e+00 0.000000e+00 0.000000e+00
1.114953e+08 1.169968e-02 4.018974e-02 0.000000e+00 0.000000e+00 0.000000e+00 0.000000e+00 0.000000e+00 0.000000e+00
1.117131e+08 1.175308e-02 4.012108e-02 0.000000e+00 0.000000e+00 0.000000e+00 0.000000e+00 0.000000e+00 0.000000e+00
1.119309e+08 1.191330e-02 3.998566e-02 0.000000e+00 0.000000e+00 0.000000e+00 0.000000e+00 0.000000e+00 0.000000e+00
1.121488e+08 1.205826e-02 3.994942e-02 0.000000e+00 0.000000e+00 0.000000e+00 0.000000e+00 0.000000e+00 0.000000e+00
1.123666e+08 1.208687e-02 3.986549e-02 0.000000e+00 0.000000e+00 0.000000e+00 0.000000e+00 0.000000e+00 0.000000e+00
1.125844e+08 1.219368e-02 3.988266e-02 0.000000e+00 0.000000e+00 0.000000e+00 0.000000e+00 0.000000e+00 0.000000e+00
1.128022e+08 1.240921e-02 3.970909e-02 0.000000e+00 0.000000e+00 0.000000e+00 0.000000e+00 0.000000e+00 0.000000e+00
1.130200e+08 1.247787e-02 3.981209e-02 0.000000e+00 0.000000e+00 0.000000e+00 0.000000e+00 0.000000e+00 0.000000e+00
1.132378e+08 1.255798e-02 3.960800e-02 0.000000e+00 0.000000e+00 0.000000e+00 0.000000e+00 0.000000e+00 0.000000e+00
1.134556e+08 1.268578e-02 3.951454e-02 0.000000e+00 0.000000e+00 0.000000e+00 0.000000e+00 0.000000e+00 0.000000e+00
1.136734e+08 1.279068e-02 3.944016e-02 0.000000e+00 0.000000e+00 0.000000e+00 0.000000e+00 0.000000e+00 0.000000e+00
1.138912e+08 1.281548e-02 3.932381e-02 0.000000e+00 0.000000e+00 0.000000e+00 0.000000e+00 0.000000e+00 0.000000e+00
1.141091e+08 1.290131e-02 3.935432e-02 0.000000e+00 0.000000e+00 0.000000e+00 0.000000e+00 0.000000e+00 0.000000e+00
1.143269e+08 1.298714e-02 3.923035e-02 0.000000e+00 0.000000e+00 0.000000e+00 0.000000e+00 0.000000e+00 0.000000e+00
1.145447e+08 1.303864e-02 3.920937e-02 0.000000e+00 0.000000e+00 0.000000e+00 0.000000e+00 0.000000e+00 0.000000e+00
1.147625e+08 1.321602e-02 3.925133e-02 0.000000e+00 0.000000e+00 0.000000e+00 0.000000e+00 0.000000e+00 0.000000e+00
1.149803e+08 1.338768e-02 3.901482e-02 0.000000e+00 0.000000e+00 0.000000e+00 0.000000e+00 0.000000e+00 0.000000e+00
1.151981e+08 1.354027e-02 3.890800e-02 0.000000e+00 0.000000e+00 0.000000e+00 0.000000e+00 0.000000e+00 0.000000e+00
1.154159e+08 1.347351e-02 3.894424e-02 0.000000e+00 0.000000e+00 0.000000e+00 0.000000e+00 0.000000e+00 0.000000e+00
1.156338e+08 1.357269e-02 3.896713e-02 0.000000e+00 0.000000e+00 0.000000e+00 0.000000e+00 0.000000e+00 0.000000e+00
1.158516e+08 1.390839e-02 3.871155e-02 0.000000e+00 0.000000e+00 0.000000e+00 0.000000e+00 0.000000e+00 0.000000e+00
1.160694e+08 1.381111e-02 3.872871e-02 0.000000e+00 0.000000e+00 0.000000e+00 0.000000e+00 0.000000e+00 0.000000e+00
1.162872e+08 1.402473e-02 3.867531e-02 0.000000e+00 0.000000e+00 0.000000e+00 0.000000e+00 0.000000e+00 0.000000e+00
1.165050e+08 1.395607e-02 3.856659e-02 0.000000e+00 0.000000e+00 0.000000e+00 0.000000e+00 0.000000e+00 0.000000e+00
1.167228e+08 1.412010e-02 3.844643e-02 0.000000e+00 0.000000e+00 0.000000e+00 0.000000e+00 0.000000e+00 0.000000e+00
1.169406e+08 1.423264e-02 3.837776e-02 0.000000e+00 0.000000e+00 0.000000e+00 0.000000e+00 0.000000e+00 0.000000e+00
1.171584e+08 1.432037e-02 3.820801e-02 0.000000e+00 0.000000e+00 0.000000e+00 0.000000e+00 0.000000e+00 0.000000e+00
1.173762e+08 1.456070e-02 3.805542e-02 0.000000e+00 0.000000e+00 0.000000e+00 0.000000e+00 0.000000e+00 0.000000e+00
1.175941e+08 1.464653e-02 3.804779e-02 0.000000e+00 0.000000e+00 0.000000e+00 0.000000e+00 0.000000e+00 0.000000e+00
1.178119e+08 1.439095e-02 3.805733e-02 0.000000e+00 0.000000e+00 0.000000e+00 0.000000e+00 0.000000e+00 0.000000e+00
1.180297e+08 1.465607e-02 3.803253e-02 0.000000e+00 0.000000e+00 0.000000e+00 0.000000e+00 0.000000e+00 0.000000e+00
1.182475e+08 1.487732e-02 3.790855e-02 0.000000e+00 0.000000e+00 0.000000e+00 0.000000e+00 0.000000e+00 0.000000e+00
1.184653e+08 1.503944e-02 3.787994e-02 0.000000e+00 0.000000e+00 0.000000e+00 0.000000e+00 0.000000e+00 0.000000e+00
1.186831e+08 1.504135e-02 3.784180e-02 0.000000e+00 0.000000e+00 0.000000e+00 0.000000e+00 0.000000e+00 0.000000e+00
1.189009e+08 1.498222e-02 3.771210e-02 0.000000e+00 0.000000e+00 0.000000e+00 0.000000e+00 0.000000e+00 0.000000e+00
1.191188e+08 1.519394e-02 3.771973e-02 0.000000e+00 0.000000e+00 0.000000e+00 0.000000e+00 0.000000e+00 0.000000e+00
1.193366e+08 1.522255e-02 3.755951e-02 0.000000e+00 0.000000e+00 0.000000e+00 0.000000e+00 0.000000e+00 0.000000e+00
1.195544e+08 1.527023e-02 3.728485e-02 0.000000e+00 0.000000e+00 0.000000e+00 0.000000e+00 0.000000e+00 0.000000e+00
1.197722e+08 1.549339e-02 3.729248e-02 0.000000e+00 0.000000e+00 0.000000e+00 0.000000e+00 0.000000e+00 0.000000e+00
1.199900e+08 1.542473e-02 3.727531e-02 0.000000e+00 0.000000e+00 0.000000e+00 0.000000e+00 0.000000e+00 0.000000e+00
1.202078e+08 1.569939e-02 3.732872e-02 0.000000e+00 0.000000e+00 0.000000e+00 0.000000e+00 0.000000e+00 0.000000e+00
1.204256e+08 1.569176e-02 3.707695e-02 0.000000e+00 0.000000e+00 0.000000e+00 0.000000e+00 0.000000e+00 0.000000e+00
1.206434e+08 1.591873e-02 3.704643e-02 0.000000e+00 0.000000e+00 0.000000e+00 0.000000e+00 0.000000e+00 0.000000e+00
1.208612e+08 1.596451e-02 3.689957e-02 0.000000e+00 0.000000e+00 0.000000e+00 0.000000e+00 0.000000e+00 0.000000e+00
1.210791e+08 1.594353e-02 3.674316e-02 0.000000e+00 0.000000e+00 0.000000e+00 0.000000e+00 0.000000e+00 0.000000e+00
1.212969e+08 1.609993e-02 3.683472e-02 0.000000e+00 0.000000e+00 0.000000e+00 0.000000e+00 0.000000e+00 0.000000e+00
1.215147e+08 1.610184e-02 3.674316e-02 0.000000e+00 0.000000e+00 0.000000e+00 0.000000e+00 0.000000e+00 0.000000e+00
1.217325e+08 1.630974e-02 3.655624e-02 0.000000e+00 0.000000e+00 0.000000e+00 0.000000e+00 0.000000e+00 0.000000e+00
1.219503e+08 1.643944e-02 3.646851e-02 0.000000e+00 0.000000e+00 0.000000e+00 0.000000e+00 0.000000e+00 0.000000e+00
1.221681e+08 1.630974e-02 3.650475e-02 0.000000e+00 0.000000e+00 0.000000e+00 0.000000e+00 0.000000e+00 0.000000e+00
1.223859e+08 1.646614e-02 3.626060e-02 0.000000e+00 0.000000e+00 0.000000e+00 0.000000e+00 0.000000e+00 0.000000e+00
1.226038e+08 1.663399e-02 3.624153e-02 0.000000e+00 0.000000e+00 0.000000e+00 0.000000e+00 0.000000e+00 0.000000e+00
1.228216e+08 1.671600e-02 3.611755e-02 0.000000e+00 0.000000e+00 0.000000e+00 0.000000e+00 0.000000e+00 0.000000e+00
1.230394e+08 1.683617e-02 3.605461e-02 0.000000e+00 0.000000e+00 0.000000e+00 0.000000e+00 0.000000e+00 0.000000e+00
1.232572e+08 1.681137e-02 3.596497e-02 0.000000e+00 0.000000e+00 0.000000e+00 0.000000e+00 0.000000e+00 0.000000e+00
1.234750e+08 1.696014e-02 3.587914e-02 0.000000e+00 0.000000e+00 0.000000e+00 0.000000e+00 0.000000e+00 0.000000e+00
1.236928e+08 1.706123e-02 3.577805e-02 0.000000e+00 0.000000e+00 0.000000e+00 0.000000e+00 0.000000e+00 0.000000e+00
1.239106e+08 1.701164e-02 3.571892e-02 0.000000e+00 0.000000e+00 0.000000e+00 0.000000e+00 0.000000e+00 0.000000e+00
1.241284e+08 1.710129e-02 3.569603e-02 0.000000e+00 0.000000e+00 0.000000e+00 0.000000e+00 0.000000e+00 0.000000e+00
1.243462e+08 1.726913e-02 3.554344e-02 0.000000e+00 0.000000e+00 0.000000e+00 0.000000e+00 0.000000e+00 0.000000e+00
1.245641e+08 1.737022e-02 3.534317e-02 0.000000e+00 0.000000e+00 0.000000e+00 0.000000e+00 0.000000e+00 0.000000e+00
1.247819e+08 1.742363e-02 3.540993e-02 0.000000e+00 0.000000e+00 0.000000e+00 0.000000e+00 0.000000e+00 0.000000e+00
1.249997e+08 1.748085e-02 3.520584e-02 0.000000e+00 0.000000e+00 0.000000e+00 0.000000e+00 0.000000e+00 0.000000e+00
1.252175e+08 1.753616e-02 3.525162e-02 0.000000e+00 0.000000e+00 0.000000e+00 0.000000e+00 0.000000e+00 0.000000e+00
1.254353e+08 1.772690e-02 3.507805e-02 0.000000e+00 0.000000e+00 0.000000e+00 0.000000e+00 0.000000e+00 0.000000e+00
1.256531e+08 1.772881e-02 3.495407e-02 0.000000e+00 0.000000e+00 0.000000e+00 0.000000e+00 0.000000e+00 0.000000e+00
1.258709e+08 1.782608e-02 3.477097e-02 0.000000e+00 0.000000e+00 0.000000e+00 0.000000e+00 0.000000e+00 0.000000e+00
1.260888e+08 1.787949e-02 3.484726e-02 0.000000e+00 0.000000e+00 0.000000e+00 0.000000e+00 0.000000e+00 0.000000e+00
1.263066e+08 1.783371e-02 3.480148e-02 0.000000e+00 0.000000e+00 0.000000e+00 0.000000e+00 0.000000e+00 0.000000e+00
1.265244e+08 1.794243e-02 3.483009e-02 0.000000e+00 0.000000e+00 0.000000e+00 0.000000e+00 0.000000e+00 0.000000e+00
1.267422e+08 1.818657e-02 3.476143e-02 0.000000e+00 0.000000e+00 0.000000e+00 0.000000e+00 0.000000e+00 0.000000e+00
1.269600e+08 1.810074e-02 3.450775e-02 0.000000e+00 0.000000e+00 0.000000e+00 0.000000e+00 0.000000e+00 0.000000e+00
1.271778e+08 1.817322e-02 3.443146e-02 0.000000e+00 0.000000e+00 0.000000e+00 0.000000e+00 0.000000e+00 0.000000e+00
1.273956e+08 1.843643e-02 3.431320e-02 0.000000e+00 0.000000e+00 0.000000e+00 0.000000e+00 0.000000e+00 0.000000e+00
1.276134e+08 1.834106e-02 3.434563e-02 0.000000e+00 0.000000e+00 0.000000e+00 0.000000e+00 0.000000e+00 0.000000e+00
1.278312e+08 1.841927e-02 3.419685e-02 0.000000e+00 0.000000e+00 0.000000e+00 0.000000e+00 0.000000e+00 0.000000e+00
1.280491e+08 1.845932e-02 3.400612e-02 0.000000e+00 0.000000e+00 0.000000e+00 0.000000e+00 0.000000e+00 0.000000e+00
1.282669e+08 1.864433e-02 3.402519e-02 0.000000e+00 0.000000e+00 0.000000e+00 0.000000e+00 0.000000e+00 0.000000e+00
1.284847e+08 1.859474e-02 3.402138e-02 0.000000e+00 0.000000e+00 0.000000e+00 0.000000e+00 0.000000e+00 0.000000e+00
1.287025e+08 1.886749e-02 3.378868e-02 0.000000e+00 0.000000e+00 0.000000e+00 0.000000e+00 0.000000e+00 0.000000e+00
1.289203e+08 1.883507e-02 3.365517e-02 0.000000e+00 0.000000e+00 0.000000e+00 0.000000e+00 0.000000e+00 0.000000e+00
1.291381e+08 1.889420e-02 3.361893e-02 0.000000e+00 0.000000e+00 0.000000e+00 0.000000e+00 0.000000e+00 0.000000e+00
1.293559e+08 1.888084e-02 3.360367e-02 0.000000e+00 0.000000e+00 0.000000e+00 0.000000e+00 0.000000e+00 0.000000e+00
1.295738e+08 1.910210e-02 3.353119e-02 0.000000e+00 0.000000e+00 0.000000e+00 0.000000e+00 0.000000e+00 0.000000e+00
1.297916e+08 1.933861e-02 3.340912e-02 0.000000e+00 0.000000e+00 0.000000e+00 0.000000e+00 0.000000e+00 0.000000e+00
1.300094e+08 1.915932e-02 3.327560e-02 0.000000e+00 0.000000e+00 0.000000e+00 0.000000e+00 0.000000e+00 0.000000e+00
1.302272e+08 1.937866e-02 3.311920e-02 0.000000e+00 0.000000e+00 0.000000e+00 0.000000e+00 0.000000e+00 0.000000e+00
1.304450e+08 1.927567e-02 3.318405e-02 0.000000e+00 0.000000e+00 0.000000e+00 0.000000e+00 0.000000e+00 0.000000e+00
1.306628e+08 1.945305e-02 3.310966e-02 0.000000e+00 0.000000e+00 0.000000e+00 0.000000e+00 0.000000e+00 0.000000e+00
1.308806e+08 1.961517e-02 3.299522e-02 0.000000e+00 0.000000e+00 0.000000e+00 0.000000e+00 0.000000e+00 0.000000e+00
1.310984e+08 1.963043e-02 3.284264e-02 0.000000e+00 0.000000e+00 0.000000e+00 0.000000e+00 0.000000e+00 0.000000e+00
1.313162e+08 1.965714e-02 3.281593e-02 0.000000e+00 0.000000e+00 0.000000e+00 0.000000e+00 0.000000e+00 0.000000e+00
1.315341e+08 1.977730e-02 3.286362e-02 0.000000e+00 0.000000e+00 0.000000e+00 0.000000e+00 0.000000e+00 0.000000e+00
1.317519e+08 1.981735e-02 3.270721e-02 0.000000e+00 0.000000e+00 0.000000e+00 0.000000e+00 0.000000e+00 0.000000e+00
1.319697e+08 1.987648e-02 3.268242e-02 0.000000e+00 0.000000e+00 0.000000e+00 0.000000e+00 0.000000e+00 0.000000e+00
1.321875e+08 1.991463e-02 3.254509e-02 0.000000e+00 0.000000e+00 0.000000e+00 0.000000e+00 0.000000e+00 0.000000e+00
1.324053e+08 2.001572e-02 3.233528e-02 0.000000e+00 0.000000e+00 0.000000e+00 0.000000e+00 0.000000e+00 0.000000e+00
1.326231e+08 1.999283e-02 3.249741e-02 0.000000e+00 0.000000e+00 0.000000e+00 0.000000e+00 0.000000e+00 0.000000e+00
1.328409e+08 2.007484e-02 3.228951e-02 0.000000e+00 0.000000e+00 0.000000e+00 0.000000e+00 0.000000e+00 0.000000e+00
1.330588e+08 2.021790e-02 3.217125e-02 0.000000e+00 0.000000e+00 0.000000e+00 0.000000e+00 0.000000e+00 0.000000e+00
1.332766e+08 2.011108e-02 3.197479e-02 0.000000e+00 0.000000e+00 0.000000e+00 0.000000e+00 0.000000e+00 0.000000e+00
1.334944e+08 2.039146e-02 3.187561e-02 0.000000e+00 0.000000e+00 0.000000e+00 0.000000e+00 0.000000e+00 0.000000e+00
1.337122e+08 2.036858e-02 3.203201e-02 0.000000e+00 0.000000e+00 0.000000e+00 0.000000e+00 0.000000e+00 0.000000e+00
1.339300e+08 2.054596e-02 3.191376e-02 0.000000e+00 0.000000e+00 0.000000e+00 0.000000e+00 0.000000e+00 0.000000e+00
1.341478e+08 2.056694e-02 3.174210e-02 0.000000e+00 0.000000e+00 0.000000e+00 0.000000e+00 0.000000e+00 0.000000e+00
1.343656e+08 2.075195e-02 3.166771e-02 0.000000e+00 0.000000e+00 0.000000e+00 0.000000e+00 0.000000e+00 0.000000e+00
1.345834e+08 2.064133e-02 3.160667e-02 0.000000e+00 0.000000e+00 0.000000e+00 0.000000e+00 0.000000e+00 0.000000e+00
1.348012e+08 2.070236e-02 3.141022e-02 0.000000e+00 0.000000e+00 0.000000e+00 0.000000e+00 0.000000e+00 0.000000e+00
1.350191e+08 2.105904e-02 3.131485e-02 0.000000e+00 0.000000e+00 0.000000e+00 0.000000e+00 0.000000e+00 0.000000e+00
1.352369e+08 2.086830e-02 3.140450e-02 0.000000e+00 0.000000e+00 0.000000e+00 0.000000e+00 0.000000e+00 0.000000e+00
1.354547e+08 2.102089e-02 3.135490e-02 0.000000e+00 0.000000e+00 0.000000e+00 0.000000e+00 0.000000e+00 0.000000e+00
1.356725e+08 2.099800e-02 3.116989e-02 0.000000e+00 0.000000e+00 0.000000e+00 0.000000e+00 0.000000e+00 0.000000e+00
1.358903e+08 2.124786e-02 3.112411e-02 0.000000e+00 0.000000e+00 0.000000e+00 0.000000e+00 0.000000e+00 0.000000e+00
1.361081e+08 2.126312e-02 3.091431e-02 0.000000e+00 0.000000e+00 0.000000e+00 0.000000e+00 0.000000e+00 0.000000e+00
1.363259e+08 2.132416e-02 3.099251e-02 0.000000e+00 0.000000e+00 0.000000e+00 0.000000e+00 0.000000e+00 0.000000e+00
1.365438e+08 2.128792e-02 3.088760e-02 0.000000e+00 0.000000e+00 0.000000e+00 0.000000e+00 0.000000e+00 0.000000e+00
1.367616e+08 2.146912e-02 3.077126e-02 0.000000e+00 0.000000e+00 0.000000e+00 0.000000e+00 0.000000e+00 0.000000e+00
1.369794e+08 2.152061e-02 3.069305e-02 0.000000e+00 0.000000e+00 0.000000e+00 0.000000e+00 0.000000e+00 0.000000e+00
1.371972e+08 2.173042e-02 3.053665e-02 0.000000e+00 0.000000e+00 0.000000e+00 0.000000e+00 0.000000e+00 0.000000e+00
1.374150e+08 2.162933e-02 3.054237e-02 0.000000e+00 0.000000e+00 0.000000e+00 0.000000e+00 0.000000e+00 0.000000e+00
1.376328e+08 2.179718e-02 3.034973e-02 0.000000e+00 0.000000e+00 0.000000e+00 0.000000e+00 0.000000e+00 0.000000e+00
1.378506e+08 2.170563e-02 3.041649e-02 0.000000e+00 0.000000e+00 0.000000e+00 0.000000e+00 0.000000e+00 0.000000e+00
1.380684e+08 2.198219e-02 3.029633e-02 0.000000e+00 0.000000e+00 0.000000e+00 0.000000e+00 0.000000e+00 0.000000e+00
1.382862e+08 2.193260e-02 3.009033e-02 0.000000e+00 0.000000e+00 0.000000e+00 0.000000e+00 0.000000e+00 0.000000e+00
1.385041e+08 2.210999e-02 3.005219e-02 0.000000e+00 0.000000e+00 0.000000e+00 0.000000e+00 0.000000e+00 0.000000e+00
1.387219e+08 2.210236e-02 3.015327e-02 0.000000e+00 0.000000e+00 0.000000e+00 0.000000e+00 0.000000e+00 0.000000e+00
1.389397e+08 2.214622e-02 2.993584e-02 0.000000e+00 0.000000e+00 0.000000e+00 0.000000e+00 0.000000e+00 0.000000e+00
1.391575e+08 2.235413e-02 2.991486e-02 0.000000e+00 0.000000e+00 0.000000e+00 0.000000e+00 0.000000e+00 0.000000e+00
1.393753e+08 2.239037e-02 2.992821e-02 0.000000e+00 0.000000e+00 0.000000e+00 0.000000e+00 0.000000e+00 0.000000e+00
1.395931e+08 2.247429e-02 2.970505e-02 0.000000e+00 0.000000e+00 0.000000e+00 0.000000e+00 0.000000e+00 0.000000e+00
1.398109e+08 2.243614e-02 2.950859e-02 0.000000e+00 0.000000e+00 0.000000e+00 0.000000e+00 0.000000e+00 0.000000e+00
1.400288e+08 2.259445e-02 2.953339e-02 0.000000e+00 0.000000e+00 0.000000e+00 0.000000e+00 0.000000e+00 0.000000e+00
1.402466e+08 2.266693e-02 2.937126e-02 0.000000e+00 0.000000e+00 0.000000e+00 0.000000e+00 0.000000e+00 0.000000e+00
1.404644e+08 2.268028e-02 2.937317e-02 0.000000e+00 0.000000e+00 0.000000e+00 0.000000e+00 0.000000e+00 0.000000e+00
1.406822e+08 2.275467e-02 2.921867e-02 0.000000e+00 0.000000e+00 0.000000e+00 0.000000e+00 0.000000e+00 0.000000e+00
1.409000e+08 2.284813e-02 2.915955e-02 0.000000e+00 0.000000e+00 0.000000e+00 0.000000e+00 0.000000e+00 0.000000e+00
1.411178e+08 2.296638e-02 2.906036e-02 0.000000e+00 0.000000e+00 0.000000e+00 0.000000e+00 0.000000e+00 0.000000e+00
1.413356e+08 2.300262e-02 2.911377e-02 0.000000e+00 0.000000e+00 0.000000e+00 0.000000e+00 0.000000e+00 0.000000e+00
1.415534e+08 2.314377e-02 2.894020e-02 0.000000e+00 0.000000e+00 0.000000e+00 0.000000e+00 0.000000e+00 0.000000e+00
1.417712e+08 2.322388e-02 2.889824e-02 0.000000e+00 0.000000e+00 0.000000e+00 0.000000e+00 0.000000e+00 0.000000e+00
1.419891e+08 2.315903e-02 2.868271e-02 0.000000e+00 0.000000e+00 0.000000e+00 0.000000e+00 0.000000e+00 0.000000e+00
1.422069e+08 2.333069e-02 2.854729e-02 0.000000e+00 0.000000e+00 0.000000e+00 0.000000e+00 0.000000e+00 0.000000e+00
1.424247e+08 2.329063e-02 2.853394e-02 0.000000e+00 0.000000e+00 0.000000e+00 0.000000e+00 0.000000e+00 0.000000e+00
1.426425e+08 2.338409e-02 2.852058e-02 0.000000e+00 0.000000e+00 0.000000e+00 0.000000e+00 0.000000e+00 0.000000e+00
1.428603e+08 2.350998e-02 2.832222e-02 0.000000e+00 0.000000e+00 0.000000e+00 0.000000e+00 0.000000e+00 0.000000e+00
1.430781e+08 2.359200e-02 2.840042e-02 0.000000e+00 0.000000e+00 0.000000e+00 0.000000e+00 0.000000e+00 0.000000e+00
1.432959e+08 2.360535e-02 2.817726e-02 0.000000e+00 0.000000e+00 0.000000e+00 0.000000e+00 0.000000e+00 0.000000e+00
1.435138e+08 2.373886e-02 2.792168e-02 0.000000e+00 0.000000e+00 0.000000e+00 0.000000e+00 0.000000e+00 0.000000e+00
1.437316e+08 2.383232e-02 2.796555e-02 0.000000e+00 0.000000e+00 0.000000e+00 0.000000e+00 0.000000e+00 0.000000e+00
1.439494e+08 2.396393e-02 2.791405e-02 0.000000e+00 0.000000e+00 0.000000e+00 0.000000e+00 0.000000e+00 0.000000e+00
1.441672e+08 2.393913e-02 2.782249e-02 0.000000e+00 0.000000e+00 0.000000e+00 0.000000e+00 0.000000e+00 0.000000e+00
1.443850e+08 2.412605e-02 2.772713e-02 0.000000e+00 0.000000e+00 0.000000e+00 0.000000e+00 0.000000e+00 0.000000e+00
1.446028e+08 2.404594e-02 2.764130e-02 0.000000e+00 0.000000e+00 0.000000e+00 0.000000e+00 0.000000e+00 0.000000e+00
1.448206e+08 2.420998e-02 2.762604e-02 0.000000e+00 0.000000e+00 0.000000e+00 0.000000e+00 0.000000e+00 0.000000e+00
1.450384e+08 2.421379e-02 2.764511e-02 0.000000e+00 0.000000e+00 0.000000e+00 0.000000e+00 0.000000e+00 0.000000e+00
1.452562e+08 2.445221e-02 2.754593e-02 0.000000e+00 0.000000e+00 0.000000e+00 0.000000e+00 0.000000e+00 0.000000e+00
1.454741e+08 2.447891e-02 2.731133e-02 0.000000e+00 0.000000e+00 0.000000e+00 0.000000e+00 0.000000e+00 0.000000e+00
1.456919e+08 2.445984e-02 2.722740e-02 0.000000e+00 0.000000e+00 0.000000e+00 0.000000e+00 0.000000e+00 0.000000e+00
1.459097e+08 2.462387e-02 2.718925e-02 0.000000e+00 0.000000e+00 0.000000e+00 0.000000e+00 0.000000e+00 0.000000e+00
1.461275e+08 2.463341e-02 2.710724e-02 0.000000e+00 0.000000e+00 0.000000e+00 0.000000e+00 0.000000e+00 0.000000e+00
1.463453e+08 2.466011e-02 2.705383e-02 0.000000e+00 0.000000e+00 0.000000e+00 0.000000e+00 0.000000e+00 0.000000e+00
1.465631e+08 2.474213e-02 2.693939e-02 0.000000e+00 0.000000e+00 0.000000e+00 0.000000e+00 0.000000e+00 0.000000e+00
1.467809e+08 2.485085e-02 2.693748e-02 0.000000e+00 0.000000e+00 0.000000e+00 0.000000e+00 0.000000e+00 0.000000e+00
1.469988e+08 2.497673e-02 2.672386e-02 0.000000e+00 0.000000e+00 0.000000e+00 0.000000e+00 0.000000e+00 0.000000e+00
1.472166e+08 2.508926e-02 2.677727e-02 0.000000e+00 0.000000e+00 0.000000e+00 0.000000e+00 0.000000e+00 0.000000e+00
1.474344e+08 2.508163e-02 2.665520e-02 0.000000e+00 0.000000e+00 0.000000e+00 0.000000e+00 0.000000e+00 0.000000e+00
1.476522e+08 2.504158e-02 2.649689e-02 0.000000e+00 0.000000e+00 0.000000e+00 0.000000e+00 0.000000e+00 0.000000e+00
1.478700e+08 2.520752e-02 2.635002e-02 0.000000e+00 0.000000e+00 0.000000e+00 0.000000e+00 0.000000e+00 0.000000e+00
1.480878e+08 2.526665e-02 2.632904e-02 0.000000e+00 0.000000e+00 0.000000e+00 0.000000e+00 0.000000e+00 0.000000e+00
1.483056e+08 2.538490e-02 2.620316e-02 0.000000e+00 0.000000e+00 0.000000e+00 0.000000e+00 0.000000e+00 0.000000e+00
1.485234e+08 2.560806e-02 2.618980e-02 0.000000e+00 0.000000e+00 0.000000e+00 0.000000e+00 0.000000e+00 0.000000e+00
1.487412e+08 2.547455e-02 2.596283e-02 0.000000e+00 0.000000e+00 0.000000e+00 0.000000e+00 0.000000e+00 0.000000e+00
1.489591e+08 2.560234e-02 2.589607e-02 0.000000e+00 0.000000e+00 0.000000e+00 0.000000e+00 0.000000e+00 0.000000e+00
1.491769e+08 2.572823e-02 2.571297e-02 0.000000e+00 0.000000e+00 0.000000e+00 0.000000e+00 0.000000e+00 0.000000e+00
1.493947e+08 2.574730e-02 2.561760e-02 0.000000e+00 0.000000e+00 0.000000e+00 0.000000e+00 0.000000e+00 0.000000e+00
1.496125e+08 2.591705e-02 2.558327e-02 0.000000e+00 0.000000e+00 0.000000e+00 0.000000e+00 0.000000e+00 0.000000e+00
1.498303e+08 2.594757e-02 2.549362e-02 0.000000e+00 0.000000e+00 0.000000e+00 0.000000e+00 0.000000e+00 0.000000e+00
1.500481e+08 2.592659e-02 2.542686e-02 0.000000e+00 0.000000e+00 0.000000e+00 0.000000e+00 0.000000e+00 0.000000e+00
1.502659e+08 2.608871e-02 2.525139e-02 0.000000e+00 0.000000e+00 0.000000e+00 0.000000e+00 0.000000e+00 0.000000e+00
1.504838e+08 2.609634e-02 2.534485e-02 0.000000e+00 0.000000e+00 0.000000e+00 0.000000e+00 0.000000e+00 0.000000e+00
1.507016e+08 2.617073e-02 2.525330e-02 0.000000e+00 0.000000e+00 0.000000e+00 0.000000e+00 0.000000e+00 0.000000e+00
1.509194e+08 2.632904e-02 2.500153e-02 0.000000e+00 0.000000e+00 0.000000e+00 0.000000e+00 0.000000e+00 0.000000e+00
1.511372e+08 2.629852e-02 2.496910e-02 0.000000e+00 0.000000e+00 0.000000e+00 0.000000e+00 0.000000e+00 0.000000e+00
1.513550e+08 2.630043e-02 2.498245e-02 0.000000e+00 0.000000e+00 0.000000e+00 0.000000e+00 0.000000e+00 0.000000e+00
1.515728e+08 2.638626e-02 2.474403e-02 0.000000e+00 0.000000e+00 0.000000e+00 0.000000e+00 0.000000e+00 0.000000e+00
1.517906e+08 2.650070e-02 2.458763e-02 0.000000e+00 0.000000e+00 0.000000e+00 0.000000e+00 0.000000e+00 0.000000e+00
1.520084e+08 2.664566e-02 2.444077e-02 0.000000e+00 0.000000e+00 0.000000e+00 0.000000e+00 0.000000e+00 0.000000e+00
1.522262e+08 2.668953e-02 2.449417e-02 0.000000e+00 0.000000e+00 0.000000e+00 0.000000e+00 0.000000e+00 0.000000e+00
1.524441e+08 2.681160e-02 2.432442e-02 0.000000e+00 0.000000e+00 0.000000e+00 0.000000e+00 0.000000e+00 0.000000e+00
1.526619e+08 2.682114e-02 2.435493e-02 0.000000e+00 0.000000e+00 0.000000e+00 0.000000e+00 0.000000e+00 0.000000e+00
1.528797e+08 2.691078e-02 2.415085e-02 0.000000e+00 0.000000e+00 0.000000e+00 0.000000e+00 0.000000e+00 0.000000e+00
1.530975e+08 2.698898e-02 2.394676e-02 0.000000e+00 0.000000e+00 0.000000e+00 0.000000e+00 0.000000e+00 0.000000e+00
1.533153e+08 2.707863e-02 2.391243e-02 0.000000e+00 0.000000e+00 0.000000e+00 0.000000e+00 0.000000e+00 0.000000e+00
1.535331e+08 2.702904e-02 2.404594e-02 0.000000e+00 0.000000e+00 0.000000e+00 0.000000e+00 0.000000e+00 0.000000e+00
1.537509e+08 2.708435e-02 2.374458e-02 0.000000e+00 0.000000e+00 0.000000e+00 0.000000e+00 0.000000e+00 0.000000e+00
1.539688e+08 2.733612e-02 2.367020e-02 0.000000e+00 0.000000e+00 0.000000e+00 0.000000e+00 0.000000e+00 0.000000e+00
1.541866e+08 2.738190e-02 2.366447e-02 0.000000e+00 0.000000e+00 0.000000e+00 0.000000e+00 0.000000e+00 0.000000e+00
1.544044e+08 2.735710e-02 2.354431e-02 0.000000e+00 0.000000e+00 0.000000e+00 0.000000e+00 0.000000e+00 0.000000e+00
1.546222e+08 2.735901e-02 2.341652e-02 0.000000e+00 0.000000e+00 0.000000e+00 0.000000e+00 0.000000e+00 0.000000e+00
1.548400e+08 2.748489e-02 2.344322e-02 0.000000e+00 0.000000e+00 0.000000e+00 0.000000e+00 0.000000e+00 0.000000e+00
1.550578e+08 2.753258e-02 2.312279e-02 0.000000e+00 0.000000e+00 0.000000e+00 0.000000e+00 0.000000e+00 0.000000e+00
1.552756e+08 2.759743e-02 2.319145e-02 0.000000e+00 0.000000e+00 0.000000e+00 0.000000e+00 0.000000e+00 0.000000e+00
1.554934e+08 2.767563e-02 2.297020e-02 0.000000e+00 0.000000e+00 0.000000e+00 0.000000e+00 0.000000e+00 0.000000e+00
1.557112e+08 2.772331e-02 2.289581e-02 0.000000e+00 0.000000e+00 0.000000e+00 0.000000e+00 0.000000e+00 0.000000e+00
1.559291e+08 2.781105e-02 2.283859e-02 0.000000e+00 0.000000e+00 0.000000e+00 0.000000e+00 0.000000e+00 0.000000e+00
1.561469e+08 2.796745e-02 2.262497e-02 0.000000e+00 0.000000e+00 0.000000e+00 0.000000e+00 0.000000e+00 0.000000e+00
1.563647e+08 2.803230e-02 2.263069e-02 0.000000e+00 0.000000e+00 0.000000e+00 0.000000e+00 0.000000e+00 0.000000e+00
1.565825e+08 2.799416e-02 2.254295e-02 0.000000e+00 0.000000e+00 0.000000e+00 0.000000e+00 0.000000e+00 0.000000e+00
1.568003e+08 2.803802e-02 2.245140e-02 0.000000e+00 0.000000e+00 0.000000e+00 0.000000e+00 0.000000e+00 0.000000e+00
1.570181e+08 2.830887e-02 2.237701e-02 0.000000e+00 0.000000e+00 0.000000e+00 0.000000e+00 0.000000e+00 0.000000e+00
1.572359e+08 2.824211e-02 2.231789e-02 0.000000e+00 0.000000e+00 0.000000e+00 0.000000e+00 0.000000e+00 0.000000e+00
1.574538e+08 2.843857e-02 2.229881e-02 0.000000e+00 0.000000e+00 0.000000e+00 0.000000e+00 0.000000e+00 0.000000e+00
1.576716e+08 2.840042e-02 2.200317e-02 0.000000e+00 0.000000e+00 0.000000e+00 0.000000e+00 0.000000e+00 0.000000e+00
1.578894e+08 2.854347e-02 2.190208e-02 0.000000e+00 0.000000e+00 0.000000e+00 0.000000e+00 0.000000e+00 0.000000e+00
1.581072e+08 2.849197e-02 2.182579e-02 0.000000e+00 0.000000e+00 0.000000e+00 0.000000e+00 0.000000e+00 0.000000e+00
1.583250e+08 2.863121e-02 2.174950e-02 0.000000e+00 0.000000e+00 0.000000e+00 0.000000e+00 0.000000e+00 0.000000e+00
1.585428e+08 2.862930e-02 2.160263e-02 0.000000e+00 0.000000e+00 0.000000e+00 0.000000e+00 0.000000e+00 0.000000e+00
1.587606e+08 2.876854e-02 2.148247e-02 0.000000e+00 0.000000e+00 0.000000e+00 0.000000e+00 0.000000e+00 0.000000e+00
1.589784e+08 2.890587e-02 2.149200e-02 0.000000e+00 0.000000e+00 0.000000e+00 0.000000e+00 0.000000e+00 0.000000e+00
1.591962e+08 2.890396e-02 2.133369e-02 0.000000e+00 0.000000e+00 0.000000e+00 0.000000e+00 0.000000e+00 0.000000e+00
1.594141e+08 2.895355e-02 2.124023e-02 0.000000e+00 0.000000e+00 0.000000e+00 0.000000e+00 0.000000e+00 0.000000e+00
1.596319e+08 2.907372e-02 2.113342e-02 0.000000e+00 0.000000e+00 0.000000e+00 0.000000e+00 0.000000e+00 0.000000e+00
1.598497e+08 2.908325e-02 2.103233e-02 0.000000e+00 0.000000e+00 0.000000e+00 0.000000e+00 0.000000e+00 0.000000e+00
1.600675e+08 2.922249e-02 2.079964e-02 0.000000e+00 0.000000e+00 0.000000e+00 0.000000e+00 0.000000e+00 0.000000e+00
1.602853e+08 2.925301e-02 2.082443e-02 0.000000e+00 0.000000e+00 0.000000e+00 0.000000e+00 0.000000e+00 0.000000e+00
1.605031e+08 2.938461e-02 2.080536e-02 0.000000e+00 0.000000e+00 0.000000e+00 0.000000e+00 0.000000e+00 0.000000e+00
1.607209e+08 2.928925e-02 2.054977e-02 0.000000e+00 0.000000e+00 0.000000e+00 0.000000e+00 0.000000e+00 0.000000e+00
1.609388e+08 2.942085e-02 2.046394e-02 0.000000e+00 0.000000e+00 0.000000e+00 0.000000e+00 0.000000e+00 0.000000e+00
1.611566e+08 2.957726e-02 2.032661e-02 0.000000e+00 0.000000e+00 0.000000e+00 0.000000e+00 0.000000e+00 0.000000e+00
1.613744e+08 2.963448e-02 2.027321e-02 0.000000e+00 0.000000e+00 0.000000e+00 0.000000e+00 0.000000e+00 0.000000e+00
1.615922e+08 2.981186e-02 2.019882e-02 0.000000e+00 0.000000e+00 0.000000e+00 0.000000e+00 0.000000e+00 0.000000e+00
1.618100e+08 2.987671e-02 2.005386e-02 0.000000e+00 0.000000e+00 0.000000e+00 0.000000e+00 0.000000e+00 0.000000e+00
1.620278e+08 2.978134e-02 2.002716e-02 0.000000e+00 0.000000e+00 0.000000e+00 0.000000e+00 0.000000e+00 0.000000e+00
1.622456e+08 2.992249e-02 1.998711e-02 0.000000e+00 0.000000e+00 0.000000e+00 0.000000e+00 0.000000e+00 0.000000e+00
1.624634e+08 2.991867e-02 1.974106e-02 0.000000e+00 0.000000e+00 0.000000e+00 0.000000e+00 0.000000e+00 0.000000e+00
1.626812e+08 2.994728e-02 1.972961e-02 0.000000e+00 0.000000e+00 0.000000e+00 0.000000e+00 0.000000e+00 0.000000e+00
1.628991e+08 3.003311e-02 1.950836e-02 0.000000e+00 0.000000e+00 0.000000e+00 0.000000e+00 0.000000e+00 0.000000e+00
1.631169e+08 3.022194e-02 1.946831e-02 0.000000e+00 0.000000e+00 0.000000e+00 0.000000e+00 0.000000e+00 0.000000e+00
1.633347e+08 3.013992e-02 1.946640e-02 0.000000e+00 0.000000e+00 0.000000e+00 0.000000e+00 0.000000e+00 0.000000e+00
1.635525e+08 3.037834e-02 1.923180e-02 0.000000e+00 0.000000e+00 0.000000e+00 0.000000e+00 0.000000e+00 0.000000e+00
1.637703e+08 3.029251e-02 1.916122e-02 0.000000e+00 0.000000e+00 0.000000e+00 0.000000e+00 0.000000e+00 0.000000e+00
1.639881e+08 3.044891e-02 1.910973e-02 0.000000e+00 0.000000e+00 0.000000e+00 0.000000e+00 0.000000e+00 0.000000e+00
1.642059e+08 3.041077e-02 1.892853e-02 0.000000e+00 0.000000e+00 0.000000e+00 0.000000e+00 0.000000e+00 0.000000e+00
1.644238e+08 3.052902e-02 1.874924e-02 0.000000e+00 0.000000e+00 0.000000e+00 0.000000e+00 0.000000e+00 0.000000e+00
1.646416e+08 3.063393e-02 1.875687e-02 0.000000e+00 0.000000e+00 0.000000e+00 0.000000e+00 0.000000e+00 0.000000e+00
1.648594e+08 3.051186e-02 1.861382e-02 0.000000e+00 0.000000e+00 0.000000e+00 0.000000e+00 0.000000e+00 0.000000e+00
1.650772e+08 3.066635e-02 1.846695e-02 0.000000e+00 0.000000e+00 0.000000e+00 0.000000e+00 0.000000e+00 0.000000e+00
1.652950e+08 3.081703e-02 1.836586e-02 0.000000e+00 0.000000e+00 0.000000e+00 0.000000e+00 0.000000e+00 0.000000e+00
1.655128e+08 3.094101e-02 1.817703e-02 0.000000e+00 0.000000e+00 0.000000e+00 0.000000e+00 0.000000e+00 0.000000e+00
1.657306e+08 3.090286e-02 1.805687e-02 0.000000e+00 0.000000e+00 0.000000e+00 0.000000e+00 0.000000e+00 0.000000e+00
1.659484e+08 3.086662e-02 1.807785e-02 0.000000e+00 0.000000e+00 0.000000e+00 0.000000e+00 0.000000e+00 0.000000e+00
1.661662e+08 3.095245e-02 1.793861e-02 0.000000e+00 0.000000e+00 0.000000e+00 0.000000e+00 0.000000e+00 0.000000e+00
1.663841e+08 3.114700e-02 1.777077e-02 0.000000e+00 0.000000e+00 0.000000e+00 0.000000e+00 0.000000e+00 0.000000e+00
1.666019e+08 3.113556e-02 1.778603e-02 0.000000e+00 0.000000e+00 0.000000e+00 0.000000e+00 0.000000e+00 0.000000e+00
1.668197e+08 3.123665e-02 1.756668e-02 0.000000e+00 0.000000e+00 0.000000e+00 0.000000e+00 0.000000e+00 0.000000e+00
1.670375e+08 3.129959e-02 1.760864e-02 0.000000e+00 0.000000e+00 0.000000e+00 0.000000e+00 0.000000e+00 0.000000e+00
1.672553e+08 3.135109e-02 1.737022e-02 0.000000e+00 0.000000e+00 0.000000e+00 0.000000e+00 0.000000e+00 0.000000e+00
1.674731e+08 3.136253e-02 1.740646e-02 0.000000e+00 0.000000e+00 0.000000e+00 0.000000e+00 0.000000e+00 0.000000e+00
1.676909e+08 3.135681e-02 1.727104e-02 0.000000e+00 0.000000e+00 0.000000e+00 0.000000e+00 0.000000e+00 0.000000e+00
1.679088e+08 3.152847e-02 1.701736e-02 0.000000e+00 0.000000e+00 0.000000e+00 0.000000e+00 0.000000e+00 0.000000e+00
1.681266e+08 3.170204e-02 1.695061e-02 0.000000e+00 0.000000e+00 0.000000e+00 0.000000e+00 0.000000e+00 0.000000e+00
1.683444e+08 3.172302e-02 1.697922e-02 0.000000e+00 0.000000e+00 0.000000e+00 0.000000e+00 0.000000e+00 0.000000e+00
1.685622e+08 3.171921e-02 1.686859e-02 0.000000e+00 0.000000e+00 0.000000e+00 0.000000e+00 0.000000e+00 0.000000e+00
1.687800e+08 3.186798e-02 1.677322e-02 0.000000e+00 0.000000e+00 0.000000e+00 0.000000e+00 0.000000e+00 0.000000e+00
1.689978e+08 3.186989e-02 1.660728e-02 0.000000e+00 0.000000e+00 0.000000e+00 0.000000e+00 0.000000e+00 0.000000e+00
1.692156e+08 3.192520e-02 1.642990e-02 0.000000e+00 0.000000e+00 0.000000e+00 0.000000e+00 0.000000e+00 0.000000e+00
1.694334e+08 3.189659e-02 1.631546e-02 0.000000e+00 0.000000e+00 0.000000e+00 0.000000e+00 0.000000e+00 0.000000e+00
1.696512e+08 3.201485e-02 1.627350e-02 0.000000e+00 0.000000e+00 0.000000e+00 0.000000e+00 0.000000e+00 0.000000e+00
1.698691e+08 3.208542e-02 1.603889e-02 0.000000e+00 0.000000e+00 0.000000e+00 0.000000e+00 0.000000e+00 0.000000e+00
1.700869e+08 3.225708e-02 1.589775e-02 0.000000e+00 0.000000e+00 0.000000e+00 0.000000e+00 0.000000e+00 0.000000e+00
1.703047e+08 3.223991e-02 1.603889e-02 0.000000e+00 0.000000e+00 0.000000e+00 0.000000e+00 0.000000e+00 0.000000e+00
1.705225e+08 3.230286e-02 1.594734e-02 0.000000e+00 0.000000e+00 0.000000e+00 0.000000e+00 0.000000e+00 0.000000e+00
1.707403e+08 3.235435e-02 1.560402e-02 0.000000e+00 0.000000e+00 0.000000e+00 0.000000e+00 0.000000e+00 0.000000e+00
1.709581e+08 3.233719e-02 1.549339e-02 0.000000e+00 0.000000e+00 0.000000e+00 0.000000e+00 0.000000e+00 0.000000e+00
1.711759e+08 3.241539e-02 1.541328e-02 0.000000e+00 0.000000e+00 0.000000e+00 0.000000e+00 0.000000e+00 0.000000e+00
1.713938e+08 3.246880e-02 1.522636e-02 0.000000e+00 0.000000e+00 0.000000e+00 0.000000e+00 0.000000e+00 0.000000e+00
1.716116e+08 3.255272e-02 1.523590e-02 0.000000e+00 0.000000e+00 0.000000e+00 0.000000e+00 0.000000e+00 0.000000e+00
1.718294e+08 3.246307e-02 1.516724e-02 0.000000e+00 0.000000e+00 0.000000e+00 0.000000e+00 0.000000e+00 0.000000e+00
1.720472e+08 3.269386e-02 1.513672e-02 0.000000e+00 0.000000e+00 0.000000e+00 0.000000e+00 0.000000e+00 0.000000e+00
1.722650e+08 3.278923e-02 1.485825e-02 0.000000e+00 0.000000e+00 0.000000e+00 0.000000e+00 0.000000e+00 0.000000e+00
1.724828e+08 3.271103e-02 1.482773e-02 0.000000e+00 0.000000e+00 0.000000e+00 0.000000e+00 0.000000e+00 0.000000e+00
1.727006e+08 3.285599e-02 1.466179e-02 0.000000e+00 0.000000e+00 0.000000e+00 0.000000e+00 0.000000e+00 0.000000e+00
1.729184e+08 3.293610e-02 1.448441e-02 0.000000e+00 0.000000e+00 0.000000e+00 0.000000e+00 0.000000e+00 0.000000e+00
1.731362e+08 3.293800e-02 1.451492e-02 0.000000e+00 0.000000e+00 0.000000e+00 0.000000e+00 0.000000e+00 0.000000e+00
1.733541e+08 3.312302e-02 1.426697e-02 0.000000e+00 0.000000e+00 0.000000e+00 0.000000e+00 0.000000e+00 0.000000e+00
1.735719e+08 3.307533e-02 1.415443e-02 0.000000e+00 0.000000e+00 0.000000e+00 0.000000e+00 0.000000e+00 0.000000e+00
1.737897e+08 3.323936e-02 1.403618e-02 0.000000e+00 0.000000e+00 0.000000e+00 0.000000e+00 0.000000e+00 0.000000e+00
1.740075e+08 3.324318e-02 1.401901e-02 0.000000e+00 0.000000e+00 0.000000e+00 0.000000e+00 0.000000e+00 0.000000e+00
1.742253e+08 3.328133e-02 1.382637e-02 0.000000e+00 0.000000e+00 0.000000e+00 0.000000e+00 0.000000e+00 0.000000e+00
1.744431e+08 3.329849e-02 1.382065e-02 0.000000e+00 0.000000e+00 0.000000e+00 0.000000e+00 0.000000e+00 0.000000e+00
1.746609e+08 3.322411e-02 1.375771e-02 0.000000e+00 0.000000e+00 0.000000e+00 0.000000e+00 0.000000e+00 0.000000e+00
1.748788e+08 3.343010e-02 1.360512e-02 0.000000e+00 0.000000e+00 0.000000e+00 0.000000e+00 0.000000e+00 0.000000e+00
1.750966e+08 3.356934e-02 1.348305e-02 0.000000e+00 0.000000e+00 0.000000e+00 0.000000e+00 0.000000e+00 0.000000e+00
1.753144e+08 3.347969e-02 1.336861e-02 0.000000e+00 0.000000e+00 0.000000e+00 0.000000e+00 0.000000e+00 0.000000e+00
1.755322e+08 3.360939e-02 1.313972e-02 0.000000e+00 0.000000e+00 0.000000e+00 0.000000e+00 0.000000e+00 0.000000e+00
1.757500e+08 3.376579e-02 1.316833e-02 0.000000e+00 0.000000e+00 0.000000e+00 0.000000e+00 0.000000e+00 0.000000e+00
1.759678e+08 3.369141e-02 1.300812e-02 0.000000e+00 0.000000e+00 0.000000e+00 0.000000e+00 0.000000e+00 0.000000e+00
1.761856e+08 3.377533e-02 1.296806e-02 0.000000e+00 0.000000e+00 0.000000e+00 0.000000e+00 0.000000e+00 0.000000e+00
1.764034e+08 3.381538e-02 1.279259e-02 0.000000e+00 0.000000e+00 0.000000e+00 0.000000e+00 0.000000e+00 0.000000e+00
1.766212e+08 3.387833e-02 1.261520e-02 0.000000e+00 0.000000e+00 0.000000e+00 0.000000e+00 0.000000e+00 0.000000e+00
1.768391e+08 3.393936e-02 1.252937e-02 0.000000e+00 0.000000e+00 0.000000e+00 0.000000e+00 0.000000e+00 0.000000e+00
1.770569e+08 3.394699e-02 1.261330e-02 0.000000e+00 0.000000e+00 0.000000e+00 0.000000e+00 0.000000e+00 0.000000e+00
1.772747e+08 3.404999e-02 1.222229e-02 0.000000e+00 0.000000e+00 0.000000e+00 0.000000e+00 0.000000e+00 0.000000e+00
1.774925e+08 3.399086e-02 1.214218e-02 0.000000e+00 0.000000e+00 0.000000e+00 0.000000e+00 0.000000e+00 0.000000e+00
1.777103e+08 3.411865e-02 1.208878e-02 0.000000e+00 0.000000e+00 0.000000e+00 0.000000e+00 0.000000e+00 0.000000e+00
1.779281e+08 3.412056e-02 1.197433e-02 0.000000e+00 0.000000e+00 0.000000e+00 0.000000e+00 0.000000e+00 0.000000e+00
1.781459e+08 3.430939e-02 1.184845e-02 0.000000e+00 0.000000e+00 0.000000e+00 0.000000e+00 0.000000e+00 0.000000e+00
1.783638e+08 3.422928e-02 1.176643e-02 0.000000e+00 0.000000e+00 0.000000e+00 0.000000e+00 0.000000e+00 0.000000e+00
1.785816e+08 3.429413e-02 1.162910e-02 0.000000e+00 0.000000e+00 0.000000e+00 0.000000e+00 0.000000e+00 0.000000e+00
1.787994e+08 3.436470e-02 1.136971e-02 0.000000e+00 0.000000e+00 0.000000e+00 0.000000e+00 0.000000e+00 0.000000e+00
1.790172e+08 3.442192e-02 1.141357e-02 0.000000e+00 0.000000e+00 0.000000e+00 0.000000e+00 0.000000e+00 0.000000e+00
1.792350e+08 3.456688e-02 1.127434e-02 0.000000e+00 0.000000e+00 0.000000e+00 0.000000e+00 0.000000e+00 0.000000e+00
1.794528e+08 3.454590e-02 1.108742e-02 0.000000e+00 0.000000e+00 0.000000e+00 0.000000e+00 0.000000e+00 0.000000e+00
1.796706e+08 3.465080e-02 1.098633e-02 0.000000e+00 0.000000e+00 0.000000e+00 0.000000e+00 0.000000e+00 0.000000e+00
1.798884e+08 3.465652e-02 1.088142e-02 0.000000e+00 0.000000e+00 0.000000e+00 0.000000e+00 0.000000e+00 0.000000e+00
1.801062e+08 3.451157e-02 1.093483e-02 0.000000e+00 0.000000e+00 0.000000e+00 0.000000e+00 0.000000e+00 0.000000e+00
1.803241e+08 3.488731e-02 1.061821e-02 0.000000e+00 0.000000e+00 0.000000e+00 0.000000e+00 0.000000e+00 0.000000e+00
1.805419e+08 3.485680e-02 1.057625e-02 0.000000e+00 0.000000e+00 0.000000e+00 0.000000e+00 0.000000e+00 0.000000e+00
1.807597e+08 3.477478e-02 1.046944e-02 0.000000e+00 0.000000e+00 0.000000e+00 0.000000e+00 0.000000e+00 0.000000e+00
1.809775e+08 3.477478e-02 1.038551e-02 0.000000e+00 0.000000e+00 0.000000e+00 0.000000e+00 0.000000e+00 0.000000e+00
1.811953e+08 3.479195e-02 1.005554e-02 0.000000e+00 0.000000e+00 0.000000e+00 0.000000e+00 0.000000e+00 0.000000e+00
1.814131e+08 3.500175e-02 1.021767e-02 0.000000e+00 0.000000e+00 0.000000e+00 0.000000e+00 0.000000e+00 0.000000e+00
1.816309e+08 3.503799e-02 1.007843e-02 0.000000e+00 0.000000e+00 0.000000e+00 0.000000e+00 0.000000e+00 0.000000e+00
1.818488e+08 3.503799e-02 9.769440e-03 0.000000e+00 0.000000e+00 0.000000e+00 0.000000e+00 0.000000e+00 0.000000e+00
1.820666e+08 3.510857e-02 9.742737e-03 0.000000e+00 0.000000e+00 0.000000e+00 0.000000e+00 0.000000e+00 0.000000e+00
1.822844e+08 3.520584e-02 9.750366e-03 0.000000e+00 0.000000e+00 0.000000e+00 0.000000e+00 0.000000e+00 0.000000e+00
1.825022e+08 3.525162e-02 9.462357e-03 0.000000e+00 0.000000e+00 0.000000e+00 0.000000e+00 0.000000e+00 0.000000e+00
1.827200e+08 3.533936e-02 9.426117e-03 0.000000e+00 0.000000e+00 0.000000e+00 0.000000e+00 0.000000e+00 0.000000e+00
1.829378e+08 3.519630e-02 9.206772e-03 0.000000e+00 0.000000e+00 0.000000e+00 0.000000e+00 0.000000e+00 0.000000e+00
1.831556e+08 3.528976e-02 9.180069e-03 0.000000e+00 0.000000e+00 0.000000e+00 0.000000e+00 0.000000e+00 0.000000e+00
1.833734e+08 3.547668e-02 9.035110e-03 0.000000e+00 0.000000e+00 0.000000e+00 0.000000e+00 0.000000e+00 0.000000e+00
1.835912e+08 3.542900e-02 8.787155e-03 0.000000e+00 0.000000e+00 0.000000e+00 0.000000e+00 0.000000e+00 0.000000e+00
1.838091e+08 3.534317e-02 8.869171e-03 0.000000e+00 0.000000e+00 0.000000e+00 0.000000e+00 0.000000e+00 0.000000e+00
1.840269e+08 3.548241e-02 8.642197e-03 0.000000e+00 0.000000e+00 0.000000e+00 0.000000e+00 0.000000e+00 0.000000e+00
1.842447e+08 3.561020e-02 8.499146e-03 0.000000e+00 0.000000e+00 0.000000e+00 0.000000e+00 0.000000e+00 0.000000e+00
1.844625e+08 3.563881e-02 8.356094e-03 0.000000e+00 0.000000e+00 0.000000e+00 0.000000e+00 0.000000e+00 0.000000e+00
1.846803e+08 3.569221e-02 8.283615e-03 0.000000e+00 0.000000e+00 0.000000e+00 0.000000e+00 0.000000e+00 0.000000e+00
1.848981e+08 3.569794e-02 8.123398e-03 0.000000e+00 0.000000e+00 0.000000e+00 0.000000e+00 0.000000e+00 0.000000e+00
1.851159e+08 3.567123e-02 8.069992e-03 0.000000e+00 0.000000e+00 0.000000e+00 0.000000e+00 0.000000e+00 0.000000e+00
1.853338e+08 3.571320e-02 7.999420e-03 0.000000e+00 0.000000e+00 0.000000e+00 0.000000e+00 0.000000e+00 0.000000e+00
1.855516e+08 3.580856e-02 7.822037e-03 0.000000e+00 0.000000e+00 0.000000e+00 0.000000e+00 0.000000e+00 0.000000e+00
1.857694e+08 3.578377e-02 7.692337e-03 0.000000e+00 0.000000e+00 0.000000e+00 0.000000e+00 0.000000e+00 0.000000e+00
1.859872e+08 3.578377e-02 7.577896e-03 0.000000e+00 0.000000e+00 0.000000e+00 0.000000e+00 0.000000e+00 0.000000e+00
1.862050e+08 3.594398e-02 7.593155e-03 0.000000e+00 0.000000e+00 0.000000e+00 0.000000e+00 0.000000e+00 0.000000e+00
1.864228e+08 3.597260e-02 7.398605e-03 0.000000e+00 0.000000e+00 0.000000e+00 0.000000e+00 0.000000e+00 0.000000e+00
1.866406e+08 3.599548e-02 7.286072e-03 0.000000e+00 0.000000e+00 0.000000e+00 0.000000e+00 0.000000e+00 0.000000e+00
1.868584e+08 3.598976e-02 7.102966e-03 0.000000e+00 0.000000e+00 0.000000e+00 0.000000e+00 0.000000e+00 0.000000e+00
1.870762e+08 3.594589e-02 6.999969e-03 0.000000e+00 0.000000e+00 0.000000e+00 0.000000e+00 0.000000e+00 0.000000e+00
1.872941e+08 3.610802e-02 6.855011e-03 0.000000e+00 0.000000e+00 0.000000e+00 0.000000e+00 0.000000e+00 0.000000e+00
1.875119e+08 3.623199e-02 6.671906e-03 0.000000e+00 0.000000e+00 0.000000e+00 0.000000e+00 0.000000e+00 0.000000e+00
1.877297e+08 3.603363e-02 6.654739e-03 0.000000e+00 0.000000e+00 0.000000e+00 0.000000e+00 0.000000e+00 0.000000e+00
1.879475e+08 3.629875e-02 6.378174e-03 0.000000e+00 0.000000e+00 0.000000e+00 0.000000e+00 0.000000e+00 0.000000e+00
1.881653e+08 3.626251e-02 6.336212e-03 0.000000e+00 0.000000e+00 0.000000e+00 0.000000e+00 0.000000e+00 0.000000e+00
1.883831e+08 3.632927e-02 6.298065e-03 0.000000e+00 0.000000e+00 0.000000e+00 0.000000e+00 0.000000e+00 0.000000e+00
1.886009e+08 3.635025e-02 6.155014e-03 0.000000e+00 0.000000e+00 0.000000e+00 0.000000e+00 0.000000e+00 0.000000e+00
1.888188e+08 3.637886e-02 6.139755e-03 0.000000e+00 0.000000e+00 0.000000e+00 0.000000e+00 0.000000e+00 0.000000e+00
1.890366e+08 3.640556e-02 6.004333e-03 0.000000e+00 0.000000e+00 0.000000e+00 0.000000e+00 0.000000e+00 0.000000e+00
1.892544e+08 3.642273e-02 5.741119e-03 0.000000e+00 0.000000e+00 0.000000e+00 0.000000e+00 0.000000e+00 0.000000e+00
1.894722e+08 3.638649e-02 5.573273e-03 0.000000e+00 0.000000e+00 0.000000e+00 0.000000e+00 0.000000e+00 0.000000e+00
1.896900e+08 3.647614e-02 5.561829e-03 0.000000e+00 0.000000e+00 0.000000e+00 0.000000e+00 0.000000e+00 0.000000e+00
1.899078e+08 3.665924e-02 5.519867e-03 0.000000e+00 0.000000e+00 0.000000e+00 0.000000e+00 0.000000e+00 0.000000e+00
1.901256e+08 3.660393e-02 5.275726e-03 0.000000e+00 0.000000e+00 0.000000e+00 0.000000e+00 0.000000e+00 0.000000e+00
1.903434e+08 3.647614e-02 5.237579e-03 0.000000e+00 0.000000e+00 0.000000e+00 0.000000e+00 0.000000e+00 0.000000e+00
1.905612e+08 3.659248e-02 5.123138e-03 0.000000e+00 0.000000e+00 0.000000e+00 0.000000e+00 0.000000e+00 0.000000e+00
1.907791e+08 3.679466e-02 4.838943e-03 0.000000e+00 0.000000e+00 0.000000e+00 0.000000e+00 0.000000e+00 0.000000e+00
1.909969e+08 3.667068e-02 4.774094e-03 0.000000e+00 0.000000e+00 0.000000e+00 0.000000e+00 0.000000e+00 0.000000e+00
1.912147e+08 3.675079e-02 4.640579e-03 0.000000e+00 0.000000e+00 0.000000e+00 0.000000e+00 0.000000e+00 0.000000e+00
1.914325e+08 3.676987e-02 4.554749e-03 0.000000e+00 0.000000e+00 0.000000e+00 0.000000e+00 0.000000e+00 0.000000e+00
1.916503e+08 3.674698e-02 4.581451e-03 0.000000e+00 0.000000e+00 0.000000e+00 0.000000e+00 0.000000e+00 0.000000e+00
1.918681e+08 3.696632e-02 4.453659e-03 0.000000e+00 0.000000e+00 0.000000e+00 0.000000e+00 0.000000e+00 0.000000e+00
1.920859e+08 3.683853e-02 4.213333e-03 0.000000e+00 0.000000e+00 0.000000e+00 0.000000e+00 0.000000e+00 0.000000e+00
1.923038e+08 3.683662e-02 4.045486e-03 0.000000e+00 0.000000e+00 0.000000e+00 0.000000e+00 0.000000e+00 0.000000e+00
1.925216e+08 3.688240e-02 3.986359e-03 0.000000e+00 0.000000e+00 0.000000e+00 0.000000e+00 0.000000e+00 0.000000e+00
1.927394e+08 3.686142e-02 3.890991e-03 0.000000e+00 0.000000e+00 0.000000e+00 0.000000e+00 0.000000e+00 0.000000e+00
1.929572e+08 3.695679e-02 3.694534e-03 0.000000e+00 0.000000e+00 0.000000e+00 0.000000e+00 0.000000e+00 0.000000e+00
1.931750e+08 3.708076e-02 3.591537e-03 0.000000e+00 0.000000e+00 0.000000e+00 0.000000e+00 0.000000e+00 0.000000e+00
1.933928e+08 3.696632e-02 3.538132e-03 0.000000e+00 0.000000e+00 0.000000e+00 0.000000e+00 0.000000e+00 0.000000e+00
1.936106e+08 3.702927e-02 3.379822e-03 0.000000e+00 0.000000e+00 0.000000e+00 0.000000e+00 0.000000e+00 0.000000e+00
1.938284e+08 3.716850e-02 3.284454e-03 0.000000e+00 0.000000e+00 0.000000e+00 0.000000e+00 0.000000e+00 0.000000e+00
1.940462e+08 3.706169e-02 3.099442e-03 0.000000e+00 0.000000e+00 0.000000e+00 0.000000e+00 0.000000e+00 0.000000e+00
1.942641e+08 3.723335e-02 3.019333e-03 0.000000e+00 0.000000e+00 0.000000e+00 0.000000e+00 0.000000e+00 0.000000e+00
1.944819e+08 3.724289e-02 2.822876e-03 0.000000e+00 0.000000e+00 0.000000e+00 0.000000e+00 0.000000e+00 0.000000e+00
1.946997e+08 3.715706e-02 2.792358e-03 0.000000e+00 0.000000e+00 0.000000e+00 0.000000e+00 0.000000e+00 0.000000e+00
1.949175e+08 3.715324e-02 2.620697e-03 0.000000e+00 0.000000e+00 0.000000e+00 0.000000e+00 0.000000e+00 0.000000e+00
1.951353e+08 3.725815e-02 2.550125e-03 0.000000e+00 0.000000e+00 0.000000e+00 0.000000e+00 0.000000e+00 0.000000e+00
1.953531e+08 3.725433e-02 2.437592e-03 0.000000e+00 0.000000e+00 0.000000e+00 0.000000e+00 0.000000e+00 0.000000e+00
1.955709e+08 3.735924e-02 2.296448e-03 0.000000e+00 0.000000e+00 0.000000e+00 0.000000e+00 0.000000e+00 0.000000e+00
1.957888e+08 3.729820e-02 2.124786e-03 0.000000e+00 0.000000e+00 0.000000e+00 0.000000e+00 0.000000e+00 0.000000e+00
1.960066e+08 3.726959e-02 2.017975e-03 0.000000e+00 0.000000e+00 0.000000e+00 0.000000e+00 0.000000e+00 0.000000e+00
1.962244e+08 3.735352e-02 1.960754e-03 0.000000e+00 0.000000e+00 0.000000e+00 0.000000e+00 0.000000e+00 0.000000e+00
1.964422e+08 3.743172e-02 1.808167e-03 0.000000e+00 0.000000e+00 0.000000e+00 0.000000e+00 0.000000e+00 0.000000e+00
1.966600e+08 3.741455e-02 1.787186e-03 0.000000e+00 0.000000e+00 0.000000e+00 0.000000e+00 0.000000e+00 0.000000e+00
1.968778e+08 3.728294e-02 1.544952e-03 0.000000e+00 0.000000e+00 0.000000e+00 0.000000e+00 0.000000e+00 0.000000e+00
1.970956e+08 3.739548e-02 1.447678e-03 0.000000e+00 0.000000e+00 0.000000e+00 0.000000e+00 0.000000e+00 0.000000e+00
1.973134e+08 3.751183e-02 1.296997e-03 0.000000e+00 0.000000e+00 0.000000e+00 0.000000e+00 0.000000e+00 0.000000e+00
1.975312e+08 3.754044e-02 1.194000e-03 0.000000e+00 0.000000e+00 0.000000e+00 0.000000e+00 0.000000e+00 0.000000e+00
1.977491e+08 3.765297e-02 1.125336e-03 0.000000e+00 0.000000e+00 0.000000e+00 0.000000e+00 0.000000e+00 0.000000e+00
1.979669e+08 3.750610e-02 9.193420e-04 0.000000e+00 0.000000e+00 0.000000e+00 0.000000e+00 0.000000e+00 0.000000e+00
1.981847e+08 3.750420e-02 8.354187e-04 0.000000e+00 0.000000e+00 0.000000e+00 0.000000e+00 0.000000e+00 0.000000e+00
1.984025e+08 3.753281e-02 7.362366e-04 0.000000e+00 0.000000e+00 0.000000e+00 0.000000e+00 0.000000e+00 0.000000e+00
1.986203e+08 3.756905e-02 6.332397e-04 0.000000e+00 0.000000e+00 0.000000e+00 0.000000e+00 0.000000e+00 0.000000e+00
1.988381e+08 3.760338e-02 4.558563e-04 0.000000e+00 0.000000e+00 0.000000e+00 0.000000e+00 0.000000e+00 0.000000e+00
1.990559e+08 3.755569e-02 2.861023e-04 0.000000e+00 0.000000e+00 0.000000e+00 0.000000e+00 0.000000e+00 0.000000e+00
1.992738e+08 3.755569e-02 2.269745e-04 0.000000e+00 0.000000e+00 0.000000e+00 0.000000e+00 0.000000e+00 0.000000e+00
1.994916e+08 3.769684e-02 9.536743e-05 0.000000e+00 0.000000e+00 0.000000e+00 0.000000e+00 0.000000e+00 0.000000e+00
1.997094e+08 3.762436e-02 -4.386902e-05 0.000000e+00 0.000000e+00 0.000000e+00 0.000000e+00 0.000000e+00 0.000000e+00
1.999272e+08 3.775024e-02 -1.487732e-04 0.000000e+00 0.000000e+00 0.000000e+00 0.000000e+00 0.000000e+00 0.000000e+00
2.001450e+08 3.768730e-02 -3.185272e-04 0.000000e+00 0.000000e+00 0.000000e+00 0.000000e+00 0.000000e+00 0.000000e+00
2.003628e+08 3.781319e-02 -2.880096e-04 0.000000e+00 0.000000e+00 0.000000e+00 0.000000e+00 0.000000e+00 0.000000e+00
2.005806e+08 3.775978e-02 -5.569458e-04 0.000000e+00 0.000000e+00 0.000000e+00 0.000000e+00 0.000000e+00 0.000000e+00
2.007984e+08 3.765869e-02 -5.168915e-04 0.000000e+00 0.000000e+00 0.000000e+00 0.000000e+00 0.000000e+00 0.000000e+00
2.010162e+08 3.772736e-02 -6.771088e-04 0.000000e+00 0.000000e+00 0.000000e+00 0.000000e+00 0.000000e+00 0.000000e+00
2.012341e+08 3.780937e-02 -8.888245e-04 0.000000e+00 0.000000e+00 0.000000e+00 0.000000e+00 0.000000e+00 0.000000e+00
2.014519e+08 3.783607e-02 -9.746552e-04 0.000000e+00 0.000000e+00 0.000000e+00 0.000000e+00 0.000000e+00 0.000000e+00
2.016697e+08 3.783607e-02 -1.174927e-03 0.000000e+00 0.000000e+00 0.000000e+00 0.000000e+00 0.000000e+00 0.000000e+00
2.018875e+08 3.790283e-02 -1.201630e-03 0.000000e+00 0.000000e+00 0.000000e+00 0.000000e+00 0.000000e+00 0.000000e+00
2.021053e+08 3.782082e-02 -1.552582e-03 0.000000e+00 0.000000e+00 0.000000e+00 0.000000e+00 0.000000e+00 0.000000e+00
2.023231e+08 3.776360e-02 -1.453400e-03 0.000000e+00 0.000000e+00 0.000000e+00 0.000000e+00 0.000000e+00 0.000000e+00
2.025409e+08 3.772545e-02 -1.527786e-03 0.000000e+00 0.000000e+00 0.000000e+00 0.000000e+00 0.000000e+00 0.000000e+00
2.027588e+08 3.766823e-02 -1.655579e-03 0.000000e+00 0.000000e+00 0.000000e+00 0.000000e+00 0.000000e+00 0.000000e+00
2.029766e+08 3.774452e-02 -1.884460e-03 0.000000e+00 0.000000e+00 0.000000e+00 0.000000e+00 0.000000e+00 0.000000e+00
2.031944e+08 3.767395e-02 -1.962662e-03 0.000000e+00 0.000000e+00 0.000000e+00 0.000000e+00 0.000000e+00 0.000000e+00
2.034122e+08 3.760910e-02 -2.185822e-03 0.000000e+00 0.000000e+00 0.000000e+00 0.000000e+00 0.000000e+00 0.000000e+00
2.036300e+08 3.783798e-02 -2.260208e-03 0.000000e+00 0.000000e+00 0.000000e+00 0.000000e+00 0.000000e+00 0.000000e+00
2.038478e+08 3.784370e-02 -2.225876e-03 0.000000e+00 0.000000e+00 0.000000e+00 0.000000e+00 0.000000e+00 0.000000e+00
2.040656e+08 3.784561e-02 -2.441406e-03 0.000000e+00 0.000000e+00 0.000000e+00 0.000000e+00 0.000000e+00 0.000000e+00
2.042834e+08 3.777313e-02 -2.573013e-03 0.000000e+00 0.000000e+00 0.000000e+00 0.000000e+00 0.000000e+00 0.000000e+00
2.045012e+08 3.792763e-02 -2.620697e-03 0.000000e+00 0.000000e+00 0.000000e+00 0.000000e+00 0.000000e+00 0.000000e+00
2.047191e+08 3.779411e-02 -2.742767e-03 0.000000e+00 0.000000e+00 0.000000e+00 0.000000e+00 0.000000e+00 0.000000e+00
2.049369e+08 3.777885e-02 -2.946854e-03 0.000000e+00 0.000000e+00 0.000000e+00 0.000000e+00 0.000000e+00 0.000000e+00
2.051547e+08 3.773499e-02 -3.034592e-03 0.000000e+00 0.000000e+00 0.000000e+00 0.000000e+00 0.000000e+00 0.000000e+00
2.053725e+08 3.795433e-02 -3.215790e-03 0.000000e+00 0.000000e+00 0.000000e+00 0.000000e+00 0.000000e+00 0.000000e+00
2.055903e+08 3.776169e-02 -3.271103e-03 0.000000e+00 0.000000e+00 0.000000e+00 0.000000e+00 0.000000e+00 0.000000e+00
2.058081e+08 3.786469e-02 -3.330231e-03 0.000000e+00 0.000000e+00 0.000000e+00 0.000000e+00 0.000000e+00 0.000000e+00
2.060259e+08 3.787041e-02 -3.669739e-03 0.000000e+00 0.000000e+00 0.000000e+00 0.000000e+00 0.000000e+00 0.000000e+00
2.062438e+08 3.779411e-02 -3.753662e-03 0.000000e+00 0.000000e+00 0.000000e+00 0.000000e+00 0.000000e+00 0.000000e+00
2.064616e+08 3.779793e-02 -3.736496e-03 0.000000e+00 0.000000e+00 0.000000e+00 0.000000e+00 0.000000e+00 0.000000e+00
2.066794e+08 3.775024e-02 -3.856659e-03 0.000000e+00 0.000000e+00 0.000000e+00 0.000000e+00 0.000000e+00 0.000000e+00
2.068972e+08 3.771591e-02 -4.133224e-03 0.000000e+00 0.000000e+00 0.000000e+00 0.000000e+00 0.000000e+00 0.000000e+00
2.071150e+08 3.777695e-02 -4.081726e-03 0.000000e+00 0.000000e+00 0.000000e+00 0.000000e+00 0.000000e+00 0.000000e+00
2.073328e+08 3.783226e-02 -4.192352e-03 0.000000e+00 0.000000e+00 0.000000e+00 0.000000e+00 0.000000e+00 0.000000e+00
2.075506e+08 3.784180e-02 -4.287720e-03 0.000000e+00 0.000000e+00 0.000000e+00 0.000000e+00 0.000000e+00 0.000000e+00
2.077684e+08 3.782654e-02 -4.562378e-03 0.000000e+00 0.000000e+00 0.000000e+00 0.000000e+00 0.000000e+00 0.000000e+00
2.079862e+08 3.777885e-02 -4.590988e-03 0.000000e+00 0.000000e+00 0.000000e+00 0.000000e+00 0.000000e+00 0.000000e+00
2.082041e+08 3.789711e-02 -4.789352e-03 0.000000e+00 0.000000e+00 0.000000e+00 0.000000e+00 0.000000e+00 0.000000e+00
2.084219e+08 3.788948e-02 -4.747391e-03 0.000000e+00 0.000000e+00 0.000000e+00 0.000000e+00 0.000000e+00 0.000000e+00
2.086397e+08 3.771400e-02 -4.976273e-03 0.000000e+00 0.000000e+00 0.000000e+00 0.000000e+00 0.000000e+00 0.000000e+00
2.088575e+08 3.801346e-02 -5.105972e-03 0.000000e+00 0.000000e+00 0.000000e+00 0.000000e+00 0.000000e+00 0.000000e+00
2.090753e+08 3.769684e-02 -5.195618e-03 0.000000e+00 0.000000e+00 0.000000e+00 0.000000e+00 0.000000e+00 0.000000e+00
2.092931e+08 3.772736e-02 -5.271912e-03 0.000000e+00 0.000000e+00 0.000000e+00 0.000000e+00 0.000000e+00 0.000000e+00
2.095109e+08 3.770447e-02 -5.399704e-03 0.000000e+00 0.000000e+00 0.000000e+00 0.000000e+00 0.000000e+00 0.000000e+00
2.097288e+08 3.785896e-02 -5.588531e-03 0.000000e+00 0.000000e+00 0.000000e+00 0.000000e+00 0.000000e+00 0.000000e+00
2.099466e+08 3.768349e-02 -5.666733e-03 0.000000e+00 0.000000e+00 0.000000e+00 0.000000e+00 0.000000e+00 0.000000e+00
2.101644e+08 3.794098e-02 -5.836487e-03 0.000000e+00 0.000000e+00 0.000000e+00 0.000000e+00 0.000000e+00 0.000000e+00
2.103822e+08 3.772354e-02 -5.970001e-03 0.000000e+00 0.000000e+00 0.000000e+00 0.000000e+00 0.000000e+00 0.000000e+00
2.106000e+08 3.779602e-02 -6.082535e-03 0.000000e+00 0.000000e+00 0.000000e+00 0.000000e+00 0.000000e+00 0.000000e+00
2.108178e+08 3.777504e-02 -6.116867e-03 0.000000e+00 0.000000e+00 0.000000e+00 0.000000e+00 0.000000e+00 0.000000e+00
2.110356e+08 3.759193e-02 -6.387711e-03 0.000000e+00 0.000000e+00 0.000000e+00 0.000000e+00 0.000000e+00 0.000000e+00
2.112534e+08 3.775406e-02 -6.208420e-03 0.000000e+00 0.000000e+00 0.000000e+00 0.000000e+00 0.000000e+00 0.000000e+00
2.114712e+08 3.781319e-02 -6.498337e-03 0.000000e+00 0.000000e+00 0.000000e+00 0.000000e+00 0.000000e+00 0.000000e+00
2.116891e+08 3.764153e-02 -6.656647e-03 0.000000e+00 0.000000e+00 0.000000e+00 0.000000e+00 0.000000e+00 0.000000e+00
2.119069e+08 3.774071e-02 -6.734848e-03 0.000000e+00 0.000000e+00 0.000000e+00 0.000000e+00 0.000000e+00 0.000000e+00
2.121247e+08 3.770638e-02 -6.927490e-03 0.000000e+00 0.000000e+00 0.000000e+00 0.000000e+00 0.000000e+00 0.000000e+00
2.123425e+08 3.775215e-02 -6.982803e-03 0.000000e+00 0.000000e+00 0.000000e+00 0.000000e+00 0.000000e+00 0.000000e+00
2.125603e+08 3.778648e-02 -7.097244e-03 0.000000e+00 0.000000e+00 0.000000e+00 0.000000e+00 0.000000e+00 0.000000e+00
2.127781e+08 3.752518e-02 -7.198334e-03 0.000000e+00 0.000000e+00 0.000000e+00 0.000000e+00 0.000000e+00 0.000000e+00
2.129959e+08 3.754044e-02 -7.278442e-03 0.000000e+00 0.000000e+00 0.000000e+00 0.000000e+00 0.000000e+00 0.000000e+00
2.132138e+08 3.755760e-02 -7.329941e-03 0.000000e+00 0.000000e+00 0.000000e+00 0.000000e+00 0.000000e+00 0.000000e+00
2.134316e+08 3.755951e-02 -7.493973e-03 0.000000e+00 0.000000e+00 0.000000e+00 0.000000e+00 0.000000e+00 0.000000e+00
2.136494e+08 3.763008e-02 -7.732391e-03 0.000000e+00 0.000000e+00 0.000000e+00 0.000000e+00 0.000000e+00 0.000000e+00
2.138672e+08 3.758430e-02 -7.774353e-03 0.000000e+00 0.000000e+00 0.000000e+00 0.000000e+00 0.000000e+00 0.000000e+00
2.140850e+08 3.754616e-02 -7.860184e-03 0.000000e+00 0.000000e+00 0.000000e+00 0.000000e+00 0.000000e+00 0.000000e+00
2.143028e+08 3.747368e-02 -8.024216e-03 0.000000e+00 0.000000e+00 0.000000e+00 0.000000e+00 0.000000e+00 0.000000e+00
2.145206e+08 3.754807e-02 -8.199692e-03 0.000000e+00 0.000000e+00 0.000000e+00 0.000000e+00 0.000000e+00 0.000000e+00
2.147384e+08 3.736877e-02 -8.247375e-03 0.000000e+00 0.000000e+00 0.000000e+00 0.000000e+00 0.000000e+00 0.000000e+00
2.149562e+08 3.746796e-02 -8.420944e-03 0.000000e+00 0.000000e+00 0.000000e+00 0.000000e+00 0.000000e+00 0.000000e+00
2.151741e+08 3.746605e-02 -8.474350e-03 0.000000e+00 0.000000e+00 0.000000e+00 0.000000e+00 0.000000e+00 0.000000e+00
2.153919e+08 3.738403e-02 -8.686066e-03 0.000000e+00 0.000000e+00 0.000000e+00 0.000000e+00 0.000000e+00 0.000000e+00
2.156097e+08 3.750038e-02 -8.586884e-03 0.000000e+00 0.000000e+00 0.000000e+00 0.000000e+00 0.000000e+00 0.000000e+00
2.158275e+08 3.725433e-02 -8.871078e-03 0.000000e+00 0.000000e+00 0.000000e+00 0.000000e+00 0.000000e+00 0.000000e+00
2.160453e+08 3.716660e-02 -8.974075e-03 0.000000e+00 0.000000e+00 0.000000e+00 0.000000e+00 0.000000e+00 0.000000e+00
2.162631e+08 3.727913e-02 -9.149551e-03 0.000000e+00 0.000000e+00 0.000000e+00 0.000000e+00 0.000000e+00 0.000000e+00
2.164809e+08 3.719139e-02 -9.281158e-03 0.000000e+00 0.000000e+00 0.000000e+00 0.000000e+00 0.000000e+00 0.000000e+00
2.166988e+08 3.716278e-02 -9.424210e-03 0.000000e+00 0.000000e+00 0.000000e+00 0.000000e+00 0.000000e+00 0.000000e+00
2.169166e+08 3.722954e-02 -9.546280e-03 0.000000e+00 0.000000e+00 0.000000e+00 0.000000e+00 0.000000e+00 0.000000e+00
2.171344e+08 3.726006e-02 -9.624481e-03 0.000000e+00 0.000000e+00 0.000000e+00 0.000000e+00 0.000000e+00 0.000000e+00
2.173522e+08 3.716850e-02 -9.716034e-03 0.000000e+00 0.000000e+00 0.000000e+00 0.000000e+00 0.000000e+00 0.000000e+00
2.175700e+08 3.696632e-02 -9.819031e-03 0.000000e+00 0.000000e+00 0.000000e+00 0.000000e+00 0.000000e+00 0.000000e+00
2.177878e+08 3.720665e-02 -9.950638e-03 0.000000e+00 0.000000e+00 0.000000e+00 0.000000e+00 0.000000e+00 0.000000e+00
2.180056e+08 3.703308e-02 -9.912491e-03 0.000000e+00 0.000000e+00 0.000000e+00 0.000000e+00 0.000000e+00 0.000000e+00
2.182234e+08 3.692436e-02 -1.010895e-02 0.000000e+00 0.000000e+00 0.000000e+00 0.000000e+00 0.000000e+00 0.000000e+00
2.184412e+08 3.699875e-02 -1.021004e-02 0.000000e+00 0.000000e+00 0.000000e+00 0.000000e+00 0.000000e+00 0.000000e+00
2.186591e+08 3.704834e-02 -1.026154e-02 0.000000e+00 0.000000e+00 0.000000e+00 0.000000e+00 0.000000e+00 0.000000e+00
2.188769e+08 3.688240e-02 -1.035309e-02 0.000000e+00 0.000000e+00 0.000000e+00 0.000000e+00 0.000000e+00 0.000000e+00
2.190947e+08 3.691101e-02 -1.062584e-02 0.000000e+00 0.000000e+00 0.000000e+00 0.000000e+00 0.000000e+00 0.000000e+00
2.193125e+08 3.696632e-02 -1.075363e-02 0.000000e+00 0.000000e+00 0.000000e+00 0.000000e+00 0.000000e+00 0.000000e+00
2.195303e+08 3.688431e-02 -1.090240e-02 0.000000e+00 0.000000e+00 0.000000e+00 0.000000e+00 0.000000e+00 0.000000e+00
2.197481e+08 3.702545e-02 -1.084518e-02 0.000000e+00 0.000000e+00 0.000000e+00 0.000000e+00 0.000000e+00 0.000000e+00
2.199659e+08 3.683853e-02 -1.103592e-02 0.000000e+00 0.000000e+00 0.000000e+00 0.000000e+00 0.000000e+00 0.000000e+00
2.201838e+08 3.673744e-02 -1.123428e-02 0.000000e+00 0.000000e+00 0.000000e+00 0.000000e+00 0.000000e+00 0.000000e+00
2.204016e+08 3.671265e-02 -1.128769e-02 0.000000e+00 0.000000e+00 0.000000e+00 0.000000e+00 0.000000e+00 0.000000e+00
2.206194e+08 3.656578e-02 -1.143265e-02 0.000000e+00 0.000000e+00 0.000000e+00 0.000000e+00 0.000000e+00 0.000000e+00
2.208372e+08 3.671455e-02 -1.153183e-02 0.000000e+00 0.000000e+00 0.000000e+00 0.000000e+00 0.000000e+00 0.000000e+00
2.210550e+08 3.661156e-02 -1.168823e-02 0.000000e+00 0.000000e+00 0.000000e+00 0.000000e+00 0.000000e+00 0.000000e+00
2.212728e+08 3.647804e-02 -1.165390e-02 0.000000e+00 0.000000e+00 0.000000e+00 0.000000e+00 0.000000e+00 0.000000e+00
2.214906e+08 3.657532e-02 -1.179314e-02 0.000000e+00 0.000000e+00 0.000000e+00 0.000000e+00 0.000000e+00 0.000000e+00
2.217084e+08 3.653908e-02 -1.198387e-02 0.000000e+00 0.000000e+00 0.000000e+00 0.000000e+00 0.000000e+00 0.000000e+00
2.219262e+08 3.643608e-02 -1.207161e-02 0.000000e+00 0.000000e+00 0.000000e+00 0.000000e+00 0.000000e+00 0.000000e+00
2.221441e+08 3.647614e-02 -1.223373e-02 0.000000e+00 0.000000e+00 0.000000e+00 0.000000e+00 0.000000e+00 0.000000e+00
2.223619e+08 3.639221e-02 -1.230812e-02 0.000000e+00 0.000000e+00 0.000000e+00 0.000000e+00 0.000000e+00 0.000000e+00
2.225797e+08 3.629112e-02 -1.231194e-02 0.000000e+00 0.000000e+00 0.000000e+00 0.000000e+00 0.000000e+00 0.000000e+00
2.227975e+08 3.625488e-02 -1.260757e-02 0.000000e+00 0.000000e+00 0.000000e+00 0.000000e+00 0.000000e+00 0.000000e+00
2.230153e+08 3.616142e-02 -1.268959e-02 0.000000e+00 0.000000e+00 0.000000e+00 0.000000e+00 0.000000e+00 0.000000e+00
2.232331e+08 3.623581e-02 -1.282310e-02 0.000000e+00 0.000000e+00 0.000000e+00 0.000000e+00 0.000000e+00 0.000000e+00
2.234509e+08 3.607368e-02 -1.277924e-02 0.000000e+00 0.000000e+00 0.000000e+00 0.000000e+00 0.000000e+00 0.000000e+00
2.236688e+08 3.607178e-02 -1.301384e-02 0.000000e+00 0.000000e+00 0.000000e+00 0.000000e+00 0.000000e+00 0.000000e+00
2.238866e+08 3.604698e-02 -1.290131e-02 0.000000e+00 0.000000e+00 0.000000e+00 0.000000e+00 0.000000e+00 0.000000e+00
2.241044e+08 3.596687e-02 -1.310539e-02 0.000000e+00 0.000000e+00 0.000000e+00 0.000000e+00 0.000000e+00 0.000000e+00
2.243222e+08 3.602028e-02 -1.317596e-02 0.000000e+00 0.000000e+00 0.000000e+00 0.000000e+00 0.000000e+00 0.000000e+00
2.245400e+08 3.597832e-02 -1.326752e-02 0.000000e+00 0.000000e+00 0.000000e+00 0.000000e+00 0.000000e+00 0.000000e+00
2.247578e+08 3.594971e-02 -1.342010e-02 0.000000e+00 0.000000e+00 0.000000e+00 0.000000e+00 0.000000e+00 0.000000e+00
2.249756e+08 3.586578e-02 -1.369286e-02 0.000000e+00 0.000000e+00 0.000000e+00 0.000000e+00 0.000000e+00 0.000000e+00
2.251934e+08 3.576279e-02 -1.359367e-02 0.000000e+00 0.000000e+00 0.000000e+00 0.000000e+00 0.000000e+00 0.000000e+00
2.254112e+08 3.580093e-02 -1.384163e-02 0.000000e+00 0.000000e+00 0.000000e+00 0.000000e+00 0.000000e+00 0.000000e+00
2.256291e+08 3.568459e-02 -1.402092e-02 0.000000e+00 0.000000e+00 0.000000e+00 0.000000e+00 0.000000e+00 0.000000e+00
2.258469e+08 3.553200e-02 -1.405907e-02 0.000000e+00 0.000000e+00 0.000000e+00 0.000000e+00 0.000000e+00 0.000000e+00
2.260647e+08 3.567886e-02 -1.414299e-02 0.000000e+00 0.000000e+00 0.000000e+00 0.000000e+00 0.000000e+00 0.000000e+00
2.262825e+08 3.559685e-02 -1.420212e-02 0.000000e+00 0.000000e+00 0.000000e+00 0.000000e+00 0.000000e+00 0.000000e+00
2.265003e+08 3.551102e-02 -1.436615e-02 0.000000e+00 0.000000e+00 0.000000e+00 0.000000e+00 0.000000e+00 0.000000e+00
2.267181e+08 3.546333e-02 -1.451111e-02 0.000000e+00 0.000000e+00 0.000000e+00 0.000000e+00 0.000000e+00 0.000000e+00
2.269359e+08 3.534126e-02 -1.457977e-02 0.000000e+00 0.000000e+00 0.000000e+00 0.000000e+00 0.000000e+00 0.000000e+00
2.271538e+08 3.538895e-02 -1.468086e-02 0.000000e+00 0.000000e+00 0.000000e+00 0.000000e+00 0.000000e+00 0.000000e+00
2.273716e+08 3.526306e-02 -1.474190e-02 0.000000e+00 0.000000e+00 0.000000e+00 0.000000e+00 0.000000e+00 0.000000e+00
2.275894e+08 3.521347e-02 -1.492310e-02 0.000000e+00 0.000000e+00 0.000000e+00 0.000000e+00 0.000000e+00 0.000000e+00
2.278072e+08 3.505135e-02 -1.497459e-02 0.000000e+00 0.000000e+00 0.000000e+00 0.000000e+00 0.000000e+00 0.000000e+00
2.280250e+08 3.503418e-02 -1.504517e-02 0.000000e+00 0.000000e+00 0.000000e+00 0.000000e+00 0.000000e+00 0.000000e+00
2.282428e+08 3.506088e-02 -1.523399e-02 0.000000e+00 0.000000e+00 0.000000e+00 0.000000e+00 0.000000e+00 0.000000e+00
2.284606e+08 3.496361e-02 -1.536751e-02 0.000000e+00 0.000000e+00 0.000000e+00 0.000000e+00 0.000000e+00 0.000000e+00
2.286784e+08 3.493500e-02 -1.545715e-02 0.000000e+00 0.000000e+00 0.000000e+00 0.000000e+00 0.000000e+00 0.000000e+00
2.288962e+08 3.489494e-02 -1.558685e-02 0.000000e+00 0.000000e+00 0.000000e+00 0.000000e+00 0.000000e+00 0.000000e+00
2.291141e+08 3.471756e-02 -1.566887e-02 0.000000e+00 0.000000e+00 0.000000e+00 0.000000e+00 0.000000e+00 0.000000e+00
2.293319e+08 3.488350e-02 -1.564407e-02 0.000000e+00 0.000000e+00 0.000000e+00 0.000000e+00 0.000000e+00 0.000000e+00
2.295497e+08 3.456116e-02 -1.581764e-02 0.000000e+00 0.000000e+00 0.000000e+00 0.000000e+00 0.000000e+00 0.000000e+00
2.297675e+08 3.454590e-02 -1.595306e-02 0.000000e+00 0.000000e+00 0.000000e+00 0.000000e+00 0.000000e+00 0.000000e+00
2.299853e+08 3.449440e-02 -1.586914e-02 0.000000e+00 0.000000e+00 0.000000e+00 0.000000e+00 0.000000e+00 0.000000e+00
2.302031e+08 3.444481e-02 -1.611710e-02 0.000000e+00 0.000000e+00 0.000000e+00 0.000000e+00 0.000000e+00 0.000000e+00
2.304209e+08 3.435898e-02 -1.632500e-02 0.000000e+00 0.000000e+00 0.000000e+00 0.000000e+00 0.000000e+00 0.000000e+00
2.306388e+08 3.442764e-02 -1.629639e-02 0.000000e+00 0.000000e+00 0.000000e+00 0.000000e+00 0.000000e+00 0.000000e+00
2.308566e+08 3.437996e-02 -1.641273e-02 0.000000e+00 0.000000e+00 0.000000e+00 0.000000e+00 0.000000e+00 0.000000e+00
2.310744e+08 3.431129e-02 -1.645088e-02 0.000000e+00 0.000000e+00 0.000000e+00 0.000000e+00 0.000000e+00 0.000000e+00
2.312922e+08 3.423691e-02 -1.662827e-02 0.000000e+00 0.000000e+00 0.000000e+00 0.000000e+00 0.000000e+00 0.000000e+00
2.315100e+08 3.411674e-02 -1.678658e-02 0.000000e+00 0.000000e+00 0.000000e+00 0.000000e+00 0.000000e+00 0.000000e+00
2.317278e+08 3.417778e-02 -1.682854e-02 0.000000e+00 0.000000e+00 0.000000e+00 0.000000e+00 0.000000e+00 0.000000e+00
2.319456e+08 3.393364e-02 -1.696777e-02 0.000000e+00 0.000000e+00 0.000000e+00 0.000000e+00 0.000000e+00 0.000000e+00
2.321634e+08 3.395081e-02 -1.702118e-02 0.000000e+00 0.000000e+00 0.000000e+00 0.000000e+00 0.000000e+00 0.000000e+00
2.323812e+08 3.386497e-02 -1.709557e-02 0.000000e+00 0.000000e+00 0.000000e+00 0.000000e+00 0.000000e+00 0.000000e+00
2.325991e+08 3.383255e-02 -1.713943e-02 0.000000e+00 0.000000e+00 0.000000e+00 0.000000e+00 0.000000e+00 0.000000e+00
2.328169e+08 3.359032e-02 -1.718903e-02 0.000000e+00 0.000000e+00 0.000000e+00 0.000000e+00 0.000000e+00 0.000000e+00
2.330347e+08 3.359032e-02 -1.742554e-02 0.000000e+00 0.000000e+00 0.000000e+00 0.000000e+00 0.000000e+00 0.000000e+00
2.332525e+08 3.349495e-02 -1.742935e-02 0.000000e+00 0.000000e+00 0.000000e+00 0.000000e+00 0.000000e+00 0.000000e+00
2.334703e+08 3.355026e-02 -1.757050e-02 0.000000e+00 0.000000e+00 0.000000e+00 0.000000e+00 0.000000e+00 0.000000e+00
2.336881e+08 3.338623e-02 -1.771355e-02 0.000000e+00 0.000000e+00 0.000000e+00 0.000000e+00 0.000000e+00 0.000000e+00
2.339059e+08 3.326607e-02 -1.773262e-02 0.000000e+00 0.000000e+00 0.000000e+00 0.000000e+00 0.000000e+00 0.000000e+00
2.341238e+08 3.329086e-02 -1.778221e-02 0.000000e+00 0.000000e+00 0.000000e+00 0.000000e+00 0.000000e+00 0.000000e+00
2.343416e+08 3.318596e-02 -1.800346e-02 0.000000e+00 0.000000e+00 0.000000e+00 0.000000e+00 0.000000e+00 0.000000e+00
2.345594e+08 3.320312e-02 -1.796532e-02 0.000000e+00 0.000000e+00 0.000000e+00 0.000000e+00 0.000000e+00 0.000000e+00
2.347772e+08 3.294563e-02 -1.824188e-02 0.000000e+00 0.000000e+00 0.000000e+00 0.000000e+00 0.000000e+00 0.000000e+00
2.349950e+08 3.298950e-02 -1.816559e-02 0.000000e+00 0.000000e+00 0.000000e+00 0.000000e+00 0.000000e+00 0.000000e+00
2.352128e+08 3.292084e-02 -1.828194e-02 0.000000e+00 0.000000e+00 0.000000e+00 0.000000e+00 0.000000e+00 0.000000e+00
2.354306e+08 3.274345e-02 -1.837158e-02 0.000000e+00 0.000000e+00 0.000000e+00 0.000000e+00 0.000000e+00 0.000000e+00
2.356484e+08 3.281403e-02 -1.853752e-02 0.000000e+00 0.000000e+00 0.000000e+00 0.000000e+00 0.000000e+00 0.000000e+00
2.358662e+08 3.281212e-02 -1.855469e-02 0.000000e+00 0.000000e+00 0.000000e+00 0.000000e+00 0.000000e+00 0.000000e+00
2.360841e+08 3.264236e-02 -1.866150e-02 0.000000e+00 0.000000e+00 0.000000e+00 0.000000e+00 0.000000e+00 0.000000e+00
2.363019e+08 3.246880e-02 -1.863289e-02 0.000000e+00 0.000000e+00 0.000000e+00 0.000000e+00 0.000000e+00 0.000000e+00
2.365197e+08 3.244972e-02 -1.887894e-02 0.000000e+00 0.000000e+00 0.000000e+00 0.000000e+00 0.000000e+00 0.000000e+00
2.367375e+08 3.240013e-02 -1.892281e-02 0.000000e+00 0.000000e+00 0.000000e+00 0.000000e+00 0.000000e+00 0.000000e+00
2.369553e+08 3.221321e-02 -1.908493e-02 0.000000e+00 0.000000e+00 0.000000e+00 0.000000e+00 0.000000e+00 0.000000e+00
2.371731e+08 3.212547e-02 -1.918411e-02 0.000000e+00 0.000000e+00 0.000000e+00 0.000000e+00 0.000000e+00 0.000000e+00
2.373909e+08 3.204727e-02 -1.925468e-02 0.000000e+00 0.000000e+00 0.000000e+00 0.000000e+00 0.000000e+00 0.000000e+00
2.376088e+08 3.194427e-02 -1.936531e-02 0.000000e+00 0.000000e+00 0.000000e+00 0.000000e+00 0.000000e+00 0.000000e+00
2.378266e+08 3.189659e-02 -1.928902e-02 0.000000e+00 0.000000e+00 0.000000e+00 0.000000e+00 0.000000e+00 0.000000e+00
2.380444e+08 3.179550e-02 -1.946831e-02 0.000000e+00 0.000000e+00 0.000000e+00 0.000000e+00 0.000000e+00 0.000000e+00
2.382622e+08 3.177261e-02 -1.963234e-02 0.000000e+00 0.000000e+00 0.000000e+00 0.000000e+00 0.000000e+00 0.000000e+00
2.384800e+08 3.161621e-02 -1.962852e-02 0.000000e+00 0.000000e+00 0.000000e+00 0.000000e+00 0.000000e+00 0.000000e+00
2.386978e+08 3.148460e-02 -1.967812e-02 0.000000e+00 0.000000e+00 0.000000e+00 0.000000e+00 0.000000e+00 0.000000e+00
2.389156e+08 3.138542e-02 -1.994324e-02 0.000000e+00 0.000000e+00 0.000000e+00 0.000000e+00 0.000000e+00 0.000000e+00
2.391334e+08 3.144264e-02 -1.997566e-02 0.000000e+00 0.000000e+00 0.000000e+00 0.000000e+00 0.000000e+00 0.000000e+00
2.393512e+08 3.125381e-02 -1.999474e-02 0.000000e+00 0.000000e+00 0.000000e+00 0.000000e+00 0.000000e+00 0.000000e+00
2.395691e+08 3.120804e-02 -2.011108e-02 0.000000e+00 0.000000e+00 0.000000e+00 0.000000e+00 0.000000e+00 0.000000e+00
2.397869e+08 3.112411e-02 -2.020264e-02 0.000000e+00 0.000000e+00 0.000000e+00 0.000000e+00 0.000000e+00 0.000000e+00
2.400047e+08 3.094864e-02 -2.027512e-02 0.000000e+00 0.000000e+00 0.000000e+00 0.000000e+00 0.000000e+00 0.000000e+00
2.402225e+08 3.097534e-02 -2.049828e-02 0.000000e+00 0.000000e+00 0.000000e+00 0.000000e+00 0.000000e+00 0.000000e+00
2.404403e+08 3.092194e-02 -2.042389e-02 0.000000e+00 0.000000e+00 0.000000e+00 0.000000e+00 0.000000e+00 0.000000e+00
2.406581e+08 3.070259e-02 -2.049446e-02 0.000000e+00 0.000000e+00 0.000000e+00 0.000000e+00 0.000000e+00 0.000000e+00
2.408759e+08 3.055191e-02 -2.058601e-02 0.000000e+00 0.000000e+00 0.000000e+00 0.000000e+00 0.000000e+00 0.000000e+00
2.410938e+08 3.048134e-02 -2.067757e-02 0.000000e+00 0.000000e+00 0.000000e+00 0.000000e+00 0.000000e+00 0.000000e+00
2.413116e+08 3.058815e-02 -2.065277e-02 0.000000e+00 0.000000e+00 0.000000e+00 0.000000e+00 0.000000e+00 0.000000e+00
2.415294e+08 3.033829e-02 -2.078438e-02 0.000000e+00 0.000000e+00 0.000000e+00 0.000000e+00 0.000000e+00 0.000000e+00
2.417472e+08 3.018570e-02 -2.085876e-02 0.000000e+00 0.000000e+00 0.000000e+00 0.000000e+00 0.000000e+00 0.000000e+00
2.419650e+08 3.025436e-02 -2.092552e-02 0.000000e+00 0.000000e+00 0.000000e+00 0.000000e+00 0.000000e+00 0.000000e+00
2.421828e+08 3.014755e-02 -2.084923e-02 0.000000e+00 0.000000e+00 0.000000e+00 0.000000e+00 0.000000e+00 0.000000e+00
2.424006e+08 2.993584e-02 -2.099228e-02 0.000000e+00 0.000000e+00 0.000000e+00 0.000000e+00 0.000000e+00 0.000000e+00
2.426184e+08 2.990723e-02 -2.111626e-02 0.000000e+00 0.000000e+00 0.000000e+00 0.000000e+00 0.000000e+00 0.000000e+00
2.428362e+08 2.983475e-02 -2.122688e-02 0.000000e+00 0.000000e+00 0.000000e+00 0.000000e+00 0.000000e+00 0.000000e+00
2.430541e+08 2.963638e-02 -2.124405e-02 0.000000e+00 0.000000e+00 0.000000e+00 0.000000e+00 0.000000e+00 0.000000e+00
2.432719e+08 2.950287e-02 -2.132225e-02 0.000000e+00 0.000000e+00 0.000000e+00 0.000000e+00 0.000000e+00 0.000000e+00
2.434897e+08 2.950478e-02 -2.144051e-02 0.000000e+00 0.000000e+00 0.000000e+00 0.000000e+00 0.000000e+00 0.000000e+00
2.437075e+08 2.945137e-02 -2.147484e-02 0.000000e+00 0.000000e+00 0.000000e+00 0.000000e+00 0.000000e+00 0.000000e+00
2.439253e+08 2.915001e-02 -2.154541e-02 0.000000e+00 0.000000e+00 0.000000e+00 0.000000e+00 0.000000e+00 0.000000e+00
2.441431e+08 2.906036e-02 -2.167892e-02 0.000000e+00 0.000000e+00 0.000000e+00 0.000000e+00 0.000000e+00 0.000000e+00
2.443609e+08 2.901649e-02 -2.174377e-02 0.000000e+00 0.000000e+00 0.000000e+00 0.000000e+00 0.000000e+00 0.000000e+00
2.445788e+08 2.891159e-02 -2.169800e-02 0.000000e+00 0.000000e+00 0.000000e+00 0.000000e+00 0.000000e+00 0.000000e+00
2.447966e+08 2.866745e-02 -2.186203e-02 0.000000e+00 0.000000e+00 0.000000e+00 0.000000e+00 0.000000e+00 0.000000e+00
2.450144e+08 2.875137e-02 -2.191353e-02 0.000000e+00 0.000000e+00 0.000000e+00 0.000000e+00 0.000000e+00 0.000000e+00
2.452322e+08 2.854156e-02 -2.199364e-02 0.000000e+00 0.000000e+00 0.000000e+00 0.000000e+00 0.000000e+00 0.000000e+00
2.454500e+08 2.849579e-02 -2.203751e-02 0.000000e+00 0.000000e+00 0.000000e+00 0.000000e+00 0.000000e+00 0.000000e+00
2.456678e+08 2.836609e-02 -2.227974e-02 0.000000e+00 0.000000e+00 0.000000e+00 0.000000e+00 0.000000e+00 0.000000e+00
2.458856e+08 2.834892e-02 -2.235031e-02 0.000000e+00 0.000000e+00 0.000000e+00 0.000000e+00 0.000000e+00 0.000000e+00
2.461034e+08 2.818489e-02 -2.235222e-02 0.000000e+00 0.000000e+00 0.000000e+00 0.000000e+00 0.000000e+00 0.000000e+00
2.463212e+08 2.818871e-02 -2.238655e-02 0.000000e+00 0.000000e+00 0.000000e+00 0.000000e+00 0.000000e+00 0.000000e+00
2.465391e+08 2.814293e-02 -2.230453e-02 0.000000e+00 0.000000e+00 0.000000e+00 0.000000e+00 0.000000e+00 0.000000e+00
2.467569e+08 2.794838e-02 -2.257156e-02 0.000000e+00 0.000000e+00 0.000000e+00 0.000000e+00 0.000000e+00 0.000000e+00
2.469747e+08 2.765846e-02 -2.262497e-02 0.000000e+00 0.000000e+00 0.000000e+00 0.000000e+00 0.000000e+00 0.000000e+00
2.471925e+08 2.786255e-02 -2.266884e-02 0.000000e+00 0.000000e+00 0.000000e+00 0.000000e+00 0.000000e+00 0.000000e+00
2.474103e+08 2.755547e-02 -2.272034e-02 0.000000e+00 0.000000e+00 0.000000e+00 0.000000e+00 0.000000e+00 0.000000e+00
2.476281e+08 2.737427e-02 -2.280426e-02 0.000000e+00 0.000000e+00 0.000000e+00 0.000000e+00 0.000000e+00 0.000000e+00
2.478459e+08 2.747154e-02 -2.279282e-02 0.000000e+00 0.000000e+00 0.000000e+00 0.000000e+00 0.000000e+00 0.000000e+00
2.480638e+08 2.725410e-02 -2.283478e-02 0.000000e+00 0.000000e+00 0.000000e+00 0.000000e+00 0.000000e+00 0.000000e+00
2.482816e+08 2.700615e-02 -2.296066e-02 0.000000e+00 0.000000e+00 0.000000e+00 0.000000e+00 0.000000e+00 0.000000e+00
2.484994e+08 2.709961e-02 -2.312088e-02 0.000000e+00 0.000000e+00 0.000000e+00 0.000000e+00 0.000000e+00 0.000000e+00
2.487172e+08 2.697754e-02 -2.308464e-02 0.000000e+00 0.000000e+00 0.000000e+00 0.000000e+00 0.000000e+00 0.000000e+00
2.489350e+08 2.689743e-02 -2.315140e-02 0.000000e+00 0.000000e+00 0.000000e+00 0.000000e+00 0.000000e+00 0.000000e+00
2.491528e+08 2.668190e-02 -2.309608e-02 0.000000e+00 0.000000e+00 0.000000e+00 0.000000e+00 0.000000e+00 0.000000e+00
2.493706e+08 2.646255e-02 -2.317619e-02 0.000000e+00 0.000000e+00 0.000000e+00 0.000000e+00 0.000000e+00 0.000000e+00
2.495884e+08 2.637482e-02 -2.321625e-02 0.000000e+00 0.000000e+00 0.000000e+00 0.000000e+00 0.000000e+00 0.000000e+00
2.498062e+08 2.613831e-02 -2.329826e-02 0.000000e+00 0.000000e+00 0.000000e+00 0.000000e+00 0.000000e+00 0.000000e+00
2.500241e+08 2.608871e-02 -2.342415e-02 0.000000e+00 0.000000e+00 0.000000e+00 0.000000e+00 0.000000e+00 0.000000e+00
2.502419e+08 2.603912e-02 -2.338600e-02 0.000000e+00 0.000000e+00 0.000000e+00 0.000000e+00 0.000000e+00 0.000000e+00
2.504597e+08 2.599144e-02 -2.340317e-02 0.000000e+00 0.000000e+00 0.000000e+00 0.000000e+00 0.000000e+00 0.000000e+00
2.506775e+08 2.592850e-02 -2.359200e-02 0.000000e+00 0.000000e+00 0.000000e+00 0.000000e+00 0.000000e+00 0.000000e+00
2.508953e+08 2.578926e-02 -2.358055e-02 0.000000e+00 0.000000e+00 0.000000e+00 0.000000e+00 0.000000e+00 0.000000e+00
2.511131e+08 2.562714e-02 -2.354240e-02 0.000000e+00 0.000000e+00 0.000000e+00 0.000000e+00 0.000000e+00 0.000000e+00
2.513309e+08 2.552605e-02 -2.369499e-02 0.000000e+00 0.000000e+00 0.000000e+00 0.000000e+00 0.000000e+00 0.000000e+00
2.515488e+08 2.536774e-02 -2.377892e-02 0.000000e+00 0.000000e+00 0.000000e+00 0.000000e+00 0.000000e+00 0.000000e+00
2.517666e+08 2.531433e-02 -2.385712e-02 0.000000e+00 0.000000e+00 0.000000e+00 0.000000e+00 0.000000e+00 0.000000e+00
2.519844e+08 2.515411e-02 -2.391624e-02 0.000000e+00 0.000000e+00 0.000000e+00 0.000000e+00 0.000000e+00 0.000000e+00
2.522022e+08 2.507210e-02 -2.390099e-02 0.000000e+00 0.000000e+00 0.000000e+00 0.000000e+00 0.000000e+00 0.000000e+00
2.524200e+08 2.495193e-02 -2.392006e-02 0.000000e+00 0.000000e+00 0.000000e+00 0.000000e+00 0.000000e+00 0.000000e+00
2.526378e+08 2.486229e-02 -2.400780e-02 0.000000e+00 0.000000e+00 0.000000e+00 0.000000e+00 0.000000e+00 0.000000e+00
2.528556e+08 2.467728e-02 -2.410126e-02 0.000000e+00 0.000000e+00 0.000000e+00 0.000000e+00 0.000000e+00 0.000000e+00
2.530734e+08 2.459526e-02 -2.414322e-02 0.000000e+00 0.000000e+00 0.000000e+00 0.000000e+00 0.000000e+00 0.000000e+00
2.532912e+08 2.441788e-02 -2.413559e-02 0.000000e+00 0.000000e+00 0.000000e+00 0.000000e+00 0.000000e+00 0.000000e+00
2.535091e+08 2.431679e-02 -2.423859e-02 0.000000e+00 0.000000e+00 0.000000e+00 0.000000e+00 0.000000e+00 0.000000e+00
2.537269e+08 2.420044e-02 -2.426529e-02 0.000000e+00 0.000000e+00 0.000000e+00 0.000000e+00 0.000000e+00 0.000000e+00
2.539447e+08 2.410889e-02 -2.434540e-02 0.000000e+00 0.000000e+00 0.000000e+00 0.000000e+00 0.000000e+00 0.000000e+00
2.541625e+08 2.396011e-02 -2.433968e-02 0.000000e+00 0.000000e+00 0.000000e+00 0.000000e+00 0.000000e+00 0.000000e+00
2.543803e+08 2.382660e-02 -2.439499e-02 0.000000e+00 0.000000e+00 0.000000e+00 0.000000e+00 0.000000e+00 0.000000e+00
2.545981e+08 2.370644e-02 -2.438164e-02 0.000000e+00 0.000000e+00 0.000000e+00 0.000000e+00 0.000000e+00 0.000000e+00
2.548159e+08 2.358246e-02 -2.443123e-02 0.000000e+00 0.000000e+00 0.000000e+00 0.000000e+00 0.000000e+00 0.000000e+00
2.550338e+08 2.349663e-02 -2.451706e-02 0.000000e+00 0.000000e+00 0.000000e+00 0.000000e+00 0.000000e+00 0.000000e+00
2.552516e+08 2.336121e-02 -2.452469e-02 0.000000e+00 0.000000e+00 0.000000e+00 0.000000e+00 0.000000e+00 0.000000e+00
2.554694e+08 2.316666e-02 -2.458763e-02 0.000000e+00 0.000000e+00 0.000000e+00 0.000000e+00 0.000000e+00 0.000000e+00
2.556872e+08 2.307701e-02 -2.463341e-02 0.000000e+00 0.000000e+00 0.000000e+00 0.000000e+00 0.000000e+00 0.000000e+00
2.559050e+08 2.305031e-02 -2.463150e-02 0.000000e+00 0.000000e+00 0.000000e+00 0.000000e+00 0.000000e+00 0.000000e+00
2.561228e+08 2.278519e-02 -2.467728e-02 0.000000e+00 0.000000e+00 0.000000e+00 0.000000e+00 0.000000e+00 0.000000e+00
2.563406e+08 2.273560e-02 -2.473831e-02 0.000000e+00 0.000000e+00 0.000000e+00 0.000000e+00 0.000000e+00 0.000000e+00
2.565584e+08 2.260590e-02 -2.472305e-02 0.000000e+00 0.000000e+00 0.000000e+00 0.000000e+00 0.000000e+00 0.000000e+00
2.567762e+08 2.248383e-02 -2.476883e-02 0.000000e+00 0.000000e+00 0.000000e+00 0.000000e+00 0.000000e+00 0.000000e+00
2.569941e+08 2.234840e-02 -2.485085e-02 0.000000e+00 0.000000e+00 0.000000e+00 0.000000e+00 0.000000e+00 0.000000e+00
2.572119e+08 2.227020e-02 -2.486801e-02 0.000000e+00 0.000000e+00 0.000000e+00 0.000000e+00 0.000000e+00 0.000000e+00
2.574297e+08 2.214050e-02 -2.490425e-02 0.000000e+00 0.000000e+00 0.000000e+00 0.000000e+00 0.000000e+00 0.000000e+00
2.576475e+08 2.197838e-02 -2.491951e-02 0.000000e+00 0.000000e+00 0.000000e+00 0.000000e+00 0.000000e+00 0.000000e+00
2.578653e+08 2.184105e-02 -2.501297e-02 0.000000e+00 0.000000e+00 0.000000e+00 0.000000e+00 0.000000e+00 0.000000e+00
2.580831e+08 2.172470e-02 -2.501678e-02 0.000000e+00 0.000000e+00 0.000000e+00 0.000000e+00 0.000000e+00 0.000000e+00
2.583009e+08 2.157211e-02 -2.501678e-02 0.000000e+00 0.000000e+00 0.000000e+00 0.000000e+00 0.000000e+00 0.000000e+00
2.585188e+08 2.148247e-02 -2.511024e-02 0.000000e+00 0.000000e+00 0.000000e+00 0.000000e+00 0.000000e+00 0.000000e+00
2.587366e+08 2.136612e-02 -2.515030e-02 0.000000e+00 0.000000e+00 0.000000e+00 0.000000e+00 0.000000e+00 0.000000e+00
2.589544e+08 2.130127e-02 -2.518654e-02 0.000000e+00 0.000000e+00 0.000000e+00 0.000000e+00 0.000000e+00 0.000000e+00
2.591722e+08 2.109337e-02 -2.517509e-02 0.000000e+00 0.000000e+00 0.000000e+00 0.000000e+00 0.000000e+00 0.000000e+00
2.593900e+08 2.090645e-02 -2.521133e-02 0.000000e+00 0.000000e+00 0.000000e+00 0.000000e+00 0.000000e+00 0.000000e+00
2.596078e+08 2.083206e-02 -2.527046e-02 0.000000e+00 0.000000e+00 0.000000e+00 0.000000e+00 0.000000e+00 0.000000e+00
2.598256e+08 2.066040e-02 -2.528000e-02 0.000000e+00 0.000000e+00 0.000000e+00 0.000000e+00 0.000000e+00 0.000000e+00
2.600434e+08 2.054405e-02 -2.526474e-02 0.000000e+00 0.000000e+00 0.000000e+00 0.000000e+00 0.000000e+00 0.000000e+00
2.602612e+08 2.043915e-02 -2.534103e-02 0.000000e+00 0.000000e+00 0.000000e+00 0.000000e+00 0.000000e+00 0.000000e+00
2.604791e+08 2.033043e-02 -2.532387e-02 0.000000e+00 0.000000e+00 0.000000e+00 0.000000e+00 0.000000e+00 0.000000e+00
2.606969e+08 2.013206e-02 -2.537346e-02 0.000000e+00 0.000000e+00 0.000000e+00 0.000000e+00 0.000000e+00 0.000000e+00
2.609147e+08 2.003098e-02 -2.540016e-02 0.000000e+00 0.000000e+00 0.000000e+00 0.000000e+00 0.000000e+00 0.000000e+00
2.611325e+08 1.988220e-02 -2.537727e-02 0.000000e+00 0.000000e+00 0.000000e+00 0.000000e+00 0.000000e+00 0.000000e+00
2.613503e+08 1.973915e-02 -2.544212e-02 0.000000e+00 0.000000e+00 0.000000e+00 0.000000e+00 0.000000e+00 0.000000e+00
2.615681e+08 1.964951e-02 -2.546883e-02 0.000000e+00 0.000000e+00 0.000000e+00 0.000000e+00 0.000000e+00 0.000000e+00
2.617859e+08 1.947403e-02 -2.553177e-02 0.000000e+00 0.000000e+00 0.000000e+00 0.000000e+00 0.000000e+00 0.000000e+00
2.620038e+08 1.942635e-02 -2.552414e-02 0.000000e+00 0.000000e+00 0.000000e+00 0.000000e+00 0.000000e+00 0.000000e+00
2.622216e+08 1.925850e-02 -2.550888e-02 0.000000e+00 0.000000e+00 0.000000e+00 0.000000e+00 0.000000e+00 0.000000e+00
2.624394e+08 1.914406e-02 -2.555656e-02 0.000000e+00 0.000000e+00 0.000000e+00 0.000000e+00 0.000000e+00 0.000000e+00
2.626572e+08 1.906013e-02 -2.558517e-02 0.000000e+00 0.000000e+00 0.000000e+00 0.000000e+00 0.000000e+00 0.000000e+00
2.628750e+08 1.885033e-02 -2.559471e-02 0.000000e+00 0.000000e+00 0.000000e+00 0.000000e+00 0.000000e+00 0.000000e+00
2.630928e+08 1.876640e-02 -2.563095e-02 0.000000e+00 0.000000e+00 0.000000e+00 0.000000e+00 0.000000e+00 0.000000e+00
2.633106e+08 1.858521e-02 -2.565956e-02 0.000000e+00 0.000000e+00 0.000000e+00 0.000000e+00 0.000000e+00 0.000000e+00
2.635284e+08 1.846886e-02 -2.564812e-02 0.000000e+00 0.000000e+00 0.000000e+00 0.000000e+00 0.000000e+00 0.000000e+00
2.637462e+08 1.835060e-02 -2.568245e-02 0.000000e+00 0.000000e+00 0.000000e+00 0.000000e+00 0.000000e+00 0.000000e+00
2.639641e+08 1.817513e-02 -2.570915e-02 0.000000e+00 0.000000e+00 0.000000e+00 0.000000e+00 0.000000e+00 0.000000e+00
2.641819e+08 1.806831e-02 -2.573395e-02 0.000000e+00 0.000000e+00 0.000000e+00 0.000000e+00 0.000000e+00 0.000000e+00
2.643997e+08 1.794052e-02 -2.576256e-02 0.000000e+00 0.000000e+00 0.000000e+00 0.000000e+00 0.000000e+00 0.000000e+00
2.646175e+08 1.783371e-02 -2.577782e-02 0.000000e+00 0.000000e+00 0.000000e+00 0.000000e+00 0.000000e+00 0.000000e+00
2.648353e+08 1.760864e-02 -2.577591e-02 0.000000e+00 0.000000e+00 0.000000e+00 0.000000e+00 0.000000e+00 0.000000e+00
2.650531e+08 1.753044e-02 -2.570534e-02 0.000000e+00 0.000000e+00 0.000000e+00 0.000000e+00 0.000000e+00 0.000000e+00
2.652709e+08 1.733780e-02 -2.582932e-02 0.000000e+00 0.000000e+00 0.000000e+00 0.000000e+00 0.000000e+00 0.000000e+00
2.654888e+08 1.727486e-02 -2.581406e-02 0.000000e+00 0.000000e+00 0.000000e+00 0.000000e+00 0.000000e+00 0.000000e+00
2.657066e+08 1.706505e-02 -2.576637e-02 0.000000e+00 0.000000e+00 0.000000e+00 0.000000e+00 0.000000e+00 0.000000e+00
2.659244e+08 1.697731e-02 -2.586746e-02 0.000000e+00 0.000000e+00 0.000000e+00 0.000000e+00 0.000000e+00 0.000000e+00
2.661422e+08 1.680565e-02 -2.580070e-02 0.000000e+00 0.000000e+00 0.000000e+00 0.000000e+00 0.000000e+00 0.000000e+00
2.663600e+08 1.670647e-02 -2.588654e-02 0.000000e+00 0.000000e+00 0.000000e+00 0.000000e+00 0.000000e+00 0.000000e+00
2.665778e+08 1.652145e-02 -2.592468e-02 0.000000e+00 0.000000e+00 0.000000e+00 0.000000e+00 0.000000e+00 0.000000e+00
2.667956e+08 1.642990e-02 -2.585411e-02 0.000000e+00 0.000000e+00 0.000000e+00 0.000000e+00 0.000000e+00 0.000000e+00
2.670134e+08 1.630402e-02 -2.585983e-02 0.000000e+00 0.000000e+00 0.000000e+00 0.000000e+00 0.000000e+00 0.000000e+00
2.672312e+08 1.618385e-02 -2.589798e-02 0.000000e+00 0.000000e+00 0.000000e+00 0.000000e+00 0.000000e+00 0.000000e+00
2.674491e+08 1.602936e-02 -2.589607e-02 0.000000e+00 0.000000e+00 0.000000e+00 0.000000e+00 0.000000e+00 0.000000e+00
2.676669e+08 1.582718e-02 -2.588654e-02 0.000000e+00 0.000000e+00 0.000000e+00 0.000000e+00 0.000000e+00 0.000000e+00
2.678847e+08 1.565552e-02 -2.590752e-02 0.000000e+00 0.000000e+00 0.000000e+00 0.000000e+00 0.000000e+00 0.000000e+00
2.681025e+08 1.560020e-02 -2.593994e-02 0.000000e+00 0.000000e+00 0.000000e+00 0.000000e+00 0.000000e+00 0.000000e+00
2.683203e+08 1.542664e-02 -2.591896e-02 0.000000e+00 0.000000e+00 0.000000e+00 0.000000e+00 0.000000e+00 0.000000e+00
2.685381e+08 1.529884e-02 -2.592468e-02 0.000000e+00 0.000000e+00 0.000000e+00 0.000000e+00 0.000000e+00 0.000000e+00
2.687559e+08 1.514435e-02 -2.594376e-02 0.000000e+00 0.000000e+00 0.000000e+00 0.000000e+00 0.000000e+00 0.000000e+00
2.689738e+08 1.503944e-02 -2.592468e-02 0.000000e+00 0.000000e+00 0.000000e+00 0.000000e+00 0.000000e+00 0.000000e+00
2.691916e+08 1.486969e-02 -2.598953e-02 0.000000e+00 0.000000e+00 0.000000e+00 0.000000e+00 0.000000e+00 0.000000e+00
2.694094e+08 1.477051e-02 -2.595711e-02 0.000000e+00 0.000000e+00 0.000000e+00 0.000000e+00 0.000000e+00 0.000000e+00
2.696272e+08 1.463509e-02 -2.597237e-02 0.000000e+00 0.000000e+00 0.000000e+00 0.000000e+00 0.000000e+00 0.000000e+00
2.698450e+08 1.449013e-02 -2.594376e-02 0.000000e+00 0.000000e+00 0.000000e+00 0.000000e+00 0.000000e+00 0.000000e+00
2.700628e+08 1.440811e-02 -2.590942e-02 0.000000e+00 0.000000e+00 0.000000e+00 0.000000e+00 0.000000e+00 0.000000e+00
2.702806e+08 1.422501e-02 -2.599525e-02 0.000000e+00 0.000000e+00 0.000000e+00 0.000000e+00 0.000000e+00 0.000000e+00
2.704984e+08 1.405907e-02 -2.594566e-02 0.000000e+00 0.000000e+00 0.000000e+00 0.000000e+00 0.000000e+00 0.000000e+00
2.707162e+08 1.394463e-02 -2.593994e-02 0.000000e+00 0.000000e+00 0.000000e+00 0.000000e+00 0.000000e+00 0.000000e+00
2.709341e+08 1.378059e-02 -2.593803e-02 0.000000e+00 0.000000e+00 0.000000e+00 0.000000e+00 0.000000e+00 0.000000e+00
2.711519e+08 1.367950e-02 -2.591515e-02 0.000000e+00 0.000000e+00 0.000000e+00 0.000000e+00 0.000000e+00 0.000000e+00
2.713697e+08 1.350975e-02 -2.589035e-02 0.000000e+00 0.000000e+00 0.000000e+00 0.000000e+00 0.000000e+00 0.000000e+00
2.715875e+08 1.340294e-02 -2.588463e-02 0.000000e+00 0.000000e+00 0.000000e+00 0.000000e+00 0.000000e+00 0.000000e+00
2.718053e+08 1.324654e-02 -2.589417e-02 0.000000e+00 0.000000e+00 0.000000e+00 0.000000e+00 0.000000e+00 0.000000e+00
2.720231e+08 1.309776e-02 -2.589989e-02 0.000000e+00 0.000000e+00 0.000000e+00 0.000000e+00 0.000000e+00 0.000000e+00
2.722409e+08 1.292992e-02 -2.594376e-02 0.000000e+00 0.000000e+00 0.000000e+00 0.000000e+00 0.000000e+00 0.000000e+00
2.724588e+08 1.280975e-02 -2.590561e-02 0.000000e+00 0.000000e+00 0.000000e+00 0.000000e+00 0.000000e+00 0.000000e+00
2.726766e+08 1.263809e-02 -2.589798e-02 0.000000e+00 0.000000e+00 0.000000e+00 0.000000e+00 0.000000e+00 0.000000e+00
2.728944e+08 1.260948e-02 -2.592278e-02 0.000000e+00 0.000000e+00 0.000000e+00 0.000000e+00 0.000000e+00 0.000000e+00
2.731122e+08 1.239586e-02 -2.589607e-02 0.000000e+00 0.000000e+00 0.000000e+00 0.000000e+00 0.000000e+00 0.000000e+00
2.733300e+08 1.228142e-02 -2.588654e-02 0.000000e+00 0.000000e+00 0.000000e+00 0.000000e+00 0.000000e+00 0.000000e+00
2.735478e+08 1.210022e-02 -2.591896e-02 0.000000e+00 0.000000e+00 0.000000e+00 0.000000e+00 0.000000e+00 0.000000e+00
2.737656e+08 1.198959e-02 -2.591324e-02 0.000000e+00 0.000000e+00 0.000000e+00 0.000000e+00 0.000000e+00 0.000000e+00
2.739834e+08 1.187515e-02 -2.585793e-02 0.000000e+00 0.000000e+00 0.000000e+00 0.000000e+00 0.000000e+00 0.000000e+00
2.742012e+08 1.169777e-02 -2.582359e-02 0.000000e+00 0.000000e+00 0.000000e+00 0.000000e+00 0.000000e+00 0.000000e+00
2.744191e+08 1.158333e-02 -2.576447e-02 0.000000e+00 0.000000e+00 0.000000e+00 0.000000e+00 0.000000e+00 0.000000e+00
2.746369e+08 1.145935e-02 -2.582359e-02 0.000000e+00 0.000000e+00 0.000000e+00 0.000000e+00 0.000000e+00 0.000000e+00
2.748547e+08 1.128578e-02 -2.582932e-02 0.000000e+00 0.000000e+00 0.000000e+00 0.000000e+00 0.000000e+00 0.000000e+00
2.750725e+08 1.112366e-02 -2.579498e-02 0.000000e+00 0.000000e+00 0.000000e+00 0.000000e+00 0.000000e+00 0.000000e+00
2.752903e+08 1.102448e-02 -2.578545e-02 0.000000e+00 0.000000e+00 0.000000e+00 0.000000e+00 0.000000e+00 0.000000e+00
2.755081e+08 1.085854e-02 -2.576256e-02 0.000000e+00 0.000000e+00 0.000000e+00 0.000000e+00 0.000000e+00 0.000000e+00
2.757259e+08 1.072884e-02 -2.575302e-02 0.000000e+00 0.000000e+00 0.000000e+00 0.000000e+00 0.000000e+00 0.000000e+00
2.759438e+08 1.063156e-02 -2.578163e-02 0.000000e+00 0.000000e+00 0.000000e+00 0.000000e+00 0.000000e+00 0.000000e+00
2.761616e+08 1.042366e-02 -2.572441e-02 0.000000e+00 0.000000e+00 0.000000e+00 0.000000e+00 0.000000e+00 0.000000e+00
2.763794e+08 1.031494e-02 -2.570534e-02 0.000000e+00 0.000000e+00 0.000000e+00 0.000000e+00 0.000000e+00 0.000000e+00
2.765972e+08 1.015663e-02 -2.568054e-02 0.000000e+00 0.000000e+00 0.000000e+00 0.000000e+00 0.000000e+00 0.000000e+00
2.768150e+08 1.005173e-02 -2.565765e-02 0.000000e+00 0.000000e+00 0.000000e+00 0.000000e+00 0.000000e+00 0.000000e+00
2.770328e+08 9.864807e-03 -2.565193e-02 0.000000e+00 0.000000e+00 0.000000e+00 0.000000e+00 0.000000e+00 0.000000e+00
2.772506e+08 9.738922e-03 -2.563286e-02 0.000000e+00 0.000000e+00 0.000000e+00 0.000000e+00 0.000000e+00 0.000000e+00
2.774684e+08 9.599686e-03 -2.560997e-02 0.000000e+00 0.000000e+00 0.000000e+00 0.000000e+00 0.000000e+00 0.000000e+00
2.776862e+08 9.439468e-03 -2.559471e-02 0.000000e+00 0.000000e+00 0.000000e+00 0.000000e+00 0.000000e+00 0.000000e+00
2.779041e+08 9.342194e-03 -2.558327e-02 0.000000e+00 0.000000e+00 0.000000e+00 0.000000e+00 0.000000e+00 0.000000e+00
2.781219e+08 9.172440e-03 -2.552795e-02 0.000000e+00 0.000000e+00 0.000000e+00 0.000000e+00 0.000000e+00 0.000000e+00
2.783397e+08 9.052277e-03 -2.556610e-02 0.000000e+00 0.000000e+00 0.000000e+00 0.000000e+00 0.000000e+00 0.000000e+00
2.785575e+08 8.913040e-03 -2.552414e-02 0.000000e+00 0.000000e+00 0.000000e+00 0.000000e+00 0.000000e+00 0.000000e+00
2.787753e+08 8.808136e-03 -2.548218e-02 0.000000e+00 0.000000e+00 0.000000e+00 0.000000e+00 0.000000e+00 0.000000e+00
2.789931e+08 8.617401e-03 -2.546501e-02 0.000000e+00 0.000000e+00 0.000000e+00 0.000000e+00 0.000000e+00 0.000000e+00
2.792109e+08 8.508682e-03 -2.543259e-02 0.000000e+00 0.000000e+00 0.000000e+00 0.000000e+00 0.000000e+00 0.000000e+00
2.794288e+08 8.365631e-03 -2.540970e-02 0.000000e+00 0.000000e+00 0.000000e+00 0.000000e+00 0.000000e+00 0.000000e+00
2.796466e+08 8.274078e-03 -2.540016e-02 0.000000e+00 0.000000e+00 0.000000e+00 0.000000e+00 0.000000e+00 0.000000e+00
2.798644e+08 8.092880e-03 -2.536964e-02 0.000000e+00 0.000000e+00 0.000000e+00 0.000000e+00 0.000000e+00 0.000000e+00
2.800822e+08 7.972717e-03 -2.532578e-02 0.000000e+00 0.000000e+00 0.000000e+00 0.000000e+00 0.000000e+00 0.000000e+00
2.803000e+08 7.801056e-03 -2.532387e-02 0.000000e+00 0.000000e+00 0.000000e+00 0.000000e+00 0.000000e+00 0.000000e+00
2.805178e+08 7.698059e-03 -2.528381e-02 0.000000e+00 0.000000e+00 0.000000e+00 0.000000e+00 0.000000e+00 0.000000e+00
2.807356e+08 7.545471e-03 -2.528381e-02 0.000000e+00 0.000000e+00 0.000000e+00 0.000000e+00 0.000000e+00 0.000000e+00
2.809534e+08 7.402420e-03 -2.526474e-02 0.000000e+00 0.000000e+00 0.000000e+00 0.000000e+00 0.000000e+00 0.000000e+00
2.811712e+08 7.295609e-03 -2.522469e-02 0.000000e+00 0.000000e+00 0.000000e+00 0.000000e+00 0.000000e+00 0.000000e+00
2.813891e+08 7.146835e-03 -2.521133e-02 0.000000e+00 0.000000e+00 0.000000e+00 0.000000e+00 0.000000e+00 0.000000e+00
2.816069e+08 7.020950e-03 -2.517700e-02 0.000000e+00 0.000000e+00 0.000000e+00 0.000000e+00 0.000000e+00 0.000000e+00
2.818247e+08 6.872177e-03 -2.509880e-02 0.000000e+00 0.000000e+00 0.000000e+00 0.000000e+00 0.000000e+00 0.000000e+00
2.820425e+08 6.750107e-03 -2.509308e-02 0.000000e+00 0.000000e+00 0.000000e+00 0.000000e+00 0.000000e+00 0.000000e+00
2.822603e+08 6.601334e-03 -2.506447e-02 0.000000e+00 0.000000e+00 0.000000e+00 0.000000e+00 0.000000e+00 0.000000e+00
2.824781e+08 6.477356e-03 -2.506828e-02 0.000000e+00 0.000000e+00 0.000000e+00 0.000000e+00 0.000000e+00 0.000000e+00
2.826959e+08 6.336212e-03 -2.499962e-02 0.000000e+00 0.000000e+00 0.000000e+00 0.000000e+00 0.000000e+00 0.000000e+00
2.829138e+08 6.147385e-03 -2.498245e-02 0.000000e+00 0.000000e+00 0.000000e+00 0.000000e+00 0.000000e+00 0.000000e+00
2.831316e+08 6.071091e-03 -2.493858e-02 0.000000e+00 0.000000e+00 0.000000e+00 0.000000e+00 0.000000e+00 0.000000e+00
2.833494e+08 5.922318e-03 -2.491570e-02 0.000000e+00 0.000000e+00 0.000000e+00 0.000000e+00 0.000000e+00 0.000000e+00
2.835672e+08 5.765915e-03 -2.483940e-02 0.000000e+00 0.000000e+00 0.000000e+00 0.000000e+00 0.000000e+00 0.000000e+00
2.837850e+08 5.661011e-03 -2.479553e-02 0.000000e+00 0.000000e+00 0.000000e+00 0.000000e+00 0.000000e+00 0.000000e+00
2.840028e+08 5.514145e-03 -2.486992e-02 0.000000e+00 0.000000e+00 0.000000e+00 0.000000e+00 0.000000e+00 0.000000e+00
2.842206e+08 5.428314e-03 -2.476883e-02 0.000000e+00 0.000000e+00 0.000000e+00 0.000000e+00 0.000000e+00 0.000000e+00
2.844384e+08 5.201340e-03 -2.473259e-02 0.000000e+00 0.000000e+00 0.000000e+00 0.000000e+00 0.000000e+00 0.000000e+00
2.846562e+08 5.107880e-03 -2.471161e-02 0.000000e+00 0.000000e+00 0.000000e+00 0.000000e+00 0.000000e+00 0.000000e+00
2.848741e+08 4.951477e-03 -2.470779e-02 0.000000e+00 0.000000e+00 0.000000e+00 0.000000e+00 0.000000e+00 0.000000e+00
2.850919e+08 4.856110e-03 -2.461624e-02 0.000000e+00 0.000000e+00 0.000000e+00 0.000000e+00 0.000000e+00 0.000000e+00
2.853097e+08 4.678726e-03 -2.462769e-02 0.000000e+00 0.000000e+00 0.000000e+00 0.000000e+00 0.000000e+00 0.000000e+00
2.855275e+08 4.570007e-03 -2.457809e-02 0.000000e+00 0.000000e+00 0.000000e+00 0.000000e+00 0.000000e+00 0.000000e+00
2.857453e+08 4.446030e-03 -2.449226e-02 0.000000e+00 0.000000e+00 0.000000e+00 0.000000e+00 0.000000e+00 0.000000e+00
2.859631e+08 4.302979e-03 -2.447701e-02 0.000000e+00 0.000000e+00 0.000000e+00 0.000000e+00 0.000000e+00 0.000000e+00
2.861809e+08 4.194260e-03 -2.444839e-02 0.000000e+00 0.000000e+00 0.000000e+00 0.000000e+00 0.000000e+00 0.000000e+00
2.863988e+08 4.039764e-03 -2.444267e-02 0.000000e+00 0.000000e+00 0.000000e+00 0.000000e+00 0.000000e+00 0.000000e+00
2.866166e+08 3.890991e-03 -2.436638e-02 0.000000e+00 0.000000e+00 0.000000e+00 0.000000e+00 0.000000e+00 0.000000e+00
2.868344e+08 3.751755e-03 -2.433395e-02 0.000000e+00 0.000000e+00 0.000000e+00 0.000000e+00 0.000000e+00 0.000000e+00
2.870522e+08 3.690720e-03 -2.430534e-02 0.000000e+00 0.000000e+00 0.000000e+00 0.000000e+00 0.000000e+00 0.000000e+00
2.872700e+08 3.555298e-03 -2.427101e-02 0.000000e+00 0.000000e+00 0.000000e+00 0.000000e+00 0.000000e+00 0.000000e+00
2.874878e+08 3.416061e-03 -2.423477e-02 0.000000e+00 0.000000e+00 0.000000e+00 0.000000e+00 0.000000e+00 0.000000e+00
2.877056e+08 3.267288e-03 -2.419662e-02 0.000000e+00 0.000000e+00 0.000000e+00 0.000000e+00 0.000000e+00 0.000000e+00
2.879234e+08 3.128052e-03 -2.413940e-02 0.000000e+00 0.000000e+00 0.000000e+00 0.000000e+00 0.000000e+00 0.000000e+00
2.881412e+08 3.009796e-03 -2.413368e-02 0.000000e+00 0.000000e+00 0.000000e+00 0.000000e+00 0.000000e+00 0.000000e+00
2.883591e+08 2.870560e-03 -2.407074e-02 0.000000e+00 0.000000e+00 0.000000e+00 0.000000e+00 0.000000e+00 0.000000e+00
2.885769e+08 2.799988e-03 -2.404213e-02 0.000000e+00 0.000000e+00 0.000000e+00 0.000000e+00 0.000000e+00 0.000000e+00
2.887947e+08 2.611160e-03 -2.399063e-02 0.000000e+00 0.000000e+00 0.000000e+00 0.000000e+00 0.000000e+00 0.000000e+00
2.890125e+08 2.475739e-03 -2.397346e-02 0.000000e+00 0.000000e+00 0.000000e+00 0.000000e+00 0.000000e+00 0.000000e+00
2.892303e+08 2.399445e-03 -2.395058e-02 0.000000e+00 0.000000e+00 0.000000e+00 0.000000e+00 0.000000e+00 0.000000e+00
2.894481e+08 2.212524e-03 -2.383804e-02 0.000000e+00 0.000000e+00 0.000000e+00 0.000000e+00 0.000000e+00 0.000000e+00
2.896659e+08 2.080917e-03 -2.385902e-02 0.000000e+00 0.000000e+00 0.000000e+00 0.000000e+00 0.000000e+00 0.000000e+00
2.898838e+08 1.947403e-03 -2.376556e-02 0.000000e+00 0.000000e+00 0.000000e+00 0.000000e+00 0.000000e+00 0.000000e+00
2.901016e+08 1.840591e-03 -2.372360e-02 0.000000e+00 0.000000e+00 0.000000e+00 0.000000e+00 0.000000e+00 0.000000e+00
2.903194e+08 1.737595e-03 -2.367973e-02 0.000000e+00 0.000000e+00 0.000000e+00 0.000000e+00 0.000000e+00 0.000000e+00
2.905372e+08 1.518250e-03 -2.362823e-02 0.000000e+00 0.000000e+00 0.000000e+00 0.000000e+00 0.000000e+00 0.000000e+00
2.907550e+08 1.470566e-03 -2.363777e-02 0.000000e+00 0.000000e+00 0.000000e+00 0.000000e+00 0.000000e+00 0.000000e+00
2.909728e+08 1.316071e-03 -2.356720e-02 0.000000e+00 0.000000e+00 0.000000e+00 0.000000e+00 0.000000e+00 0.000000e+00
2.911906e+08 1.211166e-03 -2.353668e-02 0.000000e+00 0.000000e+00 0.000000e+00 0.000000e+00 0.000000e+00 0.000000e+00
2.914084e+08 1.106262e-03 -2.348900e-02 0.000000e+00 0.000000e+00 0.000000e+00 0.000000e+00 0.000000e+00 0.000000e+00
2.916262e+08 9.479523e-04 -2.344513e-02 0.000000e+00 0.000000e+00 0.000000e+00 0.000000e+00 0.000000e+00 0.000000e+00
2.918441e+08 8.583069e-04 -2.338600e-02 0.000000e+00 0.000000e+00 0.000000e+00 0.000000e+00 0.000000e+00 0.000000e+00
2.920619e+08 6.809235e-04 -2.335548e-02 0.000000e+00 0.000000e+00 0.000000e+00 0.000000e+00 0.000000e+00 0.000000e+00
2.922797e+08 5.397797e-04 -2.330399e-02 0.000000e+00 0.000000e+00 0.000000e+00 0.000000e+00 0.000000e+00 0.000000e+00
2.924975e+08 4.901886e-04 -2.325821e-02 0.000000e+00 0.000000e+00 0.000000e+00 0.000000e+00 0.000000e+00 0.000000e+00
2.927153e+08 3.356934e-04 -2.318001e-02 0.000000e+00 0.000000e+00 0.000000e+00 0.000000e+00 0.000000e+00 0.000000e+00
2.929331e+08 2.193451e-04 -2.313614e-02 0.000000e+00 0.000000e+00 0.000000e+00 0.000000e+00 0.000000e+00 0.000000e+00
2.931509e+08 1.049042e-04 -2.307701e-02 0.000000e+00 0.000000e+00 0.000000e+00 0.000000e+00 0.000000e+00 0.000000e+00
2.933688e+08 -7.629395e-05 -2.306175e-02 0.000000e+00 0.000000e+00 0.000000e+00 0.000000e+00 0.000000e+00 0.000000e+00
2.935866e+08 -1.144409e-04 -2.304077e-02 0.000000e+00 0.000000e+00 0.000000e+00 0.000000e+00 0.000000e+00 0.000000e+00
2.938044e+08 -2.593994e-04 -2.295494e-02 0.000000e+00 0.000000e+00 0.000000e+00 0.000000e+00 0.000000e+00 0.000000e+00
2.940222e+08 -4.310608e-04 -2.295494e-02 0.000000e+00 0.000000e+00 0.000000e+00 0.000000e+00 0.000000e+00 0.000000e+00
2.942400e+08 -4.730225e-04 -2.288628e-02 0.000000e+00 0.000000e+00 0.000000e+00 0.000000e+00 0.000000e+00 0.000000e+00
2.944578e+08 -6.599426e-04 -2.286911e-02 0.000000e+00 0.000000e+00 0.000000e+00 0.000000e+00 0.000000e+00 0.000000e+00
2.946756e+08 -7.534027e-04 -2.276039e-02 0.000000e+00 0.000000e+00 0.000000e+00 0.000000e+00 0.000000e+00 0.000000e+00
2.948934e+08 -8.792877e-04 -2.274704e-02 0.000000e+00 0.000000e+00 0.000000e+00 0.000000e+00 0.000000e+00 0.000000e+00
2.951112e+08 -9.841919e-04 -2.266312e-02 0.000000e+00 0.000000e+00 0.000000e+00 0.000000e+00 0.000000e+00 0.000000e+00
2.953291e+08 -1.142502e-03 -2.265739e-02 0.000000e+00 0.000000e+00 0.000000e+00 0.000000e+00 0.000000e+00 0.000000e+00
2.955469e+08 -1.199722e-03 -2.259064e-02 0.000000e+00 0.000000e+00 0.000000e+00 0.000000e+00 0.000000e+00 0.000000e+00
2.957647e+08 -1.371384e-03 -2.253532e-02 0.000000e+00 0.000000e+00 0.000000e+00 0.000000e+00 0.000000e+00 0.000000e+00
2.959825e+08 -1.464844e-03 -2.251625e-02 0.000000e+00 0.000000e+00 0.000000e+00 0.000000e+00 0.000000e+00 0.000000e+00
2.962003e+08 -1.562119e-03 -2.248573e-02 0.000000e+00 0.000000e+00 0.000000e+00 0.000000e+00 0.000000e+00 0.000000e+00
2.964181e+08 -1.686096e-03 -2.241516e-02 0.000000e+00 0.000000e+00 0.000000e+00 0.000000e+00 0.000000e+00 0.000000e+00
2.966359e+08 -1.789093e-03 -2.242851e-02 0.000000e+00 0.000000e+00 0.000000e+00 0.000000e+00 0.000000e+00 0.000000e+00
2.968538e+08 -1.981735e-03 -2.236176e-02 0.000000e+00 0.000000e+00 0.000000e+00 0.000000e+00 0.000000e+00 0.000000e+00
2.970716e+08 -1.987457e-03 -2.229500e-02 0.000000e+00 0.000000e+00 0.000000e+00 0.000000e+00 0.000000e+00 0.000000e+00
2.972894e+08 -2.235413e-03 -2.229500e-02 0.000000e+00 0.000000e+00 0.000000e+00 0.000000e+00 0.000000e+00 0.000000e+00
2.975072e+08 -2.309799e-03 -2.223492e-02 0.000000e+00 0.000000e+00 0.000000e+00 0.000000e+00 0.000000e+00 0.000000e+00
2.977250e+08 -2.429008e-03 -2.217293e-02 0.000000e+00 0.000000e+00 0.000000e+00 0.000000e+00 0.000000e+00 0.000000e+00
2.979428e+08 -2.513885e-03 -2.209187e-02 0.000000e+00 0.000000e+00 0.000000e+00 0.000000e+00 0.000000e+00 0.000000e+00
2.981606e+08 -2.661705e-03 -2.201366e-02 0.000000e+00 0.000000e+00 0.000000e+00 0.000000e+00 0.000000e+00 0.000000e+00
2.983784e+08 -2.758026e-03 -2.199554e-02 0.000000e+00 0.000000e+00 0.000000e+00 0.000000e+00 0.000000e+00 0.000000e+00
2.985962e+08 -2.903938e-03 -2.196026e-02 0.000000e+00 0.000000e+00 0.000000e+00 0.000000e+00 0.000000e+00 0.000000e+00
2.988141e+08 -3.025055e-03 -2.197075e-02 0.000000e+00 0.000000e+00 0.000000e+00 0.000000e+00 0.000000e+00 0.000000e+00
2.990319e+08 -3.082275e-03 -2.186584e-02 0.000000e+00 0.000000e+00 0.000000e+00 0.000000e+00 0.000000e+00 0.000000e+00
2.992497e+08 -3.231049e-03 -2.180767e-02 0.000000e+00 0.000000e+00 0.000000e+00 0.000000e+00 0.000000e+00 0.000000e+00
2.994675e+08 -3.293991e-03 -2.171993e-02 0.000000e+00 0.000000e+00 0.000000e+00 0.000000e+00 0.000000e+00 0.000000e+00
2.996853e+08 -3.370285e-03 -2.172184e-02 0.000000e+00 0.000000e+00 0.000000e+00 0.000000e+00 0.000000e+00 0.000000e+00
2.999031e+08 -3.529549e-03 -2.168179e-02 0.000000e+00 0.000000e+00 0.000000e+00 0.000000e+00 0.000000e+00 0.000000e+00
3.001209e+08 -3.675461e-03 -2.164364e-02 0.000000e+00 0.000000e+00 0.000000e+00 0.000000e+00 0.000000e+00 0.000000e+00
3.003388e+08 -3.777504e-03 -2.154827e-02 0.000000e+00 0.000000e+00 0.000000e+00 0.000000e+00 0.000000e+00 0.000000e+00
3.005566e+08 -3.894806e-03 -2.146626e-02 0.000000e+00 0.000000e+00 0.000000e+00 0.000000e+00 0.000000e+00 0.000000e+00
3.007744e+08 -3.953934e-03 -2.143955e-02 0.000000e+00 0.000000e+00 0.000000e+00 0.000000e+00 0.000000e+00 0.000000e+00
3.009922e+08 -4.143715e-03 -2.145863e-02 0.000000e+00 0.000000e+00 0.000000e+00 0.000000e+00 0.000000e+00 0.000000e+00
3.012100e+08 -4.198074e-03 -2.134991e-02 0.000000e+00 0.000000e+00 0.000000e+00 0.000000e+00 0.000000e+00 0.000000e+00
3.014278e+08 -4.272461e-03 -2.130413e-02 0.000000e+00 0.000000e+00 0.000000e+00 0.000000e+00 0.000000e+00 0.000000e+00
3.016456e+08 -4.474640e-03 -2.125359e-02 0.000000e+00 0.000000e+00 0.000000e+00 0.000000e+00 0.000000e+00 0.000000e+00
3.018634e+08 -4.518509e-03 -2.119637e-02 0.000000e+00 0.000000e+00 0.000000e+00 0.000000e+00 0.000000e+00 0.000000e+00
3.020812e+08 -4.609108e-03 -2.113247e-02 0.000000e+00 0.000000e+00 0.000000e+00 0.000000e+00 0.000000e+00 0.000000e+00
3.022991e+08 -4.847527e-03 -2.111721e-02 0.000000e+00 0.000000e+00 0.000000e+00 0.000000e+00 0.000000e+00 0.000000e+00
3.025169e+08 -4.893303e-03 -2.105904e-02 0.000000e+00 0.000000e+00 0.000000e+00 0.000000e+00 0.000000e+00 0.000000e+00
3.027347e+08 -4.982948e-03 -2.102947e-02 0.000000e+00 0.000000e+00 0.000000e+00 0.000000e+00 0.000000e+00 0.000000e+00
3.029525e+08 -5.081177e-03 -2.100277e-02 0.000000e+00 0.000000e+00 0.000000e+00 0.000000e+00 0.000000e+00 0.000000e+00
3.031703e+08 -5.155563e-03 -2.093887e-02 0.000000e+00 0.000000e+00 0.000000e+00 0.000000e+00 0.000000e+00 0.000000e+00
3.033881e+08 -5.293846e-03 -2.083397e-02 0.000000e+00 0.000000e+00 0.000000e+00 0.000000e+00 0.000000e+00 0.000000e+00
3.036059e+08 -5.405426e-03 -2.079773e-02 0.000000e+00 0.000000e+00 0.000000e+00 0.000000e+00 0.000000e+00 0.000000e+00
3.038238e+08 -5.522728e-03 -2.075958e-02 0.000000e+00 0.000000e+00 0.000000e+00 0.000000e+00 0.000000e+00 0.000000e+00
3.040416e+08 -5.632401e-03 -2.070236e-02 0.000000e+00 0.000000e+00 0.000000e+00 0.000000e+00 0.000000e+00 0.000000e+00
3.042594e+08 -5.718231e-03 -2.068806e-02 0.000000e+00 0.000000e+00 0.000000e+00 0.000000e+00 0.000000e+00 0.000000e+00
3.044772e+08 -5.821228e-03 -2.058983e-02 0.000000e+00 0.000000e+00 0.000000e+00 0.000000e+00 0.000000e+00 0.000000e+00
3.046950e+08 -5.908966e-03 -2.059460e-02 0.000000e+00 0.000000e+00 0.000000e+00 0.000000e+00 0.000000e+00 0.000000e+00
3.049128e+08 -6.090164e-03 -2.049923e-02 0.000000e+00 0.000000e+00 0.000000e+00 0.000000e+00 0.000000e+00 0.000000e+00
3.051306e+08 -6.159782e-03 -2.049255e-02 0.000000e+00 0.000000e+00 0.000000e+00 0.000000e+00 0.000000e+00 0.000000e+00
3.053484e+08 -6.234169e-03 -2.041435e-02 0.000000e+00 0.000000e+00 0.000000e+00 0.000000e+00 0.000000e+00 0.000000e+00
3.055662e+08 -6.383896e-03 -2.038288e-02 0.000000e+00 0.000000e+00 0.000000e+00 0.000000e+00 0.000000e+00 0.000000e+00
3.057841e+08 -6.389618e-03 -2.033997e-02 0.000000e+00 0.000000e+00 0.000000e+00 0.000000e+00 0.000000e+00 0.000000e+00
3.060019e+08 -6.498337e-03 -2.022266e-02 0.000000e+00 0.000000e+00 0.000000e+00 0.000000e+00 0.000000e+00 0.000000e+00
3.062197e+08 -6.673813e-03 -2.021313e-02 0.000000e+00 0.000000e+00 0.000000e+00 0.000000e+00 0.000000e+00 0.000000e+00
3.064375e+08 -6.794930e-03 -2.019787e-02 0.000000e+00 0.000000e+00 0.000000e+00 0.000000e+00 0.000000e+00 0.000000e+00
3.066553e+08 -6.818771e-03 -2.014637e-02 0.000000e+00 0.000000e+00 0.000000e+00 0.000000e+00 0.000000e+00 0.000000e+00
3.068731e+08 -6.967545e-03 -2.005386e-02 0.000000e+00 0.000000e+00 0.000000e+00 0.000000e+00 0.000000e+00 0.000000e+00
3.070909e+08 -7.033348e-03 -2.004147e-02 0.000000e+00 0.000000e+00 0.000000e+00 0.000000e+00 0.000000e+00 0.000000e+00
3.073088e+08 -7.104874e-03 -1.997948e-02 0.000000e+00 0.000000e+00 0.000000e+00 0.000000e+00 0.000000e+00 0.000000e+00
3.075266e+08 -7.237434e-03 -1.990795e-02 0.000000e+00 0.000000e+00 0.000000e+00 0.000000e+00 0.000000e+00 0.000000e+00
3.077444e+08 -7.365227e-03 -1.990700e-02 0.000000e+00 0.000000e+00 0.000000e+00 0.000000e+00 0.000000e+00 0.000000e+00
3.079622e+08 -7.476807e-03 -1.984024e-02 0.000000e+00 0.000000e+00 0.000000e+00 0.000000e+00 0.000000e+00 0.000000e+00
3.081800e+08 -7.543564e-03 -1.978111e-02 0.000000e+00 0.000000e+00 0.000000e+00 0.000000e+00 0.000000e+00 0.000000e+00
3.083978e+08 -7.613182e-03 -1.976967e-02 0.000000e+00 0.000000e+00 0.000000e+00 0.000000e+00 0.000000e+00 0.000000e+00
3.086156e+08 -7.755280e-03 -1.969814e-02 0.000000e+00 0.000000e+00 0.000000e+00 0.000000e+00 0.000000e+00 0.000000e+00
3.088334e+08 -7.881165e-03 -1.965427e-02 0.000000e+00 0.000000e+00 0.000000e+00 0.000000e+00 0.000000e+00 0.000000e+00
3.090512e+08 -7.911682e-03 -1.960945e-02 0.000000e+00 0.000000e+00 0.000000e+00 0.000000e+00 0.000000e+00 0.000000e+00
3.092691e+08 -8.055687e-03 -1.953411e-02 0.000000e+00 0.000000e+00 0.000000e+00 0.000000e+00 0.000000e+00 0.000000e+00
3.094869e+08 -8.100510e-03 -1.948738e-02 0.000000e+00 0.000000e+00 0.000000e+00 0.000000e+00 0.000000e+00 0.000000e+00
3.097047e+08 -8.235931e-03 -1.946640e-02 0.000000e+00 0.000000e+00 0.000000e+00 0.000000e+00 0.000000e+00 0.000000e+00
3.099225e+08 -8.323669e-03 -1.937485e-02 0.000000e+00 0.000000e+00 0.000000e+00 0.000000e+00 0.000000e+00 0.000000e+00
3.101403e+08 -8.412361e-03 -1.936245e-02 0.000000e+00 0.000000e+00 0.000000e+00 0.000000e+00 0.000000e+00 0.000000e+00
3.103581e+08 -8.509636e-03 -1.932716e-02 0.000000e+00 0.000000e+00 0.000000e+00 0.000000e+00 0.000000e+00 0.000000e+00
3.105759e+08 -8.602142e-03 -1.929283e-02 0.000000e+00 0.000000e+00 0.000000e+00 0.000000e+00 0.000000e+00 0.000000e+00
3.107938e+08 -8.665085e-03 -1.920891e-02 0.000000e+00 0.000000e+00 0.000000e+00 0.000000e+00 0.000000e+00 0.000000e+00
3.110116e+08 -8.762360e-03 -1.917076e-02 0.000000e+00 0.000000e+00 0.000000e+00 0.000000e+00 0.000000e+00 0.000000e+00
3.112294e+08 -8.855820e-03 -1.915455e-02 0.000000e+00 0.000000e+00 0.000000e+00 0.000000e+00 0.000000e+00 0.000000e+00
3.114472e+08 -9.003639e-03 -1.907063e-02 0.000000e+00 0.000000e+00 0.000000e+00 0.000000e+00 0.000000e+00 0.000000e+00
3.116650e+08 -9.110451e-03 -1.903629e-02 0.000000e+00 0.000000e+00 0.000000e+00 0.000000e+00 0.000000e+00 0.000000e+00
3.118828e+08 -9.187698e-03 -1.895809e-02 0.000000e+00 0.000000e+00 0.000000e+00 0.000000e+00 0.000000e+00 0.000000e+00
3.121006e+08 -9.256363e-03 -1.889038e-02 0.000000e+00 0.000000e+00 0.000000e+00 0.000000e+00 0.000000e+00 0.000000e+00
3.123184e+08 -9.366035e-03 -1.888466e-02 0.000000e+00 0.000000e+00 0.000000e+00 0.000000e+00 0.000000e+00 0.000000e+00
3.125362e+08 -9.443283e-03 -1.884937e-02 0.000000e+00 0.000000e+00 0.000000e+00 0.000000e+00 0.000000e+00 0.000000e+00
3.127541e+08 -9.521484e-03 -1.879215e-02 0.000000e+00 0.000000e+00 0.000000e+00 0.000000e+00 0.000000e+00 0.000000e+00
3.129719e+08 -9.593010e-03 -1.877689e-02 0.000000e+00 0.000000e+00 0.000000e+00 0.000000e+00 0.000000e+00 0.000000e+00
3.131897e+08 -9.729385e-03 -1.870155e-02 0.000000e+00 0.000000e+00 0.000000e+00 0.000000e+00 0.000000e+00 0.000000e+00
3.134075e+08 -9.750366e-03 -1.864719e-02 0.000000e+00 0.000000e+00 0.000000e+00 0.000000e+00 0.000000e+00 0.000000e+00
3.136253e+08 -9.872437e-03 -1.866817e-02 0.000000e+00 0.000000e+00 0.000000e+00 0.000000e+00 0.000000e+00 0.000000e+00
3.138431e+08 -9.963036e-03 -1.858425e-02 0.000000e+00 0.000000e+00 0.000000e+00 0.000000e+00 0.000000e+00 0.000000e+00
3.140609e+08 -1.007938e-02 -1.854992e-02 0.000000e+00 0.000000e+00 0.000000e+00 0.000000e+00 0.000000e+00 0.000000e+00
3.142788e+08 -1.016903e-02 -1.850128e-02 0.000000e+00 0.000000e+00 0.000000e+00 0.000000e+00 0.000000e+00 0.000000e+00
3.144966e+08 -1.023102e-02 -1.847553e-02 0.000000e+00 0.000000e+00 0.000000e+00 0.000000e+00 0.000000e+00 0.000000e+00
3.147144e+08 -1.032829e-02 -1.842403e-02 0.000000e+00 0.000000e+00 0.000000e+00 0.000000e+00 0.000000e+00 0.000000e+00
3.149322e+08 -1.046085e-02 -1.838303e-02 0.000000e+00 0.000000e+00 0.000000e+00 0.000000e+00 0.000000e+00 0.000000e+00
3.151500e+08 -1.053524e-02 -1.835155e-02 0.000000e+00 0.000000e+00 0.000000e+00 0.000000e+00 0.000000e+00 0.000000e+00
3.153678e+08 -1.061153e-02 -1.826668e-02 0.000000e+00 0.000000e+00 0.000000e+00 0.000000e+00 0.000000e+00 0.000000e+00
3.155856e+08 -1.067543e-02 -1.824284e-02 0.000000e+00 0.000000e+00 0.000000e+00 0.000000e+00 0.000000e+00 0.000000e+00
3.158034e+08 -1.075745e-02 -1.821804e-02 0.000000e+00 0.000000e+00 0.000000e+00 0.000000e+00 0.000000e+00 0.000000e+00
3.160212e+08 -1.086712e-02 -1.816845e-02 0.000000e+00 0.000000e+00 0.000000e+00 0.000000e+00 0.000000e+00 0.000000e+00
3.162391e+08 -1.090527e-02 -1.809216e-02 0.000000e+00 0.000000e+00 0.000000e+00 0.000000e+00 0.000000e+00 0.000000e+00
3.164569e+08 -1.103783e-02 -1.803780e-02 0.000000e+00 0.000000e+00 0.000000e+00 0.000000e+00 0.000000e+00 0.000000e+00
3.166747e+08 -1.109314e-02 -1.808071e-02 0.000000e+00 0.000000e+00 0.000000e+00 0.000000e+00 0.000000e+00 0.000000e+00
3.168925e+08 -1.120853e-02 -1.800919e-02 0.000000e+00 0.000000e+00 0.000000e+00 0.000000e+00 0.000000e+00 0.000000e+00
3.171103e+08 -1.128960e-02 -1.798344e-02 0.000000e+00 0.000000e+00 0.000000e+00 0.000000e+00 0.000000e+00 0.000000e+00
3.173281e+08 -1.134872e-02 -1.794052e-02 0.000000e+00 0.000000e+00 0.000000e+00 0.000000e+00 0.000000e+00 0.000000e+00
3.175459e+08 -1.145649e-02 -1.789188e-02 0.000000e+00 0.000000e+00 0.000000e+00 0.000000e+00 0.000000e+00 0.000000e+00
3.177638e+08 -1.149082e-02 -1.785374e-02 0.000000e+00 0.000000e+00 0.000000e+00 0.000000e+00 0.000000e+00 0.000000e+00
3.179816e+08 -1.163960e-02 -1.778698e-02 0.000000e+00 0.000000e+00 0.000000e+00 0.000000e+00 0.000000e+00 0.000000e+00
3.181994e+08 -1.166725e-02 -1.779938e-02 0.000000e+00 0.000000e+00 0.000000e+00 0.000000e+00 0.000000e+00 0.000000e+00
3.184172e+08 -1.179504e-02 -1.772785e-02 0.000000e+00 0.000000e+00 0.000000e+00 0.000000e+00 0.000000e+00 0.000000e+00
3.186350e+08 -1.186848e-02 -1.769447e-02 0.000000e+00 0.000000e+00 0.000000e+00 0.000000e+00 0.000000e+00 0.000000e+00
3.188528e+08 -1.193047e-02 -1.764679e-02 0.000000e+00 0.000000e+00 0.000000e+00 0.000000e+00 0.000000e+00 0.000000e+00
3.190706e+08 -1.207066e-02 -1.761341e-02 0.000000e+00 0.000000e+00 0.000000e+00 0.000000e+00 0.000000e+00 0.000000e+00
3.192884e+08 -1.210117e-02 -1.758289e-02 0.000000e+00 0.000000e+00 0.000000e+00 0.000000e+00 0.000000e+00 0.000000e+00
3.195062e+08 -1.222897e-02 -1.753044e-02 0.000000e+00 0.000000e+00 0.000000e+00 0.000000e+00 0.000000e+00 0.000000e+00
3.197241e+08 -1.221275e-02 -1.750278e-02 0.000000e+00 0.000000e+00 0.000000e+00 0.000000e+00 0.000000e+00 0.000000e+00
3.199419e+08 -1.235008e-02 -1.750565e-02 0.000000e+00 0.000000e+00 0.000000e+00 0.000000e+00 0.000000e+00 0.000000e+00
3.201597e+08 -1.246452e-02 -1.744270e-02 0.000000e+00 0.000000e+00 0.000000e+00 0.000000e+00 0.000000e+00 0.000000e+00
3.203775e+08 -1.251984e-02 -1.743984e-02 0.000000e+00 0.000000e+00 0.000000e+00 0.000000e+00 0.000000e+00 0.000000e+00
3.205953e+08 -1.255417e-02 -1.737309e-02 0.000000e+00 0.000000e+00 0.000000e+00 0.000000e+00 0.000000e+00 0.000000e+00
3.208131e+08 -1.263237e-02 -1.737213e-02 0.000000e+00 0.000000e+00 0.000000e+00 0.000000e+00 0.000000e+00 0.000000e+00
3.210309e+08 -1.270390e-02 -1.728725e-02 0.000000e+00 0.000000e+00 0.000000e+00 0.000000e+00 0.000000e+00 0.000000e+00
3.212488e+08 -1.280499e-02 -1.727486e-02 0.000000e+00 0.000000e+00 0.000000e+00 0.000000e+00 0.000000e+00 0.000000e+00
3.214666e+08 -1.287842e-02 -1.720524e-02 0.000000e+00 0.000000e+00 0.000000e+00 0.000000e+00 0.000000e+00 0.000000e+00
3.216844e+08 -1.292801e-02 -1.717854e-02 0.000000e+00 0.000000e+00 0.000000e+00 0.000000e+00 0.000000e+00 0.000000e+00
3.219022e+08 -1.306438e-02 -1.718330e-02 0.000000e+00 0.000000e+00 0.000000e+00 0.000000e+00 0.000000e+00 0.000000e+00
3.221200e+08 -1.306248e-02 -1.714039e-02 0.000000e+00 0.000000e+00 0.000000e+00 0.000000e+00 0.000000e+00 0.000000e+00
3.223378e+08 -1.318455e-02 -1.706982e-02 0.000000e+00 0.000000e+00 0.000000e+00 0.000000e+00 0.000000e+00 0.000000e+00
3.225556e+08 -1.327229e-02 -1.708317e-02 0.000000e+00 0.000000e+00 0.000000e+00 0.000000e+00 0.000000e+00 0.000000e+00
3.227734e+08 -1.338863e-02 -1.702404e-02 0.000000e+00 0.000000e+00 0.000000e+00 0.000000e+00 0.000000e+00 0.000000e+00
3.229912e+08 -1.343632e-02 -1.700020e-02 0.000000e+00 0.000000e+00 0.000000e+00 0.000000e+00 0.000000e+00 0.000000e+00
3.232091e+08 -1.351643e-02 -1.700878e-02 0.000000e+00 0.000000e+00 0.000000e+00 0.000000e+00 0.000000e+00 0.000000e+00
3.234269e+08 -1.353455e-02 -1.691723e-02 0.000000e+00 0.000000e+00 0.000000e+00 0.000000e+00 0.000000e+00 0.000000e+00
3.236447e+08 -1.367474e-02 -1.694965e-02 0.000000e+00 0.000000e+00 0.000000e+00 0.000000e+00 0.000000e+00 0.000000e+00
3.238625e+08 -1.365376e-02 -1.690197e-02 0.000000e+00 0.000000e+00 0.000000e+00 0.000000e+00 0.000000e+00 0.000000e+00
3.240803e+08 -1.373672e-02 -1.684475e-02 0.000000e+00 0.000000e+00 0.000000e+00 0.000000e+00 0.000000e+00 0.000000e+00
3.242981e+08 -1.386356e-02 -1.683712e-02 0.000000e+00 0.000000e+00 0.000000e+00 0.000000e+00 0.000000e+00 0.000000e+00
3.245159e+08 -1.393986e-02 -1.680374e-02 0.000000e+00 0.000000e+00 0.000000e+00 0.000000e+00 0.000000e+00 0.000000e+00
3.247338e+08 -1.402664e-02 -1.679611e-02 0.000000e+00 0.000000e+00 0.000000e+00 0.000000e+00 0.000000e+00 0.000000e+00
3.249516e+08 -1.414013e-02 -1.676559e-02 0.000000e+00 0.000000e+00 0.000000e+00 0.000000e+00 0.000000e+00 0.000000e+00
3.251694e+08 -1.412296e-02 -1.669407e-02 0.000000e+00 0.000000e+00 0.000000e+00 0.000000e+00 0.000000e+00 0.000000e+00
3.253872e+08 -1.418400e-02 -1.670647e-02 0.000000e+00 0.000000e+00 0.000000e+00 0.000000e+00 0.000000e+00 0.000000e+00
3.256050e+08 -1.430321e-02 -1.670551e-02 0.000000e+00 0.000000e+00 0.000000e+00 0.000000e+00 0.000000e+00 0.000000e+00
3.258228e+08 -1.433754e-02 -1.665211e-02 0.000000e+00 0.000000e+00 0.000000e+00 0.000000e+00 0.000000e+00 0.000000e+00
3.260406e+08 -1.445675e-02 -1.664162e-02 0.000000e+00 0.000000e+00 0.000000e+00 0.000000e+00 0.000000e+00 0.000000e+00
3.262584e+08 -1.450062e-02 -1.661205e-02 0.000000e+00 0.000000e+00 0.000000e+00 0.000000e+00 0.000000e+00 0.000000e+00
3.264762e+08 -1.458836e-02 -1.656246e-02 0.000000e+00 0.000000e+00 0.000000e+00 0.000000e+00 0.000000e+00 0.000000e+00
3.266941e+08 -1.468372e-02 -1.657486e-02 0.000000e+00 0.000000e+00 0.000000e+00 0.000000e+00 0.000000e+00 0.000000e+00
3.269119e+08 -1.473045e-02 -1.648140e-02 0.000000e+00 0.000000e+00 0.000000e+00 0.000000e+00 0.000000e+00 0.000000e+00
3.271297e+08 -1.481724e-02 -1.654148e-02 0.000000e+00 0.000000e+00 0.000000e+00 0.000000e+00 0.000000e+00 0.000000e+00
3.273475e+08 -1.484299e-02 -1.644802e-02 0.000000e+00 0.000000e+00 0.000000e+00 0.000000e+00 0.000000e+00 0.000000e+00
3.275653e+08 -1.493168e-02 -1.644611e-02 0.000000e+00 0.000000e+00 0.000000e+00 0.000000e+00 0.000000e+00 0.000000e+00
3.277831e+08 -1.500988e-02 -1.640701e-02 0.000000e+00 0.000000e+00 0.000000e+00 0.000000e+00 0.000000e+00 0.000000e+00
3.280009e+08 -1.504612e-02 -1.633549e-02 0.000000e+00 0.000000e+00 0.000000e+00 0.000000e+00 0.000000e+00 0.000000e+00
3.282188e+08 -1.508236e-02 -1.635933e-02 0.000000e+00 0.000000e+00 0.000000e+00 0.000000e+00 0.000000e+00 0.000000e+00
3.284366e+08 -1.523113e-02 -1.630497e-02 0.000000e+00 0.000000e+00 0.000000e+00 0.000000e+00 0.000000e+00 0.000000e+00
3.286544e+08 -1.522255e-02 -1.637745e-02 0.000000e+00 0.000000e+00 0.000000e+00 0.000000e+00 0.000000e+00 0.000000e+00
3.288722e+08 -1.533794e-02 -1.635551e-02 0.000000e+00 0.000000e+00 0.000000e+00 0.000000e+00 0.000000e+00 0.000000e+00
3.290900e+08 -1.539135e-02 -1.628971e-02 0.000000e+00 0.000000e+00 0.000000e+00 0.000000e+00 0.000000e+00 0.000000e+00
3.293078e+08 -1.539898e-02 -1.623249e-02 0.000000e+00 0.000000e+00 0.000000e+00 0.000000e+00 0.000000e+00 0.000000e+00
3.295256e+08 -1.552868e-02 -1.626873e-02 0.000000e+00 0.000000e+00 0.000000e+00 0.000000e+00 0.000000e+00 0.000000e+00
3.297434e+08 -1.559925e-02 -1.624966e-02 0.000000e+00 0.000000e+00 0.000000e+00 0.000000e+00 0.000000e+00 0.000000e+00
3.299612e+08 -1.564598e-02 -1.624203e-02 0.000000e+00 0.000000e+00 0.000000e+00 0.000000e+00 0.000000e+00 0.000000e+00
3.301791e+08 -1.566696e-02 -1.618099e-02 0.000000e+00 0.000000e+00 0.000000e+00 0.000000e+00 0.000000e+00 0.000000e+00
3.303969e+08 -1.577663e-02 -1.620770e-02 0.000000e+00 0.000000e+00 0.000000e+00 0.000000e+00 0.000000e+00 0.000000e+00
3.306147e+08 -1.582527e-02 -1.617813e-02 0.000000e+00 0.000000e+00 0.000000e+00 0.000000e+00 0.000000e+00 0.000000e+00
3.308325e+08 -1.591492e-02 -1.619816e-02 0.000000e+00 0.000000e+00 0.000000e+00 0.000000e+00 0.000000e+00 0.000000e+00
3.310503e+08 -1.595497e-02 -1.613998e-02 0.000000e+00 0.000000e+00 0.000000e+00 0.000000e+00 0.000000e+00 0.000000e+00
3.312681e+08 -1.607132e-02 -1.609325e-02 0.000000e+00 0.000000e+00 0.000000e+00 0.000000e+00 0.000000e+00 0.000000e+00
3.314859e+08 -1.612282e-02 -1.612568e-02 0.000000e+00 0.000000e+00 0.000000e+00 0.000000e+00 0.000000e+00 0.000000e+00
3.317038e+08 -1.612568e-02 -1.609230e-02 0.000000e+00 0.000000e+00 0.000000e+00 0.000000e+00 0.000000e+00 0.000000e+00
3.319216e+08 -1.617241e-02 -1.607513e-02 0.000000e+00 0.000000e+00 0.000000e+00 0.000000e+00 0.000000e+00 0.000000e+00
3.321394e+08 -1.633835e-02 -1.607704e-02 0.000000e+00 0.000000e+00 0.000000e+00 0.000000e+00 0.000000e+00 0.000000e+00
3.323572e+08 -1.638508e-02 -1.607513e-02 0.000000e+00 0.000000e+00 0.000000e+00 0.000000e+00 0.000000e+00 0.000000e+00
3.325750e+08 -1.638412e-02 -1.605606e-02 0.000000e+00 0.000000e+00 0.000000e+00 0.000000e+00 0.000000e+00 0.000000e+00
3.327928e+08 -1.648045e-02 -1.601315e-02 0.000000e+00 0.000000e+00 0.000000e+00 0.000000e+00 0.000000e+00 0.000000e+00
3.330106e+08 -1.649857e-02 -1.601505e-02 0.000000e+00 0.000000e+00 0.000000e+00 0.000000e+00 0.000000e+00 0.000000e+00
3.332284e+08 -1.658630e-02 -1.600552e-02 0.000000e+00 0.000000e+00 0.000000e+00 0.000000e+00 0.000000e+00 0.000000e+00
3.334462e+08 -1.666355e-02 -1.600075e-02 0.000000e+00 0.000000e+00 0.000000e+00 0.000000e+00 0.000000e+00 0.000000e+00
3.336641e+08 -1.669979e-02 -1.602936e-02 0.000000e+00 0.000000e+00 0.000000e+00 0.000000e+00 0.000000e+00 0.000000e+00
3.338819e+08 -1.672745e-02 -1.598167e-02 0.000000e+00 0.000000e+00 0.000000e+00 0.000000e+00 0.000000e+00 0.000000e+00
3.340997e+08 -1.685619e-02 -1.603222e-02 0.000000e+00 0.000000e+00 0.000000e+00 0.000000e+00 0.000000e+00 0.000000e+00
3.343175e+08 -1.693153e-02 -1.597023e-02 0.000000e+00 0.000000e+00 0.000000e+00 0.000000e+00 0.000000e+00 0.000000e+00
3.345353e+08 -1.694489e-02 -1.595116e-02 0.000000e+00 0.000000e+00 0.000000e+00 0.000000e+00 0.000000e+00 0.000000e+00
3.347531e+08 -1.702595e-02 -1.593304e-02 0.000000e+00 0.000000e+00 0.000000e+00 0.000000e+00 0.000000e+00 0.000000e+00
3.349709e+08 -1.701355e-02 -1.596737e-02 0.000000e+00 0.000000e+00 0.000000e+00 0.000000e+00 0.000000e+00 0.000000e+00
3.351888e+08 -1.712132e-02 -1.592159e-02 0.000000e+00 0.000000e+00 0.000000e+00 0.000000e+00 0.000000e+00 0.000000e+00
3.354066e+08 -1.718807e-02 -1.590824e-02 0.000000e+00 0.000000e+00 0.000000e+00 0.000000e+00 0.000000e+00 0.000000e+00
3.356244e+08 -1.727581e-02 -1.596546e-02 0.000000e+00 0.000000e+00 0.000000e+00 0.000000e+00 0.000000e+00 0.000000e+00
3.358422e+08 -1.731491e-02 -1.590347e-02 0.000000e+00 0.000000e+00 0.000000e+00 0.000000e+00 0.000000e+00 0.000000e+00
3.360600e+08 -1.734066e-02 -1.595116e-02 0.000000e+00 0.000000e+00 0.000000e+00 0.000000e+00 0.000000e+00 0.000000e+00
3.362778e+08 -1.746273e-02 -1.598454e-02 0.000000e+00 0.000000e+00 0.000000e+00 0.000000e+00 0.000000e+00 0.000000e+00
3.364956e+08 -1.744747e-02 -1.591110e-02 0.000000e+00 0.000000e+00 0.000000e+00 0.000000e+00 0.000000e+00 0.000000e+00
3.367134e+08 -1.752090e-02 -1.591492e-02 0.000000e+00 0.000000e+00 0.000000e+00 0.000000e+00 0.000000e+00 0.000000e+00
3.369312e+08 -1.760006e-02 -1.592827e-02 0.000000e+00 0.000000e+00 0.000000e+00 0.000000e+00 0.000000e+00 0.000000e+00
3.371491e+08 -1.767921e-02 -1.594448e-02 0.000000e+00 0.000000e+00 0.000000e+00 0.000000e+00 0.000000e+00 0.000000e+00
3.373669e+08 -1.772118e-02 -1.594162e-02 0.000000e+00 0.000000e+00 0.000000e+00 0.000000e+00 0.000000e+00 0.000000e+00
3.375847e+08 -1.781178e-02 -1.588726e-02 0.000000e+00 0.000000e+00 0.000000e+00 0.000000e+00 0.000000e+00 0.000000e+00
3.378025e+08 -1.784897e-02 -1.594353e-02 0.000000e+00 0.000000e+00 0.000000e+00 0.000000e+00 0.000000e+00 0.000000e+00
3.380203e+08 -1.783276e-02 -1.592731e-02 0.000000e+00 0.000000e+00 0.000000e+00 0.000000e+00 0.000000e+00 0.000000e+00
3.382381e+08 -1.790524e-02 -1.593494e-02 0.000000e+00 0.000000e+00 0.000000e+00 0.000000e+00 0.000000e+00 0.000000e+00
3.384559e+08 -1.798534e-02 -1.594353e-02 0.000000e+00 0.000000e+00 0.000000e+00 0.000000e+00 0.000000e+00 0.000000e+00
3.386738e+08 -1.805973e-02 -1.595592e-02 0.000000e+00 0.000000e+00 0.000000e+00 0.000000e+00 0.000000e+00 0.000000e+00
3.388916e+08 -1.809025e-02 -1.595974e-02 0.000000e+00 0.000000e+00 0.000000e+00 0.000000e+00 0.000000e+00 0.000000e+00
3.391094e+08 -1.812935e-02 -1.591969e-02 0.000000e+00 0.000000e+00 0.000000e+00 0.000000e+00 0.000000e+00 0.000000e+00
3.393272e+08 -1.820469e-02 -1.593208e-02 0.000000e+00 0.000000e+00 0.000000e+00 0.000000e+00 0.000000e+00 0.000000e+00
3.395450e+08 -1.824665e-02 -1.595020e-02 0.000000e+00 0.000000e+00 0.000000e+00 0.000000e+00 0.000000e+00 0.000000e+00
3.397628e+08 -1.826572e-02 -1.593399e-02 0.000000e+00 0.000000e+00 0.000000e+00 0.000000e+00 0.000000e+00 0.000000e+00
3.399806e+08 -1.836491e-02 -1.599121e-02 0.000000e+00 0.000000e+00 0.000000e+00 0.000000e+00 0.000000e+00 0.000000e+00
3.401984e+08 -1.841831e-02 -1.597404e-02 0.000000e+00 0.000000e+00 0.000000e+00 0.000000e+00 0.000000e+00 0.000000e+00
3.404162e+08 -1.838207e-02 -1.597500e-02 0.000000e+00 0.000000e+00 0.000000e+00 0.000000e+00 0.000000e+00 0.000000e+00
3.406341e+08 -1.847935e-02 -1.602077e-02 0.000000e+00 0.000000e+00 0.000000e+00 0.000000e+00 0.000000e+00 0.000000e+00
3.408519e+08 -1.855087e-02 -1.599407e-02 0.000000e+00 0.000000e+00 0.000000e+00 0.000000e+00 0.000000e+00 0.000000e+00
3.410697e+08 -1.862431e-02 -1.602077e-02 0.000000e+00 0.000000e+00 0.000000e+00 0.000000e+00 0.000000e+00 0.000000e+00
3.412875e+08 -1.867962e-02 -1.602268e-02 0.000000e+00 0.000000e+00 0.000000e+00 0.000000e+00 0.000000e+00 0.000000e+00
3.415053e+08 -1.871967e-02 -1.598740e-02 0.000000e+00 0.000000e+00 0.000000e+00 0.000000e+00 0.000000e+00 0.000000e+00
3.417231e+08 -1.870632e-02 -1.605415e-02 0.000000e+00 0.000000e+00 0.000000e+00 0.000000e+00 0.000000e+00 0.000000e+00
3.419409e+08 -1.882744e-02 -1.603985e-02 0.000000e+00 0.000000e+00 0.000000e+00 0.000000e+00 0.000000e+00 0.000000e+00
3.421588e+08 -1.886463e-02 -1.610184e-02 0.000000e+00 0.000000e+00 0.000000e+00 0.000000e+00 0.000000e+00 0.000000e+00
3.423766e+08 -1.896667e-02 -1.608849e-02 0.000000e+00 0.000000e+00 0.000000e+00 0.000000e+00 0.000000e+00 0.000000e+00
3.425944e+08 -1.893616e-02 -1.608467e-02 0.000000e+00 0.000000e+00 0.000000e+00 0.000000e+00 0.000000e+00 0.000000e+00
3.428122e+08 -1.901913e-02 -1.614571e-02 0.000000e+00 0.000000e+00 0.000000e+00 0.000000e+00 0.000000e+00 0.000000e+00
3.430300e+08 -1.906013e-02 -1.610565e-02 0.000000e+00 0.000000e+00 0.000000e+00 0.000000e+00 0.000000e+00 0.000000e+00
3.432478e+08 -1.911163e-02 -1.613808e-02 0.000000e+00 0.000000e+00 0.000000e+00 0.000000e+00 0.000000e+00 0.000000e+00
3.434656e+08 -1.916599e-02 -1.613235e-02 0.000000e+00 0.000000e+00 0.000000e+00 0.000000e+00 0.000000e+00 0.000000e+00
3.436834e+08 -1.920509e-02 -1.617241e-02 0.000000e+00 0.000000e+00 0.000000e+00 0.000000e+00 0.000000e+00 0.000000e+00
3.439012e+08 -1.923943e-02 -1.616859e-02 0.000000e+00 0.000000e+00 0.000000e+00 0.000000e+00 0.000000e+00 0.000000e+00
3.441191e+08 -1.929569e-02 -1.623821e-02 0.000000e+00 0.000000e+00 0.000000e+00 0.000000e+00 0.000000e+00 0.000000e+00
3.443369e+08 -1.934528e-02 -1.617813e-02 0.000000e+00 0.000000e+00 0.000000e+00 0.000000e+00 0.000000e+00 0.000000e+00
3.445547e+08 -1.937103e-02 -1.625824e-02 0.000000e+00 0.000000e+00 0.000000e+00 0.000000e+00 0.000000e+00 0.000000e+00
3.447725e+08 -1.946163e-02 -1.622677e-02 0.000000e+00 0.000000e+00 0.000000e+00 0.000000e+00 0.000000e+00 0.000000e+00
3.449903e+08 -1.949501e-02 -1.627827e-02 0.000000e+00 0.000000e+00 0.000000e+00 0.000000e+00 0.000000e+00 0.000000e+00
3.452081e+08 -1.957703e-02 -1.629925e-02 0.000000e+00 0.000000e+00 0.000000e+00 0.000000e+00 0.000000e+00 0.000000e+00
3.454259e+08 -1.966381e-02 -1.630688e-02 0.000000e+00 0.000000e+00 0.000000e+00 0.000000e+00 0.000000e+00 0.000000e+00
3.456438e+08 -1.964474e-02 -1.633358e-02 0.000000e+00 0.000000e+00 0.000000e+00 0.000000e+00 0.000000e+00 0.000000e+00
3.458616e+08 -1.967335e-02 -1.638412e-02 0.000000e+00 0.000000e+00 0.000000e+00 0.000000e+00 0.000000e+00 0.000000e+00
3.460794e+08 -1.973724e-02 -1.639748e-02 0.000000e+00 0.000000e+00 0.000000e+00 0.000000e+00 0.000000e+00 0.000000e+00
3.462972e+08 -1.982594e-02 -1.642513e-02 0.000000e+00 0.000000e+00 0.000000e+00 0.000000e+00 0.000000e+00 0.000000e+00
3.465150e+08 -1.985741e-02 -1.642418e-02 0.000000e+00 0.000000e+00 0.000000e+00 0.000000e+00 0.000000e+00 0.000000e+00
3.467328e+08 -1.990509e-02 -1.644039e-02 0.000000e+00 0.000000e+00 0.000000e+00 0.000000e+00 0.000000e+00 0.000000e+00
3.469506e+08 -1.995754e-02 -1.651192e-02 0.000000e+00 0.000000e+00 0.000000e+00 0.000000e+00 0.000000e+00 0.000000e+00
3.471684e+08 -1.998234e-02 -1.654625e-02 0.000000e+00 0.000000e+00 0.000000e+00 0.000000e+00 0.000000e+00 0.000000e+00
3.473862e+08 -2.006245e-02 -1.654053e-02 0.000000e+00 0.000000e+00 0.000000e+00 0.000000e+00 0.000000e+00 0.000000e+00
3.476041e+08 -2.013588e-02 -1.656532e-02 0.000000e+00 0.000000e+00 0.000000e+00 0.000000e+00 0.000000e+00 0.000000e+00
3.478219e+08 -2.017212e-02 -1.657200e-02 0.000000e+00 0.000000e+00 0.000000e+00 0.000000e+00 0.000000e+00 0.000000e+00
3.480397e+08 -2.021885e-02 -1.662540e-02 0.000000e+00 0.000000e+00 0.000000e+00 0.000000e+00 0.000000e+00 0.000000e+00
3.482575e+08 -2.020264e-02 -1.663876e-02 0.000000e+00 0.000000e+00 0.000000e+00 0.000000e+00 0.000000e+00 0.000000e+00
3.484753e+08 -2.025509e-02 -1.663685e-02 0.000000e+00 0.000000e+00 0.000000e+00 0.000000e+00 0.000000e+00 0.000000e+00
3.486931e+08 -2.032280e-02 -1.667786e-02 0.000000e+00 0.000000e+00 0.000000e+00 0.000000e+00 0.000000e+00 0.000000e+00
3.489109e+08 -2.039242e-02 -1.671982e-02 0.000000e+00 0.000000e+00 0.000000e+00 0.000000e+00 0.000000e+00 0.000000e+00
3.491288e+08 -2.040386e-02 -1.677322e-02 0.000000e+00 0.000000e+00 0.000000e+00 0.000000e+00 0.000000e+00 0.000000e+00
3.493466e+08 -2.047348e-02 -1.680374e-02 0.000000e+00 0.000000e+00 0.000000e+00 0.000000e+00 0.000000e+00 0.000000e+00
3.495644e+08 -2.052689e-02 -1.679993e-02 0.000000e+00 0.000000e+00 0.000000e+00 0.000000e+00 0.000000e+00 0.000000e+00
3.497822e+08 -2.058506e-02 -1.685429e-02 0.000000e+00 0.000000e+00 0.000000e+00 0.000000e+00 0.000000e+00 0.000000e+00
3.500000e+08 -2.059269e-02 -1.694679e-02 0.000000e+00 0.000000e+00 0.000000e+00 0.000000e+00 0.000000e+00 0.000000e+00
