# Hz S RI R 50
! RAW DATA - UNCALIBRATED
1.500000e+06 9.768677e-01 -1.470947e-02 6.753951e-06 -1.567695e-05 2.424698e-06 -8.111820e-06 9.761353e-01 -2.087402e-02
1.717812e+06 9.772949e-01 -1.605225e-02 6.742775e-06 -1.044665e-05 -1.774821e-05 3.920868e-06 9.730225e-01 -1.940918e-02
1.935625e+06 9.768677e-01 -1.342773e-02 1.042150e-06 7.642433e-06 1.696683e-05 -2.684072e-06 9.752808e-01 -1.757812e-02
2.153438e+06 9.768677e-01 -1.153564e-02 7.316936e-06 2.592802e-06 5.238922e-06 -2.741814e-06 9.762573e-01 -1.318359e-02
2.371250e+06 9.761963e-01 -9.887695e-03 -2.716668e-06 -1.957919e-05 -7.212628e-06 -9.485520e-06 9.756470e-01 -8.239746e-03
2.589062e+06 9.771118e-01 -6.347656e-03 -7.810071e-06 -3.678724e-07 -1.525786e-05 -2.693385e-06 9.753418e-01 -6.286621e-03
2.806875e+06 9.771118e-01 -2.807617e-03 1.654029e-06 -2.551824e-05 -1.338962e-05 1.127273e-05 9.771118e-01 -2.075195e-03
3.024688e+06 9.774170e-01 -5.493164e-04 1.563691e-06 -1.044106e-05 5.353242e-06 -2.560578e-05 9.774170e-01 1.464844e-03
3.242500e+06 9.771729e-01 4.638672e-03 -1.332071e-05 1.155864e-05 -6.677117e-06 -9.756535e-06 9.766846e-01 5.737305e-03
3.460312e+06 9.745483e-01 3.723145e-03 -1.377985e-05 -1.238566e-05 1.290999e-05 -1.592189e-05 9.792480e-01 1.348877e-02
3.678125e+06 9.750977e-01 3.295898e-03 -2.130680e-05 4.902482e-06 5.387701e-07 -1.328881e-06 9.797974e-01 1.373291e-02
3.895938e+06 9.745483e-01 3.173828e-03 1.458265e-05 -1.525506e-05 2.756715e-06 8.298084e-07 9.802246e-01 1.312256e-02
4.113750e+06 9.724121e-01 3.479004e-03 -5.105045e-06 4.705042e-06 4.874310e-06 5.293638e-06 9.791870e-01 1.434326e-02
4.331562e+06 9.722290e-01 2.807617e-03 6.604940e-06 -1.274515e-05 1.690350e-06 1.460593e-05 9.795532e-01 1.538086e-02
4.549375e+06 9.724121e-01 2.441406e-03 7.301569e-06 1.378357e-05 -1.152884e-05 1.683831e-06 9.790649e-01 1.586914e-02
4.767188e+06 9.711914e-01 3.417969e-03 2.172776e-05 4.349276e-06 -9.699259e-06 -7.551163e-06 9.791870e-01 1.794434e-02
4.985000e+06 9.706421e-01 3.173828e-03 -5.863607e-06 1.276098e-05 -1.574494e-05 -3.971159e-06 9.782104e-01 1.977539e-02
5.202812e+06 9.703979e-01 2.929688e-03 -1.789164e-05 8.721836e-06 1.636334e-06 -1.885090e-05 9.780273e-01 2.087402e-02
5.420625e+06 9.690552e-01 4.150391e-03 9.387266e-06 -8.577947e-06 -2.289657e-06 -5.356269e-06 9.791870e-01 2.166748e-02
5.638438e+06 9.685669e-01 5.004883e-03 -1.057517e-06 6.995630e-06 2.305955e-06 -1.116004e-05 9.795532e-01 2.368164e-02
5.856250e+06 9.688721e-01 5.615234e-03 1.351070e-05 1.144037e-05 -8.004718e-07 9.312760e-06 9.788818e-01 2.587891e-02
6.074062e+06 9.688110e-01 6.103516e-03 -2.413057e-05 2.211891e-05 8.226838e-06 8.698553e-07 9.795532e-01 2.770996e-02
6.291875e+06 9.669800e-01 7.263184e-03 3.759190e-05 1.282617e-05 1.867395e-05 -6.155111e-06 9.798584e-01 2.825928e-02
6.509688e+06 9.675903e-01 7.263184e-03 -6.723218e-06 -1.306646e-05 1.104642e-05 -4.230998e-06 9.808350e-01 3.021240e-02
6.727500e+06 9.656372e-01 8.789062e-03 1.226459e-05 -8.144416e-06 -6.904360e-06 2.481975e-06 9.824219e-01 3.094482e-02
6.945312e+06 9.662476e-01 1.037598e-02 -2.888963e-06 -1.445320e-05 1.363223e-06 -2.607703e-06 9.819336e-01 3.356934e-02
7.163125e+06 9.663696e-01 1.177979e-02 -1.355913e-05 -8.537434e-06 -8.756295e-06 6.000977e-06 9.837036e-01 3.509521e-02
7.380938e+06 9.652710e-01 1.324463e-02 1.717824e-05 5.127862e-06 -7.582828e-06 -1.603644e-05 9.845581e-01 3.601074e-02
7.598750e+06 9.649658e-01 1.354980e-02 1.013558e-05 5.858019e-07 2.552755e-06 -5.516224e-06 9.847412e-01 3.753662e-02
7.816562e+06 9.660034e-01 1.513672e-02 -1.331791e-05 -1.735520e-05 -1.424551e-05 -5.826354e-06 9.856567e-01 3.845215e-02
8.034375e+06 9.656982e-01 1.739502e-02 5.692709e-06 4.411675e-06 2.978602e-06 -2.926216e-06 9.876099e-01 3.973389e-02
8.252188e+06 9.639893e-01 1.696777e-02 6.060116e-06 3.917608e-06 5.538575e-06 -4.874077e-06 9.891968e-01 4.089355e-02
8.470000e+06 9.649048e-01 1.965332e-02 7.014722e-06 -2.080202e-05 1.926906e-06 -6.322749e-06 9.893799e-01 4.071045e-02
8.687812e+06 9.656372e-01 2.069092e-02 1.232512e-05 -1.046993e-05 1.058076e-05 -1.801550e-05 9.910278e-01 4.180908e-02
8.905625e+06 9.659424e-01 2.239990e-02 -1.257937e-05 3.453344e-06 -6.566290e-06 -8.172356e-07 9.911499e-01 4.357910e-02
9.123438e+06 9.660645e-01 2.349854e-02 -1.613237e-05 -2.614781e-05 -1.531653e-05 2.025627e-06 9.924927e-01 4.364014e-02
9.341250e+06 9.666748e-01 2.569580e-02 -1.435075e-05 -2.192333e-06 -1.568813e-06 -5.900394e-06 9.940796e-01 4.467773e-02
9.559062e+06 9.667969e-01 2.624512e-02 1.446903e-05 1.082197e-06 -4.910864e-06 -7.396564e-06 9.942627e-01 4.382324e-02
9.776875e+06 9.667969e-01 2.819824e-02 -1.396984e-07 -1.452956e-05 -1.196191e-05 -5.669892e-06 9.951782e-01 4.443359e-02
9.994688e+06 9.682617e-01 2.911377e-02 -2.987217e-07 -3.619120e-06 1.191534e-05 -8.927658e-06 9.962769e-01 4.504395e-02
1.021250e+07 9.680176e-01 3.033447e-02 3.742054e-06 -2.269447e-05 -6.346498e-06 -1.895707e-06 9.976196e-01 4.583740e-02
1.043031e+07 9.697266e-01 3.265381e-02 -5.359761e-06 8.774921e-06 2.486631e-07 1.156423e-05 9.974365e-01 4.595947e-02
1.064812e+07 9.702148e-01 3.277588e-02 2.229121e-06 6.923918e-06 3.355788e-06 -4.880130e-06 9.982300e-01 4.553223e-02
1.086594e+07 9.704590e-01 3.460693e-02 -9.489711e-06 -3.993511e-06 -1.190789e-05 -5.587935e-09 9.992065e-01 4.730225e-02
1.108375e+07 9.710693e-01 3.570557e-02 1.623295e-05 -8.229166e-06 -1.115259e-05 2.987683e-06 9.998169e-01 4.681396e-02
1.130156e+07 9.721069e-01 3.607178e-02 -5.988738e-10 -1.421085e-10 5.548354e-06 2.063811e-06 1.000366e+00 4.650879e-02
1.151938e+07 9.724731e-01 3.741455e-02 1.582596e-05 1.552142e-05 3.249152e-06 -5.990732e-07 1.000671e+00 4.736328e-02
1.173719e+07 9.737549e-01 3.887939e-02 -3.957376e-05 -2.368167e-05 8.982141e-06 7.843133e-06 1.001770e+00 4.675293e-02
1.195500e+07 9.741211e-01 4.162598e-02 1.041591e-05 2.059713e-05 -9.675045e-06 6.294809e-06 1.001892e+00 4.785156e-02
1.217281e+07 9.755249e-01 4.119873e-02 1.394562e-05 1.175143e-05 -5.735550e-06 -6.078742e-06 1.002075e+00 4.656982e-02
1.239062e+07 9.763184e-01 4.132080e-02 8.404255e-06 -1.194607e-05 -1.778360e-05 -4.293397e-07 1.002197e+00 4.693604e-02
1.260844e+07 9.763794e-01 4.254150e-02 4.847534e-07 -8.156523e-06 6.467570e-06 -6.899703e-06 1.002502e+00 4.724121e-02
1.282625e+07 9.783936e-01 4.345703e-02 6.617513e-06 3.094319e-06 -3.880356e-06 -3.645197e-06 1.002258e+00 4.833984e-02
1.304406e+07 9.792480e-01 4.479980e-02 -1.184084e-05 1.126248e-05 -1.026876e-05 -2.850313e-06 1.001770e+00 4.888916e-02
1.326188e+07 9.799194e-01 4.583740e-02 -2.743863e-05 -1.086667e-05 1.167133e-05 4.551373e-06 1.002502e+00 4.895020e-02
1.347969e+07 9.806519e-01 4.602051e-02 7.160008e-06 2.347492e-05 5.046371e-06 -6.144401e-06 1.001709e+00 4.962158e-02
1.369750e+07 9.822388e-01 4.577637e-02 -1.387484e-05 -1.193210e-05 -1.588371e-06 2.893852e-06 1.003296e+00 4.888916e-02
1.391531e+07 9.829102e-01 4.705811e-02 -6.851740e-06 1.487602e-05 -1.215376e-06 -1.057237e-05 1.002808e+00 4.888916e-02
1.413312e+07 9.835815e-01 4.827881e-02 -1.452491e-05 1.968816e-06 2.867542e-06 -1.363643e-05 1.002075e+00 5.010986e-02
1.435094e+07 9.837036e-01 4.895020e-02 -1.707580e-06 -7.139053e-06 -6.652903e-06 -1.071393e-05 1.002319e+00 5.120850e-02
1.456875e+07 9.853516e-01 4.870605e-02 5.606751e-10 2.663683e-10 -1.159403e-05 -3.749505e-06 1.003418e+00 5.096436e-02
1.478656e+07 9.855347e-01 4.980469e-02 1.293328e-05 1.014490e-05 6.489456e-06 -1.327135e-05 1.002930e+00 5.285645e-02
1.500438e+07 9.857178e-01 4.974365e-02 -1.914334e-06 -3.143912e-06 4.538335e-06 4.798640e-06 1.002991e+00 5.267334e-02
1.522219e+07 9.879150e-01 5.090332e-02 1.032464e-05 1.371838e-06 1.296172e-10 2.144702e-10 1.002380e+00 5.401611e-02
1.544000e+07 9.882202e-01 5.126953e-02 6.233449e-10 1.250555e-11 -1.357589e-05 1.176260e-06 1.003845e+00 5.395508e-02
1.565781e+07 9.891357e-01 5.169678e-02 1.130067e-05 9.507872e-06 -5.859416e-06 -3.076158e-06 1.002808e+00 5.548096e-02
1.587562e+07 9.896851e-01 5.169678e-02 -1.331419e-05 4.377216e-08 -3.783964e-06 -8.553267e-06 1.002869e+00 5.603027e-02
1.609344e+07 9.924927e-01 5.236816e-02 -4.630163e-05 -1.291558e-05 -7.756054e-05 3.959984e-06 1.003845e+00 5.957031e-02
1.631125e+07 9.929810e-01 5.212402e-02 -4.761666e-05 -5.044043e-06 2.919137e-05 -2.214126e-05 1.003235e+00 5.969238e-02
1.652906e+07 9.935303e-01 5.151367e-02 1.247600e-05 -4.375353e-05 -8.321833e-06 -2.095941e-06 1.002625e+00 6.140137e-02
1.674688e+07 9.940796e-01 5.078125e-02 -1.050998e-05 -1.709908e-06 -3.051013e-05 -3.131852e-05 1.002808e+00 6.274414e-02
1.696469e+07 9.943237e-01 5.059814e-02 4.109368e-05 -2.035499e-05 -2.325512e-05 -2.506934e-05 1.003418e+00 6.298828e-02
1.718250e+07 9.958496e-01 5.059814e-02 5.551428e-05 -4.239380e-05 -1.465157e-05 1.113582e-05 1.002991e+00 6.365967e-02
1.740031e+07 9.953003e-01 4.980469e-02 1.684763e-05 2.975762e-05 -4.953146e-05 2.014637e-05 1.002625e+00 6.469727e-02
1.761812e+07 9.958496e-01 5.004883e-02 8.434057e-06 1.490023e-05 -1.781993e-05 2.374873e-05 1.003113e+00 6.616211e-02
1.783594e+07 9.967651e-01 4.962158e-02 -3.972277e-05 -2.269819e-05 -3.601238e-05 -2.242438e-05 1.003540e+00 6.658936e-02
1.805375e+07 9.970703e-01 4.937744e-02 -3.159977e-06 -1.408253e-05 -2.658181e-05 1.117773e-05 1.003662e+00 6.762695e-02
1.827156e+07 9.976807e-01 4.852295e-02 -5.726144e-05 1.791865e-05 -1.191441e-05 -1.191441e-05 1.004089e+00 6.860352e-02
1.848938e+07 9.982910e-01 4.821777e-02 -1.294352e-05 -2.111495e-05 5.990267e-06 2.384558e-05 1.004761e+00 6.915283e-02
1.870719e+07 9.974365e-01 4.760742e-02 -4.376844e-05 1.162291e-06 -4.205853e-06 1.686066e-05 1.005554e+00 7.073975e-02
1.892500e+07 9.983521e-01 4.687500e-02 -8.280389e-06 1.775566e-05 3.479049e-05 4.192814e-06 1.005554e+00 7.086182e-02
1.914281e+07 9.980469e-01 4.748535e-02 -2.257153e-05 4.578382e-06 3.165938e-05 -1.905113e-05 1.006287e+00 7.269287e-02
1.936062e+07 9.980469e-01 4.620361e-02 -1.555961e-05 -5.215406e-06 -8.046627e-06 4.440174e-05 1.006531e+00 7.336426e-02
1.957844e+07 9.996338e-01 4.614258e-02 1.514703e-05 7.881783e-06 -3.984571e-05 3.580004e-06 1.007019e+00 7.403564e-02
1.979625e+07 9.987793e-01 4.650879e-02 -1.582131e-05 -3.807433e-05 1.021381e-05 -1.697429e-05 1.007263e+00 7.495117e-02
2.001406e+07 9.985962e-01 4.583740e-02 -1.449697e-05 2.235733e-05 2.298690e-05 1.621246e-05 1.008118e+00 7.507324e-02
2.023188e+07 9.987793e-01 4.608154e-02 -1.196750e-05 6.333925e-06 -1.910143e-05 4.289672e-06 1.008606e+00 7.623291e-02
2.044969e+07 9.986572e-01 4.553223e-02 1.506507e-05 4.358962e-05 -7.388182e-06 1.773983e-05 1.010132e+00 7.666016e-02
2.066750e+07 9.992676e-01 4.541016e-02 -2.829358e-06 -1.693051e-05 -2.380461e-06 3.403984e-05 1.010193e+00 7.672119e-02
2.088531e+07 1.000427e+00 4.492188e-02 3.348663e-05 -2.982095e-06 1.121312e-06 1.989491e-05 1.010803e+00 7.788086e-02
2.110312e+07 9.987183e-01 4.437256e-02 4.567951e-05 -4.517287e-05 1.524482e-05 -1.285691e-05 1.012268e+00 7.836914e-02
2.132094e+07 9.989014e-01 4.467773e-02 3.396533e-05 -5.688518e-06 1.635775e-05 -5.045906e-06 1.012512e+00 7.940674e-02
2.153875e+07 9.984131e-01 4.461670e-02 1.204014e-05 -6.392598e-06 -4.503876e-06 3.068708e-05 1.013367e+00 7.928467e-02
2.175656e+07 9.981689e-01 4.467773e-02 -5.058944e-06 3.236718e-05 4.823133e-05 1.334772e-05 1.014404e+00 8.007812e-02
2.197438e+07 9.981689e-01 4.461670e-02 -2.911873e-05 9.277835e-06 -3.685057e-05 -1.055747e-05 1.015015e+00 8.081055e-02
2.219219e+07 9.988403e-01 4.455566e-02 -9.620562e-06 2.617575e-05 -3.759377e-05 -7.705763e-06 1.015808e+00 8.074951e-02
2.241000e+07 9.979248e-01 4.479980e-02 -3.790669e-05 -5.882233e-06 2.538413e-05 -4.423782e-06 1.017151e+00 8.056641e-02
2.262781e+07 9.973145e-01 4.473877e-02 5.900860e-06 -3.792346e-05 -4.213862e-05 -3.921241e-05 1.017395e+00 8.172607e-02
2.284562e+07 9.971924e-01 4.547119e-02 8.329749e-06 1.796056e-05 5.630776e-05 6.143004e-06 1.018372e+00 8.154297e-02
2.306344e+07 9.975586e-01 4.516602e-02 2.088398e-05 8.800998e-06 1.431536e-05 -8.698553e-06 1.019897e+00 8.148193e-02
2.328125e+07 9.973755e-01 4.541016e-02 -1.673959e-05 3.637373e-05 3.496930e-05 1.920946e-05 1.020386e+00 8.111572e-02
2.349906e+07 9.979248e-01 4.467773e-02 4.186761e-06 8.998904e-06 2.570450e-06 -4.823878e-05 1.021057e+00 8.148193e-02
2.371688e+07 9.981079e-01 4.595947e-02 3.225543e-05 7.746741e-06 2.492033e-05 1.065060e-05 1.021301e+00 8.154297e-02
2.393469e+07 9.981689e-01 4.614258e-02 -2.920628e-06 1.908280e-05 -9.899959e-06 -2.229400e-05 1.022766e+00 8.142090e-02
2.415250e+07 9.973755e-01 4.669189e-02 3.695674e-05 -2.226979e-05 1.488253e-06 6.486196e-06 1.023926e+00 8.184814e-02
2.437031e+07 9.972534e-01 4.602051e-02 1.715496e-06 2.542324e-05 1.639128e-05 -8.041039e-05 1.024414e+00 8.111572e-02
2.458812e+07 9.970093e-01 4.699707e-02 3.324077e-05 2.274290e-06 2.863258e-05 8.461997e-06 1.024536e+00 8.154297e-02
2.480594e+07 9.970703e-01 4.681396e-02 -3.834069e-05 -5.833805e-06 -1.846161e-05 1.331791e-07 1.025879e+00 8.117676e-02
2.502375e+07 9.971924e-01 4.772949e-02 1.774170e-05 3.070571e-05 9.519979e-06 1.151487e-05 1.025269e+00 8.129883e-02
2.524156e+07 9.976196e-01 4.742432e-02 -4.015863e-05 -3.137812e-05 2.343766e-05 3.027543e-05 1.027527e+00 8.154297e-02
2.545938e+07 9.976196e-01 4.711914e-02 -7.155351e-06 1.013931e-05 -9.844080e-06 4.073977e-05 1.026489e+00 8.142090e-02
2.567719e+07 9.973145e-01 4.754639e-02 -4.443899e-05 -4.043430e-05 -2.805144e-05 -4.991516e-05 1.027527e+00 8.135986e-02
2.589500e+07 9.976807e-01 4.809570e-02 -1.523830e-05 -1.074467e-05 -1.163688e-06 -7.992610e-06 1.028076e+00 8.154297e-02
2.611281e+07 9.982300e-01 4.840088e-02 4.187599e-05 -1.618266e-05 -9.450596e-06 8.097850e-07 1.029480e+00 8.142090e-02
2.633062e+07 9.989014e-01 4.882812e-02 -2.338924e-05 -3.169477e-05 -3.563426e-05 -3.172457e-05 1.029358e+00 8.111572e-02
2.654844e+07 9.987183e-01 4.956055e-02 6.619841e-06 -4.409626e-05 -1.518056e-06 -6.549526e-06 1.029968e+00 8.032227e-02
2.676625e+07 9.984741e-01 4.937744e-02 3.791456e-10 -2.802949e-10 -1.417473e-06 -3.281422e-05 1.030884e+00 8.032227e-02
2.698406e+07 9.989014e-01 4.956055e-02 -1.478195e-05 2.322160e-05 -4.503876e-05 -6.128103e-06 1.031799e+00 7.983398e-02
2.720188e+07 9.995117e-01 5.029297e-02 -4.328787e-05 2.465397e-05 -9.246171e-06 2.569333e-05 1.032471e+00 7.946777e-02
2.741969e+07 9.995728e-01 4.980469e-02 2.380833e-05 -7.769093e-06 -3.432110e-05 -2.530217e-05 1.032898e+00 7.897949e-02
2.763750e+07 1.000549e+00 5.023193e-02 -8.022413e-06 1.580734e-05 2.219155e-05 -1.489557e-05 1.033691e+00 7.922363e-02
2.785531e+07 1.000244e+00 5.047607e-02 7.198192e-06 -1.027063e-05 -3.626570e-05 8.476898e-06 1.033447e+00 7.879639e-02
2.807312e+07 1.000977e+00 5.017090e-02 -1.152698e-05 1.120381e-06 -2.582930e-05 -9.253621e-06 1.034363e+00 7.891846e-02
2.829094e+07 1.001282e+00 5.114746e-02 -4.221871e-05 1.648813e-05 -6.247777e-06 7.310882e-08 1.035034e+00 7.727051e-02
2.850875e+07 1.000793e+00 5.053711e-02 -3.293157e-06 2.225488e-05 -8.825958e-05 -4.898757e-05 1.034912e+00 7.775879e-02
2.872656e+07 1.003052e+00 5.090332e-02 2.329424e-05 -4.212186e-05 -2.702698e-05 2.169795e-05 1.035522e+00 7.696533e-02
2.894438e+07 1.003418e+00 5.078125e-02 -2.067909e-05 -1.443923e-05 -4.028343e-05 2.484396e-05 1.036316e+00 7.678223e-02
2.916219e+07 1.004028e+00 5.059814e-02 -1.905859e-05 -2.562441e-05 6.341562e-05 2.283230e-05 1.036438e+00 7.604980e-02
2.938000e+07 1.003784e+00 5.102539e-02 4.743040e-05 2.691150e-05 -1.482666e-05 -3.510155e-06 1.036865e+00 7.513428e-02
2.959781e+07 1.003906e+00 5.023193e-02 -6.823801e-06 7.568393e-06 -2.742000e-05 -3.349036e-06 1.037048e+00 7.507324e-02
2.981562e+07 1.004333e+00 5.114746e-02 4.603714e-05 -1.862645e-06 -1.083268e-05 -7.261056e-06 1.037781e+00 7.452393e-02
3.003344e+07 1.005798e+00 5.072021e-02 -1.325551e-05 1.237821e-05 -1.050439e-05 1.792237e-05 1.037781e+00 7.427979e-02
3.025125e+07 1.005432e+00 5.090332e-02 -1.764856e-05 3.162771e-06 -8.800998e-07 -9.634998e-06 1.038269e+00 7.360840e-02
3.046906e+07 1.004822e+00 5.181885e-02 -2.368726e-05 5.148351e-06 9.648502e-06 2.584606e-05 1.038147e+00 7.379150e-02
3.068688e+07 1.007263e+00 5.065918e-02 4.893914e-05 1.856685e-05 -1.456961e-05 -4.992820e-06 1.038269e+00 7.287598e-02
3.090469e+07 1.007812e+00 5.102539e-02 2.846122e-05 4.141405e-05 4.374608e-05 -1.180917e-05 1.038147e+00 7.214355e-02
3.112250e+07 1.008423e+00 5.230713e-02 1.648720e-05 4.273839e-06 2.332777e-05 -2.838112e-05 1.038879e+00 7.244873e-02
3.134031e+07 1.007996e+00 5.041504e-02 4.592352e-06 1.166109e-05 1.109578e-05 -3.784150e-05 1.039185e+00 7.232666e-02
3.155812e+07 1.008545e+00 5.200195e-02 -1.493841e-06 1.675356e-05 4.025549e-05 -9.085983e-06 1.038635e+00 7.238770e-02
3.177594e+07 1.008667e+00 5.157471e-02 -3.602169e-05 2.496131e-05 -3.360212e-05 -1.084805e-05 1.038940e+00 7.238770e-02
3.199375e+07 1.009399e+00 5.279541e-02 -3.180280e-05 -2.256781e-05 -1.908280e-05 -3.438443e-06 1.038696e+00 7.220459e-02
3.221156e+07 1.009460e+00 5.310059e-02 -1.830701e-05 1.529139e-05 1.311302e-05 -3.419816e-06 1.039734e+00 7.238770e-02
3.242938e+07 1.009888e+00 5.322266e-02 -8.849427e-06 3.592484e-05 -9.141862e-06 7.978175e-06 1.039307e+00 7.159424e-02
3.264719e+07 1.009766e+00 5.303955e-02 -1.750886e-06 1.961458e-05 -5.961210e-05 -8.367002e-06 1.039307e+00 7.189941e-02
3.286500e+07 1.009338e+00 5.224609e-02 1.968071e-05 3.283657e-05 1.503527e-05 -4.738197e-05 1.038757e+00 7.153320e-02
3.308281e+07 1.010193e+00 5.279541e-02 4.853122e-06 8.927193e-06 2.713874e-06 7.721130e-06 1.039673e+00 7.159424e-02
3.330062e+07 1.010620e+00 5.267334e-02 4.356727e-06 1.454633e-05 -2.961233e-05 -2.463348e-05 1.039001e+00 7.135010e-02
3.351844e+07 1.010986e+00 5.310059e-02 -1.425669e-05 3.271550e-05 1.633633e-05 -1.829769e-05 1.038696e+00 7.116699e-02
3.373625e+07 1.011169e+00 5.322266e-02 -8.957461e-06 -2.628379e-05 -4.109927e-05 1.772866e-05 1.037598e+00 7.135010e-02
3.395406e+07 1.011902e+00 5.352783e-02 4.752725e-05 -2.408028e-05 -5.825423e-07 8.595176e-06 1.038513e+00 7.080078e-02
3.417188e+07 1.010925e+00 5.285645e-02 4.428625e-05 1.249835e-05 -6.730668e-06 -1.233816e-05 1.038391e+00 7.073975e-02
3.438969e+07 1.011108e+00 5.310059e-02 9.700656e-06 -4.455075e-05 -3.631599e-05 9.441748e-06 1.037964e+00 7.067871e-02
3.460750e+07 1.011414e+00 5.303955e-02 4.459918e-05 9.696931e-06 6.651506e-06 -3.417023e-05 1.038086e+00 7.031250e-02
3.482531e+07 1.011719e+00 5.224609e-02 1.015142e-06 -1.128204e-05 -5.127490e-05 6.217510e-06 1.038391e+00 7.043457e-02
3.504312e+07 1.012329e+00 5.291748e-02 1.873448e-05 -1.820829e-05 -1.080520e-05 1.550652e-05 1.037659e+00 7.067871e-02
3.526094e+07 1.012207e+00 5.310059e-02 -1.489557e-05 -2.411194e-05 -1.492538e-05 -3.568828e-05 1.037109e+00 7.031250e-02
3.547875e+07 1.012268e+00 5.303955e-02 -7.431023e-06 1.927186e-05 -3.825314e-05 -1.126528e-05 1.037659e+00 6.909180e-02
3.569656e+07 1.011536e+00 5.358887e-02 7.690862e-06 -2.210960e-05 1.934357e-05 -2.907775e-05 1.037170e+00 6.921387e-02
3.591438e+07 1.012085e+00 5.322266e-02 1.234189e-05 -1.029205e-05 -2.899673e-06 1.065712e-05 1.036865e+00 6.982422e-02
3.613219e+07 1.012573e+00 5.291748e-02 -1.931190e-05 2.393499e-05 -2.093520e-05 4.012138e-06 1.037231e+00 7.025146e-02
3.635000e+07 1.012085e+00 5.236816e-02 -1.801923e-05 9.772368e-06 -6.158836e-06 -2.106745e-05 1.036072e+00 6.964111e-02
3.656781e+07 1.012085e+00 5.206299e-02 5.546212e-05 -4.357100e-05 -6.816536e-05 1.053885e-05 1.037476e+00 7.000732e-02
3.678562e+07 1.012085e+00 5.273438e-02 4.178286e-05 -1.908094e-05 -4.099496e-05 4.183128e-05 1.036133e+00 6.982422e-02
3.700344e+07 1.012207e+00 5.334473e-02 -2.322905e-05 3.600493e-06 -4.328042e-05 1.122616e-05 1.036133e+00 6.951904e-02
3.722125e+07 1.012085e+00 5.255127e-02 -1.780782e-05 6.947666e-06 2.318621e-05 -2.020039e-05 1.034729e+00 6.982422e-02
3.743906e+07 1.012451e+00 5.255127e-02 5.415641e-06 3.359746e-06 -3.012829e-07 4.340662e-06 1.033875e+00 6.951904e-02
3.765688e+07 1.012207e+00 5.212402e-02 -6.847456e-05 -3.416091e-06 -9.983778e-07 4.579127e-05 1.033997e+00 6.939697e-02
3.787469e+07 1.012146e+00 5.285645e-02 -4.110858e-05 1.056865e-05 -2.042111e-05 -4.682690e-06 1.033325e+00 6.951904e-02
3.809250e+07 1.012329e+00 5.249023e-02 -3.520027e-05 8.258969e-06 2.386793e-05 1.804158e-05 1.033264e+00 6.872559e-02
3.831031e+07 1.012268e+00 5.169678e-02 -2.119318e-05 -1.915917e-05 -7.583760e-06 1.478847e-05 1.032166e+00 6.878662e-02
3.852812e+07 1.012207e+00 5.157471e-02 -1.527369e-05 -2.151355e-05 3.644638e-05 -5.150214e-06 1.032410e+00 6.860352e-02
3.874594e+07 1.011536e+00 5.187988e-02 8.780509e-06 2.954155e-05 -1.724809e-06 -6.687827e-06 1.031555e+00 6.854248e-02
3.896375e+07 1.011536e+00 5.242920e-02 -3.064238e-05 2.018921e-05 -3.962219e-05 3.448315e-05 1.031616e+00 6.872559e-02
3.918156e+07 1.011108e+00 5.187988e-02 1.167879e-05 -1.799315e-06 -1.997687e-05 1.940038e-05 1.030823e+00 6.860352e-02
3.939938e+07 1.010681e+00 5.133057e-02 -7.828698e-06 2.230704e-05 -2.225861e-06 -3.084727e-05 1.030151e+00 6.909180e-02
3.961719e+07 1.011230e+00 5.126953e-02 7.307157e-06 -1.662783e-05 -2.323836e-05 3.458001e-05 1.030762e+00 6.927490e-02
3.983500e+07 1.010376e+00 5.169678e-02 2.129562e-05 1.927838e-05 2.419204e-05 -5.327165e-07 1.029907e+00 6.903076e-02
4.005281e+07 1.011230e+00 5.096436e-02 1.637172e-05 1.018215e-05 6.407034e-06 2.638437e-06 1.029236e+00 6.890869e-02
4.027062e+07 1.011169e+00 5.114746e-02 -3.857538e-06 -2.057664e-05 1.272094e-05 -9.000301e-06 1.028320e+00 6.933594e-02
4.048844e+07 1.010376e+00 5.133057e-02 -4.116818e-05 7.722527e-06 3.160909e-06 -2.948754e-05 1.028137e+00 6.890869e-02
4.070625e+07 1.009155e+00 5.145264e-02 5.211309e-05 -9.313226e-07 -3.833137e-05 1.271442e-05 1.027466e+00 6.903076e-02
4.092406e+07 1.009766e+00 5.163574e-02 2.106838e-05 2.221949e-05 2.386048e-05 -1.044199e-05 1.027100e+00 6.903076e-02
4.114188e+07 1.009888e+00 5.145264e-02 3.056973e-05 -1.741201e-05 -1.917034e-05 6.355345e-06 1.026001e+00 6.951904e-02
4.135969e+07 1.009644e+00 5.041504e-02 -4.127622e-06 -1.776032e-05 -5.484559e-06 -1.582317e-05 1.025146e+00 6.927490e-02
4.157750e+07 1.007996e+00 5.133057e-02 3.311411e-05 1.757964e-05 -4.566088e-05 -9.823591e-06 1.024658e+00 6.890869e-02
4.179531e+07 1.008362e+00 5.120850e-02 2.218597e-05 1.076423e-05 -1.328439e-05 -1.529325e-05 1.024170e+00 6.903076e-02
4.201312e+07 1.007812e+00 5.078125e-02 -1.241267e-05 -5.341321e-05 -9.814743e-06 -1.802109e-06 1.023987e+00 6.951904e-02
4.223094e+07 1.007690e+00 5.096436e-02 5.314499e-05 -9.529293e-06 -1.229718e-05 3.341027e-05 1.022888e+00 6.982422e-02
4.244875e+07 1.007446e+00 5.096436e-02 -6.025657e-06 2.339017e-06 -3.380934e-06 8.635689e-07 1.021851e+00 6.933594e-02
4.266656e+07 1.007263e+00 5.035400e-02 5.052611e-05 1.923740e-05 -2.060737e-05 9.603798e-06 1.022400e+00 6.958008e-02
4.288438e+07 1.006104e+00 5.133057e-02 -1.622085e-05 -1.316424e-05 -4.656613e-07 3.760681e-05 1.021484e+00 7.025146e-02
4.310219e+07 1.005737e+00 5.102539e-02 7.409602e-06 -1.676753e-05 -5.661510e-06 1.733378e-05 1.020813e+00 7.073975e-02
4.332000e+07 1.004822e+00 5.126953e-02 1.072697e-05 9.744428e-06 -2.725609e-05 4.023127e-05 1.019470e+00 7.061768e-02
4.353781e+07 1.005493e+00 5.078125e-02 5.471520e-07 -5.779322e-06 -1.807697e-06 -2.122018e-05 1.019653e+00 7.128906e-02
4.375562e+07 1.004822e+00 5.102539e-02 2.721325e-06 -2.891012e-05 2.282113e-05 7.163733e-06 1.018677e+00 7.104492e-02
4.397344e+07 1.004456e+00 5.157471e-02 -2.864003e-05 -5.632639e-06 -2.992898e-05 -1.031905e-06 1.017761e+00 7.110596e-02
4.419125e+07 1.003601e+00 5.133057e-02 -1.021475e-05 -1.556054e-05 -8.059666e-06 1.945347e-05 1.017334e+00 7.086182e-02
4.440906e+07 1.003601e+00 5.169678e-02 2.125464e-05 2.247468e-05 1.011696e-05 -1.708418e-05 1.016846e+00 7.141113e-02
4.462688e+07 1.002258e+00 5.133057e-02 7.729977e-06 -1.974963e-05 -1.574494e-05 -1.336727e-05 1.016602e+00 7.208252e-02
4.484469e+07 1.002502e+00 5.212402e-02 3.289059e-05 -3.783777e-05 2.818927e-05 -2.023578e-05 1.015198e+00 7.257080e-02
4.506250e+07 1.001343e+00 5.187988e-02 4.697591e-06 1.215655e-05 -3.712438e-05 1.961738e-05 1.014526e+00 7.232666e-02
4.528031e+07 1.000793e+00 5.157471e-02 -9.947456e-06 -1.853891e-05 -1.410022e-06 -1.126342e-05 1.014099e+00 7.318115e-02
4.549812e+07 1.000122e+00 5.114746e-02 8.579344e-06 3.307126e-05 -1.701061e-05 1.887698e-05 1.013306e+00 7.257080e-02
4.571594e+07 9.996948e-01 5.157471e-02 8.614734e-06 -2.852827e-05 -1.387298e-05 3.697723e-05 1.012573e+00 7.434082e-02
4.593375e+07 9.992676e-01 5.212402e-02 2.494454e-05 -1.522340e-05 7.925555e-07 2.018735e-05 1.011230e+00 7.366943e-02
4.615156e+07 9.989014e-01 5.230713e-02 -1.439080e-05 -3.370829e-05 -1.915917e-05 1.972541e-06 1.011353e+00 7.440186e-02
4.636938e+07 9.987183e-01 5.267334e-02 3.970042e-05 -4.617870e-05 1.284108e-05 3.899261e-05 1.010559e+00 7.409668e-02
4.658719e+07 9.974365e-01 5.255127e-02 1.221523e-05 -4.709698e-06 2.881885e-05 4.325062e-06 1.009216e+00 7.476807e-02
4.680500e+07 9.970703e-01 5.291748e-02 2.165698e-05 1.974404e-05 4.325435e-05 6.489456e-06 1.008667e+00 7.501221e-02
4.702281e+07 9.963989e-01 5.346680e-02 -8.433126e-07 8.753501e-06 2.368353e-05 -1.642853e-06 1.007690e+00 7.537842e-02
4.724062e+07 9.959717e-01 5.340576e-02 -7.528812e-06 1.695752e-05 6.212387e-06 7.185154e-06 1.007385e+00 7.574463e-02
4.745844e+07 9.954224e-01 5.395508e-02 1.921318e-05 -1.582410e-05 -8.339062e-06 -2.420135e-05 1.005554e+00 7.647705e-02
4.767625e+07 9.948730e-01 5.322266e-02 3.313273e-05 2.386235e-05 2.856180e-05 8.836389e-06 1.006470e+00 7.702637e-02
4.789406e+07 9.943848e-01 5.419922e-02 9.724870e-06 2.162345e-05 -8.241739e-06 5.015638e-06 1.005493e+00 7.696533e-02
4.811188e+07 9.930420e-01 5.468750e-02 -1.256261e-05 7.639639e-06 -3.172830e-05 -1.243502e-05 1.004272e+00 7.794189e-02
4.832969e+07 9.932861e-01 5.480957e-02 5.690381e-07 -5.858019e-06 2.168957e-05 -4.030764e-06 1.003540e+00 7.873535e-02
4.854750e+07 9.927368e-01 5.468750e-02 -2.033636e-05 -3.452785e-05 -2.001226e-05 -3.712252e-06 1.003723e+00 7.891846e-02
4.876531e+07 9.916992e-01 5.554199e-02 -1.817290e-05 4.165806e-06 5.308539e-08 1.465529e-05 1.002930e+00 7.934570e-02
4.898312e+07 9.917603e-01 5.517578e-02 9.743497e-06 2.168305e-05 -3.078580e-05 6.094575e-06 1.001892e+00 7.977295e-02
4.920094e+07 9.909668e-01 5.645752e-02 8.171424e-06 -2.291985e-05 5.386770e-06 4.238635e-05 1.000854e+00 8.081055e-02
4.941875e+07 9.902344e-01 5.621338e-02 -2.283603e-06 2.349168e-05 -9.923242e-06 -1.022732e-05 1.000000e+00 8.111572e-02
4.963656e+07 9.895020e-01 5.731201e-02 1.879036e-05 -1.004338e-05 -2.312101e-05 -3.512949e-05 1.000183e+00 8.184814e-02
4.985438e+07 9.890137e-01 5.822754e-02 -1.205038e-05 1.790002e-06 -7.571653e-06 3.114529e-05 9.990845e-01 8.233643e-02
5.007219e+07 9.882202e-01 5.792236e-02 1.177099e-05 1.155771e-06 3.185123e-07 -2.017245e-05 9.980469e-01 8.349609e-02
5.029000e+07 9.879150e-01 5.853271e-02 1.451001e-06 -1.472607e-05 -2.276152e-05 2.151355e-06 9.974976e-01 8.435059e-02
5.050781e+07 9.868164e-01 5.932617e-02 -2.414361e-05 3.583729e-06 -1.735054e-05 1.081545e-05 9.970093e-01 8.428955e-02
5.072562e+07 9.854736e-01 5.908203e-02 3.622100e-05 -5.390495e-06 -4.481990e-07 -3.541587e-06 9.960938e-01 8.416748e-02
5.094344e+07 9.857788e-01 6.018066e-02 -1.856498e-05 7.099472e-06 -4.865229e-06 1.862366e-05 9.951782e-01 8.587646e-02
5.116125e+07 9.856567e-01 6.042480e-02 2.533942e-05 -1.537614e-05 -2.225116e-05 2.948567e-05 9.943848e-01 8.599854e-02
5.137906e+07 9.844360e-01 6.054688e-02 3.658235e-05 -8.301809e-06 -1.301989e-05 2.253987e-05 9.935303e-01 8.703613e-02
5.159688e+07 9.833984e-01 6.195068e-02 1.122523e-05 7.057562e-06 -3.354065e-05 8.519739e-06 9.924316e-01 8.679199e-02
5.181469e+07 9.830322e-01 6.182861e-02 -3.603473e-05 2.376735e-06 9.231269e-06 -6.937422e-06 9.923096e-01 8.874512e-02
5.203250e+07 9.824219e-01 6.140137e-02 -8.529052e-06 2.599880e-05 -1.179986e-05 9.438954e-06 9.909668e-01 8.874512e-02
5.225031e+07 9.821777e-01 6.317139e-02 -6.497838e-06 5.323440e-06 5.330890e-06 -1.511630e-05 9.906616e-01 8.984375e-02
5.246812e+07 9.815674e-01 6.304932e-02 9.132549e-06 -3.193691e-05 -3.068894e-05 -1.420826e-05 9.899902e-01 9.002686e-02
5.268594e+07 9.808350e-01 6.323242e-02 1.599081e-05 1.950748e-05 1.909956e-05 -2.047699e-05 9.888306e-01 9.088135e-02
5.290375e+07 9.797363e-01 6.341553e-02 3.609806e-05 -2.386048e-06 2.482347e-05 1.920387e-06 9.885254e-01 9.173584e-02
5.312156e+07 9.794922e-01 6.427002e-02 -1.065433e-05 -1.301244e-05 -2.378039e-05 -4.962087e-06 9.873047e-01 9.240723e-02
5.333938e+07 9.788208e-01 6.573486e-02 -9.486452e-06 -2.486818e-05 -2.562441e-05 -4.309975e-05 9.870605e-01 9.313965e-02
5.355719e+07 9.783936e-01 6.549072e-02 -1.155585e-05 -4.141591e-06 -6.482005e-06 5.221367e-05 9.860840e-01 9.362793e-02
5.377500e+07 9.770508e-01 6.616211e-02 -3.702566e-05 1.124106e-05 -1.699757e-05 1.444109e-05 9.848022e-01 9.503174e-02
5.399281e+07 9.768677e-01 6.732178e-02 1.303200e-05 -1.066178e-05 1.309253e-05 -2.264977e-05 9.840698e-01 9.545898e-02
5.421062e+07 9.755249e-01 6.738281e-02 1.573004e-05 2.252683e-05 -6.060116e-06 -2.135523e-06 9.843750e-01 9.527588e-02
5.442844e+07 9.754639e-01 6.823730e-02 8.917414e-07 -8.895062e-06 2.792105e-05 3.034249e-06 9.827271e-01 9.716797e-02
5.464625e+07 9.755249e-01 6.890869e-02 -2.374873e-06 2.374686e-05 1.778826e-05 -5.519390e-05 9.832764e-01 9.808350e-02
5.486406e+07 9.741211e-01 6.951904e-02 1.489185e-06 -1.484808e-05 6.515998e-06 5.713198e-06 9.822998e-01 9.875488e-02
5.508188e+07 9.741211e-01 7.037354e-02 -5.338807e-06 -6.533228e-06 3.020465e-05 -3.716350e-05 9.813232e-01 9.942627e-02
5.529969e+07 9.730835e-01 7.122803e-02 -2.226979e-05 -1.723319e-05 1.214910e-05 4.296191e-06 9.806519e-01 1.002808e-01
5.551750e+07 9.721680e-01 7.135010e-02 5.967915e-06 -5.942583e-05 -4.594401e-05 4.261732e-06 9.801636e-01 1.014404e-01
5.573531e+07 9.720459e-01 7.232666e-02 -1.459010e-05 2.554804e-05 5.999580e-06 -2.181530e-05 9.792480e-01 1.018677e-01
5.595312e+07 9.724121e-01 7.379150e-02 2.883561e-05 1.191907e-05 -5.578622e-06 2.542324e-05 9.789429e-01 1.027832e-01
5.617094e+07 9.710083e-01 7.366943e-02 -2.437271e-05 3.535300e-06 3.047660e-05 3.473274e-05 9.774170e-01 1.038818e-01
5.638875e+07 9.700928e-01 7.385254e-02 1.663901e-05 1.369044e-05 -7.419847e-06 -1.288764e-05 9.769287e-01 1.044312e-01
5.660656e+07 9.699707e-01 7.519531e-02 1.965836e-05 -1.603737e-05 -1.641922e-05 3.186800e-05 9.764404e-01 1.060791e-01
5.682438e+07 9.683838e-01 7.556152e-02 -1.824461e-06 1.786649e-05 1.870189e-05 1.003779e-05 9.764404e-01 1.069336e-01
5.704219e+07 9.686279e-01 7.659912e-02 2.977438e-05 3.017485e-06 1.711957e-05 -1.449045e-05 9.749756e-01 1.073608e-01
5.726000e+07 9.677734e-01 7.690430e-02 -5.652662e-06 -3.580004e-06 -4.265457e-06 -4.604459e-05 9.743042e-01 1.082153e-01
5.747781e+07 9.674683e-01 7.818604e-02 -5.352311e-06 -6.564427e-06 2.176501e-05 1.114607e-05 9.740601e-01 1.090088e-01
5.769562e+07 9.669189e-01 7.897949e-02 7.471070e-06 -1.430232e-05 5.969778e-06 3.641099e-05 9.737549e-01 1.096191e-01
5.791344e+07 9.658203e-01 7.952881e-02 4.174188e-05 4.269183e-06 9.587966e-06 6.822869e-06 9.725342e-01 1.113892e-01
5.813125e+07 9.659424e-01 8.013916e-02 -2.660416e-05 2.442114e-05 -3.297813e-06 -1.490489e-05 9.721680e-01 1.116943e-01
5.834906e+07 9.658203e-01 8.129883e-02 -6.270129e-06 2.374407e-06 -1.081266e-06 3.051478e-06 9.714355e-01 1.126099e-01
5.856688e+07 9.646606e-01 8.221436e-02 3.039837e-06 -2.984889e-05 3.052643e-06 1.081964e-06 9.710083e-01 1.134033e-01
5.878469e+07 9.640503e-01 8.251953e-02 6.277114e-06 -2.372079e-06 3.809668e-05 -1.057237e-05 9.699707e-01 1.145630e-01
5.900250e+07 9.638062e-01 8.331299e-02 -3.040768e-07 2.987450e-06 2.685189e-05 1.638941e-05 9.698486e-01 1.148682e-01
5.922031e+07 9.624634e-01 8.404541e-02 1.702830e-05 1.080427e-05 -1.502316e-05 8.429401e-06 9.699707e-01 1.162109e-01
5.943812e+07 9.627075e-01 8.496094e-02 -3.619492e-05 -6.612390e-07 -1.518801e-05 4.282407e-05 9.690552e-01 1.169434e-01
5.965594e+07 9.623413e-01 8.624268e-02 3.080349e-07 -2.989080e-06 -1.086108e-05 3.059953e-05 9.672852e-01 1.190796e-01
5.987375e+07 9.617920e-01 8.746338e-02 -1.795962e-05 -1.849607e-06 -5.507097e-05 -1.959130e-05 9.677124e-01 1.192627e-01
6.009156e+07 9.616089e-01 8.691406e-02 -2.839044e-05 -1.804903e-05 -8.912757e-07 -7.211696e-06 9.668579e-01 1.204834e-01
6.030938e+07 9.609985e-01 8.837891e-02 1.227483e-06 -1.198146e-05 -6.206334e-06 -5.052611e-05 9.665527e-01 1.208496e-01
6.052719e+07 9.598389e-01 8.917236e-02 1.860037e-05 -4.153699e-06 1.448393e-05 2.238713e-05 9.659424e-01 1.223755e-01
6.074500e+07 9.606934e-01 9.039307e-02 2.872758e-05 1.508370e-05 -3.132969e-05 -4.218891e-06 9.653320e-01 1.232910e-01
6.096281e+07 9.595337e-01 9.136963e-02 -1.246110e-06 1.200661e-05 -3.036112e-06 2.310984e-05 9.661865e-01 1.249390e-01
6.118062e+07 9.608765e-01 9.222412e-02 2.898090e-05 -3.183261e-05 -1.013279e-05 4.671887e-05 9.641113e-01 1.263428e-01
6.139844e+07 9.606934e-01 9.240723e-02 6.037578e-05 9.685755e-06 3.376044e-06 -1.883600e-05 9.633789e-01 1.257324e-01
6.161625e+07 9.599609e-01 9.399414e-02 1.219194e-05 1.310278e-05 2.343394e-05 -1.448952e-05 9.636841e-01 1.281738e-01
6.183406e+07 9.595947e-01 9.484863e-02 1.242384e-05 6.763265e-06 -2.674386e-05 3.995374e-06 9.627686e-01 1.279907e-01
6.205188e+07 9.586792e-01 9.570312e-02 1.636147e-05 -3.236532e-05 2.957135e-05 1.199730e-05 9.627686e-01 1.290283e-01
6.226969e+07 9.582520e-01 9.594727e-02 -1.882017e-05 -4.121289e-05 -1.617707e-05 -2.867356e-05 9.617310e-01 1.298218e-01
6.248750e+07 9.591675e-01 9.698486e-02 7.284340e-06 9.138137e-06 -1.810119e-05 -4.595146e-05 9.619751e-01 1.309204e-01
6.270531e+07 9.584961e-01 9.869385e-02 4.151091e-05 -2.517179e-05 -4.179776e-06 -4.857033e-05 9.615479e-01 1.325073e-01
6.292312e+07 9.581909e-01 9.875488e-02 1.266971e-05 4.461035e-07 4.714355e-06 3.327802e-05 9.606323e-01 1.329346e-01
6.314094e+07 9.575195e-01 9.918213e-02 -2.256781e-05 -8.411705e-06 1.910608e-05 1.535565e-05 9.609375e-01 1.337891e-01
6.335875e+07 9.569702e-01 1.000977e-01 1.202524e-05 1.949165e-05 -2.343208e-05 -1.488999e-05 9.609375e-01 1.351929e-01
6.357656e+07 9.565430e-01 1.009521e-01 -2.348423e-05 1.696125e-05 -1.816358e-05 -1.656357e-05 9.606323e-01 1.359253e-01
6.379438e+07 9.567261e-01 1.019897e-01 1.955964e-05 2.230145e-05 2.633035e-05 1.131743e-05 9.602051e-01 1.365967e-01
6.401219e+07 9.567261e-01 1.022949e-01 1.638569e-05 -3.247708e-05 -2.203882e-05 -1.179427e-05 9.594116e-01 1.370239e-01
6.423000e+07 9.562378e-01 1.040039e-01 2.238899e-05 1.477264e-05 -2.299063e-05 -1.061149e-05 9.597778e-01 1.383667e-01
6.444781e+07 9.559326e-01 1.047363e-01 -4.503876e-06 -1.670700e-05 1.144223e-05 3.482215e-05 9.595337e-01 1.395874e-01
6.466562e+07 9.549561e-01 1.055908e-01 1.970679e-06 -5.726144e-05 -1.981854e-06 2.207048e-05 9.597168e-01 1.402588e-01
6.488344e+07 9.538574e-01 1.055908e-01 1.621433e-05 -2.618693e-05 1.533143e-05 1.034141e-05 9.591064e-01 1.416626e-01
6.510125e+07 9.548950e-01 1.077271e-01 -3.493950e-05 -2.161041e-05 -2.264977e-05 2.323464e-05 9.589233e-01 1.422729e-01
6.531906e+07 9.546509e-01 1.071777e-01 -9.220093e-07 2.546422e-05 -5.714595e-06 -6.174296e-05 9.582520e-01 1.443481e-01
6.553688e+07 9.538574e-01 1.091919e-01 1.082104e-05 -1.747627e-05 -1.824833e-05 -6.761402e-06 9.581909e-01 1.446533e-01
6.575469e+07 9.545288e-01 1.094971e-01 -1.726393e-05 -1.719687e-05 -3.466196e-05 1.367927e-05 9.581299e-01 1.453857e-01
6.597250e+07 9.542847e-01 1.101685e-01 -1.060311e-05 1.112092e-05 1.730584e-05 1.782179e-05 9.580078e-01 1.464233e-01
6.619031e+07 9.538574e-01 1.113892e-01 9.234995e-06 2.713501e-05 1.157448e-05 -1.442246e-05 9.570312e-01 1.480713e-01
6.640812e+07 9.535522e-01 1.123047e-01 -2.292916e-05 -2.082437e-06 1.203641e-05 -2.244487e-07 9.577026e-01 1.486206e-01
6.662594e+07 9.537354e-01 1.129761e-01 3.545918e-05 8.884817e-06 3.853440e-05 1.113117e-05 9.567871e-01 1.495361e-01
6.684375e+07 9.540405e-01 1.138916e-01 -1.299288e-05 5.936250e-06 1.493841e-06 -3.641099e-05 9.567871e-01 1.509399e-01
6.706156e+07 9.534302e-01 1.143188e-01 -1.299754e-05 5.936250e-06 -3.657863e-05 -7.286295e-05 9.567261e-01 1.514282e-01
6.727938e+07 9.528809e-01 1.157837e-01 -2.533942e-05 -7.264316e-06 4.579127e-05 1.694262e-05 9.566650e-01 1.518555e-01
6.749719e+07 9.531250e-01 1.164551e-01 1.820549e-05 -8.324161e-06 -1.786929e-05 7.451512e-06 9.567871e-01 1.530762e-01
6.771500e+07 9.527588e-01 1.177979e-01 5.354360e-05 7.010996e-06 -1.978688e-05 -4.284084e-08 9.569702e-01 1.544800e-01
6.793281e+07 9.525146e-01 1.181030e-01 -1.755264e-05 -1.087692e-05 -1.498219e-05 1.373328e-05 9.569702e-01 1.557617e-01
6.815062e+07 9.524536e-01 1.198120e-01 -2.603512e-06 1.192093e-06 3.714487e-05 1.795776e-05 9.564819e-01 1.555176e-01
6.836844e+07 9.530029e-01 1.205444e-01 1.868792e-05 -2.113171e-05 -4.741549e-05 1.947954e-05 9.561768e-01 1.576538e-01
6.858625e+07 9.530029e-01 1.209717e-01 4.104525e-05 1.303852e-07 1.404434e-05 -1.255795e-05 9.560547e-01 1.578979e-01
6.880406e+07 9.522705e-01 1.213989e-01 -3.626384e-05 1.031533e-05 -1.395494e-05 -6.671250e-05 9.556885e-01 1.580811e-01
6.902188e+07 9.526367e-01 1.227417e-01 1.088437e-05 -1.759455e-05 1.417473e-06 2.297014e-05 9.561157e-01 1.605225e-01
6.923969e+07 9.525757e-01 1.234131e-01 4.392490e-05 -7.461756e-06 3.875466e-06 -4.836824e-06 9.559937e-01 1.608887e-01
6.945750e+07 9.526978e-01 1.251221e-01 3.058463e-06 -1.404062e-05 5.662441e-07 -5.518645e-05 9.569702e-01 1.625366e-01
6.967531e+07 9.523926e-01 1.256714e-01 1.168810e-05 3.255345e-05 1.114607e-05 -8.946285e-06 9.558716e-01 1.640015e-01
6.989312e+07 9.519043e-01 1.267090e-01 2.162531e-06 1.164898e-05 1.741201e-05 8.015893e-06 9.560547e-01 1.643677e-01
7.011094e+07 9.514160e-01 1.275024e-01 -3.286265e-05 -1.658499e-05 -2.179388e-05 2.377667e-06 9.558105e-01 1.655273e-01
7.032875e+07 9.525146e-01 1.281738e-01 -3.008544e-05 5.167350e-05 -3.198534e-05 -9.726733e-06 9.551392e-01 1.658936e-01
7.054656e+07 9.526367e-01 1.288452e-01 6.480142e-06 3.498420e-05 -4.559010e-05 7.208437e-06 9.555664e-01 1.676636e-01
7.076438e+07 9.523926e-01 1.296997e-01 -2.310239e-05 -2.080575e-06 3.488176e-05 3.592670e-05 9.557495e-01 1.679688e-01
7.098219e+07 9.523926e-01 1.306763e-01 -8.523464e-06 2.289563e-05 1.118146e-05 -1.891330e-05 9.559937e-01 1.696777e-01
7.120000e+07 9.524536e-01 1.318970e-01 -4.250184e-05 -3.757700e-05 -1.650490e-05 7.012859e-07 9.557495e-01 1.708374e-01
7.141781e+07 9.526367e-01 1.331177e-01 4.296750e-05 2.470240e-05 1.258403e-05 2.405979e-05 9.556274e-01 1.716919e-01
7.163562e+07 9.525146e-01 1.323242e-01 -1.871958e-05 -5.480275e-05 -4.887581e-06 2.597645e-05 9.560547e-01 1.724854e-01
7.185344e+07 9.529419e-01 1.344604e-01 -5.468260e-06 8.836389e-06 8.752570e-06 -9.560026e-07 9.556885e-01 1.735229e-01
7.207125e+07 9.525146e-01 1.351318e-01 1.721084e-06 2.457947e-05 1.549534e-05 3.040396e-05 9.561768e-01 1.741943e-01
7.228906e+07 9.537964e-01 1.358032e-01 -5.244743e-06 2.398156e-06 2.966821e-05 7.804483e-06 9.555664e-01 1.748657e-01
7.250688e+07 9.528198e-01 1.367798e-01 6.068498e-06 4.796684e-05 2.189726e-05 -1.237728e-05 9.557495e-01 1.762085e-01
7.272469e+07 9.535522e-01 1.373901e-01 -3.209338e-05 -4.249439e-05 1.981854e-06 -3.236532e-05 9.566040e-01 1.774902e-01
7.294250e+07 9.535522e-01 1.382446e-01 3.277510e-05 2.313219e-05 2.386421e-05 -1.482479e-05 9.559937e-01 1.784668e-01
7.316031e+07 9.530640e-01 1.398315e-01 -3.563799e-05 -1.545995e-05 -1.172349e-05 2.456829e-05 9.558716e-01 1.787720e-01
7.337812e+07 9.535522e-01 1.406250e-01 -3.590062e-05 -9.000301e-06 4.400499e-06 -1.046620e-05 9.562988e-01 1.797485e-01
7.359594e+07 9.530029e-01 1.416626e-01 1.029018e-05 1.651235e-06 2.413057e-06 1.193769e-05 9.563599e-01 1.804810e-01
7.381375e+07 9.536133e-01 1.420898e-01 -2.825260e-05 -6.146729e-06 -3.022887e-05 -2.235174e-06 9.563599e-01 1.813354e-01
7.403156e+07 9.544678e-01 1.427002e-01 -3.833324e-05 -1.430884e-05 -3.562868e-05 -1.052022e-05 9.566040e-01 1.828613e-01
7.424938e+07 9.537964e-01 1.437988e-01 3.727339e-05 -2.977066e-05 2.341531e-05 7.525086e-07 9.563599e-01 1.831055e-01
7.446719e+07 9.539795e-01 1.447144e-01 -1.489837e-05 -1.865346e-05 -2.777949e-05 -3.030151e-05 9.569092e-01 1.842651e-01
7.468500e+07 9.550781e-01 1.459351e-01 4.574656e-06 1.700968e-05 1.974404e-06 -1.245365e-05 9.567871e-01 1.857910e-01
7.490281e+07 9.548950e-01 1.463013e-01 -8.948147e-06 -4.050508e-05 -1.367275e-05 -2.944842e-06 9.571533e-01 1.865234e-01
7.512062e+07 9.552002e-01 1.475830e-01 -2.396479e-05 1.734868e-05 -5.036592e-05 1.778454e-05 9.581909e-01 1.873169e-01
7.533844e+07 9.550171e-01 1.475830e-01 -1.536682e-05 -5.718321e-06 3.615580e-05 1.493841e-05 9.569702e-01 1.882935e-01
7.555625e+07 9.556274e-01 1.490479e-01 -4.604459e-06 -1.703948e-05 3.921567e-06 -4.885020e-06 9.584961e-01 1.890869e-01
7.577406e+07 9.555054e-01 1.489258e-01 -7.255003e-06 -1.582224e-05 -3.274158e-05 -4.426762e-05 9.580688e-01 1.895752e-01
7.599188e+07 9.567261e-01 1.502686e-01 2.924167e-05 -1.976825e-05 5.871989e-06 2.698973e-06 9.578857e-01 1.906128e-01
7.620969e+07 9.569702e-01 1.505737e-01 1.824275e-05 -1.980923e-06 -3.281422e-05 3.597885e-05 9.578247e-01 1.907349e-01
7.642750e+07 9.572754e-01 1.514893e-01 -1.675077e-05 3.321655e-05 5.876645e-06 2.698507e-06 9.587402e-01 1.927490e-01
7.664531e+07 9.572754e-01 1.523438e-01 -2.974831e-05 3.277883e-05 -4.703924e-05 -1.508743e-06 9.590454e-01 1.935425e-01
7.686312e+07 9.573364e-01 1.529541e-01 -2.289563e-05 -1.509488e-05 1.028366e-05 2.229773e-05 9.588013e-01 1.941528e-01
7.708094e+07 9.566650e-01 1.537476e-01 -1.760293e-05 -1.752656e-05 -1.029298e-05 1.786649e-05 9.590454e-01 1.950073e-01
7.729875e+07 9.579468e-01 1.547852e-01 4.475936e-05 -1.409277e-05 -1.081452e-05 5.369633e-05 9.598389e-01 1.959839e-01
7.751656e+07 9.583740e-01 1.557617e-01 -1.069158e-06 -4.432350e-05 1.175329e-05 1.547113e-05 9.598389e-01 1.968384e-01
7.773438e+07 9.578247e-01 1.566162e-01 -3.092922e-06 1.422223e-05 7.826835e-06 3.041886e-05 9.598999e-01 1.970215e-01
7.795219e+07 9.588013e-01 1.564331e-01 -2.184138e-05 2.921559e-05 -2.502277e-05 -2.405047e-05 9.600220e-01 1.975708e-01
7.817000e+07 9.585571e-01 1.574707e-01 -1.855008e-05 8.486211e-06 -1.464039e-06 -2.331659e-05 9.601440e-01 1.992188e-01
7.838781e+07 9.590454e-01 1.585693e-01 1.989305e-06 1.833029e-05 -5.253404e-05 -1.993403e-05 9.608765e-01 1.992798e-01
7.860562e+07 9.595947e-01 1.593628e-01 -2.385676e-05 1.092814e-05 4.444271e-06 -3.069825e-05 9.606323e-01 2.003174e-01
7.882344e+07 9.602051e-01 1.602173e-01 -7.515773e-06 -9.395182e-06 3.586896e-05 3.074855e-05 9.612427e-01 2.009277e-01
7.904125e+07 9.602661e-01 1.604004e-01 -3.139302e-05 1.523644e-06 1.474284e-05 2.188236e-05 9.611816e-01 2.025757e-01
7.925906e+07 9.612427e-01 1.619873e-01 3.585219e-05 2.212636e-05 5.214289e-05 -4.626811e-06 9.620972e-01 2.033691e-01
7.947688e+07 9.608154e-01 1.619873e-01 1.635775e-05 -2.035871e-05 2.163742e-05 -1.697056e-05 9.617920e-01 2.033691e-01
7.969469e+07 9.609985e-01 1.625366e-01 -2.941862e-05 1.990981e-05 2.066139e-05 -5.654991e-06 9.620972e-01 2.045898e-01
7.991250e+07 9.614258e-01 1.636353e-01 1.240522e-05 2.001785e-05 1.032278e-05 3.247708e-05 9.625854e-01 2.047119e-01
8.013031e+07 9.621582e-01 1.641846e-01 -5.292147e-05 1.784414e-05 -3.495440e-05 -1.739711e-06 9.630737e-01 2.059326e-01
8.034812e+07 9.625244e-01 1.650391e-01 2.659624e-06 -1.216307e-06 -2.949499e-06 -6.406568e-06 9.631958e-01 2.079468e-01
8.056594e+07 9.622803e-01 1.645508e-01 -1.263805e-05 -1.352374e-05 2.709217e-05 3.174506e-05 9.639893e-01 2.081299e-01
8.078375e+07 9.633179e-01 1.661377e-01 3.414229e-05 -2.762303e-06 -1.922622e-05 -1.245178e-06 9.641724e-01 2.088013e-01
8.100156e+07 9.632568e-01 1.664429e-01 -7.980037e-06 3.657304e-06 1.330953e-05 -1.158100e-05 9.638062e-01 2.090454e-01
8.121938e+07 9.636841e-01 1.671143e-01 8.884817e-06 -2.984703e-05 -1.973589e-06 2.465094e-06 9.646606e-01 2.109985e-01
8.143719e+07 9.639282e-01 1.669312e-01 -4.207715e-06 -3.028475e-05 -2.761371e-05 -5.908310e-06 9.644775e-01 2.107544e-01
8.165500e+07 9.649658e-01 1.688232e-01 -6.701797e-06 -3.563613e-05 1.331232e-05 2.887845e-05 9.655151e-01 2.097168e-01
8.187281e+07 9.653931e-01 1.691895e-01 -2.798811e-05 -2.589822e-05 1.283176e-05 3.459491e-05 9.656372e-01 2.118530e-01
8.209062e+07 9.656982e-01 1.693726e-01 1.044199e-05 1.669861e-06 1.185946e-05 -4.695728e-06 9.656372e-01 2.128296e-01
8.230844e+07 9.661255e-01 1.705933e-01 1.221895e-05 -5.079433e-05 4.399940e-05 1.089647e-05 9.658813e-01 2.132568e-01
8.252625e+07 9.669800e-01 1.715088e-01 2.239831e-07 -6.556045e-06 -6.951392e-06 4.921854e-05 9.657593e-01 2.138062e-01
8.274406e+07 9.665527e-01 1.719971e-01 -4.358962e-05 -3.170595e-05 -2.423674e-05 2.522022e-05 9.665527e-01 2.150269e-01
8.296188e+07 9.662476e-01 1.720581e-01 2.979860e-05 5.094707e-05 -1.631677e-05 -1.507346e-05 9.666138e-01 2.151489e-01
8.317969e+07 9.675903e-01 1.729736e-01 -3.961474e-05 5.226582e-06 4.750490e-05 -5.941465e-05 9.669800e-01 2.162476e-01
8.339750e+07 9.685669e-01 1.738892e-01 -1.803972e-05 -1.113396e-05 9.906478e-06 -1.238100e-05 9.675903e-01 2.164307e-01
8.361531e+07 9.683838e-01 1.732178e-01 2.629682e-05 8.828938e-07 -9.389594e-06 2.700090e-05 9.683838e-01 2.178345e-01
8.383312e+07 9.691772e-01 1.744385e-01 1.625624e-05 -1.393165e-05 1.884066e-05 1.709629e-05 9.683838e-01 2.175903e-01
8.405094e+07 9.697876e-01 1.746826e-01 -2.233312e-06 -1.193210e-05 3.521703e-05 3.221259e-05 9.691162e-01 2.183228e-01
8.426875e+07 9.701538e-01 1.746826e-01 2.785958e-05 3.253855e-05 -1.935381e-05 -1.139473e-05 9.686279e-01 2.190552e-01
8.448656e+07 9.705200e-01 1.754761e-01 -9.369105e-06 -3.457442e-05 3.326871e-05 1.437031e-05 9.693604e-01 2.197876e-01
8.470438e+07 9.699707e-01 1.755371e-01 -1.093280e-05 1.149625e-05 5.915761e-06 -5.830079e-05 9.699707e-01 2.203979e-01
8.492219e+07 9.704590e-01 1.770020e-01 -2.968125e-05 2.010167e-05 -1.738407e-05 -2.408028e-05 9.702759e-01 2.204590e-01
8.514000e+07 9.704590e-01 1.768188e-01 3.115274e-06 -1.441035e-05 2.283044e-05 2.232566e-05 9.708862e-01 2.208252e-01
8.535781e+07 9.711914e-01 1.777954e-01 1.383852e-05 -1.932401e-05 2.732500e-05 2.185442e-05 9.703979e-01 2.219849e-01
8.557562e+07 9.717407e-01 1.781616e-01 4.237518e-06 3.052317e-05 -1.838803e-05 -1.267157e-05 9.718018e-01 2.233887e-01
8.579344e+07 9.721069e-01 1.787720e-01 2.414547e-05 -1.107715e-05 3.528967e-05 -8.456409e-06 9.716187e-01 2.233887e-01
8.601125e+07 9.730225e-01 1.785278e-01 2.886727e-05 6.245449e-06 5.159527e-07 2.487563e-05 9.722900e-01 2.238159e-01
8.622906e+07 9.726562e-01 1.794434e-01 1.410209e-05 -2.594478e-05 -2.736971e-05 -3.206730e-05 9.718018e-01 2.248535e-01
8.644688e+07 9.738770e-01 1.794434e-01 -4.027039e-06 -3.718026e-05 -7.483177e-06 -1.616590e-05 9.728394e-01 2.248535e-01
8.666469e+07 9.748535e-01 1.799927e-01 1.320429e-05 4.414469e-07 6.987713e-06 1.170021e-05 9.723511e-01 2.244873e-01
8.688250e+07 9.751587e-01 1.807861e-01 1.927279e-05 -2.186373e-05 2.542324e-05 3.974885e-06 9.736938e-01 2.255859e-01
8.710031e+07 9.750977e-01 1.811523e-01 -1.522992e-05 -1.903344e-05 -1.516193e-06 -4.409254e-05 9.725952e-01 2.262573e-01
8.731812e+07 9.753418e-01 1.812134e-01 4.195049e-05 1.334399e-05 2.493337e-05 9.698793e-06 9.742432e-01 2.269897e-01
8.753594e+07 9.748535e-01 1.813354e-01 -9.659678e-06 -2.815574e-05 -4.234165e-05 -3.185123e-06 9.744873e-01 2.268066e-01
8.775375e+07 9.759521e-01 1.823730e-01 -1.033489e-05 -8.289702e-06 -1.495052e-05 1.870561e-05 9.749756e-01 2.268677e-01
8.797156e+07 9.764404e-01 1.828613e-01 1.840759e-05 4.584901e-06 -3.392622e-05 1.514331e-06 9.746704e-01 2.278442e-01
8.818938e+07 9.769287e-01 1.834717e-01 1.948513e-05 -2.855808e-05 -7.992145e-06 -1.048297e-05 9.753418e-01 2.274780e-01
8.840719e+07 9.778442e-01 1.827393e-01 2.564304e-05 2.739578e-05 8.980744e-06 -2.148002e-05 9.757080e-01 2.288818e-01
8.862500e+07 9.782104e-01 1.835327e-01 -5.620532e-06 9.110197e-06 -1.998898e-05 4.506670e-06 9.761963e-01 2.297974e-01
8.884281e+07 9.784546e-01 1.832886e-01 4.955567e-06 1.079775e-05 4.012138e-06 1.548883e-05 9.768677e-01 2.297974e-01
8.906062e+07 9.794922e-01 1.836548e-01 -1.057889e-05 -1.684763e-06 1.553074e-05 2.675317e-05 9.769287e-01 2.305908e-01
8.927844e+07 9.792480e-01 1.840820e-01 -6.986782e-06 -2.948195e-05 1.452863e-06 -3.776699e-05 9.766846e-01 2.313232e-01
8.949625e+07 9.797974e-01 1.847534e-01 6.822869e-05 -5.099177e-05 -2.805889e-05 -3.677793e-05 9.780273e-01 2.311401e-01
8.971406e+07 9.804688e-01 1.854248e-01 -2.929755e-05 3.557652e-07 -1.516193e-06 -2.378225e-05 9.777832e-01 2.319336e-01
8.993188e+07 9.802856e-01 1.849365e-01 2.030656e-05 2.996437e-05 2.653524e-05 2.719462e-06 9.780884e-01 2.318115e-01
9.014969e+07 9.815674e-01 1.856689e-01 -3.145076e-06 1.453795e-05 -8.000992e-06 2.031960e-05 9.779663e-01 2.323608e-01
9.036750e+07 9.827271e-01 1.861572e-01 1.872238e-05 -2.040528e-06 9.503216e-06 -2.736785e-05 9.786987e-01 2.328491e-01
9.058531e+07 9.816895e-01 1.860352e-01 -4.754402e-06 -1.749769e-05 4.766509e-05 1.748651e-05 9.796753e-01 2.332764e-01
9.080312e+07 9.822388e-01 1.860352e-01 2.912991e-05 6.318092e-06 -4.971400e-06 3.713742e-05 9.792480e-01 2.343140e-01
9.102094e+07 9.830322e-01 1.865234e-01 -2.666004e-05 -8.791685e-07 1.148507e-05 -5.047396e-05 9.798584e-01 2.338867e-01
9.123875e+07 9.827881e-01 1.876221e-01 -1.898035e-05 8.719042e-06 -3.665499e-05 9.810552e-06 9.804077e-01 2.341919e-01
9.145656e+07 9.835205e-01 1.877441e-01 7.258728e-06 2.293102e-05 2.660602e-05 -2.816506e-05 9.800415e-01 2.335815e-01
9.167438e+07 9.840698e-01 1.875000e-01 6.400049e-06 4.960597e-05 5.019363e-06 -6.291550e-06 9.801636e-01 2.338257e-01
9.189219e+07 9.849854e-01 1.875610e-01 -9.251758e-06 3.710948e-05 1.912750e-05 7.012859e-06 9.810791e-01 2.348633e-01
9.211000e+07 9.849243e-01 1.875000e-01 -2.126768e-05 -3.358349e-06 1.008809e-05 1.834705e-05 9.807129e-01 2.347412e-01
9.232781e+07 9.856567e-01 1.883545e-01 2.011284e-05 -4.212186e-05 -5.739927e-05 -4.507601e-07 9.812622e-01 2.358398e-01
9.254562e+07 9.858398e-01 1.879272e-01 -9.056181e-06 3.047660e-05 -3.424659e-05 1.549721e-06 9.818726e-01 2.366333e-01
9.276344e+07 9.863281e-01 1.882935e-01 1.217797e-05 -4.510954e-05 -3.121607e-05 2.875365e-05 9.819946e-01 2.363281e-01
9.298125e+07 9.857788e-01 1.879272e-01 1.093373e-06 -3.344193e-05 -3.172643e-05 3.566965e-06 9.826050e-01 2.362061e-01
9.319906e+07 9.867554e-01 1.879883e-01 -3.244728e-05 8.318573e-06 -2.269633e-05 -7.765368e-06 9.835205e-01 2.368164e-01
9.341688e+07 9.872437e-01 1.884766e-01 -2.971105e-05 7.087365e-06 8.578878e-06 4.776753e-06 9.832153e-01 2.365723e-01
9.363469e+07 9.873047e-01 1.891479e-01 -2.047792e-05 -3.016368e-05 4.824251e-07 -1.614075e-05 9.835815e-01 2.368164e-01
9.385250e+07 9.885864e-01 1.883545e-01 6.528571e-06 -3.598258e-05 -1.915451e-05 1.367461e-05 9.829102e-01 2.373047e-01
9.407031e+07 9.877930e-01 1.891479e-01 -2.049096e-05 -3.018416e-05 1.466181e-05 1.789909e-05 9.837646e-01 2.375488e-01
9.428812e+07 9.882202e-01 1.891479e-01 4.151836e-06 3.773533e-05 3.009103e-06 -1.414865e-05 9.844360e-01 2.375488e-01
9.450594e+07 9.890137e-01 1.885986e-01 1.024920e-05 1.512282e-05 8.152798e-06 3.130734e-05 9.849243e-01 2.388306e-01
9.472375e+07 9.895630e-01 1.892700e-01 -6.334856e-06 2.935156e-05 -3.693625e-05 -1.080148e-05 9.843140e-01 2.384644e-01
9.494156e+07 9.883423e-01 1.895752e-01 7.750932e-06 9.664334e-06 -4.139170e-05 2.079643e-05 9.850464e-01 2.387695e-01
9.515938e+07 9.895630e-01 1.891479e-01 5.231798e-05 -3.723428e-05 1.968443e-05 -1.950562e-05 9.843750e-01 2.395020e-01
9.537719e+07 9.893188e-01 1.895142e-01 -5.877577e-06 1.594890e-05 1.111813e-05 -3.561378e-06 9.848633e-01 2.383423e-01
9.559500e+07 9.899902e-01 1.902466e-01 1.661200e-05 -1.424924e-05 4.101172e-05 5.764887e-06 9.847412e-01 2.396851e-01
9.581281e+07 9.899902e-01 1.904907e-01 4.220754e-05 2.694130e-05 5.579088e-06 8.602161e-06 9.859619e-01 2.392578e-01
9.603062e+07 9.902954e-01 1.899414e-01 -1.622364e-06 -3.235973e-05 7.560477e-06 -2.508424e-05 9.854126e-01 2.402954e-01
9.624844e+07 9.905396e-01 1.898193e-01 5.919486e-06 -1.597684e-05 -2.323650e-05 3.953278e-05 9.861450e-01 2.401733e-01
9.646625e+07 9.915161e-01 1.898193e-01 2.167374e-05 -3.330410e-06 -2.088025e-06 -2.865866e-05 9.858398e-01 2.406006e-01
9.668406e+07 9.912109e-01 1.902466e-01 1.575891e-05 1.264270e-05 -5.055685e-06 6.348360e-06 9.856567e-01 2.406006e-01
9.690188e+07 9.912109e-01 1.899414e-01 5.905516e-06 -1.598522e-05 1.017191e-05 1.848489e-05 9.855957e-01 2.402344e-01
9.711969e+07 9.917603e-01 1.899414e-01 3.636256e-05 4.300848e-05 1.166854e-05 9.853393e-07 9.860229e-01 2.412109e-01
9.733750e+07 9.916382e-01 1.904907e-01 8.439645e-06 -1.052208e-05 1.491979e-06 -1.750793e-05 9.863281e-01 2.413940e-01
9.755531e+07 9.927368e-01 1.910400e-01 -2.489239e-05 1.810305e-05 -2.027955e-06 2.543093e-06 9.866943e-01 2.413940e-01
9.777312e+07 9.924927e-01 1.896973e-01 6.463379e-07 -2.025627e-05 -1.779012e-05 -3.763475e-06 9.870605e-01 2.409668e-01
9.799094e+07 9.927368e-01 1.904907e-01 2.087094e-06 1.899712e-05 3.153272e-05 1.265481e-05 9.870605e-01 2.418823e-01
9.820875e+07 9.927979e-01 1.909180e-01 5.889311e-05 1.949817e-05 1.169462e-05 9.974465e-07 9.871826e-01 2.421265e-01
9.842656e+07 9.924927e-01 1.902466e-01 4.791616e-10 1.769251e-10 -1.670793e-05 3.664382e-05 9.867554e-01 2.417603e-01
9.864438e+07 9.931030e-01 1.906128e-01 -1.110137e-06 3.380887e-05 -4.284084e-07 3.716163e-05 9.873657e-01 2.427368e-01
9.886219e+07 9.931030e-01 1.900024e-01 -2.451986e-05 4.615635e-06 5.904958e-05 -9.052455e-07 9.870605e-01 2.424927e-01
9.908000e+07 9.932251e-01 1.909790e-01 1.033489e-05 1.522712e-05 3.115460e-05 4.984066e-05 9.868164e-01 2.426147e-01
9.929781e+07 9.933472e-01 1.907349e-01 -4.129484e-05 1.895428e-05 9.724870e-06 2.442859e-05 9.873657e-01 2.436523e-01
9.951562e+07 9.931030e-01 1.912231e-01 -4.888326e-05 2.443790e-06 1.780316e-05 -1.709815e-05 9.872437e-01 2.439575e-01
9.973344e+07 9.935913e-01 1.907349e-01 -2.068095e-05 -3.048964e-05 9.694137e-06 3.546476e-06 9.866333e-01 2.435913e-01
9.995125e+07 9.938354e-01 1.909180e-01 -1.948234e-05 1.563691e-05 2.190098e-05 -1.177564e-05 9.873047e-01 2.428589e-01
1.001691e+08 9.943237e-01 1.910400e-01 3.237650e-05 5.107373e-06 5.608425e-06 -1.800247e-06 9.874268e-01 2.427979e-01
1.003869e+08 9.940796e-01 1.909180e-01 -1.244247e-05 -3.432296e-05 4.945323e-07 -5.867332e-06 9.875488e-01 2.436523e-01
1.006047e+08 9.947510e-01 1.904907e-01 3.093667e-05 -3.431737e-05 3.273599e-05 2.186000e-05 9.877930e-01 2.432861e-01
1.008225e+08 9.936523e-01 1.912842e-01 -2.267770e-05 3.051572e-05 -4.043430e-05 -4.889071e-05 9.878540e-01 2.434692e-01
1.010403e+08 9.942017e-01 1.906738e-01 -3.243983e-05 -5.111098e-06 4.968606e-07 -5.874783e-06 9.878540e-01 2.441406e-01
1.012581e+08 9.936523e-01 1.906738e-01 2.736971e-05 -5.898997e-06 -2.606772e-05 -1.448020e-05 9.874878e-01 2.446289e-01
1.014759e+08 9.938354e-01 1.906128e-01 2.716854e-05 8.624047e-07 2.817623e-05 3.287755e-05 9.882202e-01 2.439575e-01
1.016938e+08 9.943237e-01 1.912842e-01 -1.719035e-05 2.800114e-05 8.154195e-06 -1.024129e-05 9.870605e-01 2.436523e-01
1.019116e+08 9.943237e-01 1.906738e-01 -1.127180e-05 1.188088e-05 -9.777024e-06 -2.451800e-05 9.877930e-01 2.452393e-01
1.021294e+08 9.949951e-01 1.904907e-01 -1.017191e-05 -2.209470e-05 -7.053837e-06 4.043244e-05 9.870605e-01 2.448120e-01
1.023472e+08 9.938354e-01 1.904907e-01 1.824275e-05 2.509914e-05 -2.457201e-05 -1.118332e-05 9.874878e-01 2.452393e-01
1.025650e+08 9.945068e-01 1.909180e-01 -2.335757e-06 -1.231860e-05 3.035180e-06 -1.433957e-05 9.866943e-01 2.438354e-01
1.027828e+08 9.942017e-01 1.917114e-01 -2.378225e-05 -2.254173e-05 3.687851e-05 1.682900e-05 9.866943e-01 2.448120e-01
1.030006e+08 9.945068e-01 1.914673e-01 8.938834e-06 -2.421811e-05 -5.154870e-06 -1.459010e-05 9.862671e-01 2.449951e-01
1.032184e+08 9.943237e-01 1.907959e-01 -1.849607e-05 -1.828745e-05 1.069997e-05 -1.872797e-05 9.866943e-01 2.450562e-01
1.034362e+08 9.940796e-01 1.911011e-01 -3.019720e-05 7.193536e-06 -1.689326e-05 5.417503e-06 9.861450e-01 2.454224e-01
1.036541e+08 9.943237e-01 1.909180e-01 -1.849700e-05 -1.831073e-05 1.424924e-05 -3.898516e-05 9.863892e-01 2.457275e-01
1.038719e+08 9.935913e-01 1.908569e-01 -5.320646e-06 -4.262198e-06 1.054723e-06 9.215903e-06 9.870605e-01 2.461548e-01
1.040897e+08 9.938965e-01 1.910400e-01 1.404528e-05 -1.316518e-05 3.033690e-05 3.040768e-05 9.850464e-01 2.460327e-01
1.043075e+08 9.942017e-01 1.911621e-01 5.319715e-06 4.260801e-06 -3.395230e-05 -3.118254e-05 9.862671e-01 2.461548e-01
1.045253e+08 9.934082e-01 1.912842e-01 -2.990477e-06 8.090399e-06 1.384784e-05 -1.583248e-06 9.861450e-01 2.463379e-01
1.047431e+08 9.931030e-01 1.909180e-01 -1.727790e-05 2.811477e-05 1.892447e-05 -1.853332e-05 9.860229e-01 2.464600e-01
1.049609e+08 9.924316e-01 1.914062e-01 6.821007e-06 4.388765e-05 -9.909272e-07 1.180358e-05 9.855957e-01 2.464600e-01
1.051788e+08 9.921875e-01 1.911011e-01 5.328096e-06 4.258007e-06 -2.621301e-05 -1.454353e-05 9.852905e-01 2.459106e-01
1.053966e+08 9.927368e-01 1.907959e-01 2.877787e-05 4.052743e-05 3.083982e-05 1.402944e-05 9.855347e-01 2.474976e-01
1.056144e+08 9.935303e-01 1.909180e-01 -1.064688e-05 7.889420e-05 3.136694e-05 8.113682e-06 9.851074e-01 2.470703e-01
1.058322e+08 9.918823e-01 1.904907e-01 -2.921931e-05 -2.685189e-05 -2.499670e-06 1.900364e-05 9.844360e-01 2.470703e-01
1.060500e+08 9.921875e-01 1.916504e-01 -1.534261e-05 -3.328919e-05 -1.178496e-05 9.539537e-06 9.840088e-01 2.478027e-01
1.062678e+08 9.921875e-01 1.904297e-01 -2.140179e-06 -1.918990e-05 -5.155103e-06 -4.090602e-06 9.835205e-01 2.465210e-01
1.064856e+08 9.920044e-01 1.913452e-01 -1.067296e-05 -8.544885e-06 -3.542565e-05 1.812167e-05 9.839478e-01 2.479858e-01
1.067034e+08 9.915161e-01 1.911011e-01 -5.980022e-06 1.622830e-05 1.649931e-05 1.099706e-05 9.838257e-01 2.478027e-01
1.069212e+08 9.913940e-01 1.916504e-01 -2.134964e-05 -1.707487e-05 4.212931e-05 -2.123602e-05 9.830322e-01 2.473755e-01
1.071391e+08 9.912109e-01 1.913452e-01 4.358217e-05 6.824732e-06 -1.192465e-05 -2.208352e-05 9.833374e-01 2.479248e-01
1.073569e+08 9.910889e-01 1.914062e-01 2.132729e-06 1.923461e-05 -1.388974e-05 1.599081e-06 9.826050e-01 2.487183e-01
1.075747e+08 9.912109e-01 1.919556e-01 1.774356e-05 -4.192069e-05 2.581859e-06 2.049026e-06 9.827271e-01 2.487183e-01
1.077925e+08 9.918823e-01 1.918335e-01 3.914163e-05 -2.480112e-05 -5.170470e-06 -4.102243e-06 9.821777e-01 2.490234e-01
1.080103e+08 9.901733e-01 1.922607e-01 -2.781162e-06 1.283130e-06 4.516914e-06 -3.220886e-05 9.820557e-01 2.489014e-01
1.082281e+08 9.909058e-01 1.923828e-01 1.883600e-05 1.155958e-05 2.916902e-06 -4.613772e-05 9.825439e-01 2.495728e-01
1.084459e+08 9.899902e-01 1.932373e-01 1.391023e-05 -6.416813e-06 -1.338124e-05 6.224029e-06 9.815674e-01 2.495117e-01
1.086638e+08 9.899902e-01 1.928101e-01 -3.419816e-06 2.185628e-05 -5.095266e-06 1.702923e-05 9.826050e-01 2.495117e-01
1.088816e+08 9.895020e-01 1.926880e-01 2.698787e-05 1.456589e-05 2.277642e-05 2.439693e-05 9.815063e-01 2.503662e-01
1.090994e+08 9.895020e-01 1.925659e-01 -2.806075e-05 1.971051e-05 4.595146e-06 -1.110788e-05 9.810181e-01 2.508545e-01
1.093172e+08 9.883423e-01 1.920166e-01 1.371466e-05 4.321337e-07 -2.224743e-05 -1.975149e-05 9.806519e-01 2.513428e-01
1.095350e+08 9.888306e-01 1.926880e-01 -1.307949e-05 -2.102181e-05 4.648790e-05 1.580641e-05 9.807129e-01 2.517090e-01
1.097528e+08 9.883423e-01 1.930542e-01 6.197020e-06 -2.315640e-05 -1.818873e-05 -3.552437e-05 9.800415e-01 2.508545e-01
1.099706e+08 9.879761e-01 1.936035e-01 -6.388873e-07 2.058037e-05 -8.221716e-06 1.035165e-05 9.793701e-01 2.516479e-01
1.101884e+08 9.879150e-01 1.930542e-01 1.910329e-05 4.707836e-06 1.384504e-05 -2.276525e-05 9.800415e-01 2.519531e-01
1.104062e+08 9.876099e-01 1.933594e-01 1.801550e-05 3.906339e-05 -2.889708e-05 4.502013e-06 9.791870e-01 2.523804e-01
1.106241e+08 9.865723e-01 1.941528e-01 -7.933937e-06 -9.868294e-06 -6.666407e-06 1.369882e-05 9.779053e-01 2.529907e-01
1.108419e+08 9.872437e-01 1.939087e-01 5.497783e-05 1.762062e-06 -1.303852e-05 -3.145076e-05 9.784546e-01 2.536621e-01
1.110597e+08 9.869385e-01 1.944580e-01 1.182593e-05 -2.577528e-05 8.568168e-07 -4.367158e-05 9.782715e-01 2.534790e-01
1.112775e+08 9.868164e-01 1.950684e-01 2.126582e-05 2.405047e-05 2.534688e-05 5.330890e-06 9.774780e-01 2.534790e-01
1.114953e+08 9.860229e-01 1.950073e-01 -1.116842e-05 5.149283e-06 -6.158650e-05 -2.352893e-05 9.765015e-01 2.537842e-01
1.117131e+08 9.866333e-01 1.950073e-01 3.837049e-06 -3.565848e-05 1.087040e-05 2.282206e-06 9.763794e-01 2.532959e-01
1.119309e+08 9.852905e-01 1.955566e-01 -7.521361e-06 -2.363883e-05 -1.126900e-05 2.485886e-05 9.761353e-01 2.543335e-01
1.121488e+08 9.850464e-01 1.962891e-01 1.891982e-05 1.159776e-05 -3.944524e-05 -3.553368e-05 9.764404e-01 2.542725e-01
1.123666e+08 9.848022e-01 1.962280e-01 1.696963e-05 -1.461804e-05 2.284721e-05 2.448075e-05 9.755249e-01 2.542725e-01
1.125844e+08 9.848633e-01 1.967773e-01 1.333747e-05 1.417566e-05 -1.503993e-05 -7.700175e-06 9.753418e-01 2.543945e-01
1.128022e+08 9.846802e-01 1.965942e-01 -1.482666e-05 -5.422160e-05 -3.021210e-05 -4.722923e-05 9.749756e-01 2.563477e-01
1.130200e+08 9.840088e-01 1.963501e-01 2.645329e-05 3.529526e-05 2.587959e-05 -6.351620e-07 9.743652e-01 2.563477e-01
1.132378e+08 9.848022e-01 1.966553e-01 -2.796063e-06 1.290813e-06 -5.867332e-07 -1.528766e-05 9.737549e-01 2.561646e-01
1.134556e+08 9.837646e-01 1.968384e-01 2.237409e-05 -1.035444e-05 -7.361174e-06 -2.275966e-05 9.739990e-01 2.563477e-01
1.136734e+08 9.839478e-01 1.974487e-01 -1.140777e-05 1.206715e-05 -7.757917e-06 4.439149e-06 9.738159e-01 2.571411e-01
1.138912e+08 9.824829e-01 1.973877e-01 -3.316067e-05 1.735985e-06 4.559755e-06 -2.176967e-05 9.729004e-01 2.578735e-01
1.141091e+08 9.829712e-01 1.978760e-01 -1.098309e-05 -1.717359e-06 5.062670e-06 -2.776831e-05 9.724121e-01 2.580566e-01
1.143269e+08 9.834595e-01 1.988525e-01 5.598646e-06 -2.586748e-06 -7.863156e-06 -1.683272e-05 9.717407e-01 2.590332e-01
1.145447e+08 9.816895e-01 1.983643e-01 -2.240762e-05 1.036562e-05 -1.202337e-05 -2.223067e-05 9.718628e-01 2.586670e-01
1.147625e+08 9.815674e-01 1.996460e-01 -4.209578e-07 1.378916e-05 -1.480803e-06 1.789723e-05 9.708862e-01 2.595215e-01
1.149803e+08 9.813232e-01 1.993408e-01 3.576279e-05 3.870577e-06 -8.198433e-06 2.105813e-05 9.700928e-01 2.600708e-01
1.151981e+08 9.805298e-01 1.994019e-01 3.341213e-05 -8.668751e-06 -1.975056e-05 -7.166527e-06 9.703979e-01 2.600098e-01
1.154159e+08 9.805908e-01 2.003174e-01 -4.660338e-05 -1.247972e-05 1.184084e-05 -2.030376e-05 9.700317e-01 2.606812e-01
1.156338e+08 9.808350e-01 2.004395e-01 -3.195554e-05 -3.971532e-05 1.874845e-05 8.475035e-06 9.699707e-01 2.617798e-01
1.158516e+08 9.801636e-01 2.019653e-01 3.321469e-05 -1.749024e-06 3.205985e-05 -4.040264e-05 9.685059e-01 2.614136e-01
1.160694e+08 9.796143e-01 2.012329e-01 -1.900084e-05 -1.164246e-05 -2.543256e-05 5.315989e-06 9.686890e-01 2.620239e-01
1.162872e+08 9.794922e-01 2.017822e-01 -2.916530e-05 -4.098937e-05 -4.794449e-05 -2.522767e-05 9.682617e-01 2.624512e-01
1.165050e+08 9.788208e-01 2.020874e-01 5.811453e-06 -9.507872e-06 -1.212023e-05 -3.294274e-05 9.677124e-01 2.619019e-01
1.167228e+08 9.790649e-01 2.027588e-01 -3.011897e-06 8.212402e-06 -3.693812e-05 -1.648441e-06 9.679565e-01 2.626953e-01
1.169406e+08 9.776001e-01 2.032471e-01 1.922622e-05 4.730187e-06 -3.783032e-06 -3.273413e-05 9.670410e-01 2.631226e-01
1.171584e+08 9.781494e-01 2.033081e-01 1.426414e-05 -1.340639e-05 1.507439e-05 -2.938323e-06 9.665527e-01 2.645874e-01
1.173762e+08 9.785156e-01 2.042236e-01 -1.425948e-05 1.342222e-05 -1.470186e-05 -2.440810e-05 9.661255e-01 2.647705e-01
1.175941e+08 9.766235e-01 2.038574e-01 -2.663210e-05 -3.545731e-05 4.027039e-06 -2.655014e-05 9.655762e-01 2.661133e-01
1.178119e+08 9.768066e-01 2.044067e-01 -4.955381e-05 -1.114979e-05 -5.658716e-06 1.251791e-05 9.650879e-01 2.655640e-01
1.180297e+08 9.764404e-01 2.046509e-01 -2.468191e-05 -9.065494e-06 -3.283285e-05 -6.837770e-06 9.650269e-01 2.667847e-01
1.182475e+08 9.756470e-01 2.056274e-01 -2.104416e-05 -3.808178e-05 5.215406e-08 1.066877e-05 9.647217e-01 2.673340e-01
1.184653e+08 9.756470e-01 2.062988e-01 3.677048e-05 -2.389401e-05 -3.579259e-05 2.907775e-05 9.642944e-01 2.672729e-01
1.186831e+08 9.763794e-01 2.073364e-01 -6.149709e-05 1.478568e-05 3.494322e-06 -3.130175e-05 9.635620e-01 2.686157e-01
1.189009e+08 9.748535e-01 2.077026e-01 -1.063757e-05 -1.560152e-05 5.463138e-05 -2.058595e-05 9.638062e-01 2.697144e-01
1.191188e+08 9.743042e-01 2.077637e-01 4.783273e-06 2.513640e-05 -6.100535e-05 -3.609806e-06 9.625854e-01 2.702637e-01
1.193366e+08 9.747925e-01 2.077026e-01 1.429021e-05 -1.346506e-05 -3.170222e-06 -6.760005e-06 9.625854e-01 2.702637e-01
1.195544e+08 9.747314e-01 2.088623e-01 -1.304783e-05 -2.818741e-05 -5.132519e-06 1.724716e-05 9.621582e-01 2.711792e-01
1.197722e+08 9.741211e-01 2.091064e-01 -3.071874e-05 -8.846819e-05 1.500361e-05 -2.434850e-05 9.617310e-01 2.713013e-01
1.199900e+08 9.739990e-01 2.098389e-01 7.418916e-06 3.082305e-05 1.884252e-05 8.504838e-06 9.619751e-01 2.724609e-01
1.202078e+08 9.737549e-01 2.101440e-01 1.065433e-05 1.562573e-05 4.574284e-05 -3.629923e-05 9.615479e-01 2.733154e-01
1.204256e+08 9.725342e-01 2.116089e-01 2.114102e-07 -6.951392e-06 7.371418e-06 1.223385e-05 9.612427e-01 2.739868e-01
1.206434e+08 9.724121e-01 2.117310e-01 -4.116446e-07 1.389906e-05 1.556892e-05 -1.966860e-05 9.603882e-01 2.731934e-01
1.208612e+08 9.722900e-01 2.119751e-01 6.837398e-05 -5.222484e-05 4.070811e-05 -8.326024e-06 9.600830e-01 2.747803e-01
1.210791e+08 9.729004e-01 2.131348e-01 2.289563e-05 2.781302e-05 -2.099853e-05 8.868985e-06 9.587402e-01 2.763672e-01
1.212969e+08 9.736938e-01 2.133179e-01 -5.363952e-06 9.008683e-06 -1.307577e-05 2.212077e-05 9.570312e-01 2.745972e-01
1.215147e+08 9.726562e-01 2.140503e-01 2.533197e-07 -1.303107e-05 -2.899393e-05 2.089888e-05 9.581909e-01 2.770996e-01
1.217325e+08 9.732666e-01 2.147827e-01 -7.063150e-06 -4.182011e-05 -2.641417e-05 -9.415671e-06 9.572144e-01 2.767944e-01
1.219503e+08 9.724121e-01 2.152100e-01 4.893169e-06 1.703482e-05 1.357961e-05 7.814728e-06 9.564819e-01 2.780151e-01
1.221681e+08 9.718628e-01 2.164307e-01 -2.065115e-05 -9.501353e-06 1.255423e-05 2.531894e-05 9.552612e-01 2.785645e-01
1.223859e+08 9.711304e-01 2.165527e-01 -2.605096e-05 -4.712492e-07 1.548789e-05 2.337433e-05 9.556274e-01 2.789917e-01
1.226038e+08 9.716797e-01 2.173462e-01 5.614012e-06 -2.204999e-05 5.465467e-06 -6.991904e-06 9.551392e-01 2.797241e-01
1.228216e+08 9.709473e-01 2.183228e-01 4.986301e-05 -1.730397e-05 -3.292225e-05 1.506321e-05 9.546509e-01 2.811279e-01
1.230394e+08 9.703369e-01 2.191772e-01 5.139038e-06 4.008878e-06 -3.302004e-06 -1.179986e-06 9.540405e-01 2.819214e-01
1.232572e+08 9.701538e-01 2.200928e-01 1.242384e-05 3.283843e-05 -1.500361e-05 6.563962e-06 9.540405e-01 2.824707e-01
1.234750e+08 9.699707e-01 2.202759e-01 -1.066737e-05 1.153816e-05 1.294538e-05 2.845190e-05 9.540405e-01 2.838745e-01
1.236928e+08 9.699707e-01 2.208862e-01 4.885718e-06 1.705438e-05 -7.608905e-07 -6.231945e-06 9.531250e-01 2.840576e-01
1.239106e+08 9.697266e-01 2.219849e-01 5.269889e-06 -2.503395e-06 2.607517e-05 6.318092e-06 9.520874e-01 2.859497e-01
1.241284e+08 9.695435e-01 2.225342e-01 2.129003e-06 2.483279e-05 -5.776994e-06 -2.144370e-05 9.520874e-01 2.855835e-01
1.243462e+08 9.689941e-01 2.234497e-01 -1.090020e-05 2.457947e-05 7.184222e-06 7.037073e-06 9.511108e-01 2.861938e-01
1.245641e+08 9.685059e-01 2.240601e-01 1.820177e-05 4.276633e-06 1.042150e-06 -1.752097e-05 9.517212e-01 2.877197e-01
1.247819e+08 9.684448e-01 2.242432e-01 -3.363006e-05 -1.630932e-05 2.455711e-05 -6.154180e-06 9.509888e-01 2.886963e-01
1.249997e+08 9.684448e-01 2.265015e-01 7.656869e-06 9.289477e-06 -2.827123e-05 1.827255e-06 9.509888e-01 2.893066e-01
1.252175e+08 9.676514e-01 2.262573e-01 -2.757180e-06 7.782131e-06 2.003275e-05 8.642673e-06 9.505005e-01 2.894287e-01
1.254353e+08 9.680176e-01 2.269287e-01 6.314367e-07 -3.262609e-05 -1.136214e-06 4.288554e-05 9.497681e-01 2.905884e-01
1.256531e+08 9.677734e-01 2.266235e-01 -1.493655e-05 -3.816187e-05 -3.032945e-05 -4.062988e-05 9.489136e-01 2.918091e-01
1.258709e+08 9.671631e-01 2.291870e-01 -4.770234e-06 -2.361089e-05 -1.210999e-05 4.630536e-06 9.487305e-01 2.924194e-01
1.260888e+08 9.669800e-01 2.286987e-01 -1.571234e-05 9.872019e-07 7.994473e-06 -6.434321e-05 9.491577e-01 2.944336e-01
1.263066e+08 9.670410e-01 2.309570e-01 -1.280941e-05 -1.333281e-05 -3.946200e-05 1.425296e-05 9.488525e-01 2.947998e-01
1.265244e+08 9.663696e-01 2.304077e-01 -1.771003e-05 -3.040396e-05 3.689667e-06 4.304340e-06 9.479370e-01 2.950439e-01
1.267422e+08 9.656982e-01 2.316284e-01 1.624972e-05 -2.715178e-05 3.908761e-05 -1.739897e-05 9.484863e-01 2.969971e-01
1.269600e+08 9.654541e-01 2.315674e-01 -2.898276e-06 1.433864e-05 -6.575137e-07 2.067443e-05 9.479370e-01 2.974854e-01
1.271778e+08 9.654541e-01 2.337646e-01 4.990026e-05 -1.078472e-05 -2.574548e-05 -3.252178e-06 9.470825e-01 2.978516e-01
1.273956e+08 9.650879e-01 2.340088e-01 2.258457e-06 1.835171e-05 -1.057051e-06 1.756009e-05 9.467163e-01 2.988281e-01
1.276134e+08 9.650269e-01 2.345581e-01 6.991997e-05 3.801659e-05 1.126342e-05 1.449417e-05 9.470215e-01 3.002319e-01
1.278312e+08 9.646606e-01 2.351074e-01 1.798663e-05 1.734868e-05 -1.249555e-05 1.503155e-06 9.462891e-01 3.000488e-01
1.280491e+08 9.653320e-01 2.359619e-01 -5.673617e-06 2.213195e-05 3.751740e-05 -4.533678e-06 9.459839e-01 3.016357e-01
1.282669e+08 9.645996e-01 2.366333e-01 2.365746e-05 -4.766509e-06 -3.362820e-05 1.041591e-05 9.457397e-01 3.027344e-01
1.284847e+08 9.653320e-01 2.374268e-01 -5.553477e-06 1.559779e-05 4.170276e-05 2.985634e-05 9.455566e-01 3.034668e-01
1.287025e+08 9.641113e-01 2.390747e-01 1.313165e-07 -6.549526e-06 2.314337e-05 -1.865253e-05 9.458618e-01 3.045044e-01
1.289203e+08 9.639282e-01 2.399902e-01 -7.417053e-06 -2.243370e-05 -2.940651e-06 1.941342e-06 9.461060e-01 3.056641e-01
1.291381e+08 9.642944e-01 2.402954e-01 7.809140e-06 2.779532e-06 2.787821e-05 2.044626e-05 9.454956e-01 3.062134e-01
1.293559e+08 9.646606e-01 2.407837e-01 2.091751e-05 3.041700e-06 -1.100730e-05 1.403783e-05 9.449463e-01 3.073120e-01
1.295738e+08 9.639282e-01 2.418823e-01 2.778135e-06 -7.808208e-06 2.228469e-05 4.880130e-07 9.439697e-01 3.078613e-01
1.297916e+08 9.644775e-01 2.433472e-01 8.197501e-06 -1.687557e-05 -2.024323e-05 1.672748e-05 9.440918e-01 3.087769e-01
1.300094e+08 9.640503e-01 2.434082e-01 -5.818903e-06 2.871640e-05 -1.482852e-05 3.514066e-05 9.438477e-01 3.099976e-01
1.302272e+08 9.639893e-01 2.450562e-01 -6.236136e-05 -2.879649e-05 2.932549e-05 6.008893e-06 9.436646e-01 3.107910e-01
1.304450e+08 9.637451e-01 2.454834e-01 1.310837e-05 2.635643e-07 6.392598e-06 -2.619065e-05 9.436646e-01 3.119507e-01
1.306628e+08 9.642944e-01 2.465210e-01 3.458932e-05 -2.292171e-05 4.718080e-06 -4.031323e-05 9.439697e-01 3.131714e-01
1.308806e+08 9.636841e-01 2.478027e-01 4.741549e-05 -9.544194e-06 1.655705e-05 -2.107583e-05 9.429932e-01 3.136597e-01
1.310984e+08 9.631958e-01 2.484131e-01 2.187863e-05 -4.287437e-05 -1.843367e-05 5.397946e-06 9.431763e-01 3.145752e-01
1.313162e+08 9.631348e-01 2.492676e-01 4.187599e-05 6.094575e-06 1.821667e-06 -1.134817e-05 9.428711e-01 3.154907e-01
1.315341e+08 9.636841e-01 2.501831e-01 4.216656e-05 -6.999820e-06 1.530908e-05 -5.010515e-06 9.428101e-01 3.170166e-01
1.317519e+08 9.637451e-01 2.503662e-01 -6.910414e-07 3.282167e-05 -4.271045e-06 -9.033829e-06 9.426880e-01 3.178711e-01
1.319697e+08 9.627075e-01 2.517090e-01 -1.762249e-05 -3.714859e-05 -1.146924e-05 -1.611840e-05 9.426270e-01 3.184204e-01
1.321875e+08 9.632568e-01 2.523804e-01 1.285132e-05 1.341105e-05 4.221871e-05 -1.938082e-05 9.420166e-01 3.198242e-01
1.324053e+08 9.638062e-01 2.536011e-01 -2.904050e-05 7.277355e-06 -2.380088e-05 1.399405e-05 9.418945e-01 3.205566e-01
1.326231e+08 9.628906e-01 2.548828e-01 -2.109073e-05 3.514811e-06 -8.530915e-07 4.623830e-05 9.421387e-01 3.208618e-01
1.328409e+08 9.633789e-01 2.553711e-01 -1.387671e-07 6.564893e-06 9.451061e-06 2.592616e-05 9.414062e-01 3.231201e-01
1.330588e+08 9.630737e-01 2.556152e-01 1.817290e-05 1.086947e-05 2.591312e-05 3.032386e-05 9.413452e-01 3.229980e-01
1.332766e+08 9.635010e-01 2.569580e-01 -3.898889e-05 -2.052821e-05 -1.877779e-07 -1.570093e-06 9.411011e-01 3.251343e-01
1.334944e+08 9.633789e-01 2.576294e-01 7.837079e-06 2.796296e-06 1.312234e-06 1.099054e-05 9.422607e-01 3.262939e-01
1.337122e+08 9.623413e-01 2.594604e-01 5.176291e-06 4.059169e-06 3.213249e-05 2.549961e-06 9.418945e-01 3.276367e-01
1.339300e+08 9.637451e-01 2.589722e-01 -2.099760e-05 -3.090128e-06 -5.103648e-07 2.236851e-05 9.422607e-01 3.284912e-01
1.341478e+08 9.632568e-01 2.598267e-01 -5.318318e-06 2.518762e-06 1.715403e-05 -1.639035e-05 9.416504e-01 3.289185e-01
1.343656e+08 9.631348e-01 2.615356e-01 1.063850e-05 -5.037524e-06 -5.722512e-06 5.462673e-06 9.416504e-01 3.298950e-01
1.345834e+08 9.645996e-01 2.618408e-01 -2.057850e-05 -2.281554e-05 6.662216e-06 2.395362e-06 9.416504e-01 3.303833e-01
1.348012e+08 9.640503e-01 2.619629e-01 1.064315e-05 -5.037524e-06 -1.691282e-06 -1.414120e-05 9.412231e-01 3.318481e-01
1.350191e+08 9.639893e-01 2.639771e-01 3.079325e-05 3.750995e-05 -1.796708e-05 -1.699012e-05 9.412231e-01 3.327637e-01
1.352369e+08 9.636841e-01 2.646484e-01 -2.521090e-06 -5.323905e-06 -2.659857e-05 4.460290e-05 9.418335e-01 3.341064e-01
1.354547e+08 9.646606e-01 2.647705e-01 2.676249e-05 -1.917593e-05 -1.038192e-05 -6.733928e-06 9.415894e-01 3.352051e-01
1.356725e+08 9.652100e-01 2.655029e-01 1.399033e-05 -3.922731e-05 -2.867356e-05 2.736971e-05 9.417725e-01 3.353271e-01
1.358903e+08 9.647827e-01 2.673950e-01 -2.808869e-06 7.842667e-06 -1.147203e-05 1.094770e-05 9.414062e-01 3.373413e-01
1.361081e+08 9.642944e-01 2.677002e-01 -1.835730e-05 -4.357658e-06 1.516845e-05 -6.587245e-06 9.418335e-01 3.378296e-01
1.363259e+08 9.643555e-01 2.688599e-01 -5.188864e-06 -4.068017e-06 2.775341e-05 -8.072704e-06 9.424438e-01 3.385010e-01
1.365438e+08 9.648438e-01 2.695923e-01 -4.131347e-06 -5.022436e-05 -5.443394e-05 2.561882e-05 9.417725e-01 3.403931e-01
1.367616e+08 9.654541e-01 2.708740e-01 -4.388392e-05 -4.447624e-05 -4.814938e-06 1.334492e-05 9.417725e-01 3.406372e-01
1.369794e+08 9.654541e-01 2.717285e-01 8.713454e-06 -3.672391e-05 -1.611561e-05 2.585538e-05 9.412231e-01 3.412476e-01
1.371972e+08 9.658203e-01 2.720337e-01 1.808070e-05 1.755077e-05 3.669970e-05 1.324154e-05 9.417725e-01 3.427124e-01
1.374150e+08 9.654541e-01 2.724609e-01 4.150718e-05 3.257394e-05 -3.407151e-05 6.313249e-05 9.423828e-01 3.434448e-01
1.376328e+08 9.656982e-01 2.736206e-01 -2.594851e-05 -2.036057e-05 7.235911e-06 7.134862e-06 9.425659e-01 3.441772e-01
1.378506e+08 9.663696e-01 2.743530e-01 -2.610683e-05 -1.377612e-05 -1.353770e-05 -6.393529e-06 9.429932e-01 3.458862e-01
1.380684e+08 9.664917e-01 2.753296e-01 -2.389029e-05 4.738569e-06 -2.465956e-05 7.711351e-06 9.431763e-01 3.470459e-01
1.382862e+08 9.674683e-01 2.764282e-01 -2.106838e-05 -3.099442e-06 1.522806e-05 2.059340e-05 9.426880e-01 3.473511e-01
1.385041e+08 9.664307e-01 2.770386e-01 4.131347e-06 5.024672e-05 1.335237e-05 4.819594e-06 9.418945e-01 3.485107e-01
1.387219e+08 9.674683e-01 2.780151e-01 -4.123896e-06 -5.028397e-05 1.542270e-05 4.936755e-05 9.423828e-01 3.498535e-01
1.389397e+08 9.676514e-01 2.789307e-01 1.038332e-05 8.154660e-06 -1.634005e-05 -2.869405e-06 9.427490e-01 3.500366e-01
1.391575e+08 9.678345e-01 2.788696e-01 1.290627e-05 1.350977e-05 1.169927e-05 1.781434e-05 9.433594e-01 3.511963e-01
1.393753e+08 9.672241e-01 2.804565e-01 1.946837e-05 -4.183501e-05 2.003368e-05 -1.994614e-05 9.428711e-01 3.526611e-01
1.395931e+08 9.682007e-01 2.807007e-01 2.063438e-05 2.294220e-05 -2.896786e-05 -1.382083e-06 9.437256e-01 3.530884e-01
1.398109e+08 9.684448e-01 2.814331e-01 -1.573563e-05 -5.658716e-06 1.652166e-05 4.460104e-06 9.437866e-01 3.551025e-01
1.400288e+08 9.690552e-01 2.821045e-01 4.785135e-05 -9.492040e-06 -2.060086e-06 -4.458055e-05 9.451904e-01 3.557739e-01
1.402466e+08 9.689941e-01 2.834473e-01 -5.642883e-06 1.572724e-05 6.131828e-06 -2.320390e-06 9.434814e-01 3.559570e-01
1.404644e+08 9.691772e-01 2.842407e-01 -4.232675e-05 3.241003e-07 -2.192147e-05 4.168600e-06 9.440918e-01 3.579712e-01
1.406822e+08 9.704590e-01 2.850952e-01 1.603179e-05 -7.572584e-06 3.716908e-06 4.370930e-06 9.440308e-01 3.577271e-01
1.409000e+08 9.707031e-01 2.861328e-01 8.771196e-06 -3.684126e-05 7.987954e-06 1.348928e-05 9.448853e-01 3.587646e-01
1.411178e+08 9.714355e-01 2.864990e-01 -9.950250e-06 -2.803653e-05 1.970958e-05 4.097819e-06 9.458618e-01 3.597412e-01
1.413356e+08 9.712524e-01 2.877808e-01 4.600734e-07 -1.984462e-05 -3.198721e-05 5.289912e-07 9.454346e-01 3.607178e-01
1.415534e+08 9.718018e-01 2.882690e-01 2.030283e-05 -7.501617e-05 8.927658e-06 -5.854759e-06 9.460449e-01 3.621216e-01
1.417712e+08 9.715576e-01 2.885742e-01 2.220273e-06 1.859851e-05 -4.089624e-05 -2.087280e-05 9.465942e-01 3.626709e-01
1.419891e+08 9.718628e-01 2.899170e-01 -6.295741e-07 2.647378e-05 3.126450e-05 -6.861985e-06 9.460449e-01 3.638916e-01
1.422069e+08 9.729614e-01 2.897339e-01 7.579103e-06 1.608022e-05 1.339242e-05 3.210828e-05 9.470215e-01 3.646240e-01
1.424247e+08 9.725342e-01 2.907104e-01 1.937151e-05 -3.531948e-05 2.432615e-06 -3.394857e-05 9.465942e-01 3.652954e-01
1.426425e+08 9.737549e-01 2.910767e-01 2.334081e-05 2.173707e-05 2.848171e-05 2.394058e-05 9.473267e-01 3.660889e-01
1.428603e+08 9.741821e-01 2.915039e-01 -1.278333e-05 -2.018549e-05 3.573298e-05 3.835186e-06 9.481201e-01 3.666992e-01
1.430781e+08 9.744263e-01 2.931519e-01 2.191216e-05 -2.996251e-05 2.611196e-06 -5.117850e-06 9.478760e-01 3.678589e-01
1.432959e+08 9.749756e-01 2.940063e-01 2.460741e-05 -3.124587e-05 -2.954155e-06 -2.533756e-05 9.484863e-01 3.691406e-01
1.435138e+08 9.748535e-01 2.944336e-01 3.499538e-05 -2.302788e-05 1.567230e-05 -3.070757e-05 9.481812e-01 3.690796e-01
1.437316e+08 9.755249e-01 2.943726e-01 1.373887e-05 -1.956522e-05 -5.961861e-06 3.905967e-06 9.488525e-01 3.705444e-01
1.439494e+08 9.760742e-01 2.955322e-01 -1.642853e-05 2.084114e-05 4.172325e-07 -5.144253e-05 9.497070e-01 3.711548e-01
1.441672e+08 9.759521e-01 2.960205e-01 3.155321e-06 -2.115592e-05 3.893487e-05 3.479421e-06 9.497070e-01 3.721924e-01
1.443850e+08 9.767456e-01 2.963867e-01 2.401695e-05 -4.742295e-06 -2.760440e-05 1.125224e-05 9.509888e-01 3.727417e-01
1.446028e+08 9.771118e-01 2.971191e-01 -4.249439e-05 2.942979e-07 3.503822e-05 -2.475455e-06 9.506836e-01 3.739014e-01
1.448206e+08 9.772949e-01 2.985229e-01 2.621859e-05 1.390837e-05 -1.225062e-05 -2.267957e-05 9.506836e-01 3.746948e-01
1.450384e+08 9.791870e-01 2.985840e-01 -3.143772e-05 -1.803227e-05 2.335384e-05 -2.040155e-05 9.519653e-01 3.755493e-01
1.452562e+08 9.789429e-01 2.989502e-01 1.720712e-05 5.749241e-05 -2.719462e-07 -5.782396e-05 9.519043e-01 3.757935e-01
1.454741e+08 9.797974e-01 2.999878e-01 1.895241e-05 -1.548696e-05 1.324341e-05 3.292225e-06 9.525146e-01 3.762817e-01
1.456919e+08 9.801636e-01 3.001099e-01 -5.214941e-06 -4.107598e-06 -4.327670e-05 -1.266599e-05 9.524536e-01 3.775024e-01
1.459097e+08 9.808350e-01 3.008423e-01 3.984943e-05 9.685755e-07 2.594851e-05 1.803041e-06 9.535522e-01 3.783569e-01
1.461275e+08 9.803467e-01 3.015137e-01 1.547858e-05 1.897383e-05 -1.512654e-05 8.178875e-06 9.533081e-01 3.784790e-01
1.463453e+08 9.810181e-01 3.017578e-01 1.581572e-05 5.715527e-06 -4.553050e-05 -4.362315e-06 9.543457e-01 3.803711e-01
1.465631e+08 9.823608e-01 3.026733e-01 -2.908148e-05 -6.048009e-06 -1.771655e-05 -1.404528e-05 9.539185e-01 3.811035e-01
1.467809e+08 9.830322e-01 3.027344e-01 -7.742550e-06 -9.489711e-06 -2.706610e-05 -1.135841e-05 9.544678e-01 3.811646e-01
1.469988e+08 9.826660e-01 3.036499e-01 8.720905e-06 -3.037788e-05 9.524636e-06 -1.100823e-06 9.557495e-01 3.818970e-01
1.472166e+08 9.836426e-01 3.038940e-01 -2.137199e-05 3.470108e-06 3.084540e-05 -1.162104e-05 9.564819e-01 3.827515e-01
1.474344e+08 9.842529e-01 3.045654e-01 2.723001e-05 -2.595596e-05 9.806827e-07 -1.943577e-05 9.564819e-01 3.830566e-01
1.476522e+08 9.848633e-01 3.047485e-01 5.057082e-06 1.076050e-05 2.994388e-05 -1.956709e-05 9.565430e-01 3.839722e-01
1.478700e+08 9.851685e-01 3.049927e-01 4.779175e-05 3.840774e-06 1.685414e-05 -2.126209e-05 9.569092e-01 3.853149e-01
1.480878e+08 9.855957e-01 3.054810e-01 8.238479e-06 -1.044944e-05 -1.888163e-05 3.785826e-06 9.582520e-01 3.853149e-01
1.483056e+08 9.863281e-01 3.059692e-01 -7.428229e-06 -2.279133e-05 -2.299063e-05 -3.779307e-06 9.580078e-01 3.854980e-01
1.485234e+08 9.869995e-01 3.070679e-01 2.156012e-05 -1.010485e-05 -1.208857e-06 -3.853254e-05 9.591064e-01 3.867798e-01
1.487412e+08 9.868164e-01 3.067627e-01 1.297053e-05 1.364481e-05 -2.786517e-05 9.667128e-06 9.595337e-01 3.879395e-01
1.489591e+08 9.874268e-01 3.073730e-01 2.898276e-05 1.270883e-05 1.894496e-05 -3.117882e-05 9.603882e-01 3.876953e-01
1.491769e+08 9.885254e-01 3.071289e-01 1.665950e-05 -2.755038e-05 -4.101545e-06 -7.582363e-06 9.605713e-01 3.879395e-01
1.493947e+08 9.893188e-01 3.076172e-01 2.696877e-06 -1.265202e-06 5.558878e-05 -2.092868e-05 9.611206e-01 3.886108e-01
1.496125e+08 9.898071e-01 3.085327e-01 8.257106e-06 -1.045782e-05 2.019014e-05 7.338822e-06 9.616699e-01 3.894653e-01
1.498303e+08 9.900513e-01 3.088379e-01 -8.597970e-06 2.377480e-05 3.181165e-06 -3.662426e-07 9.619751e-01 3.901978e-01
1.500481e+08 9.912109e-01 3.091431e-01 -2.884120e-05 -1.936965e-05 5.502254e-05 1.732260e-06 9.624634e-01 3.900757e-01
1.502659e+08 9.920044e-01 3.088989e-01 2.411194e-05 -4.725531e-06 2.117269e-05 -1.213048e-05 9.633789e-01 3.911133e-01
1.504838e+08 9.912109e-01 3.093872e-01 1.416169e-05 -3.296882e-05 -2.245605e-05 9.685755e-07 9.639282e-01 3.916016e-01
1.507016e+08 9.925537e-01 3.099365e-01 -4.519895e-05 -5.114824e-06 1.928397e-05 -6.072223e-07 9.644165e-01 3.915405e-01
1.509194e+08 9.924927e-01 3.108521e-01 4.873611e-06 1.746044e-05 -2.865121e-05 3.287569e-06 9.647217e-01 3.931885e-01
1.511372e+08 9.934082e-01 3.109131e-01 -1.822785e-05 -1.781341e-05 4.825182e-06 1.395866e-05 9.656372e-01 3.930054e-01
1.513550e+08 9.942017e-01 3.109131e-01 8.271076e-06 -1.045596e-05 -2.412125e-05 -1.335517e-05 9.652100e-01 3.933716e-01
1.515728e+08 9.949341e-01 3.108521e-01 5.740672e-06 -1.586601e-05 -5.508773e-07 -4.778849e-06 9.665527e-01 3.937988e-01
1.517906e+08 9.946899e-01 3.110352e-01 -3.695302e-05 -1.559034e-05 -2.030842e-05 -3.637187e-05 9.667358e-01 3.929443e-01
1.520084e+08 9.963989e-01 3.115845e-01 2.935901e-05 -5.811453e-07 1.128204e-05 -1.421943e-05 9.668579e-01 3.944702e-01
1.522262e+08 9.971924e-01 3.114624e-01 7.420778e-06 2.287142e-05 -9.750016e-06 -4.940666e-07 9.676514e-01 3.952637e-01
1.524441e+08 9.973145e-01 3.114014e-01 2.567843e-05 4.075095e-05 -1.959503e-06 -4.498661e-05 9.697876e-01 3.959351e-01
1.526619e+08 9.973145e-01 3.114624e-01 4.202127e-05 2.642721e-05 -2.328679e-05 2.205931e-05 9.690552e-01 3.956909e-01
1.528797e+08 9.981689e-01 3.116455e-01 1.064688e-05 1.600944e-06 3.378093e-05 -1.518242e-05 9.702759e-01 3.960571e-01
1.530975e+08 9.981689e-01 3.123169e-01 1.981482e-05 -4.222989e-05 -1.912843e-05 2.174638e-06 9.704590e-01 3.972168e-01
1.533153e+08 9.995117e-01 3.119507e-01 2.143905e-05 -3.464520e-06 8.944422e-06 2.158992e-05 9.701538e-01 3.970337e-01
1.535331e+08 9.987793e-01 3.129272e-01 2.164952e-05 -1.011416e-05 -8.992851e-06 -5.064532e-05 9.713135e-01 3.983154e-01
1.537509e+08 1.000000e+00 3.129883e-01 1.587439e-05 5.757436e-06 2.160110e-05 -8.932315e-06 9.715576e-01 3.977661e-01
1.539688e+08 1.000610e+00 3.133545e-01 2.182089e-06 1.878198e-05 -2.826797e-06 3.554625e-06 9.735107e-01 3.986206e-01
1.541866e+08 1.000488e+00 3.128052e-01 1.824088e-05 1.784507e-05 -3.079697e-05 1.320988e-05 9.728394e-01 3.981934e-01
1.544044e+08 1.002380e+00 3.123169e-01 -2.078712e-05 -2.326258e-05 8.658972e-06 -9.076670e-06 9.738159e-01 3.981323e-01
1.546222e+08 1.002930e+00 3.128662e-01 -4.208833e-05 -2.652779e-05 -1.021102e-05 -3.278628e-05 9.743042e-01 3.994141e-01
1.548400e+08 1.003052e+00 3.125000e-01 -2.421066e-05 4.716218e-06 1.826324e-06 1.596007e-05 9.754639e-01 3.992920e-01
1.550578e+08 1.003113e+00 3.131714e-01 -1.554098e-05 -1.912843e-05 1.003407e-05 -2.538972e-05 9.746094e-01 3.994751e-01
1.552756e+08 1.003784e+00 3.128052e-01 -7.603317e-06 -1.624133e-05 1.268834e-05 -3.055297e-05 9.758911e-01 3.994141e-01
1.554934e+08 1.004395e+00 3.132324e-01 -2.855062e-05 -3.286079e-05 3.363937e-05 3.984571e-05 9.760742e-01 4.005127e-01
1.557112e+08 1.005249e+00 3.119507e-01 8.300878e-06 -1.048390e-05 -1.076329e-05 1.903623e-05 9.769897e-01 4.000244e-01
1.559291e+08 1.005737e+00 3.129883e-01 -6.016344e-05 -5.110353e-05 -9.949319e-06 -2.104323e-06 9.772339e-01 4.002075e-01
1.561469e+08 1.006104e+00 3.130493e-01 -1.500919e-05 -3.921241e-05 1.085596e-05 1.008855e-05 9.780884e-01 4.005127e-01
1.563647e+08 1.006653e+00 3.132324e-01 -6.154180e-06 2.928078e-05 -1.266971e-05 -2.607517e-05 9.788208e-01 4.005737e-01
1.565825e+08 1.007019e+00 3.126831e-01 -1.879316e-05 2.169982e-06 -5.661510e-06 7.115304e-06 9.783325e-01 4.006348e-01
1.568003e+08 1.006470e+00 3.129883e-01 -6.623566e-05 -2.857298e-05 -1.988187e-05 -4.222617e-06 9.801636e-01 4.009399e-01
1.570181e+08 1.008301e+00 3.121948e-01 1.048855e-05 8.322299e-06 -1.780968e-05 -1.416449e-05 9.799194e-01 4.013062e-01
1.572359e+08 1.008545e+00 3.129272e-01 1.734495e-05 -4.775450e-05 -2.698228e-05 1.924857e-05 9.801636e-01 4.010010e-01
1.574538e+08 1.008911e+00 3.125610e-01 3.254041e-06 -2.134405e-05 -1.792051e-05 1.337379e-05 9.808350e-01 4.011841e-01
1.576716e+08 1.009521e+00 3.126221e-01 -2.117455e-05 -9.942800e-06 5.774572e-05 -4.936010e-06 9.815063e-01 4.008179e-01
1.578894e+08 1.009583e+00 3.120117e-01 -3.745407e-05 -2.324581e-06 -1.827255e-05 1.016818e-05 9.822998e-01 4.009399e-01
1.581072e+08 1.010254e+00 3.120728e-01 -8.668751e-06 2.387911e-05 -8.146279e-06 1.388043e-05 9.824829e-01 4.007568e-01
1.583250e+08 1.010742e+00 3.121338e-01 5.610753e-06 -9.233132e-06 -5.672686e-06 7.124152e-06 9.830322e-01 4.015503e-01
1.585428e+08 1.010925e+00 3.120728e-01 -4.165992e-05 5.247816e-05 -1.032138e-05 -5.314592e-06 9.832764e-01 4.013672e-01
1.587606e+08 1.011780e+00 3.120117e-01 -1.013465e-05 -2.172589e-05 1.347065e-05 -2.422184e-05 9.837036e-01 4.010620e-01
1.589784e+08 1.012634e+00 3.119507e-01 -7.964205e-06 -2.902001e-06 -5.407631e-05 9.361655e-06 9.841309e-01 4.015503e-01
1.591962e+08 1.012878e+00 3.109131e-01 -4.165247e-05 -4.677847e-05 -2.569892e-05 -2.628192e-05 9.852905e-01 4.018555e-01
1.594141e+08 1.012878e+00 3.109131e-01 5.420297e-07 -2.011098e-05 -3.002770e-05 2.123043e-05 9.855347e-01 4.009399e-01
1.596319e+08 1.013550e+00 3.101807e-01 1.793727e-06 3.223866e-05 -1.388602e-06 1.637358e-05 9.853516e-01 4.010620e-01
1.598497e+08 1.014404e+00 3.096313e-01 -7.433817e-06 -2.301671e-05 -4.128926e-05 7.944182e-06 9.867554e-01 4.003296e-01
1.600675e+08 1.014343e+00 3.097534e-01 4.456937e-05 3.880635e-05 -9.683892e-06 -2.810732e-05 9.868164e-01 4.016724e-01
1.602853e+08 1.014893e+00 3.096313e-01 -1.867022e-05 -4.540198e-06 -3.931578e-06 -6.045215e-06 9.873047e-01 4.018555e-01
1.605031e+08 1.013977e+00 3.087769e-01 -9.220093e-07 3.351457e-05 -2.953596e-05 -3.138557e-06 9.871826e-01 4.009399e-01
1.607209e+08 1.014648e+00 3.099976e-01 -4.768372e-05 -2.412125e-05 2.663350e-06 -5.167443e-06 9.881592e-01 4.012451e-01
1.609388e+08 1.015015e+00 3.100586e-01 -5.624723e-06 9.240117e-06 3.241003e-07 -2.600253e-05 9.881592e-01 4.010010e-01
1.611566e+08 1.016418e+00 3.092651e-01 -1.792237e-05 -3.138185e-05 1.567230e-05 -5.014241e-06 9.884644e-01 4.010010e-01
1.613744e+08 1.016724e+00 3.082275e-01 6.843358e-06 4.314631e-05 -2.960302e-05 -3.142282e-06 9.884033e-01 4.008179e-01
1.615922e+08 1.016663e+00 3.089600e-01 3.136136e-05 3.176369e-05 -5.008653e-06 -1.568161e-05 9.896240e-01 4.003906e-01
1.618100e+08 1.016541e+00 3.084717e-01 2.336688e-05 2.884679e-05 1.121312e-05 -1.587812e-05 9.893188e-01 3.998413e-01
1.620278e+08 1.016235e+00 3.076172e-01 -1.905765e-05 8.883886e-06 1.339987e-05 3.260560e-05 9.898071e-01 3.998413e-01
1.622456e+08 1.017273e+00 3.068237e-01 -1.830701e-05 -1.796987e-05 -1.215469e-05 -2.138503e-05 9.894409e-01 3.999634e-01
1.624634e+08 1.016541e+00 3.070068e-01 -2.959929e-05 5.289912e-07 1.586322e-05 -3.406778e-06 9.907227e-01 3.995361e-01
1.626812e+08 1.017456e+00 3.067627e-01 2.029166e-05 4.356354e-05 -3.744289e-05 1.393072e-05 9.902954e-01 3.992310e-01
1.628991e+08 1.017822e+00 3.063965e-01 4.627556e-05 -2.156198e-05 2.102740e-05 -1.535099e-05 9.907227e-01 3.992310e-01
1.631169e+08 1.018188e+00 3.056641e-01 -1.521781e-05 -3.269315e-05 -4.581362e-05 2.627447e-05 9.913330e-01 3.995972e-01
1.633347e+08 1.018127e+00 3.050537e-01 7.608905e-06 1.634657e-05 3.499538e-05 2.206117e-05 9.917603e-01 3.989258e-01
1.635525e+08 1.017273e+00 3.059692e-01 -2.940185e-05 -6.197020e-06 1.070043e-05 8.555595e-06 9.918213e-01 3.977051e-01
1.637703e+08 1.017883e+00 3.049927e-01 4.071742e-06 -4.833564e-05 -3.674626e-05 2.036802e-05 9.922485e-01 3.994141e-01
1.639881e+08 1.018494e+00 3.047485e-01 6.014481e-06 -2.271682e-05 -2.051797e-05 2.019387e-05 9.928589e-01 3.978882e-01
1.642059e+08 1.018616e+00 3.037109e-01 7.797033e-06 9.642448e-06 -5.302951e-06 3.965944e-05 9.924316e-01 3.981323e-01
1.644238e+08 1.018921e+00 3.041992e-01 -1.364015e-05 6.338581e-06 1.391862e-05 -2.107024e-05 9.925537e-01 3.981323e-01
1.646416e+08 1.018860e+00 3.040771e-01 2.162531e-06 1.891050e-05 -9.105075e-06 5.893409e-06 9.934082e-01 3.969116e-01
1.648594e+08 1.018921e+00 3.029785e-01 -3.359467e-05 -5.076826e-05 1.213513e-05 -7.864088e-06 9.935303e-01 3.967896e-01
1.650772e+08 1.018921e+00 3.023071e-01 2.541579e-06 5.453825e-06 1.594424e-06 -1.482479e-05 9.933472e-01 3.956909e-01
1.652950e+08 1.019409e+00 3.015747e-01 7.996336e-06 2.918765e-06 -3.477931e-05 3.810972e-05 9.933472e-01 3.965454e-01
1.655128e+08 1.019836e+00 3.013306e-01 1.844019e-07 -6.727409e-06 1.500268e-05 -1.145527e-05 9.939575e-01 3.953247e-01
1.657306e+08 1.018616e+00 3.002319e-01 1.269393e-05 2.728403e-05 -2.213940e-05 5.748123e-06 9.933472e-01 3.953247e-01
1.659484e+08 1.019104e+00 3.004761e-01 -2.183765e-05 1.014955e-05 1.909770e-05 -3.306754e-05 9.935303e-01 3.952026e-01
1.661662e+08 1.018311e+00 3.003540e-01 1.326669e-05 7.115304e-06 9.824988e-06 5.303882e-07 9.938354e-01 3.950806e-01
1.663841e+08 1.018738e+00 2.996826e-01 -3.511831e-05 3.037974e-06 2.482720e-05 -1.091883e-05 9.938965e-01 3.947144e-01
1.666019e+08 1.019287e+00 2.994385e-01 1.092814e-05 -5.082227e-06 -6.796792e-06 -2.499204e-06 9.944458e-01 3.941650e-01
1.668197e+08 1.018738e+00 2.996826e-01 3.730692e-05 1.588278e-05 -9.657815e-06 3.039092e-05 9.949951e-01 3.939819e-01
1.670375e+08 1.018921e+00 2.982788e-01 3.300607e-06 -2.148189e-05 -2.861768e-05 -2.286397e-05 9.948730e-01 3.934937e-01
1.672553e+08 1.018250e+00 2.984619e-01 -3.693625e-05 -2.935901e-05 -4.652888e-06 -1.250952e-05 9.949341e-01 3.932495e-01
1.674731e+08 1.018066e+00 2.976685e-01 1.132209e-05 -1.855846e-05 -7.693190e-06 -1.054397e-05 9.940796e-01 3.935547e-01
1.676909e+08 1.018921e+00 2.962646e-01 2.793595e-05 6.014109e-05 2.134126e-06 -1.001731e-05 9.939575e-01 3.929443e-01
1.679088e+08 1.018860e+00 2.964478e-01 3.824383e-05 -1.777895e-05 2.758764e-05 4.258007e-05 9.937744e-01 3.920898e-01
1.681266e+08 1.018616e+00 2.962646e-01 1.890585e-07 -6.744638e-06 -1.071021e-06 1.968630e-05 9.951172e-01 3.917847e-01
1.683444e+08 1.017761e+00 2.949829e-01 4.628673e-05 -1.486018e-05 4.202686e-05 -3.078952e-06 9.942017e-01 3.911133e-01
1.685622e+08 1.017517e+00 2.956543e-01 -1.659431e-05 1.435354e-05 -3.327057e-05 -3.542006e-05 9.937744e-01 3.907471e-01
1.687800e+08 1.017639e+00 2.940674e-01 -1.932494e-07 6.742310e-06 5.424954e-07 4.830770e-06 9.942627e-01 3.904419e-01
1.689978e+08 1.016785e+00 2.944946e-01 -1.659896e-05 1.436658e-05 2.487376e-05 4.775822e-05 9.941406e-01 3.897705e-01
1.692156e+08 1.016968e+00 2.941284e-01 9.350479e-06 -4.427880e-05 2.989359e-05 4.816800e-06 9.937744e-01 3.897705e-01
1.694334e+08 1.017395e+00 2.933350e-01 2.697855e-05 7.674098e-07 -5.556270e-06 -2.058968e-05 9.936523e-01 3.891602e-01
1.696512e+08 1.017090e+00 2.932739e-01 3.066845e-05 -3.420934e-05 1.898222e-05 -5.372800e-06 9.930420e-01 3.886719e-01
1.698691e+08 1.016602e+00 2.921143e-01 1.368858e-05 -6.362796e-06 9.847805e-06 5.308539e-07 9.934692e-01 3.883667e-01
1.700869e+08 1.016113e+00 2.921753e-01 1.678802e-05 -2.113171e-05 5.640462e-05 -2.097711e-05 9.931030e-01 3.874512e-01
1.703047e+08 1.016174e+00 2.910156e-01 5.614758e-05 2.049282e-05 4.662201e-06 1.253840e-05 9.931030e-01 3.872070e-01
1.705225e+08 1.015015e+00 2.905884e-01 -3.187917e-05 -1.847371e-05 -1.701619e-05 -6.262213e-06 9.931030e-01 3.874512e-01
1.707403e+08 1.015503e+00 2.913818e-01 -4.304573e-05 -6.657094e-06 -4.448742e-05 1.145154e-05 9.928589e-01 3.874512e-01
1.709581e+08 1.014893e+00 2.904663e-01 -6.463379e-06 3.629923e-05 -2.401136e-05 -1.040474e-05 9.931641e-01 3.867798e-01
1.711759e+08 1.014282e+00 2.900391e-01 -2.467632e-05 1.144782e-05 1.074560e-05 8.605421e-06 9.927368e-01 3.864746e-01
1.713938e+08 1.014404e+00 2.891846e-01 -4.090741e-05 1.231954e-05 5.383044e-07 3.424101e-05 9.915771e-01 3.861694e-01
1.716116e+08 1.013794e+00 2.890625e-01 1.096632e-05 -5.089678e-06 4.248507e-05 1.899898e-07 9.918213e-01 3.856201e-01
1.718294e+08 1.013428e+00 2.888184e-01 2.701394e-05 7.916242e-07 5.741138e-06 -7.172115e-06 9.910278e-01 3.850708e-01
1.720472e+08 1.013184e+00 2.880249e-01 5.674083e-06 -9.302981e-06 4.787743e-05 -1.021475e-05 9.910278e-01 3.840942e-01
1.722650e+08 1.012634e+00 2.872314e-01 4.094094e-05 -1.233816e-05 4.479662e-06 4.036911e-05 9.909058e-01 3.839722e-01
1.724828e+08 1.012329e+00 2.874146e-01 -2.115220e-05 -1.684576e-05 7.899851e-05 -5.456060e-05 9.901123e-01 3.835449e-01
1.727006e+08 1.012085e+00 2.866211e-01 -1.941808e-07 6.759074e-06 7.143244e-07 6.460119e-06 9.904175e-01 3.828125e-01
1.729184e+08 1.011353e+00 2.863159e-01 2.685376e-05 7.545575e-06 1.111906e-05 1.185201e-05 9.899902e-01 3.830566e-01
1.731362e+08 1.011108e+00 2.858887e-01 -1.791865e-06 -3.252365e-05 -7.826462e-05 2.115965e-06 9.896851e-01 3.816528e-01
1.733541e+08 1.010315e+00 2.855225e-01 2.450310e-05 -4.680827e-06 1.183990e-05 1.831073e-05 9.887695e-01 3.825684e-01
1.735719e+08 1.009155e+00 2.852783e-01 -2.723932e-05 5.982816e-06 -1.201313e-05 -1.992472e-05 9.887085e-01 3.816528e-01
1.737897e+08 1.009460e+00 2.848511e-01 -6.716698e-06 4.312024e-05 1.527276e-05 -9.868294e-06 9.879761e-01 3.825684e-01
1.740075e+08 1.008911e+00 2.851562e-01 2.149493e-06 1.901202e-05 -3.001839e-05 2.459250e-05 9.876709e-01 3.812866e-01
1.742253e+08 1.008301e+00 2.845459e-01 -7.844530e-06 -9.711832e-06 4.679896e-06 -1.688115e-05 9.879761e-01 3.810425e-01
1.744431e+08 1.007935e+00 2.833252e-01 -3.175251e-05 -2.532266e-05 -2.012402e-05 -4.317611e-06 9.868774e-01 3.809814e-01
1.746609e+08 1.007202e+00 2.843018e-01 -6.034970e-06 -7.068738e-05 1.993962e-05 2.725050e-06 9.867554e-01 3.810425e-01
1.748788e+08 1.006042e+00 2.835083e-01 8.830801e-06 -2.413057e-05 2.370216e-05 7.214025e-06 9.859009e-01 3.799438e-01
1.750966e+08 1.005432e+00 2.838745e-01 2.532452e-05 -3.177859e-05 -6.170943e-06 3.341213e-05 9.851685e-01 3.801270e-01
1.753144e+08 1.005127e+00 2.824707e-01 -4.503876e-06 -3.133714e-05 4.062615e-05 -1.759641e-05 9.854736e-01 3.798218e-01
1.755322e+08 1.004456e+00 2.827759e-01 -2.945308e-06 8.044764e-06 -3.832765e-05 3.860518e-05 9.844360e-01 3.790283e-01
1.757500e+08 1.004395e+00 2.816162e-01 8.195639e-07 -2.708845e-05 6.113201e-06 2.552941e-05 9.837646e-01 3.795166e-01
1.759678e+08 1.003906e+00 2.816772e-01 -1.925975e-06 -2.581254e-05 -8.637086e-06 1.078472e-05 9.829102e-01 3.791504e-01
1.761856e+08 1.002563e+00 2.820435e-01 1.863856e-05 1.141895e-05 -4.479662e-06 -1.097098e-05 9.827881e-01 3.787842e-01
1.764034e+08 1.002747e+00 2.814941e-01 -1.651701e-05 7.627532e-06 -8.085743e-06 -1.385994e-05 9.822998e-01 3.790894e-01
1.766212e+08 1.001465e+00 2.807007e-01 -7.853378e-06 -9.730458e-06 1.007318e-05 2.166722e-06 9.816895e-01 3.774414e-01
1.768391e+08 1.001404e+00 2.803345e-01 2.649799e-05 2.114475e-05 2.916157e-05 -3.237277e-06 9.807739e-01 3.773804e-01
1.770569e+08 9.999390e-01 2.810059e-01 -2.182461e-05 3.416091e-06 1.620129e-05 -1.774170e-06 9.805298e-01 3.774414e-01
1.772747e+08 9.996948e-01 2.801514e-01 -1.437962e-05 2.672337e-05 -1.873355e-05 8.613802e-06 9.799805e-01 3.770142e-01
1.774925e+08 9.990845e-01 2.798462e-01 -1.949072e-05 1.569930e-05 -7.110648e-07 -6.484333e-06 9.791260e-01 3.773804e-01
1.777103e+08 9.985962e-01 2.803955e-01 1.315866e-05 1.398288e-05 -2.368912e-05 -3.679469e-05 9.786377e-01 3.769531e-01
1.779281e+08 9.981689e-01 2.793579e-01 7.053837e-06 3.688596e-05 1.821388e-05 -1.349580e-05 9.782104e-01 3.758545e-01
1.781459e+08 9.964600e-01 2.788696e-01 -3.710389e-06 -3.355742e-05 -6.601214e-06 -1.687557e-05 9.782715e-01 3.769531e-01
1.783638e+08 9.956665e-01 2.797852e-01 -2.794713e-05 -2.231821e-05 1.473166e-05 2.458692e-05 9.769897e-01 3.753662e-01
1.785816e+08 9.943237e-01 2.796021e-01 -2.444349e-05 -1.773611e-05 5.795620e-06 2.147723e-05 9.766846e-01 3.753662e-01
1.787994e+08 9.948120e-01 2.792358e-01 1.489557e-05 -1.861900e-05 -3.999099e-05 3.107823e-05 9.752808e-01 3.755493e-01
1.790172e+08 9.935913e-01 2.785645e-01 7.133931e-06 2.365932e-05 -3.013387e-05 -8.270144e-06 9.749756e-01 3.747559e-01
1.792350e+08 9.917603e-01 2.780151e-01 -2.588704e-05 -5.307049e-05 1.636241e-05 -3.527850e-06 9.748535e-01 3.749390e-01
1.794528e+08 9.917603e-01 2.780151e-01 1.993589e-05 3.576651e-05 4.607067e-05 -1.110882e-05 9.741211e-01 3.754272e-01
1.796706e+08 9.914551e-01 2.782593e-01 -2.481043e-05 -6.119162e-05 -7.241964e-06 2.401881e-05 9.733276e-01 3.743286e-01
1.798884e+08 9.902344e-01 2.780151e-01 5.098060e-05 4.779547e-06 -3.770739e-05 3.617257e-05 9.725342e-01 3.737183e-01
1.801062e+08 9.887695e-01 2.783203e-01 3.573671e-05 -1.998618e-05 -3.155135e-05 -3.693812e-05 9.718628e-01 3.740234e-01
1.803241e+08 9.892578e-01 2.786865e-01 -2.194196e-06 1.622550e-05 -8.945353e-06 -3.104098e-06 9.705811e-01 3.737183e-01
1.805419e+08 9.882812e-01 2.778931e-01 -1.031626e-05 1.514517e-05 -2.724305e-05 -4.410371e-05 9.703369e-01 3.739624e-01
1.807597e+08 9.874268e-01 2.781372e-01 -4.483387e-05 4.148483e-05 1.432374e-06 2.867170e-05 9.687500e-01 3.730469e-01
1.809775e+08 9.864502e-01 2.778320e-01 -1.963601e-05 7.679686e-06 -2.436154e-05 1.322478e-05 9.681396e-01 3.733521e-01
1.811953e+08 9.864502e-01 2.778320e-01 -3.094599e-05 4.542246e-05 8.490868e-06 -1.278240e-05 9.676514e-01 3.732300e-01
1.814131e+08 9.848633e-01 2.778931e-01 -3.709830e-05 -9.015203e-07 3.070338e-06 5.222391e-07 9.666138e-01 3.739014e-01
1.816309e+08 9.849854e-01 2.773438e-01 -1.404621e-05 -1.845602e-05 6.891787e-08 -1.896080e-05 9.662476e-01 3.735352e-01
1.818488e+08 9.832764e-01 2.780151e-01 -8.233823e-06 -1.560617e-05 -2.889894e-06 1.689140e-05 9.662476e-01 3.741455e-01
1.820666e+08 9.827881e-01 2.775879e-01 -6.051734e-06 -3.184937e-05 -3.932044e-06 2.304465e-05 9.650269e-01 3.734741e-01
1.822844e+08 9.824219e-01 2.776489e-01 1.253001e-05 -3.140792e-05 -3.396533e-05 3.216043e-05 9.638062e-01 3.740845e-01
1.825022e+08 9.807739e-01 2.778320e-01 -2.328306e-05 -1.142360e-05 1.220778e-05 2.106000e-05 9.628906e-01 3.735962e-01
1.827200e+08 9.805298e-01 2.783813e-01 4.720874e-06 1.099706e-05 -3.943965e-05 -9.918585e-06 9.630127e-01 3.742676e-01
1.829378e+08 9.797363e-01 2.774048e-01 2.671033e-05 1.538545e-06 -1.739897e-05 -9.291805e-06 9.620361e-01 3.734131e-01
1.831556e+08 9.785156e-01 2.772827e-01 1.308322e-05 4.111603e-05 -1.568347e-06 9.221956e-06 9.615479e-01 3.729248e-01
1.833734e+08 9.781494e-01 2.777710e-01 1.320615e-06 2.088025e-05 2.225116e-05 1.803413e-05 9.603882e-01 3.726196e-01
1.835912e+08 9.770508e-01 2.777100e-01 -6.832182e-06 1.979433e-05 -1.413655e-05 8.662231e-06 9.595337e-01 3.741455e-01
1.838091e+08 9.757690e-01 2.775879e-01 1.934916e-05 -5.120784e-05 -1.378357e-07 3.794022e-05 9.584961e-01 3.731079e-01
1.840269e+08 9.743042e-01 2.786865e-01 3.355742e-05 -1.824275e-05 2.704933e-05 2.677925e-05 9.580688e-01 3.739014e-01
1.842447e+08 9.744263e-01 2.789307e-01 4.392862e-05 -3.342330e-05 -4.813075e-06 4.667416e-05 9.573975e-01 3.738403e-01
1.844625e+08 9.733276e-01 2.787476e-01 3.707595e-05 -1.363456e-05 2.427958e-05 2.471544e-05 9.564819e-01 3.731689e-01
1.846803e+08 9.729614e-01 2.791138e-01 1.406390e-05 1.850724e-05 3.097393e-05 2.270378e-05 9.556885e-01 3.741455e-01
1.848981e+08 9.725342e-01 2.791138e-01 8.037314e-06 -1.341850e-05 -2.480298e-05 -2.167933e-05 9.547729e-01 3.731079e-01
1.851159e+08 9.705200e-01 2.786255e-01 -2.514571e-06 -2.729706e-05 -3.612041e-05 -1.090951e-05 9.540405e-01 3.734131e-01
1.853338e+08 9.697876e-01 2.787476e-01 3.047474e-05 3.525056e-05 -9.797513e-07 -1.283083e-05 9.533691e-01 3.737793e-01
1.855516e+08 9.695435e-01 2.789307e-01 1.157168e-05 -8.796342e-06 -7.205643e-06 5.104579e-06 9.523926e-01 3.743286e-01
1.857694e+08 9.680176e-01 2.797852e-01 2.459995e-05 3.238395e-05 4.297122e-06 -4.361011e-05 9.502563e-01 3.743896e-01
1.859872e+08 9.671021e-01 2.793579e-01 -1.036376e-05 1.518242e-05 2.972409e-05 1.140870e-05 9.497681e-01 3.746948e-01
1.862050e+08 9.665527e-01 2.803345e-01 -4.034862e-05 5.259365e-05 -2.577156e-05 2.094172e-05 9.491577e-01 3.746338e-01
1.864228e+08 9.655762e-01 2.800293e-01 -2.574362e-05 -2.425723e-05 -2.181157e-06 3.131293e-05 9.483032e-01 3.751221e-01
1.866406e+08 9.643555e-01 2.805786e-01 3.148243e-05 1.255982e-05 -3.551878e-05 2.242252e-05 9.472656e-01 3.738403e-01
1.868584e+08 9.641724e-01 2.805176e-01 6.248057e-05 -4.755333e-05 1.302827e-05 1.649465e-05 9.468384e-01 3.745117e-01
1.870762e+08 9.628906e-01 2.807007e-01 1.950935e-05 -3.674254e-05 2.373010e-05 -2.762116e-05 9.448242e-01 3.746338e-01
1.872941e+08 9.616089e-01 2.813110e-01 -1.301989e-06 -2.094731e-05 -2.850406e-05 -1.620501e-07 9.452515e-01 3.756714e-01
1.875119e+08 9.613647e-01 2.816162e-01 1.861900e-05 4.544854e-07 -1.013465e-05 2.204627e-05 9.441528e-01 3.757324e-01
1.877297e+08 9.604492e-01 2.819214e-01 -1.178496e-05 -2.028048e-05 -2.042949e-05 2.661906e-05 9.434814e-01 3.758545e-01
1.879475e+08 9.598389e-01 2.830811e-01 3.636815e-06 1.918711e-05 -7.284805e-06 -3.140420e-05 9.431152e-01 3.759766e-01
1.881653e+08 9.591675e-01 2.824097e-01 2.215803e-05 5.105510e-06 -3.989041e-05 1.061335e-05 9.418945e-01 3.770752e-01
1.883831e+08 9.580078e-01 2.832642e-01 -9.564683e-06 -3.661215e-05 1.109857e-05 -9.201467e-06 9.409790e-01 3.765259e-01
1.886009e+08 9.577637e-01 2.829590e-01 -2.216361e-05 -5.098060e-06 2.043135e-05 -2.666004e-05 9.403687e-01 3.773193e-01
1.888188e+08 9.565430e-01 2.834473e-01 -2.243370e-05 -4.876778e-05 -2.941117e-05 -3.201701e-05 9.390869e-01 3.773193e-01
1.890366e+08 9.558716e-01 2.845459e-01 3.737770e-05 1.551211e-05 2.218969e-05 3.715977e-05 9.384155e-01 3.784790e-01
1.892544e+08 9.541626e-01 2.843018e-01 2.216920e-05 5.112961e-06 5.004928e-06 2.624281e-05 9.376831e-01 3.784180e-01
1.894722e+08 9.541016e-01 2.848511e-01 6.768852e-06 -3.441609e-05 3.110431e-05 3.745779e-06 9.367065e-01 3.781128e-01
1.896900e+08 9.528198e-01 2.852783e-01 1.168903e-05 5.749986e-06 1.532491e-05 2.167281e-05 9.360352e-01 3.782349e-01
1.899078e+08 9.533081e-01 2.854004e-01 7.141382e-06 2.384558e-05 1.728721e-05 -8.157454e-06 9.352417e-01 3.787842e-01
1.901256e+08 9.522095e-01 2.861328e-01 -2.461299e-05 -1.790188e-05 -6.766990e-06 -3.451295e-05 9.349976e-01 3.786621e-01
1.903434e+08 9.510498e-01 2.866211e-01 -4.544854e-06 1.808908e-05 -2.983212e-05 4.409254e-05 9.331055e-01 3.795166e-01
1.905612e+08 9.503784e-01 2.866211e-01 -3.709644e-05 2.822652e-05 -1.852028e-05 -3.182329e-06 9.325562e-01 3.792114e-01
1.907791e+08 9.495239e-01 2.866211e-01 -3.283098e-05 -3.363006e-05 -2.945773e-05 -3.204122e-05 9.313965e-01 3.807373e-01
1.909969e+08 9.482422e-01 2.868042e-01 1.049135e-05 -6.472692e-07 9.599142e-06 -1.899712e-05 9.305420e-01 3.809814e-01
1.912147e+08 9.486694e-01 2.879028e-01 4.731119e-07 7.288903e-05 -5.912967e-06 -2.602581e-06 9.297485e-01 3.809814e-01
1.914325e+08 9.465942e-01 2.883911e-01 1.730025e-05 -3.509037e-05 -3.104284e-05 3.278442e-05 9.286499e-01 3.819580e-01
1.916503e+08 9.459229e-01 2.888184e-01 4.643574e-06 -3.528083e-06 -1.524016e-05 -4.073605e-05 9.279175e-01 3.818970e-01
1.918681e+08 9.453735e-01 2.899170e-01 -4.206970e-05 -1.196191e-05 -5.642418e-06 -4.148576e-06 9.270020e-01 3.816528e-01
1.920859e+08 9.441528e-01 2.902222e-01 1.040474e-05 -1.522433e-05 2.653338e-06 -1.543295e-05 9.260864e-01 3.823242e-01
1.923038e+08 9.436646e-01 2.901611e-01 1.531094e-06 6.469712e-05 -4.383549e-05 1.472607e-05 9.248047e-01 3.827515e-01
1.925216e+08 9.423828e-01 2.913818e-01 -1.026317e-05 4.439428e-05 -3.129430e-05 -2.127886e-05 9.248047e-01 3.835449e-01
1.927394e+08 9.417725e-01 2.921143e-01 -9.298325e-06 7.057097e-06 5.610660e-05 6.482005e-06 9.242554e-01 3.839111e-01
1.929572e+08 9.412842e-01 2.919312e-01 -1.859199e-05 1.409650e-05 1.129135e-05 8.298084e-06 9.225464e-01 3.847046e-01
1.931750e+08 9.404297e-01 2.934570e-01 4.643342e-06 -3.526686e-06 4.958827e-06 -1.027901e-05 9.216309e-01 3.843384e-01
1.933928e+08 9.394531e-01 2.925415e-01 -1.290161e-05 -1.218729e-05 2.655946e-05 -6.575137e-06 9.210205e-01 3.861084e-01
1.936106e+08 9.387817e-01 2.940063e-01 -8.348376e-06 -3.029592e-05 1.288764e-05 -9.611249e-07 9.204102e-01 3.861694e-01
1.938284e+08 9.381714e-01 2.945557e-01 -1.075119e-05 -4.314631e-05 -4.219264e-05 -1.363829e-05 9.199829e-01 3.870239e-01
1.940462e+08 9.370117e-01 2.949829e-01 1.154095e-05 -2.340227e-05 5.909707e-06 2.609566e-06 9.182739e-01 3.872681e-01
1.942641e+08 9.373169e-01 2.951660e-01 1.619756e-05 -2.692640e-05 1.855008e-05 3.196299e-06 9.173584e-01 3.882446e-01
1.944819e+08 9.354248e-01 2.963867e-01 -2.350658e-05 -2.611242e-05 -2.779812e-05 -4.811212e-06 9.169922e-01 3.877563e-01
1.946997e+08 9.347534e-01 2.966919e-01 -2.928078e-05 -1.440197e-05 6.247312e-05 2.512336e-05 9.164429e-01 3.883057e-01
1.949175e+08 9.354248e-01 2.976074e-01 -3.039651e-05 -6.249174e-06 -3.162958e-05 -1.979992e-05 9.157104e-01 3.894043e-01
1.951353e+08 9.342651e-01 2.973633e-01 -7.132068e-06 -2.390146e-05 -5.653128e-06 -4.156027e-06 9.147949e-01 3.898315e-01
1.953531e+08 9.336548e-01 2.987671e-01 -4.934147e-05 -5.048141e-05 5.095080e-05 1.836568e-05 9.141235e-01 3.897705e-01
1.955709e+08 9.321899e-01 2.988892e-01 6.888062e-06 -1.988746e-05 1.277402e-05 1.812261e-05 9.129028e-01 3.908691e-01
1.957888e+08 9.315186e-01 2.999878e-01 -2.102368e-05 1.294538e-06 -2.434663e-05 -2.489239e-05 9.127808e-01 3.913574e-01
1.960066e+08 9.311523e-01 3.007202e-01 1.995824e-05 2.151541e-05 2.121925e-05 -1.226086e-05 9.114380e-01 3.923340e-01
1.962244e+08 9.299927e-01 3.014526e-01 5.858485e-06 2.892688e-06 -3.357232e-05 1.009926e-05 9.108887e-01 3.931274e-01
1.964422e+08 9.295654e-01 3.027344e-01 -4.558638e-05 -2.104789e-06 -2.556480e-06 -3.626803e-06 9.099121e-01 3.935547e-01
1.966600e+08 9.290161e-01 3.024292e-01 -1.886673e-05 -2.969988e-05 -9.696931e-06 -1.759082e-05 9.093018e-01 3.939209e-01
1.968778e+08 9.283447e-01 3.031006e-01 2.937578e-05 2.903119e-05 -2.516061e-05 -2.026185e-05 9.082642e-01 3.939819e-01
1.970956e+08 9.277344e-01 3.036499e-01 -2.929382e-05 -1.445785e-05 3.471412e-05 2.032332e-05 9.074707e-01 3.951416e-01
1.973134e+08 9.268799e-01 3.045654e-01 -1.889467e-05 -4.429743e-05 -2.379157e-05 8.622184e-06 9.061279e-01 3.961182e-01
1.975312e+08 9.264526e-01 3.048706e-01 2.342649e-05 1.155958e-05 1.210533e-05 3.683381e-06 9.058838e-01 3.960571e-01
1.977491e+08 9.256592e-01 3.065186e-01 2.936646e-05 2.903119e-05 -1.410954e-05 2.623163e-05 9.049072e-01 3.960571e-01
1.979669e+08 9.246826e-01 3.064575e-01 -1.284387e-05 2.396293e-06 -2.906099e-05 -1.616590e-05 9.042358e-01 3.979492e-01
1.981847e+08 9.237061e-01 3.074951e-01 -1.758616e-05 -8.683652e-06 3.318489e-05 -2.608076e-05 9.042358e-01 3.985596e-01
1.984025e+08 9.240723e-01 3.078613e-01 2.450868e-05 -1.124479e-05 2.174687e-10 -1.533493e-10 9.037476e-01 3.991699e-01
1.986203e+08 9.235840e-01 3.082886e-01 -3.742799e-05 -9.983778e-07 1.532119e-05 -1.488440e-05 9.026489e-01 3.998413e-01
1.988381e+08 9.228516e-01 3.088989e-01 3.044121e-05 6.277114e-06 -2.182834e-05 -2.131052e-05 9.019775e-01 4.002686e-01
1.990559e+08 9.204102e-01 3.103027e-01 4.448742e-05 1.031905e-05 -1.707859e-05 6.585382e-06 9.016724e-01 4.018555e-01
1.992738e+08 9.204712e-01 3.106079e-01 2.457388e-05 3.393739e-06 -7.128343e-06 -1.398847e-05 9.009399e-01 4.025879e-01
1.994916e+08 9.203491e-01 3.111572e-01 -2.811290e-05 -8.044764e-06 2.291286e-06 5.179783e-06 9.003296e-01 4.028931e-01
1.997094e+08 9.191284e-01 3.120117e-01 1.524109e-05 1.045875e-05 5.654991e-06 4.166272e-06 8.989258e-01 4.042358e-01
1.999272e+08 9.190674e-01 3.137207e-01 -6.798655e-08 -1.460779e-05 -5.222857e-05 -2.983585e-05 8.982544e-01 4.036255e-01
2.001450e+08 9.183960e-01 3.137207e-01 -2.204627e-05 3.870018e-05 3.837794e-05 1.781248e-05 8.980103e-01 4.047852e-01
2.003628e+08 9.174194e-01 3.146362e-01 1.758616e-05 8.683652e-06 -3.507361e-06 -1.655426e-05 8.973999e-01 4.051514e-01
2.005806e+08 9.174805e-01 3.152466e-01 3.992021e-05 2.847984e-05 4.361197e-05 5.971640e-06 8.972168e-01 4.062500e-01
2.007984e+08 9.174805e-01 3.163452e-01 -3.058650e-05 -3.554858e-05 5.389098e-06 5.723443e-06 8.963013e-01 4.069824e-01
2.010162e+08 9.159546e-01 3.167725e-01 -1.405180e-05 -4.033558e-06 -1.465157e-05 -4.399568e-05 8.952026e-01 4.077148e-01
2.012341e+08 9.159546e-01 3.167114e-01 2.818555e-05 2.271868e-05 -8.905306e-06 -2.227165e-05 8.953857e-01 4.089355e-01
2.014519e+08 9.151001e-01 3.182373e-01 1.198612e-06 6.431714e-06 -7.943716e-06 -9.348150e-06 8.946533e-01 4.089966e-01
2.016697e+08 9.142456e-01 3.185425e-01 -1.185201e-05 -3.506616e-05 -2.678297e-05 -1.102686e-05 8.933105e-01 4.102783e-01
2.018875e+08 9.140625e-01 3.197632e-01 -1.312047e-05 -5.611777e-05 2.478249e-05 -3.237650e-05 8.924561e-01 4.107056e-01
2.021053e+08 9.140625e-01 3.204956e-01 -2.573431e-05 4.790723e-06 2.303720e-05 -3.982335e-06 8.922729e-01 4.119263e-01
2.023231e+08 9.128418e-01 3.212891e-01 -2.818741e-05 -2.272800e-05 -2.158806e-06 -2.430007e-05 8.917236e-01 4.130249e-01
2.025409e+08 9.123535e-01 3.217773e-01 3.399514e-05 1.096353e-05 -2.177387e-10 1.533209e-10 8.909302e-01 4.126587e-01
2.027588e+08 9.124146e-01 3.226318e-01 -4.903598e-10 -6.784262e-11 2.908707e-05 1.623109e-05 8.912354e-01 4.140625e-01
2.029766e+08 9.116211e-01 3.235474e-01 -9.454787e-06 -2.220087e-05 1.158100e-05 6.798655e-06 8.893433e-01 4.143066e-01
2.031944e+08 9.112549e-01 3.242188e-01 -8.136965e-06 1.349766e-05 -4.448462e-06 7.206574e-06 8.890991e-01 4.149170e-01
2.034122e+08 9.108887e-01 3.247070e-01 2.119504e-05 2.800673e-05 3.080815e-06 -3.617443e-05 8.883667e-01 4.158936e-01
2.036300e+08 9.096680e-01 3.266602e-01 -8.144416e-06 1.350418e-05 3.393739e-05 -1.163036e-05 8.881836e-01 4.170532e-01
2.038478e+08 9.096069e-01 3.267212e-01 -2.480298e-05 -4.733726e-05 -2.466701e-05 -2.343021e-05 8.878784e-01 4.172363e-01
2.040656e+08 9.090576e-01 3.277588e-01 -1.879223e-05 -1.516659e-05 9.430572e-06 -1.751073e-05 8.868408e-01 4.188843e-01
2.042834e+08 9.091187e-01 3.286133e-01 -1.634285e-05 1.235213e-05 -3.613159e-05 2.405234e-05 8.859863e-01 4.184570e-01
2.045012e+08 9.085693e-01 3.291626e-01 1.873448e-05 5.057082e-07 -4.648790e-05 -8.083880e-06 8.858643e-01 4.191895e-01
2.047191e+08 9.080200e-01 3.295898e-01 -1.173094e-05 -5.812384e-06 2.574921e-05 -1.948699e-05 8.850098e-01 4.207153e-01
2.049369e+08 9.071655e-01 3.311768e-01 -8.150004e-06 1.351070e-05 -3.258139e-05 -3.285706e-05 8.854370e-01 4.216919e-01
2.051547e+08 9.074097e-01 3.314819e-01 4.447997e-05 -1.888722e-05 9.573065e-06 7.310882e-08 8.847046e-01 4.229126e-01
2.053725e+08 9.066162e-01 3.323975e-01 -3.181770e-05 -5.671009e-05 1.227949e-05 -1.543202e-05 8.839111e-01 4.232178e-01
2.055903e+08 9.063110e-01 3.327026e-01 1.538172e-05 3.977865e-05 -7.962808e-06 2.736412e-05 8.833618e-01 4.241943e-01
2.058081e+08 9.055786e-01 3.335571e-01 -2.939440e-05 -2.918206e-05 -1.549255e-05 -2.709217e-06 8.826294e-01 4.246216e-01
2.060259e+08 9.055176e-01 3.344727e-01 -1.273118e-05 3.170781e-05 2.969056e-06 -1.705531e-05 8.831787e-01 4.246826e-01
2.062438e+08 9.047852e-01 3.350220e-01 -1.288950e-05 2.397224e-06 3.395788e-05 -1.164339e-05 8.826904e-01 4.265747e-01
2.064616e+08 9.049683e-01 3.360596e-01 2.005138e-05 3.625639e-05 6.821752e-05 1.190230e-05 8.816528e-01 4.271851e-01
2.066794e+08 9.044189e-01 3.375854e-01 1.284014e-05 -1.704227e-05 1.332816e-05 1.512188e-05 8.811646e-01 4.283447e-01
2.068972e+08 9.044800e-01 3.380737e-01 6.031245e-06 4.684180e-05 4.628673e-05 -2.708659e-05 8.799438e-01 4.282837e-01
2.071150e+08 9.038086e-01 3.389893e-01 4.857779e-06 4.042685e-05 -5.114358e-06 -7.289462e-06 8.801270e-01 4.291992e-01
2.073328e+08 9.034424e-01 3.392334e-01 -3.990903e-05 -1.392886e-05 1.174305e-05 -1.232512e-05 8.791504e-01 4.304199e-01
2.075506e+08 9.037476e-01 3.411255e-01 4.221499e-05 -2.495944e-06 -3.899820e-05 -1.482852e-05 8.793335e-01 4.312134e-01
2.077684e+08 9.030762e-01 3.411865e-01 1.515821e-05 -3.349036e-05 -3.346801e-05 8.545816e-06 8.792114e-01 4.326782e-01
2.079862e+08 9.027100e-01 3.420410e-01 4.234910e-05 2.685189e-05 3.087893e-05 2.458692e-05 8.794556e-01 4.328003e-01
2.082041e+08 9.026489e-01 3.428955e-01 1.284853e-05 -1.706276e-05 -4.453957e-05 -1.378357e-06 8.785400e-01 4.338989e-01
2.084219e+08 9.017944e-01 3.438110e-01 -1.767650e-05 -2.342276e-05 3.122911e-05 -5.049258e-05 8.778076e-01 4.348755e-01
2.086397e+08 9.024048e-01 3.439331e-01 -9.364914e-06 7.065479e-06 2.646260e-05 -4.982576e-06 8.770142e-01 4.356079e-01
2.088575e+08 9.016113e-01 3.450317e-01 -1.412909e-05 -1.874287e-05 3.143027e-05 2.149306e-05 8.767090e-01 4.366455e-01
2.090753e+08 9.012451e-01 3.453979e-01 1.993030e-05 -7.675961e-06 1.576729e-05 3.793277e-05 8.763428e-01 4.375000e-01
2.092931e+08 9.017944e-01 3.475342e-01 -4.711375e-05 -3.802776e-05 2.877973e-05 2.365559e-07 8.770142e-01 4.378052e-01
2.095109e+08 9.006958e-01 3.472900e-01 1.176074e-05 5.835667e-06 2.160482e-05 -1.381990e-05 8.764038e-01 4.387817e-01
2.097288e+08 9.008179e-01 3.483887e-01 -5.285442e-05 -1.156703e-05 9.045936e-06 3.183261e-06 8.754272e-01 4.390869e-01
2.099466e+08 8.999634e-01 3.483276e-01 -3.468245e-06 2.465211e-05 -1.206994e-06 -1.140591e-05 8.746948e-01 4.403687e-01
2.101644e+08 9.002686e-01 3.493042e-01 -1.521036e-05 1.882948e-05 -2.834713e-06 -2.094544e-06 8.750610e-01 4.409790e-01
2.103822e+08 9.003296e-01 3.507080e-01 2.820231e-05 8.152798e-06 -9.981915e-06 -1.615565e-05 8.745117e-01 4.422607e-01
2.106000e+08 9.000244e-01 3.513794e-01 2.307817e-06 -1.645926e-05 3.512204e-05 1.896918e-05 8.745728e-01 4.438477e-01
2.108178e+08 9.003906e-01 3.521729e-01 5.880371e-06 2.923422e-06 8.292496e-06 -2.900138e-05 8.739624e-01 4.444580e-01
2.110356e+08 8.994751e-01 3.528442e-01 -9.380747e-06 7.076189e-06 -4.642457e-05 -2.737716e-05 8.740234e-01 4.445190e-01
2.112534e+08 8.992920e-01 3.540039e-01 2.114661e-05 -1.234934e-06 2.769381e-05 6.478280e-06 8.737793e-01 4.455566e-01
2.114712e+08 8.986206e-01 3.552246e-01 3.524125e-05 2.814457e-06 -3.169663e-05 3.446639e-05 8.729248e-01 4.456787e-01
2.116891e+08 8.984985e-01 3.551636e-01 -3.644265e-05 5.388632e-06 2.000015e-05 -4.493631e-06 8.737183e-01 4.470825e-01
2.119069e+08 8.990479e-01 3.555298e-01 -3.596768e-06 -3.406033e-05 -3.489666e-06 -1.663063e-05 8.721924e-01 4.479370e-01
2.121247e+08 8.983154e-01 3.569336e-01 4.460663e-05 -3.359839e-05 -3.527850e-05 2.123415e-07 8.721313e-01 4.490356e-01
2.123425e+08 8.988037e-01 3.572998e-01 4.655682e-06 -1.823995e-05 -5.925074e-05 8.832663e-06 8.722534e-01 4.494629e-01
2.125603e+08 8.978271e-01 3.585205e-01 3.880076e-05 7.519498e-06 -4.672632e-05 -2.583489e-05 8.715210e-01 4.495239e-01
2.127781e+08 8.979492e-01 3.595581e-01 -5.650148e-05 -1.668930e-06 2.836809e-06 2.101762e-06 8.720703e-01 4.516602e-01
2.129959e+08 8.978271e-01 3.596802e-01 -3.883988e-05 -2.224930e-05 -6.865337e-05 -1.047552e-05 8.707886e-01 4.513550e-01
2.132138e+08 8.972168e-01 3.605347e-01 -1.416262e-05 -1.880061e-05 -5.018711e-05 1.201406e-05 8.713989e-01 4.528198e-01
2.134316e+08 8.973999e-01 3.616333e-01 1.102686e-06 -2.295338e-05 2.771616e-05 6.485730e-06 8.713379e-01 4.528809e-01
2.136494e+08 8.972168e-01 3.624878e-01 -1.536682e-05 -2.526678e-05 7.045455e-06 -3.567431e-06 8.710938e-01 4.540405e-01
2.138672e+08 8.974609e-01 3.631592e-01 1.535937e-05 2.524443e-05 4.411116e-05 4.544854e-06 8.703003e-01 4.537964e-01
2.140850e+08 8.967896e-01 3.632812e-01 -1.189299e-06 -6.469432e-06 -1.281779e-05 -1.828279e-05 8.699341e-01 4.557495e-01
2.143028e+08 8.968506e-01 3.640747e-01 -5.764142e-05 2.130494e-05 -2.003554e-05 4.502013e-06 8.702393e-01 4.564209e-01
2.145206e+08 8.971558e-01 3.656616e-01 1.525041e-05 -1.886487e-05 -5.403999e-06 -5.766749e-06 8.695679e-01 4.567261e-01
2.147384e+08 8.966064e-01 3.652344e-01 -2.238527e-05 -5.256385e-06 -2.496876e-05 3.249198e-05 8.697510e-01 4.581299e-01
2.149562e+08 8.967896e-01 3.660889e-01 1.084059e-06 -5.238876e-05 2.299435e-05 1.527183e-05 8.689575e-01 4.591675e-01
2.151741e+08 8.973389e-01 3.671265e-01 2.466887e-05 -2.597459e-05 -2.903864e-05 1.898222e-05 8.696899e-01 4.591064e-01
2.153919e+08 8.968506e-01 3.680420e-01 -2.828054e-05 -8.180737e-06 1.619384e-05 -3.729202e-05 8.690796e-01 4.595947e-01
2.156097e+08 8.969116e-01 3.682861e-01 4.705507e-06 -3.539957e-06 -4.043803e-06 -1.355167e-05 8.684082e-01 4.606934e-01
2.158275e+08 8.966064e-01 3.696289e-01 2.479181e-05 3.297441e-05 -1.722947e-05 -4.800782e-05 8.692017e-01 4.622192e-01
2.160453e+08 8.966064e-01 3.693848e-01 2.009235e-05 3.645755e-05 -9.891577e-06 1.473352e-06 8.684692e-01 4.613647e-01
2.162631e+08 8.967285e-01 3.701782e-01 -4.749745e-06 -2.592057e-05 3.691576e-05 -2.722442e-05 8.685303e-01 4.632568e-01
2.164809e+08 8.963013e-01 3.713989e-01 4.949793e-05 6.958842e-06 1.786929e-05 7.976778e-06 8.685913e-01 4.630737e-01
2.166988e+08 8.967285e-01 3.718872e-01 -3.578141e-06 -1.943950e-05 3.392808e-06 -1.008390e-06 8.687744e-01 4.637451e-01
2.169166e+08 8.967285e-01 3.721313e-01 3.421865e-05 1.113489e-05 9.354670e-06 1.647975e-06 8.685913e-01 4.651489e-01
2.171344e+08 8.960571e-01 3.726196e-01 -2.335757e-06 1.650956e-05 2.273358e-05 1.685694e-05 8.682861e-01 4.661255e-01
2.173522e+08 8.966064e-01 3.738403e-01 -2.329238e-06 1.651049e-05 -1.981203e-05 2.926216e-06 8.674316e-01 4.664917e-01
2.175700e+08 8.958740e-01 3.740234e-01 4.244968e-05 1.230836e-05 1.375750e-05 -2.329051e-05 8.669434e-01 4.671631e-01
2.177878e+08 8.962402e-01 3.748779e-01 -2.477318e-05 -3.490597e-06 -2.880022e-05 1.742505e-05 8.673706e-01 4.674072e-01
2.180056e+08 8.958130e-01 3.754883e-01 -1.166482e-06 8.261297e-06 1.715496e-05 -2.429821e-05 8.676147e-01 4.683228e-01
2.182234e+08 8.953857e-01 3.755493e-01 -7.027760e-06 3.482960e-05 -8.709729e-06 1.293328e-05 8.675537e-01 4.696655e-01
2.184412e+08 8.962402e-01 3.763428e-01 2.001226e-05 -2.244115e-05 -3.498979e-06 -1.670793e-05 8.664551e-01 4.694824e-01
2.186591e+08 8.959351e-01 3.768921e-01 -4.477426e-05 3.371388e-05 -7.817522e-06 -2.873689e-05 8.669434e-01 4.701538e-01
2.188769e+08 8.955688e-01 3.773193e-01 3.894977e-05 -7.137656e-06 -1.138169e-05 -8.443370e-06 8.671875e-01 4.707642e-01
2.190947e+08 8.955078e-01 3.782959e-01 -5.938113e-06 -1.769047e-05 4.307367e-06 1.202803e-05 8.667603e-01 4.711914e-01
2.193125e+08 8.955078e-01 3.793945e-01 2.006628e-05 -7.715076e-06 8.815434e-06 4.779082e-06 8.673706e-01 4.717407e-01
2.195303e+08 8.956909e-01 3.793335e-01 -5.945563e-06 -3.247708e-05 -7.995870e-06 -9.461306e-06 8.670044e-01 4.727783e-01
2.197481e+08 8.955078e-01 3.797607e-01 -3.062561e-05 5.260482e-05 -3.361329e-05 -2.846122e-05 8.672485e-01 4.731445e-01
2.199659e+08 8.952637e-01 3.797607e-01 1.299661e-05 -2.376735e-06 1.176819e-05 2.460554e-05 8.671265e-01 4.743042e-01
2.201838e+08 8.952026e-01 3.809814e-01 2.330169e-06 -1.654681e-05 4.465505e-05 2.075359e-05 8.672485e-01 4.741211e-01
2.204016e+08 8.958130e-01 3.807983e-01 -2.366491e-05 -2.654828e-05 4.116446e-06 -2.343580e-05 8.665161e-01 4.751587e-01
2.206194e+08 8.962402e-01 3.819580e-01 -1.537800e-05 -1.061056e-05 4.635006e-05 1.139566e-05 8.665771e-01 4.755249e-01
2.208372e+08 8.952026e-01 3.818970e-01 -1.178496e-05 2.365746e-05 -1.222454e-05 -3.760681e-06 8.668213e-01 4.762573e-01
2.210550e+08 8.961182e-01 3.834839e-01 -3.192760e-05 -1.297519e-05 1.469627e-06 9.936746e-06 8.663330e-01 4.771729e-01
2.212728e+08 8.961182e-01 3.827515e-01 -1.182407e-05 -5.893409e-06 -1.261383e-05 -1.994427e-05 8.661499e-01 4.768677e-01
2.214906e+08 8.953857e-01 3.846436e-01 -3.311224e-05 -4.673377e-06 -4.673377e-06 -2.823211e-05 8.663330e-01 4.774780e-01
2.217084e+08 8.945923e-01 3.843384e-01 7.086899e-06 -5.331822e-06 2.894737e-05 2.980232e-07 8.664551e-01 4.779663e-01
2.219262e+08 8.958740e-01 3.854980e-01 -2.366491e-05 2.980232e-06 -9.117648e-07 -1.306552e-05 8.666382e-01 4.792480e-01
2.221441e+08 8.959351e-01 3.859863e-01 1.775008e-05 8.846633e-06 -1.666602e-06 9.390060e-06 8.660889e-01 4.795532e-01
2.223619e+08 8.963013e-01 3.854980e-01 -4.021451e-05 1.545623e-05 9.024516e-06 -1.454726e-05 8.667603e-01 4.797363e-01
2.225797e+08 8.956299e-01 3.862915e-01 5.324930e-05 -3.262982e-05 1.850259e-05 4.894100e-06 8.665161e-01 4.812622e-01
2.227975e+08 8.956299e-01 3.870850e-01 3.557652e-06 4.733447e-06 -4.035048e-05 8.990988e-06 8.661499e-01 4.818115e-01
2.230153e+08 8.957520e-01 3.872070e-01 4.380569e-05 -1.069158e-05 2.492219e-06 -1.408812e-05 8.656006e-01 4.823608e-01
2.232331e+08 8.955078e-01 3.887329e-01 3.079511e-05 6.483868e-06 2.199784e-05 2.167746e-05 8.655396e-01 4.825439e-01
2.234509e+08 8.949585e-01 3.880615e-01 2.367049e-05 -3.256090e-05 -2.492219e-06 1.408439e-05 8.651733e-01 4.827881e-01
2.236688e+08 8.950195e-01 3.885498e-01 -3.786385e-05 4.326552e-05 -7.093884e-06 3.587455e-06 8.656616e-01 4.828491e-01
2.238866e+08 8.959961e-01 3.884888e-01 -2.018549e-05 -3.669225e-05 6.183237e-05 1.576915e-05 8.656616e-01 4.831543e-01
2.241044e+08 8.960571e-01 3.900757e-01 -2.132170e-05 3.084913e-05 -1.769699e-05 -9.610318e-06 8.660889e-01 4.846191e-01
2.243222e+08 8.952026e-01 3.898315e-01 -4.032999e-05 -1.422688e-05 -2.978556e-05 2.218597e-05 8.659668e-01 4.854736e-01
2.245400e+08 8.945923e-01 3.900757e-01 4.145876e-05 -3.859401e-05 -2.838299e-05 1.434051e-05 8.659058e-01 4.848022e-01
2.247578e+08 8.964233e-01 3.908691e-01 -1.188368e-05 -3.556535e-05 3.216788e-06 1.836848e-05 8.654785e-01 4.857178e-01
2.249756e+08 8.959351e-01 3.917847e-01 -1.663528e-05 -1.719780e-05 9.629875e-07 -4.190579e-05 8.662720e-01 4.860840e-01
2.251934e+08 8.957520e-01 3.922729e-01 -1.899898e-05 -1.538172e-05 2.042763e-05 -2.388656e-05 8.655396e-01 4.852905e-01
2.254112e+08 8.959351e-01 3.925171e-01 -2.374873e-05 -4.152954e-05 -1.387484e-05 2.344511e-05 8.652954e-01 4.872437e-01
2.256291e+08 8.956909e-01 3.925781e-01 -2.134219e-05 1.602806e-05 5.118549e-05 3.983825e-05 8.649292e-01 4.866943e-01
2.258469e+08 8.944702e-01 3.930664e-01 -7.115770e-06 5.342532e-06 1.607463e-06 -2.720952e-05 8.649292e-01 4.873047e-01
2.260647e+08 8.957520e-01 3.933105e-01 1.152977e-06 -2.315268e-05 -1.514237e-05 -5.926937e-06 8.656616e-01 4.873657e-01
2.262825e+08 8.952637e-01 3.929443e-01 -1.424551e-05 1.069624e-05 -1.080614e-05 6.177463e-06 8.649902e-01 4.886475e-01
2.265003e+08 8.958740e-01 3.942261e-01 1.307484e-05 1.245178e-05 -3.140653e-06 -5.592592e-07 8.651733e-01 4.880981e-01
2.267181e+08 8.952637e-01 3.938599e-01 1.191534e-05 3.564544e-05 2.168771e-05 5.474314e-06 8.656006e-01 4.891357e-01
2.269359e+08 8.961182e-01 3.948975e-01 4.757196e-06 1.127552e-05 1.236144e-05 2.165418e-05 8.645630e-01 4.886475e-01
2.271538e+08 8.958130e-01 3.946533e-01 1.192559e-06 6.532762e-06 -6.360933e-06 -1.895800e-05 8.646851e-01 4.896851e-01
2.273716e+08 8.956299e-01 3.952637e-01 1.666322e-05 4.692748e-05 9.778887e-07 3.096648e-05 8.649292e-01 4.894409e-01
2.275894e+08 8.952637e-01 3.959351e-01 2.375431e-05 -3.272481e-05 -2.068654e-05 4.332140e-05 8.652954e-01 4.901123e-01
2.278072e+08 8.944702e-01 3.958130e-01 -1.188554e-05 -2.080016e-05 -1.312140e-05 9.033829e-07 8.643799e-01 4.913940e-01
2.280250e+08 8.963623e-01 3.952637e-01 -1.307391e-05 1.725648e-05 3.165752e-05 -1.386926e-05 8.646851e-01 4.910889e-01
2.282428e+08 8.950806e-01 3.963623e-01 3.689900e-05 2.435967e-05 -1.787022e-05 -4.536659e-05 8.646851e-01 4.910889e-01
2.284606e+08 8.953247e-01 3.967285e-01 -3.929250e-05 7.158145e-06 -1.067296e-06 2.416037e-05 8.646851e-01 4.923096e-01
2.286784e+08 8.957520e-01 3.969116e-01 -4.875287e-05 -1.544505e-05 -1.315307e-05 9.080395e-07 8.634033e-01 4.917603e-01
2.288962e+08 8.961182e-01 3.967896e-01 -1.189485e-05 -3.575161e-05 -1.117587e-06 6.299000e-06 8.645020e-01 4.937134e-01
2.291141e+08 8.949585e-01 3.973389e-01 8.338131e-06 1.193490e-06 -2.440810e-05 -2.707355e-05 8.640137e-01 4.935303e-01
2.293319e+08 8.952637e-01 3.977051e-01 2.621487e-05 1.011975e-05 -9.386800e-06 1.619197e-05 8.643799e-01 4.933472e-01
2.295497e+08 8.950806e-01 3.971558e-01 -7.151160e-06 -9.524170e-06 2.574734e-05 1.318753e-06 8.637695e-01 4.930420e-01
2.297675e+08 8.942871e-01 3.979492e-01 -4.291907e-05 -4.227459e-05 -7.549301e-06 -3.056787e-05 8.641357e-01 4.930420e-01
2.299853e+08 8.950195e-01 3.983765e-01 -1.429673e-05 -4.167669e-06 -2.520159e-05 -4.487112e-06 8.634033e-01 4.938354e-01
2.302031e+08 8.949585e-01 3.975830e-01 1.670327e-05 1.728255e-05 4.266854e-06 -5.743001e-06 8.640747e-01 4.940796e-01
2.304209e+08 8.953247e-01 3.981323e-01 8.355826e-06 3.099442e-05 -2.235174e-05 -2.348796e-06 8.635254e-01 4.939575e-01
2.306388e+08 8.941040e-01 3.978271e-01 -9.547919e-06 -2.264977e-05 -2.632476e-05 1.812354e-06 8.632812e-01 4.945068e-01
2.308566e+08 8.945923e-01 3.986816e-01 -3.815629e-05 -1.192093e-06 -1.779571e-05 -9.673648e-06 8.629761e-01 4.946289e-01
2.310744e+08 8.947144e-01 3.993530e-01 -1.192372e-05 -5.966052e-06 -1.002243e-05 1.471024e-06 8.625488e-01 4.950562e-01
2.312922e+08 8.939819e-01 4.008179e-01 -2.983026e-05 -1.492910e-05 4.507601e-06 -2.523698e-05 8.629761e-01 4.956055e-01
2.315100e+08 8.946533e-01 3.995361e-01 8.353032e-06 -1.372956e-05 3.115833e-05 4.459172e-05 8.632202e-01 4.951782e-01
2.317278e+08 8.946533e-01 3.995972e-01 -2.030469e-05 3.757142e-05 -1.186132e-05 -2.488866e-05 8.621826e-01 4.956665e-01
2.319456e+08 8.937988e-01 4.005737e-01 -1.313910e-05 1.732167e-05 2.518296e-05 -1.340732e-05 8.630981e-01 4.960938e-01
2.321634e+08 8.935547e-01 4.002075e-01 -1.674145e-05 4.239008e-05 2.236664e-05 2.350658e-06 8.624268e-01 4.965820e-01
2.323812e+08 8.938599e-01 4.006958e-01 -3.942102e-05 2.206117e-05 -2.491660e-05 1.184829e-05 8.615112e-01 4.967041e-01
2.325991e+08 8.939819e-01 4.003906e-01 1.315679e-05 1.254398e-05 9.753276e-06 1.029111e-07 8.632812e-01 4.962769e-01
2.328169e+08 8.933105e-01 4.011230e-01 1.910236e-05 -1.435168e-05 -2.141483e-05 2.875924e-05 8.620605e-01 4.957886e-01
2.330347e+08 8.924561e-01 4.014282e-01 -2.270751e-05 9.547919e-06 6.257556e-06 -1.680385e-05 8.614502e-01 4.968872e-01
2.332525e+08 8.927612e-01 4.005737e-01 4.423782e-05 4.905462e-05 6.875489e-06 -2.034474e-06 8.614502e-01 4.980469e-01
2.334703e+08 8.933105e-01 4.011230e-01 3.946200e-05 7.763505e-06 -2.276152e-05 -1.871772e-05 8.610840e-01 4.974976e-01
2.336881e+08 8.917236e-01 4.017944e-01 -3.348850e-05 1.017936e-05 8.393079e-06 2.594665e-05 8.612061e-01 4.973145e-01
2.339059e+08 8.920288e-01 4.013062e-01 -3.826618e-05 -1.616403e-05 -1.409557e-06 7.899012e-06 8.601074e-01 4.984741e-01
2.341238e+08 8.916626e-01 4.018555e-01 -1.077261e-05 -1.435075e-05 1.797080e-05 -4.572049e-05 8.602905e-01 4.978027e-01
2.343416e+08 8.920288e-01 4.017944e-01 1.435727e-05 4.177913e-06 -3.501773e-06 -1.693889e-05 8.602295e-01 4.976807e-01
2.345594e+08 8.911743e-01 4.016113e-01 3.232248e-05 -1.675822e-05 -1.686998e-05 2.145767e-05 8.598633e-01 4.988403e-01
2.347772e+08 8.914185e-01 4.020996e-01 4.790723e-06 2.631918e-05 2.180971e-05 -1.242757e-05 8.593140e-01 4.981079e-01
2.349950e+08 8.909912e-01 4.020996e-01 1.197401e-05 -8.981675e-06 2.558529e-05 2.920628e-06 8.596191e-01 4.985962e-01
2.352128e+08 8.914185e-01 4.026489e-01 -1.197215e-05 -5.983748e-06 -1.288205e-05 1.731142e-05 8.590698e-01 4.979858e-01
2.354306e+08 8.914185e-01 4.030151e-01 -1.316704e-05 3.234483e-05 2.760254e-05 -8.156523e-06 8.593140e-01 4.984131e-01
2.356484e+08 8.896484e-01 4.029541e-01 7.195398e-06 -2.036057e-05 -2.757646e-05 8.137897e-06 8.584595e-01 4.990845e-01
2.358662e+08 8.898926e-01 4.027710e-01 4.906952e-05 -1.439080e-05 6.463379e-06 3.708154e-05 8.582153e-01 4.977417e-01
2.360841e+08 8.885498e-01 4.024048e-01 2.155080e-05 -3.114156e-05 -2.151635e-05 1.084525e-05 8.575439e-01 4.987183e-01
2.363019e+08 8.892822e-01 4.032593e-01 -3.714487e-05 -3.958121e-05 -1.639873e-05 3.390014e-07 8.574829e-01 4.993896e-01
2.365197e+08 8.904419e-01 4.031372e-01 -2.638623e-05 6.471947e-05 -2.770126e-05 -9.836629e-06 8.573608e-01 4.993286e-01
2.367375e+08 8.889771e-01 4.032593e-01 1.205131e-06 -2.337061e-05 2.098642e-05 -7.708557e-06 8.566895e-01 4.995117e-01
2.369553e+08 8.886719e-01 4.035645e-01 -3.955886e-05 -3.777072e-05 6.955117e-06 1.595356e-05 8.566895e-01 4.993896e-01
2.371731e+08 8.878784e-01 4.039917e-01 -1.319870e-05 -2.759323e-05 -3.980659e-05 -3.327429e-05 8.565674e-01 4.997559e-01
2.373909e+08 8.880615e-01 4.036255e-01 1.559034e-05 5.577132e-05 2.138875e-05 2.670661e-05 8.559570e-01 4.997559e-01
2.376088e+08 8.871460e-01 4.032593e-01 -9.601470e-06 7.190276e-06 -1.217797e-05 -2.341345e-05 8.553467e-01 5.000610e-01
2.378266e+08 8.866577e-01 4.037476e-01 -6.000511e-06 -2.999790e-06 -2.858974e-05 -2.308749e-05 8.554077e-01 4.999390e-01
2.380444e+08 8.866577e-01 4.041748e-01 1.079030e-05 -3.059767e-05 -7.469207e-07 4.076771e-05 8.548584e-01 4.994507e-01
2.382622e+08 8.860474e-01 4.040527e-01 1.680851e-05 2.405606e-06 -4.892051e-05 1.743808e-05 8.547363e-01 5.004272e-01
2.384800e+08 8.858032e-01 4.042969e-01 2.401695e-05 -2.998859e-06 -1.415983e-05 -1.234654e-05 8.536987e-01 5.005493e-01
2.386978e+08 8.859863e-01 4.038086e-01 -2.880767e-05 -3.838912e-05 2.954341e-05 -3.730133e-05 8.527222e-01 4.999390e-01
2.389156e+08 8.847656e-01 4.049072e-01 1.801644e-05 -5.993061e-06 5.619600e-06 4.191697e-05 8.527832e-01 5.007324e-01
2.391334e+08 8.847046e-01 4.052124e-01 -7.203314e-06 -9.612180e-06 -1.300126e-06 4.398823e-05 8.527222e-01 5.001221e-01
2.393512e+08 8.839722e-01 4.053955e-01 -2.415851e-06 1.682248e-05 5.259365e-05 3.557652e-05 8.521118e-01 5.015869e-01
2.395691e+08 8.834229e-01 4.050903e-01 1.562200e-05 -4.187226e-06 3.667921e-05 1.473166e-05 8.513184e-01 5.014648e-01
2.397869e+08 8.836060e-01 4.056396e-01 9.547919e-06 6.792322e-05 2.105348e-05 -7.707626e-06 8.513794e-01 5.015259e-01
2.400047e+08 8.825073e-01 4.052734e-01 1.117587e-08 -1.501665e-05 1.417100e-05 1.236983e-05 8.501587e-01 5.013428e-01
2.402225e+08 8.825073e-01 4.050903e-01 1.203176e-05 -9.013340e-06 -3.063306e-05 -1.201220e-05 8.505859e-01 5.017700e-01
2.404403e+08 8.817139e-01 4.057617e-01 -2.160855e-05 -2.883747e-05 -2.706423e-05 2.302974e-05 8.495483e-01 5.012817e-01
2.406581e+08 8.817139e-01 4.052124e-01 -2.164766e-05 3.122352e-05 2.252497e-05 2.374873e-06 8.488770e-01 5.016479e-01
2.408759e+08 8.818970e-01 4.053955e-01 2.645515e-05 1.023337e-05 -8.484349e-06 -2.611242e-05 8.491821e-01 5.021973e-01
2.410938e+08 8.806152e-01 4.058228e-01 -2.646446e-05 -2.526306e-05 -1.235679e-05 -7.764250e-05 8.490601e-01 5.021973e-01
2.413116e+08 8.808594e-01 4.055176e-01 -1.922622e-05 -3.066845e-05 -2.112333e-05 -1.032837e-05 8.479004e-01 5.020142e-01
2.415294e+08 8.796997e-01 4.061890e-01 -9.646639e-06 2.224743e-05 4.803762e-05 2.498552e-05 8.471680e-01 5.029907e-01
2.417472e+08 8.791504e-01 4.064331e-01 5.533919e-05 -2.643839e-05 1.265854e-05 -1.578778e-05 8.468018e-01 5.021973e-01
2.419650e+08 8.787231e-01 4.060059e-01 -4.213676e-05 2.402440e-05 -1.180638e-05 1.101661e-05 8.461914e-01 5.026855e-01
2.421828e+08 8.782959e-01 4.062500e-01 -2.409704e-05 1.802109e-05 5.284324e-06 2.554245e-05 8.457031e-01 5.034180e-01
2.424006e+08 8.778076e-01 4.070435e-01 2.286397e-05 -9.642914e-06 -2.918392e-05 -1.940876e-06 8.456421e-01 5.022583e-01
2.426184e+08 8.767090e-01 4.072876e-01 1.564994e-05 2.587587e-05 -8.355360e-06 9.984709e-06 8.449097e-01 5.024414e-01
2.428362e+08 8.762207e-01 4.074097e-01 -1.565926e-05 -2.592802e-05 1.238659e-06 2.975948e-05 8.455200e-01 5.034180e-01
2.430541e+08 8.760376e-01 4.076538e-01 2.049655e-05 -2.285652e-05 4.420429e-05 -8.527189e-06 8.436279e-01 5.032959e-01
2.432719e+08 8.754272e-01 4.080200e-01 1.560152e-05 4.097074e-05 3.921241e-05 -3.566965e-05 8.428345e-01 5.036621e-01
2.434897e+08 8.750610e-01 4.078369e-01 1.184642e-06 2.167374e-05 -4.608557e-05 -3.614277e-05 8.422852e-01 5.029907e-01
2.437075e+08 8.743286e-01 4.085083e-01 7.232651e-06 -5.418900e-06 -3.149547e-05 1.077913e-05 8.419189e-01 5.035400e-01
2.439253e+08 8.731079e-01 4.080200e-01 5.181506e-05 -4.633516e-05 -3.271177e-05 -1.896545e-05 8.406372e-01 5.034180e-01
2.441431e+08 8.731689e-01 4.078369e-01 1.200289e-05 5.122274e-05 -2.266839e-06 1.273025e-05 8.401489e-01 5.041504e-01
2.443609e+08 8.729858e-01 4.085083e-01 3.737956e-05 -5.062297e-05 3.416836e-05 1.103058e-05 8.400269e-01 5.042114e-01
2.445788e+08 8.727417e-01 4.088135e-01 -1.681969e-05 -3.255345e-05 -9.557698e-06 -1.706183e-06 8.382568e-01 5.042114e-01
2.447966e+08 8.721924e-01 4.091797e-01 -1.688395e-05 1.264457e-05 2.331100e-06 5.351380e-06 8.385620e-01 5.041504e-01
2.450144e+08 8.706665e-01 4.094238e-01 -4.803762e-06 -2.650172e-05 2.713874e-06 3.990531e-05 8.371582e-01 5.042114e-01
2.452322e+08 8.706665e-01 4.092407e-01 -4.217774e-05 8.989125e-06 2.900604e-06 2.162997e-06 8.363647e-01 5.048218e-01
2.454500e+08 8.697510e-01 4.097900e-01 -6.045215e-06 1.205318e-05 2.042390e-06 6.943010e-06 8.362427e-01 5.060425e-01
2.456678e+08 8.688354e-01 4.101562e-01 6.026123e-06 3.017019e-06 -2.862513e-05 1.294352e-05 8.356934e-01 5.050659e-01
2.458856e+08 8.686523e-01 4.104004e-01 3.733113e-05 3.986433e-05 -1.389254e-05 4.084781e-06 8.348999e-01 5.061035e-01
2.461034e+08 8.677979e-01 4.104004e-01 4.816800e-06 1.145992e-05 -1.103431e-05 -1.184549e-05 8.343506e-01 5.058594e-01
2.463212e+08 8.673706e-01 4.111938e-01 -4.816800e-06 -2.654083e-05 -2.983958e-05 1.220033e-06 8.337402e-01 5.057373e-01
2.465391e+08 8.666382e-01 4.112549e-01 -7.269904e-06 3.557280e-05 -3.306195e-07 -1.651142e-05 8.327026e-01 5.061035e-01
2.467569e+08 8.660278e-01 4.118042e-01 -3.132597e-05 -5.194172e-05 -8.424744e-06 -8.088537e-06 8.326416e-01 5.065308e-01
2.469747e+08 8.652954e-01 4.113770e-01 2.289377e-05 3.562123e-05 2.674758e-06 -7.025525e-05 8.319702e-01 5.063477e-01
2.471925e+08 8.645020e-01 4.124756e-01 -8.447096e-06 -1.214910e-06 -1.365598e-05 -1.561828e-05 8.312988e-01 5.061646e-01
2.474103e+08 8.638916e-01 4.133911e-01 1.927279e-05 3.079511e-05 -4.111603e-05 2.715923e-05 8.302612e-01 5.069580e-01
2.476281e+08 8.641357e-01 4.132690e-01 -1.242384e-06 2.352335e-05 -6.527826e-05 -2.161413e-05 8.290405e-01 5.070801e-01
2.478459e+08 8.630371e-01 4.131470e-01 3.744289e-05 -5.377457e-06 1.676288e-05 -2.004392e-05 8.289795e-01 5.078735e-01
2.480638e+08 8.623047e-01 4.138184e-01 2.537481e-05 -1.143478e-05 -1.014257e-05 1.467299e-06 8.279419e-01 5.080566e-01
2.482816e+08 8.619995e-01 4.139404e-01 6.105751e-06 -5.736575e-05 -3.129430e-05 9.194016e-06 8.273926e-01 5.083008e-01
2.484994e+08 8.604126e-01 4.140015e-01 -1.816265e-05 2.110004e-05 -1.108274e-06 2.448447e-05 8.264771e-01 5.089722e-01
2.487172e+08 8.601685e-01 4.142456e-01 1.084991e-05 1.450162e-05 3.680959e-05 -3.270805e-06 8.258667e-01 5.083618e-01
2.489350e+08 8.596802e-01 4.147339e-01 -3.650784e-06 2.536736e-05 1.734495e-05 -2.323277e-05 8.250122e-01 5.087891e-01
2.491528e+08 8.581543e-01 4.150391e-01 -8.385628e-06 -4.654378e-05 3.119931e-07 1.651514e-05 8.240967e-01 5.093994e-01
2.493706e+08 8.579102e-01 4.151611e-01 -2.290681e-05 -5.073845e-05 1.146458e-06 -6.380957e-06 8.229980e-01 5.089111e-01
2.495884e+08 8.581543e-01 4.157104e-01 2.892874e-05 3.871135e-05 -2.177898e-05 -7.199124e-06 8.220825e-01 5.102539e-01
2.498062e+08 8.566284e-01 4.168091e-01 -8.482486e-06 1.387857e-05 4.917383e-06 -8.997507e-06 8.215332e-01 5.100098e-01
2.500241e+08 8.561401e-01 4.160767e-01 3.025867e-05 -3.015250e-05 3.860891e-05 2.338551e-05 8.204956e-01 5.104980e-01
2.502419e+08 8.554077e-01 4.168091e-01 -4.794449e-06 -2.658740e-05 1.305528e-05 6.984919e-07 8.198853e-01 5.106201e-01
2.504597e+08 8.541870e-01 4.174194e-01 -5.556643e-05 -1.883507e-05 -5.017966e-06 -4.538149e-05 8.191528e-01 5.109253e-01
2.506775e+08 8.541870e-01 4.174805e-01 -2.415664e-05 -1.214072e-05 2.439693e-05 1.095422e-05 8.187256e-01 5.114136e-01
2.508953e+08 8.532104e-01 4.173584e-01 -1.095980e-05 4.592538e-05 4.048226e-06 -4.215166e-06 8.179321e-01 5.119019e-01
2.511131e+08 8.521729e-01 4.190063e-01 7.292256e-06 -2.054498e-05 3.452413e-06 -1.915917e-05 8.171387e-01 5.128784e-01
2.513309e+08 8.517456e-01 4.193115e-01 -2.413057e-05 -2.725609e-05 -1.107715e-05 -3.002957e-05 8.161621e-01 5.127563e-01
2.515488e+08 8.507690e-01 4.195557e-01 -7.297844e-06 2.055615e-05 -5.232170e-06 -7.537194e-06 8.159180e-01 5.136719e-01
2.517666e+08 8.510742e-01 4.206543e-01 -2.422719e-06 1.807930e-06 1.454353e-05 1.087412e-05 8.141479e-01 5.136108e-01
2.519844e+08 8.497314e-01 4.215698e-01 6.116927e-06 -2.720952e-05 3.078207e-05 -5.980954e-06 8.137817e-01 5.147095e-01
2.522022e+08 8.489380e-01 4.205933e-01 2.777949e-05 1.698919e-05 -3.022328e-05 -1.532771e-05 8.126831e-01 5.142822e-01
2.524200e+08 8.479004e-01 4.210205e-01 -9.700656e-06 7.242896e-06 2.382323e-05 1.418777e-05 8.126831e-01 5.152588e-01
2.526378e+08 8.475952e-01 4.217529e-01 4.356354e-05 -2.343208e-06 1.306087e-05 7.059425e-07 8.113403e-01 5.155029e-01
2.528556e+08 8.468628e-01 4.225464e-01 -2.456829e-06 1.693424e-05 8.163974e-06 2.786517e-05 8.104248e-01 5.156250e-01
2.530734e+08 8.455811e-01 4.229736e-01 4.786998e-06 2.662465e-05 -3.481749e-06 1.019100e-06 8.096313e-01 5.158081e-01
2.532912e+08 8.455200e-01 4.233398e-01 1.570862e-05 1.092255e-05 -2.272427e-05 -3.873557e-05 8.087158e-01 5.165405e-01
2.535091e+08 8.442383e-01 4.237671e-01 -1.932215e-05 -1.576450e-05 2.962910e-05 1.853146e-05 8.074951e-01 5.166626e-01
2.537269e+08 8.432617e-01 4.241943e-01 3.629364e-05 3.086403e-06 3.019534e-05 1.534261e-05 8.070679e-01 5.173340e-01
2.539447e+08 8.430176e-01 4.248047e-01 2.424116e-06 -1.810840e-06 -2.208911e-05 -2.377667e-05 8.062744e-01 5.177612e-01
2.541625e+08 8.430176e-01 4.256592e-01 7.200986e-06 2.481602e-05 2.494454e-05 -2.851523e-05 8.049316e-01 5.182495e-01
2.543803e+08 8.411255e-01 4.260864e-01 -3.023073e-05 -1.517870e-05 -4.652888e-06 -1.073955e-05 8.040771e-01 5.183105e-01
2.545981e+08 8.412476e-01 4.268799e-01 -3.397465e-05 4.051253e-05 4.909933e-05 2.261251e-06 8.041382e-01 5.184326e-01
2.548159e+08 8.400269e-01 4.273071e-01 -7.238239e-06 -9.700656e-06 -3.459491e-05 -2.771057e-05 8.021240e-01 5.195312e-01
2.550338e+08 8.394775e-01 4.271851e-01 -8.009374e-08 3.025308e-05 -2.380088e-05 3.965572e-06 8.012695e-01 5.197144e-01
2.552516e+08 8.383789e-01 4.291382e-01 -9.734184e-06 2.237596e-05 2.606772e-06 -1.438335e-05 8.007812e-01 5.203247e-01
2.554694e+08 8.382568e-01 4.289551e-01 2.659298e-05 1.035444e-05 5.483627e-06 -3.037788e-05 7.993774e-01 5.206909e-01
2.556872e+08 8.379517e-01 4.299316e-01 -1.326762e-05 -2.787262e-05 2.852455e-05 2.495386e-05 7.994385e-01 5.207520e-01
2.559050e+08 8.361206e-01 4.304199e-01 2.180226e-05 -1.143664e-06 -2.315268e-06 1.277961e-05 7.981567e-01 5.223999e-01
2.561228e+08 8.356934e-01 4.309692e-01 -2.188422e-05 3.143586e-05 3.425218e-05 -2.515875e-05 7.976685e-01 5.225220e-01
2.563406e+08 8.356323e-01 4.311523e-01 -7.243827e-06 -9.705313e-06 5.573779e-05 -3.454089e-05 7.965088e-01 5.227051e-01
2.565584e+08 8.342896e-01 4.318848e-01 3.392808e-05 -1.020916e-05 8.986332e-06 -1.323130e-05 7.956543e-01 5.236816e-01
2.567762e+08 8.342285e-01 4.328613e-01 1.698546e-05 -1.266319e-05 3.430061e-05 -7.029623e-06 7.944336e-01 5.245361e-01
2.569941e+08 8.331909e-01 4.326172e-01 4.965067e-05 7.189810e-07 8.441973e-06 8.128583e-06 7.940674e-01 5.250854e-01
2.572119e+08 8.322144e-01 4.340820e-01 1.101568e-05 -4.600361e-05 2.761371e-05 -6.560236e-06 7.931519e-01 5.257568e-01
2.574297e+08 8.315430e-01 4.331665e-01 2.427609e-06 -1.812470e-06 -2.005883e-05 1.347624e-06 7.927856e-01 5.263672e-01
2.576475e+08 8.303223e-01 4.348145e-01 -1.192559e-06 -6.666407e-06 5.785841e-07 -3.198395e-06 7.912598e-01 5.269775e-01
2.578653e+08 8.298340e-01 4.350586e-01 -2.607703e-08 1.513492e-05 -3.546663e-05 -2.292916e-05 7.907104e-01 5.263062e-01
2.580831e+08 8.294067e-01 4.360352e-01 -7.197261e-06 -2.486259e-05 -1.947861e-05 -1.882203e-06 7.896729e-01 5.283813e-01
2.583009e+08 8.280640e-01 4.368286e-01 8.518808e-06 -1.390651e-05 2.840534e-07 -1.975615e-05 7.887573e-01 5.286865e-01
2.585188e+08 8.273315e-01 4.379883e-01 -3.035553e-05 1.506321e-05 -9.004027e-06 4.956499e-05 7.883911e-01 5.297241e-01
2.587366e+08 8.270874e-01 4.388428e-01 2.290681e-05 3.581680e-05 -1.221523e-05 -5.521812e-06 7.874146e-01 5.299072e-01
2.589544e+08 8.258667e-01 4.393311e-01 -1.581945e-05 1.932029e-05 6.396323e-06 -3.516115e-05 7.856445e-01 5.307617e-01
2.591722e+08 8.258667e-01 4.402466e-01 -1.582690e-05 1.934357e-05 -1.105294e-05 -1.192093e-05 7.859497e-01 5.313721e-01
2.593900e+08 8.251953e-01 4.404297e-01 2.053007e-05 2.247095e-05 9.886455e-06 1.345761e-07 7.846069e-01 5.314331e-01
2.596078e+08 8.243408e-01 4.415283e-01 -2.335757e-06 -2.848357e-05 -3.139675e-05 2.734363e-05 7.833252e-01 5.321655e-01
2.598256e+08 8.242798e-01 4.423218e-01 -2.309121e-05 2.476946e-05 4.070112e-06 -4.221452e-06 7.826538e-01 5.325317e-01
2.600434e+08 8.231201e-01 4.429932e-01 9.777024e-06 -2.238713e-05 -9.306706e-06 -3.340188e-06 7.813721e-01 5.342407e-01
2.602612e+08 8.226929e-01 4.438477e-01 -7.200986e-06 -2.487563e-05 3.316998e-05 -5.960464e-07 7.810669e-01 5.346069e-01
2.604791e+08 8.217773e-01 4.445190e-01 1.288950e-06 -2.365187e-05 -1.686625e-05 2.007652e-05 7.807007e-01 5.356445e-01
2.606969e+08 8.209839e-01 4.451294e-01 9.763986e-06 -2.240390e-05 -7.273629e-06 -1.454633e-05 7.795410e-01 5.356445e-01
2.609147e+08 8.198853e-01 4.456177e-01 1.943484e-05 -1.448859e-05 -5.232636e-06 1.061196e-05 7.786255e-01 5.362549e-01
2.611325e+08 8.200073e-01 4.465942e-01 -1.225621e-05 3.935769e-05 -1.861528e-05 1.150277e-05 7.777100e-01 5.379639e-01
2.613503e+08 8.195801e-01 4.473877e-01 1.352280e-06 -3.877841e-05 4.073605e-06 -2.240948e-05 7.766724e-01 5.384521e-01
2.615681e+08 8.179321e-01 4.480591e-01 -1.814589e-05 -9.163283e-06 1.017563e-05 -1.454726e-06 7.760010e-01 5.391846e-01
2.617859e+08 8.173828e-01 4.487305e-01 -6.007031e-06 -1.819059e-05 4.656613e-09 1.817383e-05 7.752686e-01 5.388184e-01
2.620038e+08 8.177490e-01 4.494019e-01 -3.271922e-05 1.724809e-06 9.626150e-06 1.992565e-05 7.744141e-01 5.396118e-01
2.622216e+08 8.161621e-01 4.501953e-01 2.191961e-05 -3.141537e-05 1.133978e-05 2.850220e-05 7.731323e-01 5.411987e-01
2.624394e+08 8.158569e-01 4.514160e-01 -1.305714e-06 2.364628e-05 9.894837e-06 1.401640e-07 7.731934e-01 5.427246e-01
2.626572e+08 8.151855e-01 4.523926e-01 1.186505e-06 6.672926e-06 2.618879e-06 3.783964e-06 7.722168e-01 5.431519e-01
2.628750e+08 8.150635e-01 4.533081e-01 1.697335e-05 2.482906e-06 -5.239155e-06 -7.573050e-06 7.717896e-01 5.440674e-01
2.630928e+08 8.138428e-01 4.542236e-01 6.150454e-06 -2.726912e-05 -1.742505e-06 -8.583535e-06 7.709961e-01 5.443726e-01
2.633106e+08 8.137207e-01 4.549561e-01 4.369393e-05 -2.276152e-06 1.048297e-05 -3.051013e-06 7.705688e-01 5.452881e-01
2.635284e+08 8.135986e-01 4.556885e-01 -2.546236e-06 3.213435e-05 6.998889e-06 -2.023578e-05 7.691650e-01 5.463257e-01
2.637462e+08 8.114014e-01 4.566040e-01 -2.659112e-05 -2.552383e-05 2.613757e-06 3.783498e-06 7.681885e-01 5.456543e-01
2.639641e+08 8.110962e-01 4.576416e-01 -4.860340e-06 3.620749e-06 1.163222e-05 8.740462e-06 7.674561e-01 5.469971e-01
2.641819e+08 8.110962e-01 4.578857e-01 -1.223385e-05 2.423488e-05 1.716986e-05 3.289059e-05 7.675171e-01 5.490112e-01
2.643997e+08 8.104248e-01 4.592285e-01 2.682023e-05 -3.505126e-05 -1.194421e-05 1.105666e-05 7.656250e-01 5.492554e-01
2.646175e+08 8.094482e-01 4.602051e-01 -1.567043e-05 -2.614036e-05 -4.365668e-05 3.591180e-06 7.653198e-01 5.502319e-01
2.648353e+08 8.099976e-01 4.605103e-01 9.771436e-06 -2.240948e-05 -8.445233e-06 -8.157920e-06 7.645264e-01 5.503540e-01
2.650531e+08 8.088989e-01 4.618530e-01 -1.579151e-05 4.184432e-06 -6.978400e-06 -1.616310e-05 7.633667e-01 5.515747e-01
2.652709e+08 8.079224e-01 4.628296e-01 3.269129e-05 1.345761e-05 -3.176555e-05 2.893247e-05 7.623901e-01 5.521851e-01
2.654888e+08 8.071899e-01 4.635620e-01 1.203828e-05 2.127700e-05 -2.736785e-05 4.922971e-06 7.615967e-01 5.535278e-01
2.657066e+08 8.070068e-01 4.645386e-01 2.420880e-05 1.222081e-05 3.026798e-05 1.545809e-05 7.609253e-01 5.541382e-01
2.659244e+08 8.060303e-01 4.647827e-01 2.432847e-06 -1.810025e-06 -5.513430e-07 -5.136058e-05 7.601318e-01 5.546875e-01
2.661422e+08 8.063354e-01 4.665527e-01 -4.869420e-06 3.621913e-06 -1.805555e-05 -9.923242e-06 7.597656e-01 5.562134e-01
2.663600e+08 8.056641e-01 4.674683e-01 -4.938804e-06 1.877919e-05 -1.340453e-05 8.624047e-07 7.586060e-01 5.569458e-01
2.665778e+08 8.055420e-01 4.672852e-01 2.908334e-05 8.638948e-06 7.858500e-06 -2.504885e-05 7.579346e-01 5.580444e-01
2.667956e+08 8.037109e-01 4.694214e-01 -2.796203e-05 1.320802e-05 -5.817506e-06 -4.374422e-06 7.570801e-01 5.582886e-01
2.670134e+08 8.038940e-01 4.705200e-01 -1.327600e-05 -1.279730e-05 3.349781e-05 -2.136454e-06 7.558594e-01 5.592651e-01
2.672312e+08 8.027954e-01 4.709473e-01 1.579896e-05 -4.172325e-06 -1.447741e-06 -1.019239e-05 7.560425e-01 5.607300e-01
2.674491e+08 8.026733e-01 4.722900e-01 1.829490e-05 -2.113916e-05 2.679974e-05 -1.719221e-06 7.548218e-01 5.609741e-01
2.676669e+08 8.032227e-01 4.724731e-01 -7.376075e-06 2.060644e-05 -1.461245e-06 8.012168e-06 7.548218e-01 5.620117e-01
2.678847e+08 8.016968e-01 4.734497e-01 -7.104129e-06 -4.008040e-05 -1.136120e-05 7.852912e-06 7.537231e-01 5.629272e-01
2.681025e+08 8.013306e-01 4.736328e-01 9.890646e-06 -3.758259e-05 2.241507e-05 -1.409836e-05 7.531128e-01 5.645752e-01
2.683203e+08 8.013306e-01 4.747925e-01 -3.011152e-05 -4.563108e-05 2.301671e-05 -1.730956e-05 7.519531e-01 5.646973e-01
2.685381e+08 8.009033e-01 4.766235e-01 -2.305023e-05 -5.574897e-06 2.272031e-10 -1.568310e-10 7.521973e-01 5.664062e-01
2.687559e+08 8.001099e-01 4.769287e-01 -4.129857e-05 4.209578e-07 -4.254654e-05 1.538172e-05 7.514648e-01 5.671997e-01
2.689738e+08 8.001099e-01 4.785767e-01 5.085021e-06 -4.914403e-05 -8.761883e-06 1.164712e-05 7.503662e-01 5.682373e-01
2.691916e+08 7.993774e-01 4.796143e-01 3.283471e-05 -1.684204e-05 -1.693703e-05 2.007931e-05 7.496948e-01 5.681763e-01
2.694094e+08 7.991943e-01 4.798584e-01 -1.817383e-05 -9.171665e-06 -1.228601e-05 3.085844e-05 7.494507e-01 5.691528e-01
2.696272e+08 7.984619e-01 4.810181e-01 4.723668e-06 2.673455e-05 -2.654083e-05 1.832284e-05 7.485352e-01 5.708008e-01
2.698450e+08 7.980957e-01 4.818726e-01 4.578382e-06 5.707145e-05 -1.396984e-05 -1.414772e-05 7.474976e-01 5.718384e-01
2.700628e+08 7.977905e-01 4.832153e-01 -3.028847e-05 -1.532584e-05 1.516473e-05 -1.047645e-05 7.467651e-01 5.729980e-01
2.702806e+08 7.973022e-01 4.838257e-01 -3.270246e-05 -1.352467e-05 2.324348e-06 5.392823e-06 7.459106e-01 5.733032e-01
2.704984e+08 7.973022e-01 4.846191e-01 -7.235445e-06 -9.754207e-06 9.067357e-06 -3.147684e-05 7.457886e-01 5.746460e-01
2.707162e+08 7.962036e-01 4.860840e-01 -2.585351e-06 3.217161e-05 1.891330e-05 2.334639e-05 7.454834e-01 5.752563e-01
2.709341e+08 7.959595e-01 4.873047e-01 1.573563e-05 1.101196e-05 -1.208857e-06 2.462231e-05 7.448120e-01 5.764771e-01
2.711519e+08 7.960815e-01 4.880371e-01 2.574921e-05 -4.177913e-05 -1.839083e-05 9.888783e-06 7.440796e-01 5.778809e-01
2.713697e+08 7.946167e-01 4.888306e-01 -2.060458e-05 -7.407740e-06 -2.025161e-06 -6.995164e-06 7.431030e-01 5.786133e-01
2.715875e+08 7.941895e-01 4.902344e-01 1.085177e-05 1.463015e-05 3.203982e-06 5.897600e-07 7.429810e-01 5.789795e-01
2.718053e+08 7.942505e-01 4.910278e-01 -3.702939e-06 1.030881e-05 3.205240e-05 5.878508e-06 7.424316e-01 5.807495e-01
2.720231e+08 7.943726e-01 4.920044e-01 -2.050772e-05 -2.257340e-05 1.632143e-05 1.335517e-06 7.409058e-01 5.811768e-01
2.722409e+08 7.945557e-01 4.931030e-01 -1.085643e-05 -1.464225e-05 -1.783110e-05 2.492033e-05 7.413330e-01 5.825806e-01
2.724588e+08 7.932129e-01 4.942017e-01 4.730001e-05 1.790375e-05 -3.673509e-05 1.516193e-06 7.410278e-01 5.838013e-01
2.726766e+08 7.936401e-01 4.949341e-01 -3.020093e-05 -3.052317e-05 2.914481e-05 2.191961e-05 7.396851e-01 5.841064e-01
2.728944e+08 7.937622e-01 4.957275e-01 -1.944322e-05 -7.068738e-07 2.336502e-05 -1.893379e-05 7.398071e-01 5.851440e-01
2.731122e+08 7.925415e-01 4.962769e-01 2.682582e-05 -1.990795e-05 -4.489720e-05 9.976327e-06 7.391357e-01 5.857544e-01
2.733300e+08 7.927246e-01 4.972534e-01 6.056856e-06 3.071036e-06 -5.978718e-05 1.886487e-05 7.379150e-01 5.876465e-01
2.735478e+08 7.922363e-01 4.989014e-01 2.046861e-05 3.776699e-05 4.374608e-05 -3.553927e-06 7.381592e-01 5.880127e-01
2.737656e+08 7.915039e-01 4.994507e-01 -3.045611e-05 1.502410e-05 5.820300e-06 4.378613e-06 7.373657e-01 5.892944e-01
2.739834e+08 7.912598e-01 5.010986e-01 -7.463619e-06 3.581122e-05 2.214126e-05 5.725771e-06 7.372437e-01 5.903320e-01
2.742012e+08 7.908325e-01 5.022583e-01 1.363456e-06 -2.369098e-05 4.638452e-06 1.079775e-05 7.362671e-01 5.917969e-01
2.744191e+08 7.910767e-01 5.027466e-01 5.571172e-05 3.435090e-05 -9.325333e-06 -3.371388e-06 7.361450e-01 5.927124e-01
2.746369e+08 7.901001e-01 5.037842e-01 -2.921186e-05 6.513670e-06 7.798895e-06 2.960302e-05 7.355347e-01 5.937500e-01
2.748547e+08 7.897949e-01 5.043335e-01 3.878027e-05 1.666322e-05 1.104549e-06 3.001839e-05 7.345581e-01 5.948486e-01
2.750725e+08 7.896729e-01 5.065918e-01 -1.329742e-05 -1.285691e-05 -9.022187e-06 -4.987698e-06 7.346802e-01 5.963745e-01
2.752903e+08 7.900391e-01 5.070190e-01 1.329090e-05 1.284014e-05 -7.553957e-06 -1.299661e-05 7.333984e-01 5.965576e-01
2.755081e+08 7.891846e-01 5.078735e-01 4.795380e-06 1.158006e-05 5.229376e-06 7.594004e-06 7.333984e-01 5.979004e-01
2.757259e+08 7.897949e-01 5.090332e-01 -4.250556e-05 -6.310642e-06 -1.225621e-06 2.464838e-05 7.327881e-01 5.983276e-01
2.759438e+08 7.891846e-01 5.092773e-01 2.340414e-06 1.338869e-05 -4.580989e-05 1.478195e-05 7.315674e-01 6.006470e-01
2.761616e+08 7.891846e-01 5.106201e-01 3.708526e-06 -1.031067e-05 -1.768582e-06 9.621959e-06 7.316895e-01 6.009521e-01
2.763794e+08 7.897339e-01 5.121460e-01 -2.425164e-05 -1.230091e-05 -1.896732e-05 -5.143695e-06 7.315674e-01 6.015625e-01
2.765972e+08 7.890015e-01 5.123901e-01 2.189167e-05 -1.104549e-06 1.689419e-05 1.636613e-05 7.314453e-01 6.022949e-01
2.768150e+08 7.881470e-01 5.136108e-01 4.612282e-05 1.122057e-05 1.475681e-06 -8.019153e-06 7.302246e-01 6.035156e-01
2.770328e+08 7.881470e-01 5.144043e-01 -2.443325e-06 1.808628e-06 -2.069026e-05 -1.375377e-05 7.300415e-01 6.049805e-01
2.772506e+08 7.875977e-01 5.161133e-01 -1.700409e-05 -2.518296e-06 1.780689e-06 -9.622425e-06 7.299194e-01 6.048584e-01
2.774684e+08 7.879028e-01 5.166016e-01 -2.180971e-05 -1.411885e-05 4.093628e-06 -4.222617e-06 7.297974e-01 6.069946e-01
2.776862e+08 7.879028e-01 5.175171e-01 9.950250e-06 -3.765710e-05 6.417278e-06 1.182314e-06 7.294922e-01 6.077881e-01
2.779041e+08 7.868652e-01 5.193481e-01 2.172589e-05 2.933480e-05 -1.633912e-05 -1.362525e-06 7.291260e-01 6.092529e-01
2.781219e+08 7.873535e-01 5.196533e-01 3.331155e-05 -7.763878e-05 4.317611e-06 3.065541e-05 7.286987e-01 6.095581e-01
2.783397e+08 7.863159e-01 5.208130e-01 -1.574401e-05 -1.105480e-05 -8.190516e-06 8.433592e-06 7.283936e-01 6.111450e-01
2.785575e+08 7.864990e-01 5.219116e-01 -5.103275e-05 -7.618219e-06 1.573190e-05 4.569069e-06 7.277832e-01 6.114502e-01
2.787753e+08 7.869873e-01 5.227661e-01 -1.573935e-05 -1.104362e-05 1.249090e-05 2.220459e-05 7.272949e-01 6.127319e-01
2.789931e+08 7.867432e-01 5.238647e-01 -3.531575e-05 3.408641e-06 -1.199543e-05 1.105200e-05 7.272949e-01 6.143188e-01
2.792109e+08 7.866211e-01 5.249023e-01 -3.434718e-06 -3.529899e-05 4.990399e-05 -7.487833e-07 7.269287e-01 6.143188e-01
2.794288e+08 7.864380e-01 5.249023e-01 5.060807e-06 -3.404543e-05 -3.247522e-06 1.763273e-05 7.271729e-01 6.156006e-01
2.796466e+08 7.868042e-01 5.264893e-01 2.903119e-05 2.393872e-05 4.141964e-05 9.287149e-06 7.257690e-01 6.179199e-01
2.798644e+08 7.861328e-01 5.267334e-01 -1.271721e-06 8.510891e-06 -2.628192e-05 1.670606e-05 7.259521e-01 6.185303e-01
2.800822e+08 7.855835e-01 5.288086e-01 3.411993e-05 -1.011230e-05 9.518117e-07 -2.304651e-05 7.249756e-01 6.191406e-01
2.803000e+08 7.865601e-01 5.291748e-01 -2.084672e-05 2.298132e-05 -1.164898e-05 -8.794479e-06 7.253418e-01 6.206055e-01
2.805178e+08 7.868652e-01 5.302124e-01 2.534501e-05 3.422797e-05 2.361089e-05 1.598150e-05 7.247314e-01 6.209717e-01
2.807356e+08 7.868652e-01 5.319214e-01 8.717179e-06 -2.916157e-05 5.774200e-08 -1.826137e-05 7.243652e-01 6.231079e-01
2.809534e+08 7.861938e-01 5.319214e-01 7.154420e-06 2.501160e-05 -2.049282e-05 2.110191e-05 7.246094e-01 6.237793e-01
2.811712e+08 7.861328e-01 5.339355e-01 8.412637e-06 1.648907e-05 3.330223e-05 -4.675239e-07 7.236328e-01 6.245728e-01
2.813891e+08 7.861938e-01 5.343628e-01 3.619818e-06 4.889909e-06 -2.968125e-06 1.605414e-05 7.235107e-01 6.249390e-01
2.816069e+08 7.864990e-01 5.355225e-01 5.792826e-06 4.873425e-05 -2.504885e-05 -2.622791e-05 7.234497e-01 6.264648e-01
2.818247e+08 7.861328e-01 5.369263e-01 -3.402494e-05 -5.073845e-06 -1.600105e-05 -2.123974e-05 7.230835e-01 6.264648e-01
2.820425e+08 7.864380e-01 5.372314e-01 -2.319366e-05 9.579584e-06 -2.401508e-05 2.212636e-05 7.230225e-01 6.286011e-01
2.822603e+08 7.867432e-01 5.379639e-01 1.576729e-05 1.105387e-05 5.877577e-06 -1.386832e-05 7.236328e-01 6.290894e-01
2.824781e+08 7.864380e-01 5.392456e-01 5.744398e-06 4.873425e-05 2.510101e-05 7.962808e-06 7.225342e-01 6.305542e-01
2.826959e+08 7.860107e-01 5.397949e-01 -2.787635e-05 -1.724809e-05 7.962808e-06 -2.508797e-05 7.221069e-01 6.318359e-01
2.829138e+08 7.857056e-01 5.416260e-01 -2.798997e-05 -2.019107e-06 3.532693e-05 6.563962e-06 7.221069e-01 6.322632e-01
2.831316e+08 7.864990e-01 5.414429e-01 3.716908e-06 -1.032278e-05 -3.508478e-05 1.014397e-05 7.219849e-01 6.329956e-01
2.833494e+08 7.860107e-01 5.435181e-01 2.907775e-05 2.393313e-05 -2.076384e-05 4.456379e-06 7.222290e-01 6.337891e-01
2.835672e+08 7.861938e-01 5.437012e-01 -2.405420e-05 -4.275143e-05 -1.141801e-05 7.854775e-06 7.210693e-01 6.349487e-01
2.837850e+08 7.863770e-01 5.449829e-01 -8.512754e-06 -1.277309e-06 -3.496557e-05 -2.643466e-05 7.209473e-01 6.362305e-01
2.840028e+08 7.861328e-01 5.460815e-01 2.321042e-05 -9.573996e-06 3.658794e-05 -1.811236e-05 7.210083e-01 6.376343e-01
2.842206e+08 7.864380e-01 5.464478e-01 -1.278240e-06 8.516014e-06 -1.939386e-05 3.294460e-05 7.209473e-01 6.383057e-01
2.844384e+08 7.870483e-01 5.473022e-01 1.575798e-06 -5.418807e-05 -4.400034e-06 5.832873e-06 7.208862e-01 6.391602e-01
2.846562e+08 7.863770e-01 5.485840e-01 4.893634e-06 -3.621681e-06 -2.689287e-05 1.646578e-06 7.208252e-01 6.395264e-01
2.848741e+08 7.865601e-01 5.488281e-01 1.830515e-05 -5.961396e-06 2.099294e-05 1.219567e-05 7.203979e-01 6.405029e-01
2.850919e+08 7.871094e-01 5.499268e-01 2.551824e-06 -1.703668e-05 1.208298e-05 -2.933852e-05 7.203979e-01 6.420288e-01
2.853097e+08 7.868042e-01 5.504150e-01 -2.299808e-05 -2.086721e-05 -1.220033e-05 -2.385490e-05 7.200928e-01 6.434326e-01
2.855275e+08 7.869873e-01 5.512695e-01 -1.821015e-05 -9.255484e-06 -3.832020e-05 9.506941e-06 7.198486e-01 6.440430e-01
2.857453e+08 7.858276e-01 5.524902e-01 1.078472e-06 2.193637e-05 2.171844e-06 4.191138e-05 7.203979e-01 6.445923e-01
2.859631e+08 7.872925e-01 5.532837e-01 7.048249e-06 4.027039e-05 -2.554059e-05 3.018230e-05 7.201538e-01 6.459351e-01
2.861809e+08 7.877808e-01 5.546265e-01 1.924857e-05 3.121048e-05 -1.518615e-05 -7.809140e-06 7.189331e-01 6.469116e-01
2.863988e+08 7.874756e-01 5.549316e-01 3.723428e-06 -1.033675e-05 5.358830e-06 -2.893433e-05 7.196655e-01 6.477661e-01
2.866166e+08 7.876587e-01 5.557861e-01 -1.275446e-06 8.516479e-06 1.728535e-06 8.633826e-06 7.188110e-01 6.481323e-01
2.868344e+08 7.879028e-01 5.568848e-01 8.739531e-06 -2.919883e-05 -2.089888e-06 1.125596e-05 7.191162e-01 6.498413e-01
2.870522e+08 7.880249e-01 5.578003e-01 2.451008e-06 -1.811422e-06 5.986076e-07 -3.216555e-06 7.192383e-01 6.508789e-01
2.872700e+08 7.872314e-01 5.585327e-01 1.948979e-05 7.413328e-07 -2.183393e-05 4.580989e-05 7.187500e-01 6.511841e-01
2.874878e+08 7.882080e-01 5.588989e-01 7.143244e-06 2.503581e-05 -1.143664e-05 7.859431e-06 7.188110e-01 6.520386e-01
2.877056e+08 7.880859e-01 5.599976e-01 4.414842e-05 -3.261119e-05 3.514066e-05 -1.010485e-05 7.190552e-01 6.536865e-01
2.879234e+08 7.885132e-01 5.604858e-01 -1.949817e-05 -7.497147e-07 -4.648697e-06 -1.084059e-05 7.184448e-01 6.539917e-01
2.881412e+08 7.890015e-01 5.617676e-01 -1.845695e-05 2.121553e-05 -5.241483e-06 -7.632188e-06 7.190552e-01 6.553955e-01
2.883591e+08 7.894897e-01 5.619507e-01 2.569892e-05 -1.139566e-05 1.668930e-06 2.693385e-05 7.182617e-01 6.560669e-01
2.885769e+08 7.894287e-01 5.631714e-01 -1.717266e-05 1.268648e-05 9.536743e-07 -2.312846e-05 7.188110e-01 6.571655e-01
2.887947e+08 7.899780e-01 5.639648e-01 -8.530915e-06 -1.281034e-06 -1.192465e-05 -2.552383e-05 7.190552e-01 6.574707e-01
2.890125e+08 7.899780e-01 5.649414e-01 2.570450e-06 -1.706835e-05 -3.816327e-06 2.620742e-06 7.184448e-01 6.593018e-01
2.892303e+08 7.898560e-01 5.652466e-01 4.362315e-05 4.364178e-05 3.472343e-05 2.808869e-05 7.188721e-01 6.596069e-01
2.894481e+08 7.902222e-01 5.657349e-01 -9.685755e-07 -3.723614e-05 -3.676489e-05 -3.511645e-05 7.188110e-01 6.604004e-01
2.896659e+08 7.896729e-01 5.677490e-01 -5.103648e-05 -3.822520e-05 2.462417e-05 -7.065013e-06 7.190552e-01 6.618652e-01
2.898838e+08 7.907104e-01 5.686646e-01 -4.563481e-06 -4.213676e-05 -3.032945e-05 -3.398024e-05 7.183838e-01 6.617432e-01
2.901016e+08 7.905884e-01 5.690918e-01 -5.004928e-05 -1.009554e-06 -5.735829e-05 -1.401454e-05 7.183228e-01 6.631470e-01
2.903194e+08 7.907715e-01 5.696411e-01 -4.474074e-06 -5.745888e-05 -3.100000e-05 -1.243502e-05 7.194824e-01 6.640625e-01
2.905372e+08 7.911987e-01 5.700073e-01 3.763847e-05 2.532452e-05 4.343316e-05 -1.858734e-05 7.181396e-01 6.646729e-01
2.907550e+08 7.907715e-01 5.704956e-01 4.502758e-05 1.989678e-05 -1.908746e-05 1.309905e-05 7.183838e-01 6.655884e-01
2.909728e+08 7.915649e-01 5.723267e-01 -4.994124e-05 -1.627952e-05 -2.466328e-05 7.078052e-06 7.183838e-01 6.666870e-01
2.911906e+08 7.917480e-01 5.719604e-01 -8.541159e-06 -1.282431e-06 1.294818e-05 -1.592655e-05 7.182617e-01 6.672363e-01
2.914084e+08 7.918701e-01 5.728149e-01 -4.777685e-05 1.245365e-05 1.730490e-05 -3.450550e-06 7.181396e-01 6.690674e-01
2.916262e+08 7.918701e-01 5.738525e-01 1.941901e-05 1.604669e-05 -1.288392e-05 -2.400018e-06 7.177124e-01 6.696167e-01
2.918441e+08 7.924194e-01 5.744629e-01 2.306700e-05 2.092868e-05 9.231269e-06 -3.162585e-05 7.182617e-01 6.691284e-01
2.920619e+08 7.925415e-01 5.751953e-01 6.207265e-06 -1.217984e-05 -3.825407e-06 2.621673e-06 7.182617e-01 6.708984e-01
2.922797e+08 7.926025e-01 5.753784e-01 -1.826137e-05 -9.302981e-06 -1.244247e-05 3.102981e-05 7.183838e-01 6.711426e-01
2.924975e+08 7.924194e-01 5.769043e-01 -4.636496e-05 -1.137331e-05 -5.336944e-06 1.067715e-05 7.181396e-01 6.718750e-01
2.927153e+08 7.933960e-01 5.775757e-01 9.840354e-06 -7.257797e-06 -3.810599e-05 -1.046434e-05 7.181396e-01 6.734009e-01
2.929331e+08 7.933960e-01 5.776367e-01 -1.839641e-05 5.963258e-06 1.199543e-05 7.244758e-06 7.185059e-01 6.739502e-01
2.931509e+08 7.935181e-01 5.784912e-01 3.509223e-06 2.022274e-05 2.872758e-05 7.027760e-06 7.187500e-01 6.751709e-01
2.933688e+08 7.955322e-01 5.788574e-01 6.935000e-05 4.753470e-05 3.471039e-06 1.734775e-05 7.186890e-01 6.741943e-01
2.935866e+08 7.947388e-01 5.803223e-01 -7.040799e-06 -4.044175e-05 -7.359777e-06 3.639143e-06 7.190552e-01 6.756592e-01
2.938044e+08 7.946167e-01 5.804443e-01 -1.956429e-05 -7.757917e-07 1.721550e-06 8.671079e-06 7.182007e-01 6.766357e-01
2.940222e+08 7.945557e-01 5.806274e-01 1.170207e-06 6.737188e-06 1.267809e-05 -1.433119e-05 7.186890e-01 6.769409e-01
2.942400e+08 7.949219e-01 5.808716e-01 -4.135445e-05 -3.033876e-05 1.890212e-05 4.189275e-05 7.186890e-01 6.785889e-01
2.944578e+08 7.966919e-01 5.825195e-01 4.994124e-05 3.160164e-05 1.336448e-05 3.591925e-05 7.191162e-01 6.785278e-01
2.946756e+08 7.955933e-01 5.831909e-01 -2.437271e-05 -1.244806e-05 -1.231302e-05 -5.639158e-06 7.185669e-01 6.796265e-01
2.948934e+08 7.958984e-01 5.833130e-01 -1.581758e-05 -1.114979e-05 4.643574e-06 1.088902e-05 7.187500e-01 6.799927e-01
2.951112e+08 7.965088e-01 5.831909e-01 4.258379e-05 3.704801e-05 -1.388416e-05 -5.102903e-05 7.196045e-01 6.803589e-01
2.953291e+08 7.973022e-01 5.839844e-01 -1.971982e-05 1.453236e-05 1.464970e-05 1.107901e-05 7.193604e-01 6.813965e-01
2.955469e+08 7.969971e-01 5.849609e-01 -4.153699e-05 -1.504272e-05 -1.335517e-06 -2.866238e-05 7.193604e-01 6.825562e-01
2.957647e+08 7.976074e-01 5.850830e-01 2.223998e-06 2.880581e-05 1.795497e-05 -6.686896e-06 7.194824e-01 6.826782e-01
2.959825e+08 7.972412e-01 5.863647e-01 3.752299e-06 -1.038332e-05 -1.847558e-05 -8.470379e-06 7.193604e-01 6.831665e-01
2.962003e+08 7.966919e-01 5.861816e-01 1.863763e-05 -3.272109e-05 -3.068335e-05 -1.505390e-05 7.192383e-01 6.848755e-01
2.964181e+08 7.962646e-01 5.856323e-01 6.641075e-05 -1.841411e-05 6.295368e-05 3.501773e-06 7.202759e-01 6.857300e-01
2.966359e+08 7.962646e-01 5.865479e-01 -2.607331e-05 4.215911e-05 1.488999e-05 -4.553236e-06 7.203979e-01 6.867676e-01
2.968538e+08 7.973633e-01 5.864258e-01 -3.978610e-06 -3.360957e-05 1.740269e-05 1.421291e-05 7.202759e-01 6.878662e-01
2.970716e+08 7.966919e-01 5.869141e-01 -5.197152e-05 1.819432e-05 -3.162771e-06 -3.159605e-05 7.207031e-01 6.880493e-01
2.972894e+08 7.977295e-01 5.882568e-01 -1.639128e-07 -4.759431e-05 -5.089492e-05 4.157424e-06 7.205811e-01 6.884766e-01
2.975072e+08 7.968140e-01 5.890503e-01 6.060116e-06 1.734123e-05 -3.672764e-05 2.912432e-05 7.208862e-01 6.901855e-01
2.977250e+08 7.983398e-01 5.881958e-01 -2.622232e-05 -5.399808e-06 6.556511e-07 3.403425e-05 7.208862e-01 6.900024e-01
2.979428e+08 7.984009e-01 5.890503e-01 -3.034808e-05 2.717040e-05 -6.418210e-06 3.334135e-07 7.203979e-01 6.901245e-01
2.981606e+08 7.980957e-01 5.895386e-01 -9.613112e-06 -2.193823e-05 -1.924857e-05 1.009554e-06 7.207031e-01 6.915894e-01
2.983784e+08 7.991943e-01 5.910645e-01 1.334026e-05 -3.970414e-05 -2.477318e-06 -4.004315e-05 7.205811e-01 6.918335e-01
2.985962e+08 7.988281e-01 5.913086e-01 -2.916530e-05 -4.722551e-05 3.440073e-06 5.762558e-07 7.203369e-01 6.929321e-01
2.988141e+08 7.994995e-01 5.917358e-01 -1.273956e-05 2.515502e-06 6.616116e-06 3.224798e-05 7.207031e-01 6.926270e-01
2.990319e+08 7.999268e-01 5.917358e-01 4.279986e-05 -1.111627e-05 -1.860969e-05 1.384690e-05 7.203979e-01 6.927490e-01
2.992497e+08 7.991333e-01 5.927734e-01 9.931624e-06 3.329478e-06 -2.330169e-06 1.375563e-05 7.214966e-01 6.934814e-01
2.994675e+08 7.995605e-01 5.920410e-01 5.040318e-06 2.552196e-05 -5.156919e-05 -8.698553e-06 7.214966e-01 6.951904e-01
2.996853e+08 7.999268e-01 5.924683e-01 -2.476387e-05 1.551211e-05 6.668735e-06 -1.019333e-05 7.219238e-01 6.948853e-01
2.999031e+08 8.005371e-01 5.936279e-01 -3.699213e-06 -5.228072e-05 2.288260e-05 3.217161e-05 7.216797e-01 6.951904e-01
3.001209e+08 7.998047e-01 5.936890e-01 -2.719462e-06 5.350634e-05 2.067536e-07 1.135282e-05 7.207642e-01 6.959839e-01
3.003388e+08 8.004150e-01 5.945435e-01 3.584661e-05 2.736785e-05 8.952804e-06 -2.737157e-06 7.207031e-01 6.960449e-01
3.005566e+08 8.014526e-01 5.946045e-01 1.317076e-05 2.657436e-05 -4.566275e-06 -1.493189e-05 7.212524e-01 6.981201e-01
3.007744e+08 8.012695e-01 5.947266e-01 2.384186e-06 -3.495440e-05 -5.347654e-06 3.590994e-05 7.217407e-01 6.980591e-01
3.009922e+08 8.012695e-01 5.953979e-01 3.756210e-05 -1.804344e-05 1.717731e-05 2.413429e-05 7.222290e-01 6.986694e-01
3.012100e+08 8.015747e-01 5.960083e-01 -2.655387e-05 1.320802e-05 -2.597272e-05 1.119450e-05 7.218018e-01 6.984253e-01
3.014278e+08 8.018188e-01 5.957031e-01 -3.054179e-05 -2.051704e-05 -1.647882e-05 -3.250688e-05 7.208252e-01 6.998901e-01
3.016456e+08 8.030396e-01 5.961304e-01 -6.685033e-06 1.989119e-05 -4.122034e-06 -1.344923e-05 7.219238e-01 6.997681e-01
3.018634e+08 8.022461e-01 5.971069e-01 1.154840e-07 4.776195e-05 2.481975e-05 -4.312024e-06 7.219238e-01 7.012939e-01
3.020812e+08 8.026123e-01 5.972290e-01 -5.685166e-05 -2.596155e-05 1.441687e-06 -3.801286e-05 7.218018e-01 7.009888e-01
3.022991e+08 8.031006e-01 5.979004e-01 1.204014e-05 -1.297798e-05 -3.654882e-05 -1.888722e-06 7.210693e-01 7.017822e-01
3.025169e+08 8.031616e-01 5.975342e-01 -3.370084e-05 3.999099e-06 -4.982576e-05 -4.522875e-05 7.219238e-01 7.012939e-01
3.027347e+08 8.027954e-01 5.983887e-01 1.425203e-05 1.842156e-05 -1.286995e-05 6.584451e-07 7.220459e-01 7.022095e-01
3.029525e+08 8.037720e-01 5.988159e-01 -3.685616e-05 2.850033e-05 -3.015622e-05 1.903623e-05 7.217407e-01 7.028198e-01
3.031703e+08 8.038330e-01 5.992432e-01 -2.347864e-05 -1.128577e-05 7.602852e-06 -7.229391e-06 7.225342e-01 7.026367e-01
3.033881e+08 8.040771e-01 5.993042e-01 2.867542e-05 -2.956018e-05 -1.290627e-05 2.195127e-05 7.222290e-01 7.032471e-01
3.036059e+08 8.038330e-01 5.992432e-01 1.657382e-05 -6.435812e-05 -1.179241e-05 3.630668e-05 7.216797e-01 7.043457e-01
3.038238e+08 8.038330e-01 5.992432e-01 -1.351535e-05 -7.969327e-06 -1.028180e-05 -4.429370e-05 7.213745e-01 7.044067e-01
3.040416e+08 8.043823e-01 5.996704e-01 -1.529697e-05 -1.026969e-05 4.026480e-05 -7.407740e-06 7.213745e-01 7.047729e-01
3.042594e+08 8.046875e-01 6.003418e-01 4.903227e-05 6.288290e-06 6.329268e-06 -5.430728e-05 7.214966e-01 7.047119e-01
3.044772e+08 8.048096e-01 6.007690e-01 -5.588308e-05 -3.415719e-05 4.567951e-05 -4.340708e-05 7.218018e-01 7.053833e-01
3.046950e+08 8.051758e-01 6.003418e-01 -1.603551e-05 -2.075732e-05 -1.130812e-05 1.655798e-05 7.214355e-01 7.058716e-01
3.049128e+08 8.051147e-01 6.013184e-01 4.306436e-06 1.509301e-05 -1.522992e-05 1.447368e-05 7.219238e-01 7.057495e-01
3.051306e+08 8.053589e-01 6.013184e-01 -2.525002e-05 -1.361780e-05 -7.624179e-05 1.833588e-05 7.210083e-01 7.059937e-01
3.053484e+08 8.051147e-01 6.007690e-01 -1.038797e-05 -3.250502e-05 -5.498901e-05 2.052635e-06 7.214966e-01 7.073975e-01
3.055662e+08 8.052368e-01 6.018677e-01 -8.592382e-06 -3.022142e-05 3.651716e-06 1.198146e-05 7.214966e-01 7.082520e-01
3.057841e+08 8.055420e-01 6.015015e-01 -2.484955e-05 1.552515e-05 -2.853014e-05 -7.653609e-06 7.214355e-01 7.077637e-01
3.060019e+08 8.057251e-01 6.021118e-01 1.045410e-06 -8.184463e-06 -4.301779e-05 -2.289936e-05 7.218628e-01 7.080688e-01
3.062197e+08 8.063354e-01 6.022339e-01 -3.738329e-05 -6.202608e-07 -2.068095e-05 -2.479926e-05 7.224121e-01 7.089844e-01
3.064375e+08 8.061523e-01 6.034546e-01 -1.877174e-05 3.296509e-05 -3.018789e-05 -2.263114e-06 7.216797e-01 7.091064e-01
3.066553e+08 8.060913e-01 6.030273e-01 -4.956871e-05 -3.544986e-05 -2.083136e-06 3.911089e-06 7.221680e-01 7.090454e-01
3.068731e+08 8.064575e-01 6.024780e-01 1.682714e-05 3.129058e-05 7.083640e-06 3.387406e-05 7.224731e-01 7.100220e-01
3.070909e+08 8.065186e-01 6.032104e-01 -1.113862e-05 -4.305691e-05 -5.409494e-05 -3.752857e-05 7.224121e-01 7.100220e-01
3.073088e+08 8.060913e-01 6.038208e-01 6.707385e-06 -1.995079e-05 -2.977438e-05 2.055615e-05 7.218018e-01 7.098999e-01
3.075266e+08 8.062134e-01 6.044312e-01 1.459476e-05 -2.076849e-07 4.206412e-05 4.126318e-05 7.218628e-01 7.103271e-01
3.077444e+08 8.071289e-01 6.044312e-01 -3.847294e-05 7.547438e-06 -1.063105e-05 8.163042e-06 7.220459e-01 7.114868e-01
3.079622e+08 8.063354e-01 6.046143e-01 -6.690994e-05 1.847744e-05 4.570931e-06 1.499709e-05 7.217407e-01 7.108154e-01
3.081800e+08 8.066406e-01 6.047974e-01 -2.880394e-05 2.960302e-05 -5.299971e-05 -2.320111e-05 7.213135e-01 7.117310e-01
3.083978e+08 8.062134e-01 6.052246e-01 1.470000e-05 4.770979e-05 4.960224e-06 -3.756955e-05 7.214966e-01 7.119751e-01
3.086156e+08 8.067017e-01 6.045532e-01 4.139543e-05 3.445148e-05 2.772175e-05 -1.664273e-05 7.212524e-01 7.118530e-01
3.088334e+08 8.060913e-01 6.049194e-01 1.388416e-05 -1.072418e-05 -1.395121e-05 4.031882e-05 7.218628e-01 7.129517e-01
3.090512e+08 8.065796e-01 6.053467e-01 1.639500e-05 2.100132e-06 2.865307e-05 -1.364760e-05 7.213745e-01 7.124634e-01
3.092691e+08 8.063354e-01 6.051025e-01 4.061684e-05 -2.397224e-05 4.629139e-06 -6.331597e-06 7.217407e-01 7.135620e-01
3.094869e+08 8.067017e-01 6.055908e-01 1.640245e-05 2.114102e-06 -2.055708e-05 7.907860e-06 7.210693e-01 7.138672e-01
3.097047e+08 8.070679e-01 6.054077e-01 1.788372e-06 2.312823e-06 -2.310611e-05 1.033023e-05 7.204590e-01 7.133179e-01
3.099225e+08 8.068848e-01 6.052856e-01 2.292544e-05 4.880503e-05 -5.653873e-05 -2.417713e-06 7.207031e-01 7.136230e-01
3.101403e+08 8.071899e-01 6.063232e-01 8.516014e-06 -1.768209e-05 1.788512e-05 -3.828295e-05 7.208252e-01 7.138672e-01
3.103581e+08 8.066406e-01 6.062012e-01 -1.144968e-05 -2.440065e-05 -1.678802e-05 -2.278574e-05 7.196045e-01 7.145996e-01
3.105759e+08 8.071289e-01 6.063232e-01 9.879470e-06 -4.459172e-05 1.600012e-05 -2.293475e-05 7.197876e-01 7.147217e-01
3.107938e+08 8.073120e-01 6.065674e-01 -8.537434e-06 1.766812e-05 -7.387251e-06 -2.672430e-06 7.198486e-01 7.155151e-01
3.110116e+08 8.074341e-01 6.071777e-01 -4.537404e-06 5.154684e-05 -9.881333e-06 -2.162997e-05 7.198486e-01 7.150879e-01
3.112294e+08 8.070068e-01 6.067505e-01 -2.641417e-05 -5.494803e-06 -4.574656e-06 -1.501851e-05 7.196655e-01 7.160034e-01
3.114472e+08 8.074951e-01 6.067505e-01 4.494935e-05 -8.821487e-06 2.811663e-06 -1.234841e-05 7.196655e-01 7.160034e-01
3.116650e+08 8.066406e-01 6.072998e-01 9.668991e-06 2.211519e-05 3.213622e-05 -1.306459e-05 7.192993e-01 7.164917e-01
3.118828e+08 8.076782e-01 6.074219e-01 -1.564994e-05 5.641580e-05 -1.602620e-05 -5.261973e-05 7.189941e-01 7.171631e-01
3.121006e+08 8.065796e-01 6.074219e-01 1.682714e-05 3.139675e-05 -3.860891e-05 1.338683e-05 7.191162e-01 7.170410e-01
3.123184e+08 8.070679e-01 6.072998e-01 -5.744770e-05 4.062429e-05 -3.234856e-05 1.644716e-06 7.188721e-01 7.174072e-01
3.125362e+08 8.073120e-01 6.079102e-01 2.139248e-05 -2.022460e-05 -1.477636e-05 -5.361624e-06 7.194824e-01 7.170410e-01
3.127541e+08 8.070679e-01 6.077881e-01 1.324899e-05 2.676249e-05 1.832377e-06 6.014481e-06 7.183228e-01 7.175903e-01
3.129719e+08 8.071289e-01 6.082153e-01 -6.503239e-05 -4.594028e-05 -3.303029e-05 -1.129508e-05 7.182617e-01 7.172241e-01
3.131897e+08 8.066406e-01 6.085205e-01 2.464838e-05 3.173947e-06 -2.496876e-06 -1.895986e-05 7.181396e-01 7.178955e-01
3.134075e+08 8.072510e-01 6.087646e-01 3.248453e-06 2.338924e-05 6.282702e-06 -1.178123e-05 7.181396e-01 7.182007e-01
3.136253e+08 8.068848e-01 6.086426e-01 -2.002344e-05 -6.765127e-06 -2.656132e-05 -1.164526e-05 7.181396e-01 7.188721e-01
3.138431e+08 8.067627e-01 6.091309e-01 1.537893e-05 1.034047e-05 2.316013e-05 -1.034513e-05 7.177734e-01 7.188721e-01
3.140609e+08 8.067017e-01 6.093750e-01 -3.306195e-07 1.876708e-05 -1.722388e-05 2.990291e-05 7.178345e-01 7.192993e-01
3.142788e+08 8.059082e-01 6.096191e-01 -9.676442e-06 -2.214685e-05 -1.371838e-06 -4.515983e-06 7.173462e-01 7.190552e-01
3.144966e+08 8.060303e-01 6.092529e-01 1.113862e-06 3.986806e-05 -4.117377e-06 -1.354422e-05 7.173462e-01 7.197876e-01
3.147144e+08 8.058472e-01 6.093750e-01 3.321469e-05 -1.449510e-05 -6.020069e-06 1.827721e-06 7.165527e-01 7.194824e-01
3.149322e+08 8.057861e-01 6.098022e-01 2.133660e-06 -1.644995e-05 2.553686e-06 -2.418994e-06 7.166138e-01 7.201538e-01
3.151500e+08 8.059082e-01 6.101685e-01 -1.966394e-05 -2.556294e-05 -3.370270e-05 -2.429634e-05 7.155151e-01 7.213135e-01
3.153678e+08 8.053589e-01 6.101685e-01 2.502836e-05 -1.559220e-05 -6.642193e-06 4.312582e-05 7.166138e-01 7.212524e-01
3.155856e+08 8.061523e-01 6.104126e-01 1.140870e-05 -2.364069e-05 2.082065e-05 3.543682e-06 7.165527e-01 7.210693e-01
3.158034e+08 8.052368e-01 6.101685e-01 -2.155080e-06 -3.166869e-05 1.459755e-05 -6.087124e-06 7.152710e-01 7.218018e-01
3.160212e+08 8.059692e-01 6.106567e-01 3.242865e-06 2.342276e-05 -2.025813e-05 3.083609e-05 7.150879e-01 7.213745e-01
3.162391e+08 8.059082e-01 6.106567e-01 -7.500406e-06 9.483658e-06 -1.873262e-05 -7.474795e-06 7.144775e-01 7.217407e-01
3.164569e+08 8.057251e-01 6.105957e-01 1.214817e-05 -1.306459e-05 9.564683e-06 -2.266653e-05 7.143555e-01 7.218018e-01
3.166747e+08 8.046875e-01 6.115723e-01 2.825446e-05 7.834285e-06 -1.004431e-05 2.114009e-05 7.138672e-01 7.217407e-01
3.168925e+08 8.046875e-01 6.116333e-01 2.212077e-05 -5.781651e-05 9.690877e-06 1.021940e-05 7.142334e-01 7.222900e-01
3.171103e+08 8.049316e-01 6.116943e-01 4.003197e-05 -8.273870e-05 1.034141e-05 2.319366e-05 7.141724e-01 7.231445e-01
3.173281e+08 8.041992e-01 6.122437e-01 -1.467112e-05 1.881272e-07 1.098961e-06 1.447275e-05 7.129517e-01 7.231445e-01
3.175459e+08 8.046875e-01 6.118164e-01 -5.722046e-06 1.181196e-05 -1.006201e-05 -3.314391e-05 7.128296e-01 7.235107e-01
3.177638e+08 8.042603e-01 6.119385e-01 -2.184510e-05 -9.125099e-06 1.216307e-05 2.920255e-05 7.126465e-01 7.242432e-01
3.179816e+08 8.037109e-01 6.120605e-01 1.181662e-05 5.709007e-06 2.181157e-05 -1.484342e-05 7.126465e-01 7.233276e-01
3.181994e+08 8.034668e-01 6.126709e-01 -1.251698e-05 3.185868e-05 2.436154e-05 -1.727231e-05 7.120361e-01 7.240601e-01
3.184172e+08 8.033447e-01 6.125488e-01 2.508983e-06 1.288392e-05 -1.497567e-05 -1.684763e-05 7.118530e-01 7.241821e-01
3.186350e+08 8.039551e-01 6.130371e-01 -1.254492e-05 -1.627579e-05 -3.042817e-05 1.910888e-05 7.118530e-01 7.240601e-01
3.188528e+08 8.032227e-01 6.129150e-01 -6.809831e-06 -2.809428e-05 -2.164207e-05 2.630614e-05 7.106934e-01 7.246704e-01
3.190706e+08 8.030396e-01 6.134644e-01 -2.256408e-05 -1.969188e-05 -2.339110e-05 -1.147389e-06 7.108765e-01 7.251587e-01
3.192884e+08 8.027344e-01 6.145630e-01 -1.503713e-05 -2.918206e-05 -1.480151e-05 -5.402602e-06 7.103271e-01 7.255249e-01
3.195062e+08 8.021240e-01 6.145020e-01 1.540594e-05 1.038797e-05 3.152899e-05 -4.578382e-06 7.100830e-01 7.265015e-01
3.197241e+08 8.025513e-01 6.135254e-01 6.263703e-05 -1.486763e-05 -9.959564e-06 -2.719462e-07 7.094116e-01 7.255859e-01
3.199419e+08 8.016968e-01 6.140137e-01 2.972968e-05 -1.917034e-05 -2.565980e-05 -8.689240e-06 7.097168e-01 7.266235e-01
3.201597e+08 8.022461e-01 6.145020e-01 7.167459e-06 9.304844e-06 -2.019759e-05 9.419397e-06 7.091675e-01 7.265015e-01
3.203775e+08 8.021240e-01 6.152954e-01 6.789342e-06 -2.005883e-05 -2.168119e-05 -2.802350e-05 7.084961e-01 7.269287e-01
3.205953e+08 8.009644e-01 6.152954e-01 9.305775e-06 -7.166993e-06 8.137431e-06 -5.749520e-06 7.084961e-01 7.271729e-01
3.208131e+08 8.014526e-01 6.154785e-01 1.252349e-05 1.628976e-05 -1.426600e-05 -2.531894e-05 7.070312e-01 7.278442e-01
3.210309e+08 8.005371e-01 6.153564e-01 1.647882e-05 2.139248e-06 -2.110470e-05 6.387942e-06 7.080688e-01 7.279053e-01
3.212488e+08 8.007202e-01 6.163940e-01 1.396425e-05 -1.075026e-05 1.554098e-05 -3.050081e-06 7.072754e-01 7.282104e-01
3.214666e+08 8.009033e-01 6.168213e-01 -3.724173e-05 2.862513e-05 5.122973e-06 -4.844507e-06 7.051392e-01 7.286987e-01
3.216844e+08 7.999268e-01 6.160278e-01 3.545918e-05 1.720153e-05 1.645414e-06 -5.436130e-06 7.058716e-01 7.290039e-01
3.219022e+08 8.006592e-01 6.170044e-01 2.041645e-05 -1.199730e-05 4.390720e-06 3.613066e-06 7.054443e-01 7.289429e-01
3.221200e+08 7.998047e-01 6.165771e-01 -4.480034e-05 -1.003966e-05 -6.286800e-05 2.070516e-05 7.053833e-01 7.294922e-01
3.223378e+08 7.994995e-01 6.169434e-01 -6.394885e-11 4.924061e-10 7.491559e-06 3.560260e-05 7.051392e-01 7.296753e-01
3.225556e+08 7.989502e-01 6.176758e-01 2.398342e-05 4.089251e-05 5.511567e-06 -3.623590e-05 7.041626e-01 7.310181e-01
3.227734e+08 7.988281e-01 6.183472e-01 -4.444644e-05 1.934916e-05 2.404116e-05 1.413748e-05 7.041016e-01 7.304688e-01
3.229912e+08 7.982788e-01 6.185303e-01 1.684483e-05 -1.665484e-05 7.400289e-06 2.705026e-06 7.033081e-01 7.306519e-01
3.232091e+08 7.987061e-01 6.176758e-01 7.376075e-07 -3.763661e-05 -3.528781e-05 -4.036911e-05 7.030029e-01 7.315063e-01
3.234269e+08 7.979126e-01 6.183472e-01 5.626306e-05 -1.357123e-05 -1.565367e-05 2.446584e-05 7.022095e-01 7.318726e-01
3.236447e+08 7.984009e-01 6.187744e-01 5.448982e-05 -1.597777e-05 -4.880130e-06 4.922226e-05 7.030640e-01 7.318115e-01
3.238625e+08 7.973633e-01 6.196899e-01 6.791204e-06 2.813525e-05 -9.222422e-06 -8.742325e-06 7.012939e-01 7.324219e-01
3.240803e+08 7.969360e-01 6.199341e-01 -5.699322e-05 5.123019e-05 -3.559142e-05 2.389029e-05 7.011719e-01 7.324219e-01
3.242981e+08 7.978516e-01 6.195068e-01 1.002941e-05 3.407709e-06 -3.884919e-05 -1.953542e-05 7.008057e-01 7.324829e-01
3.245159e+08 7.966919e-01 6.209106e-01 -1.451001e-06 2.705865e-05 2.079085e-05 -2.933107e-05 7.005615e-01 7.333984e-01
3.247338e+08 7.961426e-01 6.208496e-01 -1.789886e-06 -2.328656e-06 2.288818e-05 -3.324449e-05 6.998901e-01 7.327271e-01
3.249516e+08 7.960815e-01 6.210938e-01 2.865121e-05 -1.090392e-05 1.207180e-05 -3.641471e-06 6.990967e-01 7.333984e-01
3.251694e+08 7.951050e-01 6.209106e-01 -4.289672e-06 -1.523271e-05 2.407841e-05 -4.016049e-05 6.988525e-01 7.347412e-01
3.253872e+08 7.960815e-01 6.223755e-01 -1.181662e-05 -5.747192e-06 -9.685289e-06 -1.025340e-05 6.984253e-01 7.351074e-01
3.256050e+08 7.957764e-01 6.221313e-01 -1.722760e-05 3.546290e-05 4.181638e-05 7.300451e-05 6.981201e-01 7.353516e-01
3.258228e+08 7.952881e-01 6.223755e-01 2.006628e-05 6.832182e-06 4.213769e-06 -7.858034e-06 6.979980e-01 7.361450e-01
3.260406e+08 7.949829e-01 6.226807e-01 -3.689341e-05 9.806827e-06 -1.833588e-05 -3.891997e-05 6.964111e-01 7.356567e-01
3.262584e+08 7.949219e-01 6.227417e-01 -4.728884e-05 -2.296269e-05 9.227544e-06 8.734409e-06 6.968994e-01 7.365112e-01
3.264762e+08 7.946777e-01 6.231079e-01 -2.559274e-06 3.530085e-05 -6.666407e-06 -1.116190e-05 6.964111e-01 7.374268e-01
3.266941e+08 7.941284e-01 6.235352e-01 -2.078153e-05 -1.741201e-05 1.851656e-05 -3.685057e-05 6.964111e-01 7.378540e-01
3.269119e+08 7.943726e-01 6.241455e-01 3.296882e-05 4.330650e-06 -1.651049e-05 5.439669e-05 6.954956e-01 7.379150e-01
3.271297e+08 7.943115e-01 6.244507e-01 -2.115220e-05 1.402572e-06 2.488494e-05 -1.576170e-05 6.950073e-01 7.384644e-01
3.273475e+08 7.942505e-01 6.240234e-01 -7.003546e-07 -1.057237e-05 5.853362e-06 -1.330394e-05 6.937866e-01 7.387695e-01
3.275653e+08 7.933960e-01 6.257935e-01 -2.941862e-05 4.849955e-05 1.600385e-05 -1.541339e-06 6.930542e-01 7.386475e-01
3.277831e+08 7.934570e-01 6.257324e-01 -1.502968e-05 -2.922118e-05 2.972595e-05 -1.061894e-05 6.934204e-01 7.393799e-01
3.280009e+08 7.933960e-01 6.267700e-01 -3.729202e-05 2.865493e-05 3.704056e-05 1.353770e-05 6.932373e-01 7.394409e-01
3.282188e+08 7.919922e-01 6.269531e-01 3.940612e-05 3.080815e-06 -2.894923e-05 3.506243e-05 6.923218e-01 7.401123e-01
3.284366e+08 7.921753e-01 6.270752e-01 -2.150610e-05 2.023950e-05 -3.068149e-05 -2.533011e-05 6.925049e-01 7.401733e-01
3.286544e+08 7.911987e-01 6.275635e-01 4.087389e-05 -2.396479e-05 -1.722574e-05 -2.445094e-05 6.912842e-01 7.408447e-01
3.288722e+08 7.924194e-01 6.278687e-01 -3.224798e-05 6.228685e-06 1.497939e-05 1.689512e-05 6.907959e-01 7.413940e-01
3.290900e+08 7.908325e-01 6.285400e-01 -2.651289e-05 -5.600974e-06 2.074987e-06 -6.974861e-05 6.905518e-01 7.420654e-01
3.293078e+08 7.905884e-01 6.286621e-01 1.538079e-05 1.040939e-05 1.115911e-05 -6.654300e-06 6.898804e-01 7.419434e-01
3.295256e+08 7.902222e-01 6.287231e-01 5.361624e-06 6.993767e-06 2.369098e-05 2.413057e-05 6.895142e-01 7.427368e-01
3.297434e+08 7.899780e-01 6.298828e-01 8.233357e-06 1.090113e-06 1.780223e-05 4.515983e-06 6.886597e-01 7.428589e-01
3.299612e+08 7.902832e-01 6.296997e-01 2.827495e-05 7.951632e-06 8.429401e-06 -1.570489e-05 6.876221e-01 7.448120e-01
3.301791e+08 7.908325e-01 6.309814e-01 6.879121e-05 2.823770e-06 8.603558e-06 -4.237983e-06 6.880493e-01 7.449951e-01
3.303969e+08 7.901001e-01 6.307373e-01 2.937205e-05 -2.868474e-07 -2.459809e-05 5.757436e-06 6.870728e-01 7.456665e-01
3.306147e+08 7.891846e-01 6.311035e-01 -9.253621e-06 -4.107133e-05 -2.823770e-06 4.525483e-05 6.875610e-01 7.462158e-01
3.308325e+08 7.901611e-01 6.317139e-01 1.578592e-05 -8.383766e-06 4.549511e-07 1.508743e-06 6.865234e-01 7.466431e-01
3.310503e+08 7.898560e-01 6.322632e-01 1.647323e-05 2.181157e-06 -3.413856e-05 -2.594851e-05 6.857300e-01 7.469482e-01
3.312681e+08 7.886353e-01 6.329346e-01 -2.483837e-06 -1.290441e-05 1.676381e-05 2.292730e-05 6.857910e-01 7.471924e-01
3.314859e+08 7.880859e-01 6.334839e-01 -2.829358e-05 -7.955357e-06 9.955373e-06 2.956949e-07 6.851807e-01 7.484131e-01
3.317038e+08 7.874756e-01 6.345215e-01 2.143905e-05 2.797134e-05 -1.297798e-05 6.025657e-07 6.850586e-01 7.478638e-01
3.319216e+08 7.876587e-01 6.347046e-01 -3.075972e-05 -2.084859e-05 3.938004e-05 3.257208e-05 6.840820e-01 7.490234e-01
3.321394e+08 7.880859e-01 6.356201e-01 4.586950e-05 1.873821e-06 -3.064610e-05 7.558614e-06 6.843872e-01 7.497559e-01
3.323572e+08 7.877808e-01 6.351929e-01 -5.630776e-05 1.351535e-05 -1.917500e-05 -9.037554e-06 6.841431e-01 7.502441e-01
3.325750e+08 7.880859e-01 6.366577e-01 -1.757033e-05 6.044284e-06 2.204254e-05 -3.334135e-06 6.828613e-01 7.509155e-01
3.327928e+08 7.868652e-01 6.362305e-01 1.647323e-05 2.181157e-06 -1.011509e-05 -1.175608e-05 6.831665e-01 7.506714e-01
3.330106e+08 7.867432e-01 6.372681e-01 2.033822e-05 3.623404e-05 -5.586538e-06 3.319699e-06 6.826782e-01 7.518311e-01
3.332284e+08 7.866821e-01 6.374512e-01 3.335997e-05 -1.444481e-05 1.614168e-05 -2.293475e-05 6.823120e-01 7.523804e-01
3.334462e+08 7.864380e-01 6.380615e-01 -1.095235e-06 8.238479e-06 -2.233684e-05 1.328066e-05 6.812744e-01 7.526245e-01
3.336641e+08 7.857666e-01 6.382446e-01 1.399126e-05 -1.071766e-05 6.625429e-06 -2.172310e-05 6.811523e-01 7.528076e-01
3.338819e+08 7.863770e-01 6.390991e-01 -3.473274e-05 -6.718561e-06 -5.223230e-05 -2.051890e-05 6.802368e-01 7.540283e-01
3.340997e+08 7.861938e-01 6.389771e-01 6.966293e-07 1.056679e-05 1.854263e-05 -3.681704e-05 6.801147e-01 7.539673e-01
3.343175e+08 7.856445e-01 6.398926e-01 8.643605e-06 -1.770072e-05 6.320328e-05 2.406538e-06 6.788940e-01 7.548218e-01
3.345353e+08 7.858887e-01 6.404419e-01 1.002196e-05 3.430061e-06 -6.025657e-07 -1.297519e-05 6.786499e-01 7.558594e-01
3.347531e+08 7.856445e-01 6.407471e-01 2.318434e-05 3.034808e-05 -3.560819e-05 2.384745e-05 6.777954e-01 7.568359e-01
3.349709e+08 7.844849e-01 6.417847e-01 3.835186e-06 3.401935e-05 2.097338e-06 2.895482e-05 6.770630e-01 7.570190e-01
3.351888e+08 7.849731e-01 6.425171e-01 1.496822e-05 2.924539e-05 4.676171e-06 -6.336719e-06 6.776733e-01 7.581787e-01
3.354066e+08 7.845459e-01 6.436157e-01 1.894683e-05 1.509581e-05 1.499429e-06 1.599547e-05 6.774902e-01 7.586670e-01
3.356244e+08 7.847900e-01 6.434326e-01 1.001544e-05 3.426336e-06 -5.428120e-05 -1.659617e-05 6.765747e-01 7.589111e-01
3.358422e+08 7.846680e-01 6.441040e-01 4.724041e-05 2.304465e-05 -1.357961e-05 -1.236703e-05 6.769409e-01 7.599487e-01
3.360600e+08 7.850952e-01 6.443481e-01 -4.268438e-05 2.150610e-05 5.736016e-06 8.143950e-06 6.749878e-01 7.606201e-01
3.362778e+08 7.852173e-01 6.446533e-01 -3.403611e-05 3.833324e-06 -2.459437e-05 5.738810e-06 6.757812e-01 7.608643e-01
3.364956e+08 7.849731e-01 6.461792e-01 -2.140738e-05 -2.798624e-05 2.566376e-06 -2.414337e-06 6.752930e-01 7.613525e-01
3.367134e+08 7.842407e-01 6.465454e-01 -1.519918e-06 2.703816e-05 -1.190789e-05 -1.780409e-05 6.747437e-01 7.625732e-01
3.369312e+08 7.836304e-01 6.467896e-01 8.499250e-06 3.047101e-05 -8.435920e-06 -1.719035e-05 6.745605e-01 7.630615e-01
3.371491e+08 7.842407e-01 6.473389e-01 -2.460554e-06 -1.289509e-05 -9.800307e-06 1.116376e-05 6.732788e-01 7.634277e-01
3.373669e+08 7.841187e-01 6.480713e-01 -9.059906e-06 3.648736e-05 3.785081e-05 1.660921e-05 6.736450e-01 7.637939e-01
3.375847e+08 7.834473e-01 6.487427e-01 -6.449409e-06 1.232140e-06 7.119030e-05 -1.473725e-05 6.733398e-01 7.647705e-01
3.378025e+08 7.839966e-01 6.486816e-01 -7.389113e-06 -3.868528e-05 1.446158e-05 4.827604e-05 6.727905e-01 7.650757e-01
3.380203e+08 7.833252e-01 6.495361e-01 -3.540516e-05 -1.729466e-05 -6.178860e-06 -9.653624e-06 6.729126e-01 7.658691e-01
3.382381e+08 7.827759e-01 6.500854e-01 1.619384e-05 -2.716109e-05 -2.756529e-05 -2.625585e-05 6.721191e-01 7.667236e-01
3.384559e+08 7.843018e-01 6.514893e-01 -1.100358e-06 8.232426e-06 -2.991967e-05 3.198721e-05 6.718140e-01 7.676392e-01
3.386738e+08 7.833252e-01 6.518555e-01 2.867356e-05 -1.082197e-05 5.277339e-06 6.643590e-06 6.714478e-01 7.680054e-01
3.388916e+08 7.831421e-01 6.518555e-01 -1.495145e-05 -2.922304e-05 9.036157e-07 3.015622e-06 6.716309e-01 7.683716e-01
3.391094e+08 7.835693e-01 6.528320e-01 -1.042988e-05 1.537241e-05 5.277339e-06 6.641261e-06 6.715698e-01 7.695923e-01
3.393272e+08 7.837524e-01 6.528931e-01 3.225543e-05 -6.182119e-06 -1.675449e-05 -2.293475e-05 6.707153e-01 7.701416e-01
3.395450e+08 7.828979e-01 6.537476e-01 1.221616e-05 -1.303572e-05 7.077120e-06 1.267157e-05 6.706543e-01 7.705688e-01
3.397628e+08 7.834473e-01 6.546021e-01 -4.855916e-05 -4.418194e-05 -2.868101e-05 2.504140e-05 6.697388e-01 7.715454e-01
3.399806e+08 7.832031e-01 6.550293e-01 -6.875023e-06 2.001226e-05 4.179403e-05 -1.416355e-05 6.687012e-01 7.721558e-01
3.401984e+08 7.826538e-01 6.553955e-01 -2.461486e-06 -1.290347e-05 3.467547e-06 6.055925e-07 6.693726e-01 7.734375e-01
3.404162e+08 7.832642e-01 6.557007e-01 3.580749e-05 -1.469627e-06 -1.553539e-05 3.017485e-06 6.684570e-01 7.740479e-01
3.406341e+08 7.834473e-01 6.567993e-01 -6.780028e-07 -1.056213e-05 3.304332e-06 2.203509e-05 6.682129e-01 7.745972e-01
3.408519e+08 7.836914e-01 6.579590e-01 7.548835e-06 -9.465031e-06 1.027016e-05 -9.655952e-06 6.687622e-01 7.747803e-01
3.410697e+08 7.838135e-01 6.584473e-01 1.001917e-05 3.436580e-06 -6.492250e-06 2.970919e-07 6.687622e-01 7.760620e-01
3.412875e+08 7.828979e-01 6.582642e-01 7.520989e-05 1.665205e-06 -3.469363e-05 -6.048009e-06 6.685181e-01 7.763672e-01
3.415053e+08 7.832642e-01 6.594849e-01 -4.240312e-06 -1.523551e-05 -1.768395e-05 3.982522e-05 6.672974e-01 7.772217e-01
3.417231e+08 7.831421e-01 6.591797e-01 2.634153e-05 5.378202e-05 -3.542565e-05 2.386048e-06 6.677856e-01 7.772827e-01
3.419409e+08 7.825928e-01 6.597900e-01 3.987923e-06 -1.412909e-05 4.806370e-05 6.992370e-06 6.671753e-01 7.783813e-01
3.421588e+08 7.833862e-01 6.608276e-01 -2.620742e-05 2.373755e-05 3.980286e-05 3.410876e-05 6.672974e-01 7.786255e-01
3.423766e+08 7.828979e-01 6.621094e-01 -3.472716e-05 -6.744638e-06 3.134459e-05 1.694076e-05 6.667480e-01 7.802124e-01
3.425944e+08 7.827759e-01 6.613770e-01 -7.133931e-06 -9.336509e-06 3.047287e-06 -3.375486e-05 6.668701e-01 7.807617e-01
3.428122e+08 7.828979e-01 6.624756e-01 -7.357448e-06 -3.869273e-05 -1.553539e-05 2.997927e-06 6.655884e-01 7.813721e-01
3.430300e+08 7.846680e-01 6.629639e-01 -6.031245e-06 -1.756568e-05 2.589077e-06 -3.532320e-05 6.662598e-01 7.819214e-01
3.432478e+08 7.838135e-01 6.639404e-01 -1.001824e-05 -3.433786e-06 -2.898090e-05 2.078712e-06 6.659546e-01 7.827148e-01
3.434656e+08 7.841187e-01 6.646729e-01 1.290813e-05 -2.461486e-06 3.643334e-06 -2.082717e-05 6.664429e-01 7.835083e-01
3.436834e+08 7.843628e-01 6.652222e-01 3.330410e-06 -2.470799e-05 -2.933666e-05 4.495680e-05 6.652832e-01 7.847290e-01
3.439012e+08 7.846069e-01 6.653442e-01 -6.010011e-05 -2.067536e-05 2.387166e-05 -3.016740e-05 6.654053e-01 7.849121e-01
3.441191e+08 7.838745e-01 6.656494e-01 1.647323e-05 2.208166e-06 -4.071929e-05 -4.280359e-06 6.659546e-01 7.856445e-01
3.443369e+08 7.844238e-01 6.668091e-01 -3.069639e-06 5.413219e-05 -3.186241e-05 1.445971e-05 6.663208e-01 7.866821e-01
3.445547e+08 7.843018e-01 6.669922e-01 2.470240e-05 3.309920e-06 -2.203323e-05 3.296882e-06 6.651611e-01 7.865601e-01
3.447725e+08 7.849731e-01 6.674805e-01 -1.893658e-05 -1.512188e-05 1.690537e-05 1.520850e-06 6.653442e-01 7.879639e-01
3.449903e+08 7.846680e-01 6.686401e-01 -3.803149e-05 1.794100e-05 -1.568627e-05 -8.484349e-06 6.646729e-01 7.883911e-01
3.452081e+08 7.853394e-01 6.679688e-01 1.442991e-05 -2.953596e-05 -8.810312e-07 -3.593229e-05 6.651611e-01 7.894287e-01
3.454259e+08 7.846069e-01 6.694336e-01 2.335943e-05 -1.780689e-05 1.001544e-05 -3.258884e-05 6.638794e-01 7.898560e-01
3.456438e+08 7.849121e-01 6.693115e-01 2.625026e-05 -2.373382e-05 -6.309710e-06 -2.113357e-05 6.640015e-01 7.908325e-01
3.458616e+08 7.861328e-01 6.701660e-01 -3.607944e-05 -2.790615e-05 1.374539e-05 -9.057112e-06 6.637573e-01 7.913208e-01
3.460794e+08 7.847900e-01 6.709595e-01 -5.587190e-05 -5.416572e-06 -1.820549e-05 -3.895536e-05 6.638794e-01 7.919312e-01
3.462972e+08 7.854004e-01 6.712646e-01 4.942715e-05 6.608665e-06 2.748705e-05 -1.809001e-05 6.647949e-01 7.919922e-01
3.465150e+08 7.861328e-01 6.721802e-01 1.203269e-05 -4.241988e-05 -1.948606e-05 8.903444e-07 6.632690e-01 7.941284e-01
3.467328e+08 7.858887e-01 6.723022e-01 1.045223e-05 -1.537520e-05 6.041490e-06 -1.806766e-06 6.640625e-01 7.941895e-01
3.469506e+08 7.867432e-01 6.735229e-01 2.830103e-05 7.973984e-06 -3.415719e-05 6.914139e-06 6.644287e-01 7.946167e-01
3.471684e+08 7.869873e-01 6.732788e-01 8.909963e-06 1.168158e-05 -1.071952e-06 1.842529e-05 6.633911e-01 7.951660e-01
3.473862e+08 7.863159e-01 6.740112e-01 -9.780750e-06 2.591312e-05 -2.571940e-05 2.412312e-05 6.630859e-01 7.948608e-01
3.476041e+08 7.874756e-01 6.751099e-01 5.776994e-06 -1.180731e-05 1.210161e-05 -3.615394e-06 6.641235e-01 7.960205e-01
3.478219e+08 7.876587e-01 6.750488e-01 -6.642193e-06 4.944578e-05 -8.619390e-06 4.218426e-06 6.636353e-01 7.971802e-01
3.480397e+08 7.868652e-01 6.758423e-01 -4.928559e-06 -2.584606e-05 4.481897e-05 1.792237e-05 6.643677e-01 7.980347e-01
3.482575e+08 7.878418e-01 6.759644e-01 -2.451241e-06 -1.292210e-05 8.456409e-07 -4.139915e-05 6.634521e-01 7.990723e-01
3.484753e+08 7.883301e-01 6.762695e-01 2.607331e-05 2.450682e-05 -1.935661e-05 1.236796e-05 6.638794e-01 7.994995e-01
3.486931e+08 7.885132e-01 6.772461e-01 -5.347189e-06 -7.014256e-06 6.049871e-06 -1.803506e-06 6.632690e-01 7.998657e-01
3.489109e+08 7.878418e-01 6.776733e-01 1.293421e-05 -2.463348e-06 -2.362020e-05 2.018921e-05 6.649170e-01 8.011475e-01
3.491288e+08 7.894897e-01 6.778564e-01 -1.046620e-05 1.538638e-05 1.390930e-05 2.439134e-06 6.643677e-01 8.012695e-01
3.493466e+08 7.893066e-01 6.782837e-01 -1.379848e-05 4.014373e-05 1.197681e-05 -1.509208e-05 6.641235e-01 8.021240e-01
3.495644e+08 7.895508e-01 6.788940e-01 -6.230548e-06 3.067590e-05 4.248507e-05 -1.141801e-06 6.649780e-01 8.029785e-01
3.497822e+08 7.891846e-01 6.795654e-01 5.122274e-06 -2.240390e-05 2.799556e-05 -1.656823e-05 6.635742e-01 8.040161e-01
3.500000e+08 7.891846e-01 6.801147e-01 -7.144641e-06 -9.362120e-06 -1.963414e-05 -1.062546e-05 6.647949e-01 8.043213e-01
