# Hz S RI R 50
! RAW DATA - UNCALIBRATED
1.500000e+06 -1.012939e+00 1.922607e-02 1.214724e-05 1.952052e-06 -1.036515e-05 3.761612e-06 9.754639e-01 -2.111816e-02
1.717812e+06 -1.013611e+00 1.788330e-02 -1.060311e-06 -7.666647e-06 -1.658406e-05 -5.606562e-06 9.733276e-01 -1.879883e-02
1.935625e+06 -1.013977e+00 1.531982e-02 -2.433546e-06 2.445537e-06 1.168344e-05 1.409464e-05 9.759521e-01 -1.818848e-02
2.153438e+06 -1.014343e+00 1.293945e-02 3.206544e-06 1.933891e-05 3.330642e-06 2.315035e-06 9.751587e-01 -1.251221e-02
2.371250e+06 -1.015381e+00 1.080322e-02 -2.198853e-05 -1.859851e-05 -1.175329e-06 -1.186319e-05 9.757690e-01 -9.399414e-03
2.589062e+06 -1.015625e+00 7.873535e-03 2.197921e-06 -6.653834e-06 1.227483e-06 -3.929250e-06 9.753418e-01 -5.737305e-03
2.806875e+06 -1.017700e+00 4.516602e-03 2.564862e-05 1.811050e-05 -7.294584e-06 4.377216e-08 9.757690e-01 -3.417969e-03
3.024688e+06 -1.019409e+00 2.624512e-03 1.371372e-07 3.515743e-06 1.606904e-05 -9.155832e-06 9.765015e-01 1.342773e-03
3.242500e+06 -1.019226e+00 -2.197266e-03 -3.091805e-05 -6.442890e-06 1.327042e-05 -2.651475e-06 9.769897e-01 6.530762e-03
3.460312e+06 -1.016418e+00 -2.197266e-03 -4.091486e-05 -7.089227e-06 1.232140e-05 -7.329509e-06 9.798584e-01 1.379395e-02
3.678125e+06 -1.016174e+00 -5.493164e-04 3.542751e-06 -3.453717e-05 9.603798e-06 2.841838e-05 9.798584e-01 1.306152e-02
3.895938e+06 -1.016785e+00 -6.103516e-04 2.202392e-05 1.182966e-05 -1.155119e-05 4.262663e-06 9.792480e-01 1.416016e-02
4.113750e+06 -1.016296e+00 8.544922e-04 3.261960e-10 -4.875744e-10 2.234243e-06 6.041955e-06 9.788208e-01 1.525879e-02
4.331562e+06 -1.016968e+00 2.197266e-03 -3.630482e-05 3.147870e-07 1.744949e-06 -2.298271e-06 9.783325e-01 1.550293e-02
4.549375e+06 -1.016418e+00 2.319336e-03 -6.870367e-06 1.053233e-05 -4.730187e-06 2.197456e-06 9.790039e-01 1.660156e-02
4.767188e+06 -1.016907e+00 3.356934e-03 -5.678373e-10 -1.651586e-10 -3.677793e-06 7.901806e-06 9.781494e-01 1.800537e-02
4.985000e+06 -1.016724e+00 3.784180e-03 1.041219e-06 7.775147e-06 -4.015863e-06 1.092814e-05 9.776001e-01 1.910400e-02
5.202812e+06 -1.016296e+00 4.943848e-03 -3.866851e-05 -1.383387e-05 1.209229e-05 -5.829148e-06 9.788208e-01 2.148438e-02
5.420625e+06 -1.016357e+00 4.882812e-03 -7.494353e-06 7.472932e-06 1.413841e-05 3.849156e-06 9.786377e-01 2.282715e-02
5.638438e+06 -1.015137e+00 6.103516e-03 1.628511e-05 -1.405831e-05 4.606321e-06 1.789257e-05 9.794922e-01 2.380371e-02
5.856250e+06 -1.015137e+00 6.408691e-03 2.006534e-06 -2.917834e-06 -6.658956e-08 -2.922723e-06 9.790649e-01 2.532959e-02
6.074062e+06 -1.015991e+00 6.652832e-03 2.826937e-05 7.648021e-06 -8.004718e-07 5.980022e-06 9.799805e-01 2.648926e-02
6.291875e+06 -1.015137e+00 6.408691e-03 1.446716e-05 2.440996e-06 8.226838e-06 1.020124e-05 9.810791e-01 2.899170e-02
6.509688e+06 -1.014893e+00 8.239746e-03 -5.358345e-10 2.736158e-10 -7.890165e-06 -4.712492e-07 9.802856e-01 3.033447e-02
6.727500e+06 -1.014709e+00 7.507324e-03 1.491979e-06 -6.988179e-06 6.279908e-06 6.843824e-06 9.822388e-01 3.192139e-02
6.945312e+06 -1.014221e+00 7.751465e-03 -2.695993e-05 -1.718663e-05 7.822178e-06 1.926906e-05 9.820557e-01 3.253174e-02
7.163125e+06 -1.013489e+00 7.934570e-03 2.145395e-05 1.797825e-05 -4.954636e-06 1.818594e-05 9.843750e-01 3.405762e-02
7.380938e+06 -1.013000e+00 7.141113e-03 7.143244e-06 -6.579794e-07 -9.342097e-06 1.613144e-05 9.843750e-01 3.594971e-02
7.598750e+06 -1.012939e+00 8.911133e-03 -1.413468e-05 2.592802e-06 -5.243579e-06 -8.861534e-07 9.858398e-01 3.649902e-02
7.816562e+06 -1.012573e+00 8.483887e-03 4.980713e-06 -8.876435e-06 2.323650e-06 1.819571e-06 9.868774e-01 3.845215e-02
8.034375e+06 -1.012024e+00 8.117676e-03 2.913177e-06 -1.265202e-05 -2.272427e-07 1.391210e-05 9.876099e-01 3.906250e-02
8.252188e+06 -1.010376e+00 8.605957e-03 -1.297705e-05 6.285496e-06 4.410278e-06 1.066597e-05 9.893188e-01 4.064941e-02
8.470000e+06 -1.011230e+00 8.666992e-03 -2.784654e-05 -4.407018e-06 -4.503410e-06 -8.323696e-06 9.901733e-01 4.077148e-02
8.687812e+06 -1.010864e+00 8.422852e-03 -3.717095e-05 -2.667122e-05 5.632173e-06 1.800247e-06 9.912109e-01 4.174805e-02
8.905625e+06 -1.009827e+00 8.422852e-03 -7.032882e-06 -8.276664e-06 1.153816e-05 2.666377e-06 9.915161e-01 4.272461e-02
9.123438e+06 -1.009216e+00 9.460449e-03 1.789164e-05 -7.739291e-06 5.438458e-06 3.768131e-06 9.925537e-01 4.290771e-02
9.341250e+06 -1.008972e+00 8.483887e-03 -4.649628e-06 5.565118e-06 2.782792e-06 3.128313e-06 9.936523e-01 4.394531e-02
9.559062e+06 -1.009216e+00 8.178711e-03 7.658266e-06 1.430605e-05 5.897135e-06 -1.601409e-06 9.943848e-01 4.382324e-02
9.776875e+06 -1.007874e+00 8.483887e-03 5.625188e-06 1.182966e-05 3.554393e-06 -9.283423e-06 9.954834e-01 4.443359e-02
9.994688e+06 -1.007629e+00 8.483887e-03 -8.132774e-06 -1.862645e-09 -8.307397e-07 1.218449e-05 9.976196e-01 4.492188e-02
1.021250e+07 -1.007629e+00 7.446289e-03 2.696179e-05 1.095422e-05 -7.024966e-06 2.016313e-05 9.981079e-01 4.492188e-02
1.043031e+07 -1.005981e+00 7.934570e-03 -2.791865e-10 -5.477716e-10 -2.249889e-05 -1.676381e-06 9.981689e-01 4.577637e-02
1.064812e+07 -1.005981e+00 7.507324e-03 -2.169982e-06 -3.792904e-05 7.146038e-06 -9.547919e-06 9.983521e-01 4.656982e-02
1.086594e+07 -1.004395e+00 7.019043e-03 -2.042763e-05 -1.059286e-05 -8.373987e-06 9.458978e-06 9.994507e-01 4.608154e-02
1.108375e+07 -1.004639e+00 7.812500e-03 3.087334e-06 7.536262e-06 6.930903e-06 2.582092e-06 9.998779e-01 4.650879e-02
1.130156e+07 -1.003479e+00 7.568359e-03 -1.457054e-05 -1.455098e-05 -4.382804e-06 8.905306e-06 9.996338e-01 4.650879e-02
1.151938e+07 -1.002808e+00 5.371094e-03 4.226808e-06 6.963499e-06 2.624001e-07 -4.176283e-06 1.000549e+00 4.663086e-02
1.173719e+07 -1.002441e+00 5.859375e-03 -2.040714e-05 1.068786e-05 7.574446e-06 1.132116e-05 1.000977e+00 4.681396e-02
1.195500e+07 -1.001526e+00 4.272461e-03 1.765322e-06 -7.960945e-06 2.715737e-06 6.030314e-06 1.001526e+00 4.602051e-02
1.217281e+07 -1.000610e+00 4.638672e-03 -2.071820e-05 7.027760e-06 1.198146e-05 -9.716488e-06 1.001282e+00 4.736328e-02
1.239062e+07 -1.000244e+00 4.638672e-03 -1.255888e-05 -1.045503e-05 -5.739275e-06 1.033628e-05 1.003052e+00 4.687500e-02
1.260844e+07 -9.995728e-01 3.845215e-03 1.104269e-05 -1.026504e-05 -7.795170e-07 1.260825e-05 1.002930e+00 4.687500e-02
1.282625e+07 -9.993286e-01 3.601074e-03 -9.089708e-07 -3.448874e-05 -5.093636e-06 -3.335765e-06 1.002869e+00 4.925537e-02
1.304406e+07 -9.978027e-01 2.502441e-03 3.434718e-06 -3.084727e-05 -4.656613e-09 1.217518e-05 1.002930e+00 4.870605e-02
1.326188e+07 -9.976196e-01 1.708984e-03 -2.866611e-06 1.288485e-05 3.828667e-06 1.403969e-05 1.002991e+00 4.876709e-02
1.347969e+07 -9.963379e-01 9.155273e-04 6.172627e-10 -4.689582e-11 -2.189539e-06 1.170114e-05 1.002930e+00 4.956055e-02
1.369750e+07 -9.956055e-01 1.098633e-03 -2.880581e-05 1.559965e-05 1.492165e-05 3.877096e-06 1.002930e+00 4.980469e-02
1.391531e+07 -9.961548e-01 -6.103516e-05 9.190291e-06 1.356658e-05 -2.658926e-06 -8.579344e-06 1.002991e+00 4.949951e-02
1.413312e+07 -9.955444e-01 -1.464844e-03 3.748108e-06 9.662006e-06 7.499009e-06 5.764421e-06 1.001953e+00 4.949951e-02
1.435094e+07 -9.945679e-01 -2.136230e-03 4.512258e-06 -1.397356e-05 4.777918e-06 4.561152e-06 1.002930e+00 5.108643e-02
1.456875e+07 -9.944458e-01 -2.197266e-03 -3.024191e-05 1.102686e-06 7.629395e-06 1.599174e-05 1.001831e+00 5.187988e-02
1.478656e+07 -9.937744e-01 -3.234863e-03 2.250075e-06 -2.194755e-05 4.624017e-06 7.557217e-06 1.002625e+00 5.267334e-02
1.500438e+07 -9.921265e-01 -4.150391e-03 -1.862645e-09 1.839362e-05 1.072884e-06 -8.288771e-06 1.002502e+00 5.212402e-02
1.522219e+07 -9.918213e-01 -5.859375e-03 -2.684817e-05 2.518669e-05 -8.533709e-06 8.169562e-06 1.002686e+00 5.212402e-02
1.544000e+07 -9.915161e-01 -6.164551e-03 1.441687e-05 -3.154390e-06 7.040799e-07 8.332543e-06 1.003479e+00 5.426025e-02
1.565781e+07 -9.915771e-01 -7.568359e-03 9.229407e-06 -1.872052e-05 -9.002164e-06 8.231495e-06 1.002808e+00 5.468750e-02
1.587562e+07 -9.906006e-01 -8.666992e-03 2.478063e-05 5.289912e-07 7.983763e-06 -5.909707e-06 1.003235e+00 5.529785e-02
1.609344e+07 -9.918823e-01 -8.850098e-03 -4.761294e-05 2.835318e-05 1.904555e-05 3.803521e-06 1.003662e+00 6.109619e-02
1.631125e+07 -9.922485e-01 -8.422852e-03 2.443418e-05 -5.542114e-05 -2.405792e-05 3.313087e-05 1.003052e+00 6.164551e-02
1.652906e+07 -9.913940e-01 -9.887695e-03 4.382432e-05 -1.107529e-05 -1.480244e-05 2.258271e-05 1.003235e+00 6.152344e-02
1.674688e+07 -9.905396e-01 -1.000977e-02 1.666322e-05 -5.362183e-05 1.071021e-05 2.661720e-05 1.002930e+00 6.280518e-02
1.696469e+07 -9.907837e-01 -9.765625e-03 -2.473220e-05 -7.628649e-05 4.511327e-06 2.002902e-05 1.004028e+00 6.353760e-02
1.718250e+07 -9.901123e-01 -1.019287e-02 3.881566e-05 -9.825453e-06 -1.625717e-05 2.647936e-05 1.003296e+00 6.427002e-02
1.740031e+07 -9.898071e-01 -9.765625e-03 -3.213435e-05 7.981062e-05 -1.305831e-06 6.034388e-07 1.003113e+00 6.500244e-02
1.761812e+07 -9.896240e-01 -1.062012e-02 2.464466e-05 -7.394701e-07 6.202608e-05 3.470108e-05 1.003113e+00 6.616211e-02
1.783594e+07 -9.887085e-01 -1.043701e-02 -3.639981e-05 -1.853332e-06 -3.828434e-06 -1.406297e-06 1.004333e+00 6.719971e-02
1.805375e+07 -9.887695e-01 -1.116943e-02 1.809187e-05 -2.673827e-05 7.612631e-05 2.890825e-06 1.004150e+00 6.762695e-02
1.827156e+07 -9.884033e-01 -1.135254e-02 -7.769093e-06 1.304224e-05 2.131797e-05 2.192520e-05 1.004211e+00 6.817627e-02
1.848938e+07 -9.876099e-01 -1.104736e-02 -6.484333e-06 7.198658e-06 -1.104362e-05 2.427585e-05 1.005188e+00 6.903076e-02
1.870719e+07 -9.876709e-01 -1.196289e-02 2.708286e-06 2.151169e-05 -5.370751e-05 2.174824e-05 1.005554e+00 6.994629e-02
1.892500e+07 -9.870605e-01 -1.196289e-02 2.067536e-05 -4.971400e-05 -2.731755e-05 4.783645e-05 1.005798e+00 7.196045e-02
1.914281e+07 -9.865723e-01 -1.300049e-02 -1.335517e-06 -5.223323e-06 9.912997e-06 -7.509068e-05 1.006104e+00 7.196045e-02
1.936062e+07 -9.859619e-01 -1.300049e-02 -4.314631e-05 5.442649e-06 3.541447e-05 3.482029e-05 1.006409e+00 7.312012e-02
1.957844e+07 -9.858398e-01 -1.379395e-02 2.870150e-05 -1.851097e-05 -7.489696e-06 3.555976e-05 1.007507e+00 7.312012e-02
1.979625e+07 -9.854126e-01 -1.416016e-02 -6.651506e-06 -1.503807e-05 -3.684778e-06 -7.919967e-06 1.007996e+00 7.458496e-02
2.001406e+07 -9.851074e-01 -1.391602e-02 -3.419816e-05 -1.357310e-05 -6.332528e-06 -6.690156e-06 1.007874e+00 7.543945e-02
2.023188e+07 -9.841309e-01 -1.501465e-02 -1.695007e-06 -6.109104e-05 3.778934e-05 4.998222e-05 1.008911e+00 7.598877e-02
2.044969e+07 -9.836426e-01 -1.525879e-02 -1.085550e-05 -5.320460e-05 -3.080443e-05 2.726167e-05 1.009521e+00 7.702637e-02
2.066750e+07 -9.838257e-01 -1.525879e-02 7.814728e-06 -1.322571e-05 -6.157905e-06 8.361787e-05 1.010864e+00 7.775879e-02
2.088531e+07 -9.832153e-01 -1.593018e-02 7.644296e-06 -3.566407e-05 9.886920e-06 -2.725236e-05 1.011230e+00 7.788086e-02
2.110312e+07 -9.827271e-01 -1.617432e-02 9.693205e-06 5.932525e-05 1.036469e-05 4.868023e-06 1.011963e+00 7.861328e-02
2.132094e+07 -9.826050e-01 -1.696777e-02 -2.246164e-05 1.862645e-07 2.739020e-05 6.619841e-06 1.012878e+00 7.879639e-02
2.153875e+07 -9.818726e-01 -1.751709e-02 -4.094094e-06 -1.583435e-05 -3.229827e-06 -2.769008e-05 1.013306e+00 7.916260e-02
2.175656e+07 -9.810181e-01 -1.788330e-02 4.673377e-05 4.998595e-05 5.827472e-05 3.763288e-05 1.014771e+00 8.032227e-02
2.197438e+07 -9.806519e-01 -1.855469e-02 -6.338954e-05 2.774596e-05 -3.392622e-05 -1.335517e-05 1.014771e+00 7.983398e-02
2.219219e+07 -9.806519e-01 -1.837158e-02 1.598895e-05 7.148832e-06 2.353638e-05 6.061047e-05 1.016052e+00 8.044434e-02
2.241000e+07 -9.802856e-01 -1.940918e-02 5.154312e-05 -3.042072e-05 -3.869087e-05 -3.727153e-05 1.017334e+00 8.001709e-02
2.262781e+07 -9.795532e-01 -1.916504e-02 -4.747510e-05 4.633144e-05 -1.577660e-06 1.054164e-05 1.017822e+00 8.172607e-02
2.284562e+07 -9.790649e-01 -1.983643e-02 5.972385e-05 -2.121553e-05 -2.361089e-05 -8.491799e-06 1.018555e+00 8.123779e-02
2.306344e+07 -9.786377e-01 -2.050781e-02 1.052953e-05 -1.408812e-05 5.827099e-05 5.439296e-05 1.019531e+00 8.197021e-02
2.328125e+07 -9.774780e-01 -2.069092e-02 2.544746e-05 1.042336e-05 1.657568e-05 -2.749078e-05 1.020142e+00 8.197021e-02
2.349906e+07 -9.777832e-01 -2.172852e-02 -9.739771e-06 -3.727712e-05 1.429208e-05 1.293980e-05 1.020752e+00 8.184814e-02
2.371688e+07 -9.771118e-01 -2.215576e-02 -1.798943e-05 -5.797297e-05 4.120544e-05 2.738088e-07 1.021851e+00 8.154297e-02
2.393469e+07 -9.767456e-01 -2.246094e-02 1.067389e-05 -2.789311e-06 5.429611e-05 1.054630e-05 1.022827e+00 8.233643e-02
2.415250e+07 -9.762573e-01 -2.301025e-02 2.072379e-05 -6.249920e-05 -7.917173e-06 -2.841000e-06 1.023499e+00 8.142090e-02
2.437031e+07 -9.757080e-01 -2.380371e-02 -5.016848e-05 -4.965812e-05 3.464520e-05 1.117587e-07 1.023621e+00 8.203125e-02
2.458812e+07 -9.760132e-01 -2.398682e-02 9.437092e-06 3.246590e-06 1.555495e-05 -4.035048e-05 1.024902e+00 8.215332e-02
2.480594e+07 -9.753418e-01 -2.447510e-02 -3.845245e-05 -7.009879e-05 -2.839975e-05 1.673028e-05 1.025818e+00 8.166504e-02
2.502375e+07 -9.749146e-01 -2.557373e-02 5.883351e-05 -2.698600e-05 -2.121553e-05 5.301088e-05 1.026367e+00 8.160400e-02
2.524156e+07 -9.740601e-01 -2.618408e-02 1.878012e-05 -4.939735e-06 -4.831702e-06 -2.419017e-05 1.026794e+00 8.209229e-02
2.545938e+07 -9.736938e-01 -2.697754e-02 -6.630085e-06 7.493421e-06 1.095608e-05 5.112588e-05 1.026672e+00 8.062744e-02
2.567719e+07 -9.728394e-01 -2.752686e-02 -2.987310e-05 -1.511537e-05 -1.061708e-05 -4.915055e-06 1.028809e+00 8.148193e-02
2.589500e+07 -9.731445e-01 -2.777100e-02 -2.829917e-05 1.735985e-06 -3.313646e-05 -8.387119e-05 1.028442e+00 8.044434e-02
2.611281e+07 -9.724731e-01 -2.844238e-02 -1.519360e-05 -2.477504e-05 -1.916103e-05 1.906510e-05 1.029358e+00 8.111572e-02
2.633062e+07 -9.726562e-01 -2.960205e-02 -2.156384e-05 5.701557e-06 1.504272e-05 5.270913e-05 1.030457e+00 8.099365e-02
2.654844e+07 -9.719238e-01 -3.027344e-02 3.501959e-05 -9.318814e-06 1.975894e-05 2.058223e-05 1.030273e+00 7.910156e-02
2.676625e+07 -9.714355e-01 -3.112793e-02 9.689480e-06 1.475029e-05 -8.108094e-05 1.521036e-05 1.031067e+00 8.020020e-02
2.698406e+07 -9.714355e-01 -3.063965e-02 -2.465770e-05 -1.657195e-05 3.399700e-05 -1.616031e-05 1.031799e+00 7.897949e-02
2.720188e+07 -9.702148e-01 -3.295898e-02 -6.841030e-06 -3.971159e-06 9.849668e-06 4.875660e-05 1.031738e+00 8.026123e-02
2.741969e+07 -9.702148e-01 -3.320312e-02 -8.120667e-06 2.156477e-06 -1.337379e-05 -7.000752e-06 1.033203e+00 7.940674e-02
2.763750e+07 -9.702759e-01 -3.308105e-02 1.449138e-06 5.417038e-06 -4.200637e-05 3.257766e-06 1.034241e+00 7.745361e-02
2.785531e+07 -9.700928e-01 -3.497314e-02 2.399087e-05 5.745515e-05 4.344992e-05 -7.303432e-06 1.033264e+00 7.897949e-02
2.807312e+07 -9.699707e-01 -3.558350e-02 -9.948388e-06 -2.638996e-05 -2.874434e-05 -5.677342e-05 1.033752e+00 7.824707e-02
2.829094e+07 -9.693604e-01 -3.607178e-02 1.376681e-05 7.949769e-06 7.133931e-07 3.661774e-05 1.034912e+00 7.745361e-02
2.850875e+07 -9.699707e-01 -3.662109e-02 2.443977e-05 -6.563962e-06 5.144626e-05 5.647540e-06 1.035034e+00 7.635498e-02
2.872656e+07 -9.693604e-01 -3.771973e-02 1.651235e-05 7.233582e-06 2.088025e-06 3.606267e-05 1.035400e+00 7.659912e-02
2.894438e+07 -9.697266e-01 -3.894043e-02 1.467206e-05 -2.144277e-05 4.723668e-06 4.158355e-05 1.035706e+00 7.720947e-02
2.916219e+07 -9.691772e-01 -3.894043e-02 3.436767e-05 8.288771e-06 -2.130121e-05 5.063415e-05 1.036255e+00 7.604980e-02
2.938000e+07 -9.691772e-01 -3.967285e-02 9.641517e-06 3.252178e-06 -2.706796e-05 -1.066923e-05 1.036255e+00 7.611084e-02
2.959781e+07 -9.686279e-01 -4.089355e-02 -5.561858e-05 3.254786e-05 1.908280e-05 9.899959e-07 1.036865e+00 7.470703e-02
2.981562e+07 -9.686279e-01 -4.174805e-02 1.407787e-05 -5.652010e-05 3.849156e-06 1.509022e-05 1.037048e+00 7.525635e-02
3.003344e+07 -9.692993e-01 -4.290771e-02 1.661479e-05 7.248484e-06 -3.743917e-06 -2.191775e-05 1.037048e+00 7.476807e-02
3.025125e+07 -9.688110e-01 -4.321289e-02 4.358590e-07 2.337620e-05 2.759276e-06 -1.325039e-06 1.038513e+00 7.373047e-02
3.046906e+07 -9.692383e-01 -4.388428e-02 4.453585e-05 2.321973e-05 -1.128577e-05 2.240948e-05 1.039001e+00 7.299805e-02
3.068688e+07 -9.692383e-01 -4.461670e-02 1.555309e-05 -5.123392e-05 1.127832e-06 1.646578e-05 1.037964e+00 7.348633e-02
3.090469e+07 -9.687500e-01 -4.602051e-02 1.142919e-05 2.046116e-05 2.278946e-05 3.669225e-05 1.038635e+00 7.299805e-02
3.112250e+07 -9.685059e-01 -4.766846e-02 1.478940e-06 -3.637187e-05 5.478971e-06 -1.384411e-05 1.038879e+00 7.421875e-02
3.134031e+07 -9.687500e-01 -4.821777e-02 -9.803101e-06 7.819850e-06 1.251325e-05 3.002957e-05 1.039673e+00 7.226562e-02
3.155812e+07 -9.685059e-01 -4.956055e-02 3.032945e-05 7.892027e-06 -1.482200e-05 -1.513213e-05 1.039001e+00 7.287598e-02
3.177594e+07 -9.684448e-01 -4.986572e-02 3.980473e-06 -3.524497e-05 1.278333e-05 4.406087e-06 1.038269e+00 7.220459e-02
3.199375e+07 -9.679565e-01 -5.151367e-02 4.470348e-06 7.017702e-05 -1.284294e-05 -1.378357e-07 1.038574e+00 7.318115e-02
3.221156e+07 -9.682617e-01 -5.218506e-02 2.058782e-05 1.574121e-05 4.091673e-05 -1.885742e-05 1.039612e+00 7.165527e-02
3.242938e+07 -9.682007e-01 -5.334473e-02 -8.199364e-06 -2.240203e-05 -1.742505e-05 2.553500e-05 1.038696e+00 7.147217e-02
3.264719e+07 -9.680786e-01 -5.560303e-02 -2.549728e-06 -1.184875e-06 1.248345e-05 3.446825e-05 1.038513e+00 7.208252e-02
3.286500e+07 -9.677734e-01 -5.541992e-02 -2.607889e-05 -3.073737e-05 -5.988404e-06 -4.083477e-05 1.039124e+00 7.165527e-02
3.308281e+07 -9.678345e-01 -5.657959e-02 -1.187809e-05 2.556480e-05 -9.881333e-06 1.816358e-05 1.039856e+00 7.135010e-02
3.330062e+07 -9.682007e-01 -5.877686e-02 -1.059286e-05 -1.735799e-05 2.877414e-05 2.287328e-05 1.039001e+00 7.110596e-02
3.351844e+07 -9.677124e-01 -5.902100e-02 9.141862e-06 -3.307313e-05 -6.381422e-06 -6.516930e-06 1.038147e+00 7.116699e-02
3.373625e+07 -9.683838e-01 -6.127930e-02 1.499802e-05 -5.473383e-06 1.159869e-05 2.271868e-05 1.038757e+00 7.135010e-02
3.395406e+07 -9.678955e-01 -6.188965e-02 2.984144e-05 -1.728162e-05 -4.402176e-05 -1.233071e-05 1.038696e+00 7.037354e-02
3.417188e+07 -9.682007e-01 -6.311035e-02 2.710707e-05 -2.478063e-05 -2.132263e-05 -2.179481e-05 1.037964e+00 7.067871e-02
3.438969e+07 -9.678345e-01 -6.365967e-02 2.210215e-05 6.641075e-05 -7.440802e-06 -9.784009e-06 1.037659e+00 7.055664e-02
3.460750e+07 -9.686279e-01 -6.524658e-02 -2.344698e-05 -2.337806e-05 6.635673e-06 -1.503341e-05 1.037476e+00 7.012939e-02
3.482531e+07 -9.684448e-01 -6.658936e-02 2.443790e-05 -3.233738e-05 -1.052953e-05 -2.387911e-05 1.037964e+00 7.067871e-02
3.504312e+07 -9.683838e-01 -6.707764e-02 1.195818e-05 -2.567656e-05 2.224743e-05 3.805012e-05 1.037354e+00 7.019043e-02
3.526094e+07 -9.686279e-01 -6.921387e-02 1.727976e-05 -1.695659e-05 -9.838026e-06 9.611715e-06 1.036926e+00 7.012939e-02
3.547875e+07 -9.686890e-01 -7.019043e-02 -3.565289e-05 -4.092231e-06 2.233312e-06 -6.466638e-06 1.037659e+00 7.006836e-02
3.569656e+07 -9.694824e-01 -7.086182e-02 -2.076104e-05 -1.595169e-05 -1.642108e-05 1.603272e-05 1.037231e+00 7.012939e-02
3.591438e+07 -9.692993e-01 -7.220459e-02 -2.691336e-05 3.758259e-05 3.390014e-05 6.536394e-05 1.036865e+00 7.006836e-02
3.613219e+07 -9.692993e-01 -7.305908e-02 9.421259e-06 6.711856e-05 4.450232e-05 -9.186566e-06 1.036499e+00 7.043457e-02
3.635000e+07 -9.702759e-01 -7.421875e-02 -7.560477e-06 2.746005e-06 8.520670e-06 1.311861e-05 1.036438e+00 7.031250e-02
3.656781e+07 -9.692993e-01 -7.550049e-02 4.276633e-06 -2.939440e-05 -1.897290e-05 -4.582107e-05 1.036194e+00 6.915283e-02
3.678562e+07 -9.699707e-01 -7.623291e-02 9.980053e-06 -7.910654e-06 1.147622e-06 -5.416339e-06 1.035400e+00 7.043457e-02
3.700344e+07 -9.702759e-01 -7.745361e-02 -4.817732e-06 1.032371e-05 2.659112e-05 4.704297e-05 1.035339e+00 6.945801e-02
3.722125e+07 -9.698486e-01 -7.855225e-02 1.016539e-05 -1.553446e-06 -4.240312e-06 -8.743722e-06 1.035522e+00 6.884766e-02
3.743906e+07 -9.702759e-01 -7.934570e-02 -1.584925e-05 -2.000667e-05 1.353212e-05 -3.899075e-05 1.035217e+00 6.945801e-02
3.765688e+07 -9.713745e-01 -8.001709e-02 5.519949e-06 1.518056e-05 2.207235e-07 -1.739804e-05 1.034485e+00 6.909180e-02
3.787469e+07 -9.713745e-01 -8.203125e-02 -9.315088e-06 3.348291e-05 4.372001e-05 -1.252815e-05 1.033813e+00 6.921387e-02
3.809250e+07 -9.710083e-01 -8.233643e-02 2.257526e-06 -1.156796e-05 2.742186e-05 -1.382641e-05 1.033142e+00 6.939697e-02
3.831031e+07 -9.713135e-01 -8.325195e-02 2.243556e-06 -1.157727e-05 5.378388e-08 -4.356727e-06 1.033386e+00 6.829834e-02
3.852812e+07 -9.716187e-01 -8.477783e-02 1.589395e-05 2.003461e-05 -8.609146e-06 -8.835923e-06 1.031433e+00 6.835938e-02
3.874594e+07 -9.719238e-01 -8.520508e-02 -1.782272e-05 4.314817e-06 3.095716e-06 1.423154e-05 1.032166e+00 6.878662e-02
3.896375e+07 -9.728394e-01 -8.630371e-02 2.872199e-05 1.974776e-05 1.380406e-05 2.965145e-05 1.031494e+00 6.811523e-02
3.918156e+07 -9.725952e-01 -8.734131e-02 9.400770e-06 -3.360584e-05 -8.294359e-06 -3.510900e-05 1.031616e+00 6.903076e-02
3.939938e+07 -9.724731e-01 -8.862305e-02 -3.292598e-05 1.624413e-05 -1.992099e-05 1.941063e-05 1.030273e+00 6.884766e-02
3.961719e+07 -9.732056e-01 -8.953857e-02 2.176687e-05 -5.318597e-05 -3.325986e-06 3.237976e-06 1.029968e+00 6.921387e-02
3.983500e+07 -9.737549e-01 -9.088135e-02 4.704110e-06 -1.682248e-05 -7.756986e-06 7.561874e-06 1.029663e+00 6.890869e-02
4.005281e+07 -9.740601e-01 -9.167480e-02 -1.479127e-05 2.479181e-05 3.265217e-05 1.576729e-05 1.028931e+00 6.848145e-02
4.027062e+07 -9.751587e-01 -9.265137e-02 -5.419552e-05 -6.355345e-06 6.966293e-06 -2.839416e-05 1.028503e+00 6.951904e-02
4.048844e+07 -9.744873e-01 -9.216309e-02 -1.707859e-05 3.647432e-05 7.913448e-06 -1.634937e-05 1.028076e+00 6.842041e-02
4.070625e+07 -9.745483e-01 -9.344482e-02 7.317401e-06 -1.562573e-05 1.421757e-05 3.489666e-06 1.026611e+00 6.854248e-02
4.092406e+07 -9.758911e-01 -9.545898e-02 3.588200e-05 -8.605421e-06 -2.067536e-05 -1.455005e-05 1.027283e+00 6.964111e-02
4.114188e+07 -9.758301e-01 -9.661865e-02 -3.002584e-05 3.686920e-05 -2.816133e-05 -2.898090e-05 1.026306e+00 6.890869e-02
4.135969e+07 -9.765015e-01 -9.741211e-02 8.155592e-06 1.656078e-05 -4.043058e-05 -1.702085e-05 1.025085e+00 6.903076e-02
4.157750e+07 -9.768677e-01 -9.759521e-02 1.566578e-05 7.346272e-06 -9.613112e-06 -2.102833e-05 1.024658e+00 6.890869e-02
4.179531e+07 -9.763794e-01 -9.814453e-02 -5.685911e-05 -1.132488e-06 2.408400e-06 -1.537614e-05 1.024475e+00 6.890869e-02
4.201312e+07 -9.773560e-01 -9.887695e-02 -2.077594e-05 -3.371388e-06 1.431257e-05 -8.977950e-07 1.024048e+00 7.000732e-02
4.223094e+07 -9.778442e-01 -9.985352e-02 -3.955886e-05 -3.137812e-05 -2.867728e-05 1.808628e-06 1.022949e+00 6.964111e-02
4.244875e+07 -9.786377e-01 -1.015015e-01 2.434105e-05 4.339963e-05 -2.178643e-05 -1.793727e-05 1.022400e+00 7.019043e-02
4.266656e+07 -9.796753e-01 -1.022339e-01 7.541385e-06 -9.245705e-06 3.510341e-05 1.373328e-05 1.022278e+00 7.012939e-02
4.288438e+07 -9.791870e-01 -1.023560e-01 5.162135e-05 -7.696450e-06 2.312288e-05 3.641471e-06 1.020813e+00 7.098389e-02
4.310219e+07 -9.798584e-01 -1.035767e-01 9.737909e-06 -2.745725e-05 -8.454546e-06 -2.663024e-05 1.020813e+00 7.147217e-02
4.332000e+07 -9.803467e-01 -1.038208e-01 3.426522e-05 2.253056e-05 3.872812e-05 -2.751127e-06 1.020081e+00 7.086182e-02
4.353781e+07 -9.812622e-01 -1.051025e-01 4.063174e-05 -3.863871e-05 -7.848255e-06 7.619150e-06 1.019897e+00 7.061768e-02
4.375562e+07 -9.819946e-01 -1.054688e-01 5.535409e-05 3.242493e-05 -6.861985e-06 1.538824e-05 1.018860e+00 7.086182e-02
4.397344e+07 -9.821167e-01 -1.071167e-01 5.256850e-06 2.473593e-06 2.982095e-06 2.330169e-05 1.017822e+00 7.092285e-02
4.419125e+07 -9.821167e-01 -1.073608e-01 -1.931563e-05 -4.767999e-05 1.985487e-05 6.933697e-06 1.017273e+00 7.208252e-02
4.440906e+07 -9.832153e-01 -1.080933e-01 -2.151728e-05 -2.945215e-05 -8.811243e-06 -4.564878e-06 1.017090e+00 7.165527e-02
4.462688e+07 -9.839478e-01 -1.083984e-01 3.144331e-05 8.394942e-06 -2.007931e-05 -6.799400e-05 1.015808e+00 7.220459e-02
4.484469e+07 -9.844360e-01 -1.101074e-01 -4.595518e-05 4.279986e-05 -1.133420e-05 1.538545e-05 1.015747e+00 7.208252e-02
4.506250e+07 -9.839478e-01 -1.106567e-01 1.799688e-05 -1.083501e-05 -2.024602e-05 1.525320e-05 1.014038e+00 7.244873e-02
4.528031e+07 -9.848022e-01 -1.102295e-01 5.421694e-06 9.012874e-06 1.144782e-05 5.020574e-05 1.014038e+00 7.299805e-02
4.549812e+07 -9.858398e-01 -1.112061e-01 1.892820e-05 2.832152e-05 2.056360e-06 1.116190e-05 1.013916e+00 7.318115e-02
4.571594e+07 -9.854126e-01 -1.122437e-01 -4.740059e-05 -1.588836e-05 2.870522e-05 1.603365e-05 1.012024e+00 7.318115e-02
4.593375e+07 -9.863892e-01 -1.135254e-01 -1.747720e-05 3.702566e-05 -6.512739e-06 -1.124293e-05 1.012207e+00 7.348633e-02
4.615156e+07 -9.879150e-01 -1.135254e-01 -2.172962e-05 -3.614277e-05 1.083035e-05 2.023485e-05 1.011047e+00 7.415771e-02
4.636938e+07 -9.884033e-01 -1.144409e-01 -3.102422e-05 1.772307e-05 -2.564117e-05 -1.536682e-06 1.010742e+00 7.421875e-02
4.658719e+07 -9.882202e-01 -1.149292e-01 -2.648681e-06 -1.252629e-06 1.028180e-05 -1.435447e-05 1.009644e+00 7.513428e-02
4.680500e+07 -9.888306e-01 -1.156006e-01 3.063865e-05 -3.740005e-05 3.403984e-06 -3.294321e-06 1.008972e+00 7.513428e-02
4.702281e+07 -9.894409e-01 -1.166992e-01 5.596317e-06 1.562387e-05 -1.035444e-05 1.883600e-05 1.008484e+00 7.531738e-02
4.724062e+07 -9.900513e-01 -1.163330e-01 -2.509449e-06 5.306210e-06 -2.474338e-05 -5.967915e-05 1.007812e+00 7.598877e-02
4.745844e+07 -9.901123e-01 -1.167603e-01 -2.084300e-06 2.498738e-05 8.540228e-07 1.680106e-05 1.006165e+00 7.659912e-02
4.767625e+07 -9.906616e-01 -1.177368e-01 2.511311e-06 -5.315058e-06 1.264457e-05 -2.108980e-05 1.006165e+00 7.635498e-02
4.789406e+07 -9.907837e-01 -1.179810e-01 9.655952e-06 -4.098937e-05 2.604164e-05 -1.637824e-05 1.005676e+00 7.769775e-02
4.811188e+07 -9.909668e-01 -1.179810e-01 1.021102e-05 -1.470279e-05 -3.342982e-06 -1.176493e-06 1.004761e+00 7.745361e-02
4.832969e+07 -9.933472e-01 -1.184082e-01 -2.926961e-05 -1.386367e-05 -1.277216e-05 -4.057214e-05 1.004150e+00 7.843018e-02
4.854750e+07 -9.933472e-01 -1.195679e-01 3.962219e-05 5.763024e-06 1.118425e-05 2.433546e-06 1.002869e+00 7.946777e-02
4.876531e+07 -9.932861e-01 -1.203613e-01 2.395920e-05 1.135468e-05 -2.706423e-05 -6.219000e-05 1.002136e+00 7.971191e-02
4.898312e+07 -9.938354e-01 -1.213989e-01 -5.524978e-05 6.467104e-06 8.062460e-06 -1.223199e-05 1.001831e+00 7.940674e-02
4.920094e+07 -9.950562e-01 -1.202393e-01 4.628673e-06 -3.045984e-05 -3.658235e-06 1.680572e-05 1.001160e+00 8.026123e-02
4.941875e+07 -9.945068e-01 -1.212769e-01 -3.721938e-05 -1.108833e-05 1.212582e-06 -5.603768e-06 1.000732e+00 8.105469e-02
4.963656e+07 -9.950562e-01 -1.214600e-01 4.172325e-07 1.980178e-05 4.037656e-05 9.685755e-06 9.995728e-01 8.154297e-02
4.985438e+07 -9.952393e-01 -1.220093e-01 -5.338807e-06 -2.535526e-06 1.327973e-05 1.373794e-05 9.991455e-01 8.251953e-02
5.007219e+07 -9.975586e-01 -1.230469e-01 -2.069585e-05 2.290495e-05 2.827868e-05 -5.133450e-06 9.979858e-01 8.276367e-02
5.029000e+07 -9.962158e-01 -1.235352e-01 2.364628e-05 -8.407980e-06 -3.455020e-05 -2.428330e-05 9.970703e-01 8.386230e-02
5.050781e+07 -9.983521e-01 -1.233521e-01 -5.075708e-06 1.069065e-05 3.814884e-05 1.196936e-05 9.967041e-01 8.398438e-02
5.072562e+07 -9.975586e-01 -1.242676e-01 -1.617987e-05 -1.422688e-05 -1.053698e-05 -4.305504e-05 9.958496e-01 8.435059e-02
5.094344e+07 -9.987793e-01 -1.245117e-01 5.876645e-06 2.904050e-05 -2.534129e-06 1.575984e-05 9.953613e-01 8.569336e-02
5.116125e+07 -9.981689e-01 -1.246948e-01 -1.044851e-05 8.165836e-06 -1.855567e-05 2.677925e-05 9.947510e-01 8.581543e-02
5.137906e+07 -9.998779e-01 -1.254272e-01 -1.514144e-05 3.875792e-05 -2.604350e-05 2.922490e-06 9.935303e-01 8.648682e-02
5.159688e+07 -9.993896e-01 -1.251221e-01 5.090609e-06 -1.071952e-05 -4.051626e-05 -9.767711e-06 9.929810e-01 8.715820e-02
5.181469e+07 -1.001038e+00 -1.262207e-01 3.938749e-05 -2.070144e-05 6.992370e-06 -1.118332e-05 9.918823e-01 8.734131e-02
5.203250e+07 -1.001465e+00 -1.253662e-01 7.911585e-06 -2.803747e-06 4.599243e-05 -3.992394e-05 9.910278e-01 8.886719e-02
5.225031e+07 -1.002258e+00 -1.262817e-01 2.667122e-05 6.139278e-06 1.044758e-05 -1.452863e-05 9.900513e-01 9.014893e-02
5.246812e+07 -1.002502e+00 -1.262817e-01 5.485956e-06 9.196345e-06 -1.024501e-05 1.063477e-05 9.894409e-01 9.063721e-02
5.268594e+07 -1.003113e+00 -1.269531e-01 2.122857e-05 -3.071502e-06 -4.665926e-07 7.999130e-06 9.895020e-01 9.112549e-02
5.290375e+07 -1.002930e+00 -1.270752e-01 2.183206e-05 3.017113e-05 -1.112558e-05 3.523193e-06 9.882202e-01 9.179688e-02
5.312156e+07 -1.003479e+00 -1.270752e-01 -1.955777e-06 3.859587e-05 1.940876e-05 5.253032e-05 9.871216e-01 9.283447e-02
5.333938e+07 -1.004211e+00 -1.273193e-01 -8.178875e-06 -1.049042e-05 -3.222004e-05 -7.482991e-05 9.865112e-01 9.271240e-02
5.355719e+07 -1.004089e+00 -1.270752e-01 -4.917383e-07 -2.660975e-05 3.230572e-05 5.169585e-05 9.855347e-01 9.411621e-02
5.377500e+07 -1.005188e+00 -1.281128e-01 1.037493e-05 -1.484063e-05 -1.520477e-05 1.775380e-05 9.850464e-01 9.429932e-02
5.399281e+07 -1.005737e+00 -1.277466e-01 -1.392514e-05 -3.304891e-05 5.285256e-06 1.961179e-05 9.849243e-01 9.539795e-02
5.421062e+07 -1.006042e+00 -1.276855e-01 1.651049e-05 2.768263e-05 -1.301058e-06 -1.069903e-05 9.843750e-01 9.570312e-02
5.442844e+07 -1.006714e+00 -1.288452e-01 -1.369789e-05 -1.974218e-05 -6.595626e-05 -6.522983e-06 9.830322e-01 9.643555e-02
5.464625e+07 -1.006287e+00 -1.283569e-01 -1.859106e-05 4.341826e-06 1.963694e-05 -5.274080e-06 9.825439e-01 9.808350e-02
5.486406e+07 -1.007019e+00 -1.287842e-01 1.860689e-05 -4.319474e-06 -4.615635e-06 3.388338e-05 9.819336e-01 9.930420e-02
5.508188e+07 -1.007629e+00 -1.286621e-01 5.384441e-06 2.569519e-06 2.352521e-06 -2.855621e-05 9.815674e-01 9.893799e-02
5.529969e+07 -1.007812e+00 -1.287842e-01 -2.070330e-05 3.643520e-05 2.229773e-05 4.565343e-06 9.810181e-01 1.000366e-01
5.551750e+07 -1.008240e+00 -1.279907e-01 -3.233552e-05 -1.545437e-05 1.693889e-05 8.101575e-06 9.801025e-01 1.014404e-01
5.573531e+07 -1.009399e+00 -1.286011e-01 -2.893619e-05 2.591498e-05 -1.344830e-06 8.885399e-07 9.796143e-01 1.013794e-01
5.595312e+07 -1.008911e+00 -1.293945e-01 5.274080e-06 -4.102942e-06 2.409704e-05 7.266179e-06 9.788818e-01 1.022339e-01
5.617094e+07 -1.009521e+00 -1.289062e-01 -2.754107e-05 -4.626811e-05 1.651421e-05 4.548579e-06 9.772949e-01 1.035767e-01
5.638875e+07 -1.010193e+00 -1.286011e-01 5.156733e-06 -1.078378e-05 6.293878e-06 -8.022878e-06 9.769287e-01 1.044922e-01
5.660656e+07 -1.010376e+00 -1.290894e-01 -2.663583e-05 7.135794e-06 -2.547912e-05 -6.385148e-06 9.765015e-01 1.058960e-01
5.682438e+07 -1.011108e+00 -1.295166e-01 1.348928e-05 6.462447e-06 3.205054e-05 3.688782e-05 9.758911e-01 1.063232e-01
5.704219e+07 -1.011414e+00 -1.292114e-01 3.146380e-05 -3.800541e-05 2.543628e-05 1.803041e-05 9.746704e-01 1.072388e-01
5.726000e+07 -1.012085e+00 -1.292114e-01 -3.754348e-05 -4.716218e-06 6.072223e-07 -3.136508e-05 9.739990e-01 1.082153e-01
5.747781e+07 -1.011841e+00 -1.286621e-01 -2.384931e-05 1.514703e-05 1.999922e-05 3.324822e-05 9.740601e-01 1.087036e-01
5.769562e+07 -1.012268e+00 -1.289673e-01 2.703164e-06 1.294538e-06 1.386460e-05 6.343238e-06 9.738770e-01 1.097412e-01
5.791344e+07 -1.011780e+00 -1.295166e-01 2.715550e-05 1.963228e-05 -9.868294e-06 2.634712e-06 9.725342e-01 1.103516e-01
5.813125e+07 -1.012817e+00 -1.298828e-01 -3.691763e-06 -6.162748e-05 -9.319745e-06 -1.710467e-05 9.721069e-01 1.118164e-01
5.834906e+07 -1.012695e+00 -1.297607e-01 -7.774681e-06 1.622178e-05 2.596341e-05 1.002289e-05 9.716797e-01 1.119995e-01
5.856688e+07 -1.012207e+00 -1.290894e-01 1.094025e-05 1.189765e-05 7.435679e-06 -4.751980e-05 9.716187e-01 1.130371e-01
5.878469e+07 -1.013184e+00 -1.290894e-01 -2.815854e-06 -8.013565e-06 -8.904375e-06 -1.352094e-05 9.708252e-01 1.141357e-01
5.900250e+07 -1.013611e+00 -1.287842e-01 -3.726035e-05 2.206862e-05 3.275648e-05 5.574897e-06 9.695435e-01 1.159668e-01
5.922031e+07 -1.014038e+00 -1.278687e-01 -1.679439e-10 -4.789058e-10 -1.416542e-06 1.258403e-05 9.687500e-01 1.166992e-01
5.943812e+07 -1.014038e+00 -1.293335e-01 7.383525e-06 -4.313886e-05 -8.526258e-07 -7.206108e-06 9.687500e-01 1.174316e-01
5.965594e+07 -1.015015e+00 -1.284790e-01 2.126209e-05 -1.647510e-05 -1.541153e-05 1.792610e-05 9.682617e-01 1.185303e-01
5.987375e+07 -1.013977e+00 -1.283569e-01 -1.105014e-05 -1.868047e-05 -2.047233e-05 -3.702380e-05 9.679565e-01 1.199341e-01
6.009156e+07 -1.014526e+00 -1.282349e-01 -1.336355e-05 6.944872e-06 3.520027e-05 -1.148321e-05 9.678345e-01 1.205444e-01
6.030938e+07 -1.014832e+00 -1.286621e-01 -1.096632e-05 -1.195446e-05 -6.949529e-06 2.789311e-05 9.670410e-01 1.211548e-01
6.052719e+07 -1.015198e+00 -1.276855e-01 5.325302e-06 -4.128087e-06 -2.123974e-05 6.185845e-06 9.658203e-01 1.221924e-01
6.074500e+07 -1.014954e+00 -1.276245e-01 2.987310e-05 1.436472e-05 -2.071261e-06 -2.978556e-05 9.656372e-01 1.232910e-01
6.096281e+07 -1.015381e+00 -1.281128e-01 -8.266419e-06 -1.066923e-05 -2.102554e-05 -2.903305e-05 9.660645e-01 1.240234e-01
6.118062e+07 -1.017456e+00 -1.289673e-01 -8.125603e-05 7.197261e-06 2.851523e-05 -1.095980e-05 9.641113e-01 1.256104e-01
6.139844e+07 -1.017029e+00 -1.267700e-01 -4.411116e-05 -2.364069e-05 -9.955838e-06 3.526360e-05 9.639893e-01 1.267700e-01
6.161625e+07 -1.017700e+00 -1.279907e-01 3.669225e-05 2.220273e-06 -6.195158e-06 5.543604e-05 9.631958e-01 1.269531e-01
6.183406e+07 -1.017822e+00 -1.263428e-01 4.627742e-06 1.336914e-05 -2.568588e-05 4.039519e-05 9.625854e-01 1.287842e-01
6.205188e+07 -1.017517e+00 -1.271973e-01 4.580989e-05 1.105666e-05 -8.247793e-06 -2.139620e-05 9.628296e-01 1.284790e-01
6.226969e+07 -1.017822e+00 -1.264038e-01 -9.770039e-06 6.386545e-06 -1.434237e-05 -1.676474e-05 9.614258e-01 1.299438e-01
6.248750e+07 -1.018188e+00 -1.270142e-01 -1.000147e-05 -1.152232e-05 3.436580e-05 -5.391985e-05 9.615479e-01 1.306152e-01
6.270531e+07 -1.018799e+00 -1.263428e-01 -2.188608e-07 -1.792982e-05 -4.466623e-06 4.968047e-05 9.613037e-01 1.321411e-01
6.292312e+07 -1.018188e+00 -1.262207e-01 1.398847e-05 -2.887845e-05 -3.768504e-05 -7.459894e-06 9.612427e-01 1.323853e-01
6.314094e+07 -1.018799e+00 -1.259155e-01 -9.317882e-07 -2.680812e-06 -1.411140e-05 -8.046627e-07 9.608765e-01 1.334229e-01
6.335875e+07 -1.018127e+00 -1.244507e-01 -1.862179e-06 -5.361624e-06 -2.308749e-06 2.533430e-06 9.603882e-01 1.340332e-01
6.357656e+07 -1.018555e+00 -1.256714e-01 2.124161e-05 -2.542883e-05 2.341717e-05 1.300871e-05 9.609985e-01 1.354980e-01
6.379438e+07 -1.018433e+00 -1.240234e-01 -1.493655e-05 2.622977e-05 -1.864508e-05 -2.438016e-05 9.596558e-01 1.364746e-01
6.401219e+07 -1.017700e+00 -1.244507e-01 8.167233e-06 6.188173e-06 -4.612654e-05 2.202764e-05 9.599609e-01 1.374512e-01
6.423000e+07 -1.018127e+00 -1.233521e-01 -6.585568e-05 -1.626462e-05 4.248135e-05 2.472848e-05 9.596558e-01 1.385498e-01
6.444781e+07 -1.017639e+00 -1.236572e-01 -3.125519e-05 -5.536526e-05 -2.669729e-05 4.353747e-05 9.589844e-01 1.396484e-01
6.466562e+07 -1.017578e+00 -1.231689e-01 2.571195e-05 -3.000908e-05 -2.269633e-05 3.510714e-05 9.588013e-01 1.403198e-01
6.488344e+07 -1.018372e+00 -1.230469e-01 2.244487e-05 -4.777685e-06 -3.482774e-05 1.574308e-05 9.586792e-01 1.416016e-01
6.510125e+07 -1.017700e+00 -1.226196e-01 1.102686e-05 -5.509332e-05 -3.541633e-05 3.476255e-05 9.588013e-01 1.425171e-01
6.531906e+07 -1.018433e+00 -1.226196e-01 1.645647e-06 -1.263432e-05 1.359358e-05 -5.376711e-05 9.583130e-01 1.439209e-01
6.553688e+07 -1.016785e+00 -1.217651e-01 -5.057082e-05 -6.563962e-06 -9.622425e-06 -2.828799e-05 9.584961e-01 1.443481e-01
6.575469e+07 -1.018005e+00 -1.215820e-01 2.550520e-05 2.133660e-05 2.420135e-05 1.642853e-05 9.580688e-01 1.457520e-01
6.597250e+07 -1.017700e+00 -1.210327e-01 -4.877150e-05 -1.221895e-06 -3.460422e-05 -1.934916e-05 9.584351e-01 1.470337e-01
6.619031e+07 -1.017395e+00 -1.207886e-01 -4.455913e-06 4.566740e-06 -1.400802e-05 -7.146969e-06 9.573364e-01 1.474609e-01
6.640812e+07 -1.017029e+00 -1.213379e-01 7.107481e-05 -2.160668e-05 1.400989e-05 7.155351e-06 9.573975e-01 1.489258e-01
6.662594e+07 -1.016907e+00 -1.209717e-01 3.258325e-05 6.804243e-06 -1.318101e-05 -1.013186e-05 9.566040e-01 1.497192e-01
6.684375e+07 -1.016479e+00 -1.205444e-01 -1.455471e-05 -7.039867e-06 2.323999e-06 -2.551824e-06 9.574585e-01 1.504517e-01
6.706156e+07 -1.016479e+00 -1.208496e-01 8.702278e-06 -2.722628e-05 -2.100505e-05 4.833564e-07 9.565430e-01 1.515503e-01
6.727938e+07 -1.016113e+00 -1.198730e-01 -1.361221e-05 -4.346482e-06 -1.433119e-05 2.805889e-05 9.559326e-01 1.524658e-01
6.749719e+07 -1.016052e+00 -1.180420e-01 -3.265962e-05 -6.815419e-06 7.806346e-06 -1.064595e-05 9.570923e-01 1.530762e-01
6.771500e+07 -1.016357e+00 -1.185303e-01 2.516992e-05 -1.481734e-05 3.809109e-07 -1.274981e-05 9.577026e-01 1.542969e-01
6.793281e+07 -1.016602e+00 -1.184692e-01 4.325807e-05 -1.502410e-05 -2.730265e-05 3.412366e-05 9.564819e-01 1.553955e-01
6.815062e+07 -1.015259e+00 -1.178589e-01 6.254390e-05 5.554408e-06 1.868233e-06 -1.233537e-05 9.562378e-01 1.566772e-01
6.836844e+07 -1.015686e+00 -1.178589e-01 -2.371147e-06 2.810732e-05 1.113862e-06 1.318380e-05 9.563599e-01 1.575317e-01
6.858625e+07 -1.014709e+00 -1.178589e-01 -2.354756e-05 2.134591e-06 -1.165364e-05 1.280289e-05 9.563599e-01 1.575317e-01
6.880406e+07 -1.014709e+00 -1.179810e-01 5.703047e-05 -1.066551e-05 2.163276e-05 -1.965556e-05 9.562378e-01 1.599731e-01
6.902188e+07 -1.014404e+00 -1.168213e-01 1.979806e-05 -1.296028e-05 3.495440e-05 -3.846176e-05 9.563599e-01 1.600952e-01
6.923969e+07 -1.013855e+00 -1.166992e-01 2.097338e-06 2.357922e-05 2.059713e-05 -6.184354e-05 9.561768e-01 1.620483e-01
6.945750e+07 -1.014099e+00 -1.162720e-01 -4.690886e-05 -4.751980e-05 4.077703e-05 -3.045239e-05 9.558105e-01 1.618042e-01
6.967531e+07 -1.013123e+00 -1.172485e-01 4.709698e-06 1.356844e-05 1.240335e-05 1.316611e-05 9.559326e-01 1.634521e-01
6.989312e+07 -1.013733e+00 -1.159668e-01 -1.298822e-05 -1.983717e-05 -2.750196e-05 -3.997050e-05 9.564819e-01 1.643066e-01
7.011094e+07 -1.012573e+00 -1.166382e-01 -3.541261e-05 3.162771e-06 -1.297519e-05 -4.558638e-05 9.557495e-01 1.653442e-01
7.032875e+07 -1.012451e+00 -1.163940e-01 -2.314150e-05 -3.155135e-05 2.411194e-05 3.390014e-07 9.560547e-01 1.663818e-01
7.054656e+07 -1.012878e+00 -1.157227e-01 8.263625e-06 6.264076e-06 2.554245e-05 2.979673e-05 9.556274e-01 1.677856e-01
7.076438e+07 -1.011597e+00 -1.156616e-01 2.340227e-05 -2.034009e-05 1.393631e-05 1.360290e-05 9.562988e-01 1.685181e-01
7.098219e+07 -1.010803e+00 -1.157227e-01 2.128258e-05 2.610683e-05 1.253281e-05 -1.585204e-05 9.555664e-01 1.688232e-01
7.120000e+07 -1.010742e+00 -1.145630e-01 -1.965836e-05 -3.890134e-05 1.497101e-05 4.204921e-06 9.559937e-01 1.699829e-01
7.141781e+07 -1.011108e+00 -1.147461e-01 -1.179054e-06 -2.093427e-05 -3.017113e-05 -2.000481e-06 9.556274e-01 1.716919e-01
7.163562e+07 -1.009766e+00 -1.147461e-01 1.632888e-05 -5.680136e-06 2.349913e-05 4.866347e-05 9.561157e-01 1.717529e-01
7.185344e+07 -1.008789e+00 -1.145020e-01 -8.765608e-06 2.746098e-05 6.265007e-06 1.793634e-05 9.559326e-01 1.727905e-01
7.207125e+07 -1.009216e+00 -1.134033e-01 -8.287840e-06 -6.278045e-06 -5.528796e-06 8.157920e-06 9.558716e-01 1.740112e-01
7.228906e+07 -1.008301e+00 -1.136475e-01 1.634751e-05 -5.689450e-06 1.122989e-05 -2.273917e-05 9.560547e-01 1.746216e-01
7.250688e+07 -1.008057e+00 -1.139526e-01 -4.910305e-05 1.704320e-05 1.867302e-07 -6.424729e-06 9.561768e-01 1.761475e-01
7.272469e+07 -1.008057e+00 -1.136475e-01 7.849187e-06 -3.022514e-05 1.521036e-05 -2.209097e-06 9.560547e-01 1.773682e-01
7.294250e+07 -1.007935e+00 -1.135254e-01 -5.455315e-05 1.896918e-05 -2.998672e-05 -3.760122e-05 9.561768e-01 1.774902e-01
7.316031e+07 -1.006714e+00 -1.132812e-01 -1.827907e-05 2.440065e-07 1.506880e-05 5.609915e-05 9.566650e-01 1.784668e-01
7.337812e+07 -1.006470e+00 -1.129761e-01 -6.409362e-06 -8.326024e-07 -5.918741e-05 2.872199e-06 9.562988e-01 1.797485e-01
7.359594e+07 -1.006165e+00 -1.141968e-01 2.616085e-06 -1.009181e-05 -4.222617e-06 -3.690459e-05 9.565430e-01 1.806641e-01
7.381375e+07 -1.004883e+00 -1.136475e-01 1.948141e-05 2.080575e-05 1.137611e-05 -5.215406e-08 9.571533e-01 1.817627e-01
7.403156e+07 -1.005432e+00 -1.129761e-01 -9.741634e-06 -4.566088e-05 3.311783e-06 1.717359e-05 9.573364e-01 1.828003e-01
7.424938e+07 -1.004028e+00 -1.132812e-01 1.997314e-05 -1.306273e-05 -3.370829e-05 -4.195608e-05 9.564819e-01 1.837158e-01
7.446719e+07 -1.003540e+00 -1.128540e-01 -1.902785e-05 1.580268e-05 -8.605421e-06 -4.466623e-05 9.566040e-01 1.845093e-01
7.468500e+07 -1.003052e+00 -1.127319e-01 4.210323e-05 -2.369285e-06 -6.029382e-06 -1.689885e-06 9.568481e-01 1.848755e-01
7.490281e+07 -1.002380e+00 -1.130981e-01 2.190657e-05 -7.601455e-06 -1.853332e-07 6.454997e-06 9.572754e-01 1.868286e-01
7.512062e+07 -1.001892e+00 -1.127319e-01 -1.426786e-05 2.952665e-05 -6.218441e-06 4.763249e-06 9.572754e-01 1.868286e-01
7.533844e+07 -1.001343e+00 -1.135864e-01 4.788488e-05 1.404807e-05 -3.308617e-05 1.349486e-05 9.577637e-01 1.883545e-01
7.555625e+07 -1.001221e+00 -1.129150e-01 4.649162e-05 -2.535433e-05 6.225426e-06 -4.770700e-06 9.583130e-01 1.893921e-01
7.577406e+07 -1.001404e+00 -1.123657e-01 2.691709e-05 2.442487e-05 -9.559095e-06 -1.244899e-05 9.580078e-01 1.899414e-01
7.599188e+07 -9.997559e-01 -1.128540e-01 -1.119263e-05 -1.454912e-05 -3.684312e-06 -4.292466e-06 9.581909e-01 1.913452e-01
7.620969e+07 -9.985962e-01 -1.124878e-01 1.072325e-05 -2.218410e-05 4.893169e-06 -1.166202e-05 9.584961e-01 1.915894e-01
7.642750e+07 -9.979248e-01 -1.134033e-01 2.386980e-05 -2.166256e-06 -6.522052e-06 -1.160707e-05 9.594727e-01 1.921997e-01
7.664531e+07 -9.982910e-01 -1.123047e-01 1.955405e-05 -4.988164e-05 -1.731236e-05 -8.101575e-06 9.589233e-01 1.934204e-01
7.686312e+07 -9.978638e-01 -1.129761e-01 2.528541e-05 -3.341772e-05 3.772229e-05 -1.228601e-05 9.588013e-01 1.935425e-01
7.708094e+07 -9.968262e-01 -1.127319e-01 3.244728e-05 -4.820898e-05 4.056282e-05 -4.967675e-06 9.586792e-01 1.947021e-01
7.729875e+07 -9.952393e-01 -1.124268e-01 -2.485514e-05 -5.904585e-07 -5.025417e-06 -1.119450e-05 9.597168e-01 1.953735e-01
7.751656e+07 -9.951172e-01 -1.127930e-01 6.883964e-05 -1.475960e-05 2.877228e-05 8.048490e-06 9.601440e-01 1.965332e-01
7.773438e+07 -9.949951e-01 -1.134033e-01 4.302338e-05 -1.803786e-05 -5.878974e-06 -8.183997e-06 9.595337e-01 1.970825e-01
7.795219e+07 -9.942017e-01 -1.134644e-01 8.377247e-06 6.332062e-06 -2.546795e-05 9.205192e-06 9.603271e-01 1.976318e-01
7.817000e+07 -9.938354e-01 -1.130981e-01 -4.788861e-06 -1.375470e-05 6.966293e-06 -3.075227e-05 9.598389e-01 1.990967e-01
7.838781e+07 -9.927979e-01 -1.132812e-01 -1.149811e-05 -3.301911e-05 7.402617e-06 8.614268e-06 9.601440e-01 1.994019e-01
7.860562e+07 -9.920654e-01 -1.136475e-01 -3.207661e-05 1.425855e-05 2.571940e-05 -4.514307e-05 9.604492e-01 2.004395e-01
7.882344e+07 -9.908447e-01 -1.140137e-01 -7.427763e-06 -3.593508e-06 5.465001e-06 -3.118254e-05 9.610596e-01 2.014771e-01
7.904125e+07 -9.904175e-01 -1.137085e-01 -2.134033e-05 -8.016825e-06 7.767696e-06 -4.372559e-06 9.615479e-01 2.019043e-01
7.925906e+07 -9.901733e-01 -1.143799e-01 3.163889e-05 -5.122274e-05 1.906790e-05 2.052635e-06 9.619751e-01 2.036133e-01
7.947688e+07 -9.893799e-01 -1.149902e-01 1.424924e-06 -3.142841e-05 -1.165923e-05 6.563962e-06 9.617920e-01 2.043457e-01
7.969469e+07 -9.888306e-01 -1.154175e-01 -2.616085e-05 -2.183579e-05 -4.628673e-06 2.820231e-05 9.627686e-01 2.048950e-01
7.991250e+07 -9.885254e-01 -1.158447e-01 1.667067e-06 -1.296122e-05 7.600524e-06 2.129003e-06 9.629517e-01 2.050171e-01
8.013031e+07 -9.879761e-01 -1.143188e-01 -1.175608e-05 1.956057e-05 -4.740199e-06 5.234964e-06 9.624634e-01 2.066650e-01
8.034812e+07 -9.871826e-01 -1.151123e-01 -5.522277e-06 1.922715e-06 -4.430301e-06 2.172031e-05 9.633179e-01 2.070923e-01
8.056594e+07 -9.871216e-01 -1.145630e-01 -2.017803e-05 1.322851e-05 3.705733e-05 2.017617e-05 9.637451e-01 2.078247e-01
8.078375e+07 -9.856567e-01 -1.156006e-01 -1.272559e-05 1.682900e-05 2.416410e-05 1.332536e-05 9.636841e-01 2.083740e-01
8.100156e+07 -9.852905e-01 -1.156006e-01 4.473701e-05 2.159551e-05 -9.182841e-06 2.698973e-05 9.643555e-01 2.088623e-01
8.121938e+07 -9.841919e-01 -1.154785e-01 4.808977e-05 -4.351139e-06 -2.406538e-06 3.216602e-05 9.639893e-01 2.103882e-01
8.143719e+07 -9.838867e-01 -1.163940e-01 1.907349e-06 -6.581098e-05 6.162375e-05 2.052635e-05 9.645996e-01 2.110596e-01
8.165500e+07 -9.828491e-01 -1.166382e-01 -3.037229e-05 -5.148724e-05 4.259497e-05 -4.067272e-05 9.652100e-01 2.106934e-01
8.187281e+07 -9.825439e-01 -1.163940e-01 -1.159124e-05 -3.322586e-05 -5.437434e-05 7.693097e-05 9.655151e-01 2.113647e-01
8.209062e+07 -9.817505e-01 -1.168213e-01 6.438047e-05 2.415478e-05 4.930422e-06 -1.178682e-05 9.663696e-01 2.120972e-01
8.230844e+07 -9.817505e-01 -1.174927e-01 1.614541e-05 2.854131e-05 -2.177432e-06 -3.354065e-05 9.656372e-01 2.131958e-01
8.252625e+07 -9.810791e-01 -1.181030e-01 -3.181770e-05 5.146861e-05 7.143710e-06 -7.894356e-06 9.660645e-01 2.145996e-01
8.274406e+07 -9.796753e-01 -1.184692e-01 1.906790e-05 3.685243e-05 1.346692e-05 -7.198751e-05 9.661255e-01 2.141724e-01
8.296188e+07 -9.792480e-01 -1.184692e-01 -9.665266e-06 -2.772175e-05 4.213490e-05 -2.120435e-05 9.663696e-01 2.149048e-01
8.317969e+07 -9.780273e-01 -1.187744e-01 1.470838e-05 -1.132861e-05 3.244728e-05 -4.133210e-06 9.659424e-01 2.163086e-01
8.339750e+07 -9.775391e-01 -1.191406e-01 1.667440e-05 6.579608e-05 8.130446e-06 4.182383e-05 9.675293e-01 2.169800e-01
8.361531e+07 -9.773560e-01 -1.200562e-01 1.691282e-05 1.277588e-05 -3.995001e-05 -4.533678e-06 9.674683e-01 2.172241e-01
8.383312e+07 -9.760132e-01 -1.201782e-01 -6.519724e-06 -8.372590e-07 -3.401190e-05 3.719702e-06 9.681396e-01 2.174072e-01
8.405094e+07 -9.764404e-01 -1.215820e-01 -3.262982e-05 -4.200265e-06 3.699213e-06 3.405847e-05 9.688721e-01 2.185669e-01
8.426875e+07 -9.751587e-01 -1.201172e-01 1.668744e-05 -5.822629e-06 -3.362074e-07 -1.659710e-05 9.700928e-01 2.192383e-01
8.448656e+07 -9.738770e-01 -1.212158e-01 -9.046495e-05 -8.948147e-06 8.666888e-06 2.222881e-05 9.694824e-01 2.189331e-01
8.470438e+07 -9.739380e-01 -1.211548e-01 3.143959e-05 -1.720525e-05 1.075678e-05 -2.674386e-05 9.700928e-01 2.200317e-01
8.492219e+07 -9.736938e-01 -1.219482e-01 -8.476432e-06 -6.404705e-06 -1.655240e-05 1.192372e-05 9.702759e-01 2.208862e-01
8.514000e+07 -9.719849e-01 -1.221313e-01 2.688728e-05 -1.250021e-05 7.322058e-06 1.525879e-05 9.710083e-01 2.218628e-01
8.535781e+07 -9.721680e-01 -1.231079e-01 2.323836e-05 -5.006790e-06 3.748573e-06 4.353933e-06 9.708862e-01 2.212524e-01
8.557562e+07 -9.710693e-01 -1.234741e-01 1.282152e-05 -1.697522e-05 -1.157634e-05 -2.970546e-05 9.711914e-01 2.225952e-01
8.579344e+07 -9.713745e-01 -1.245728e-01 -1.644716e-05 2.449006e-05 -1.037493e-06 9.648968e-06 9.711304e-01 2.228394e-01
8.601125e+07 -9.693604e-01 -1.244507e-01 -2.566539e-05 3.399327e-05 1.432467e-05 1.392234e-05 9.719849e-01 2.233887e-01
8.622906e+07 -9.692993e-01 -1.245117e-01 4.606554e-06 -4.734378e-06 2.374873e-05 -1.990050e-05 9.722290e-01 2.243042e-01
8.644688e+07 -9.683228e-01 -1.254272e-01 2.594106e-05 -1.532026e-05 -6.143004e-06 -6.133318e-05 9.722290e-01 2.241211e-01
8.666469e+07 -9.678345e-01 -1.257935e-01 2.660789e-06 -1.031999e-05 1.385063e-05 -2.596900e-05 9.724731e-01 2.250977e-01
8.688250e+07 -9.682007e-01 -1.272583e-01 3.899448e-06 1.117401e-05 2.602860e-05 -1.597404e-05 9.733887e-01 2.258911e-01
8.710031e+07 -9.674683e-01 -1.278076e-01 5.612895e-05 -8.083880e-07 -2.876669e-05 3.181398e-05 9.736328e-01 2.256470e-01
8.731812e+07 -9.660034e-01 -1.277466e-01 3.282167e-05 4.218891e-06 3.660098e-05 2.346002e-05 9.735718e-01 2.266235e-01
8.753594e+07 -9.660034e-01 -1.282349e-01 3.131665e-05 -3.601238e-05 -7.196795e-06 7.958151e-06 9.736938e-01 2.269287e-01
8.775375e+07 -9.658203e-01 -1.289062e-01 -1.607742e-05 -1.008250e-05 -1.661666e-05 -1.791492e-05 9.754028e-01 2.277832e-01
8.797156e+07 -9.649658e-01 -1.293335e-01 3.688782e-05 -3.802031e-05 1.748186e-05 -1.508091e-05 9.742432e-01 2.269287e-01
8.818938e+07 -9.642944e-01 -1.303711e-01 -7.983297e-06 3.107637e-05 -2.402579e-06 2.655317e-06 9.758301e-01 2.280273e-01
8.840719e+07 -9.631958e-01 -1.309814e-01 1.948141e-05 -1.623854e-05 2.399459e-05 3.371388e-06 9.763184e-01 2.289429e-01
8.862500e+07 -9.628906e-01 -1.306152e-01 -1.341850e-05 -2.046488e-05 2.383813e-05 9.950250e-06 9.759521e-01 2.301025e-01
8.884281e+07 -9.633789e-01 -1.317749e-01 1.148228e-05 1.485832e-05 -1.212582e-06 1.631584e-05 9.765015e-01 2.297974e-01
8.906062e+07 -9.625244e-01 -1.319580e-01 9.527896e-06 9.250827e-06 1.442432e-05 4.396588e-05 9.765015e-01 2.299194e-01
8.927844e+07 -9.617920e-01 -1.333618e-01 2.511404e-05 -1.822226e-05 -1.877919e-05 6.140396e-05 9.771118e-01 2.304077e-01
8.949625e+07 -9.612427e-01 -1.333618e-01 8.016825e-06 -3.117137e-05 3.936701e-05 -1.570024e-05 9.780273e-01 2.313843e-01
8.971406e+07 -9.605713e-01 -1.343994e-01 -4.266575e-05 4.012138e-05 1.495890e-05 -5.833805e-06 9.774780e-01 2.309570e-01
8.993188e+07 -9.598999e-01 -1.346436e-01 3.566965e-05 -6.161630e-06 -3.661960e-05 2.982281e-05 9.780884e-01 2.318115e-01
9.014969e+07 -9.591675e-01 -1.354370e-01 4.400685e-05 -1.852214e-05 -2.081785e-05 -9.121373e-06 9.790649e-01 2.327881e-01
9.036750e+07 -9.584351e-01 -1.354370e-01 8.570030e-06 6.468967e-06 4.557520e-05 -1.404434e-05 9.790039e-01 2.328491e-01
9.058531e+07 -9.589233e-01 -1.373901e-01 1.267530e-05 -3.599748e-05 -2.377853e-05 1.343153e-05 9.793701e-01 2.330933e-01
9.080312e+07 -9.578247e-01 -1.372070e-01 -1.714379e-05 -1.294818e-05 3.952533e-06 -3.229640e-05 9.786987e-01 2.336426e-01
9.102094e+07 -9.571533e-01 -1.380005e-01 -4.122406e-05 -4.558265e-05 -1.376495e-06 2.299994e-05 9.797363e-01 2.332764e-01
9.123875e+07 -9.570312e-01 -1.388550e-01 3.378466e-05 -1.182407e-05 2.430193e-05 -3.287569e-06 9.801636e-01 2.338867e-01
9.145656e+07 -9.567871e-01 -1.398315e-01 1.351908e-05 2.055615e-05 8.103438e-06 1.897383e-05 9.801025e-01 2.334595e-01
9.167438e+07 -9.562988e-01 -1.408081e-01 -3.015064e-05 4.194677e-06 -7.429160e-06 1.465995e-05 9.802856e-01 2.346802e-01
9.189219e+07 -9.553833e-01 -1.405029e-01 8.050352e-06 -3.129244e-05 3.848597e-05 2.406165e-05 9.812622e-01 2.348022e-01
9.211000e+07 -9.552612e-01 -1.419067e-01 -6.624032e-06 -8.451752e-07 -3.090873e-05 -1.529604e-05 9.809570e-01 2.346802e-01
9.232781e+07 -9.536133e-01 -1.423340e-01 2.682209e-07 1.890492e-05 4.106946e-05 1.476891e-05 9.816284e-01 2.357178e-01
9.254562e+07 -9.548340e-01 -1.423950e-01 1.722388e-05 1.298729e-05 3.803521e-05 1.388602e-05 9.823608e-01 2.355957e-01
9.276344e+07 -9.537964e-01 -1.437378e-01 1.084432e-05 3.106520e-05 -2.454408e-05 9.933487e-06 9.819946e-01 2.366333e-01
9.298125e+07 -9.530029e-01 -1.441040e-01 5.941838e-06 1.695007e-05 -2.055988e-05 -2.247840e-05 9.829102e-01 2.360229e-01
9.319906e+07 -9.530029e-01 -1.448975e-01 4.518777e-05 -1.578033e-05 -1.158193e-05 2.360158e-05 9.819336e-01 2.367554e-01
9.341688e+07 -9.528198e-01 -1.458740e-01 2.756342e-05 6.217510e-06 -3.391132e-05 -2.283230e-05 9.830933e-01 2.366333e-01
9.363469e+07 -9.524536e-01 -1.473999e-01 1.274049e-06 2.178550e-05 -1.722947e-06 -2.397411e-05 9.837646e-01 2.371216e-01
9.385250e+07 -9.511719e-01 -1.476440e-01 1.695938e-06 -1.328345e-05 -2.422184e-05 -6.375089e-05 9.824219e-01 2.372437e-01
9.407031e+07 -9.512939e-01 -1.489258e-01 -2.265722e-05 7.918105e-06 -1.298264e-05 -1.368765e-05 9.840698e-01 2.382202e-01
9.428812e+07 -9.512329e-01 -1.479492e-01 -1.472794e-05 3.058463e-05 3.327429e-05 1.928024e-05 9.840698e-01 2.377319e-01
9.450594e+07 -9.503784e-01 -1.492310e-01 9.633135e-06 9.335577e-06 1.763552e-05 -4.549325e-05 9.838867e-01 2.375488e-01
9.472375e+07 -9.505005e-01 -1.499023e-01 -7.250533e-05 -2.556294e-05 4.133210e-06 -3.919005e-05 9.837646e-01 2.393188e-01
9.494156e+07 -9.500732e-01 -1.514893e-01 3.404357e-05 -1.190417e-05 9.885989e-06 1.282897e-05 9.850464e-01 2.393799e-01
9.515938e+07 -9.501953e-01 -1.510010e-01 1.855940e-05 3.485568e-05 3.523566e-05 6.396323e-06 9.840088e-01 2.387085e-01
9.537719e+07 -9.491577e-01 -1.527100e-01 -5.703419e-05 8.158386e-07 2.601929e-05 2.742186e-05 9.851074e-01 2.399902e-01
9.559500e+07 -9.490356e-01 -1.529541e-01 1.078472e-05 -4.201755e-05 -5.724374e-06 8.507632e-06 9.852295e-01 2.392578e-01
9.581281e+07 -9.492798e-01 -1.549683e-01 -2.470240e-05 2.264977e-06 9.888783e-06 4.318915e-05 9.855347e-01 2.396851e-01
9.603062e+07 -9.484863e-01 -1.550903e-01 -1.803413e-05 3.118999e-06 6.779097e-06 1.198798e-05 9.855347e-01 2.398682e-01
9.624844e+07 -9.486084e-01 -1.563721e-01 -3.511086e-05 9.085983e-06 3.825128e-05 1.401640e-05 9.860229e-01 2.399292e-01
9.646625e+07 -9.470825e-01 -1.561890e-01 -2.103858e-05 -5.410984e-06 2.796575e-05 -1.582503e-05 9.860229e-01 2.404785e-01
9.668406e+07 -9.475708e-01 -1.580811e-01 1.932960e-05 1.874939e-05 -1.494214e-05 -3.112480e-05 9.855347e-01 2.400513e-01
9.690188e+07 -9.468384e-01 -1.573486e-01 2.105348e-05 5.392358e-06 4.660338e-06 -2.903864e-05 9.863892e-01 2.401733e-01
9.711969e+07 -9.464111e-01 -1.588135e-01 8.686911e-06 6.547198e-06 4.868209e-05 -2.357736e-05 9.868774e-01 2.409058e-01
9.733750e+07 -9.467773e-01 -1.593628e-01 2.577156e-05 5.625188e-07 6.591901e-06 -4.203245e-05 9.868164e-01 2.410889e-01
9.755531e+07 -9.460449e-01 -1.600342e-01 1.010671e-05 -2.590939e-05 6.626360e-06 1.870189e-05 9.861450e-01 2.413940e-01
9.777312e+07 -9.453735e-01 -1.609497e-01 2.350472e-05 -2.422184e-05 -7.658266e-06 -8.868985e-06 9.862061e-01 2.412109e-01
9.799094e+07 -9.466553e-01 -1.614990e-01 2.154149e-05 -2.997555e-05 -1.545250e-05 4.978850e-05 9.878540e-01 2.416992e-01
9.820875e+07 -9.454346e-01 -1.627197e-01 1.482666e-05 -3.081188e-05 5.394220e-06 -2.551824e-05 9.866943e-01 2.414551e-01
9.842656e+07 -9.457397e-01 -1.632080e-01 3.461912e-05 -4.738197e-05 3.704801e-06 4.158914e-05 9.867554e-01 2.413330e-01
9.864438e+07 -9.451294e-01 -1.641235e-01 2.783723e-05 6.269664e-06 1.050904e-05 5.363300e-05 9.871826e-01 2.420654e-01
9.886219e+07 -9.456177e-01 -1.654663e-01 3.994443e-06 1.141895e-05 -2.217107e-05 6.183982e-07 9.867554e-01 2.424927e-01
9.908000e+07 -9.445190e-01 -1.650391e-01 -1.885183e-05 1.943018e-05 -1.219288e-05 1.353770e-05 9.873657e-01 2.427368e-01
9.929781e+07 -9.438477e-01 -1.661377e-01 -2.314150e-05 -1.115352e-05 -7.482246e-06 1.483783e-05 9.870605e-01 2.432251e-01
9.951562e+07 -9.445190e-01 -1.674194e-01 -2.924353e-07 -1.915079e-05 1.448393e-05 -9.536743e-06 9.869385e-01 2.426758e-01
9.973344e+07 -9.438477e-01 -1.680298e-01 1.927465e-05 -5.491078e-05 2.358109e-05 6.521121e-06 9.871216e-01 2.431030e-01
9.995125e+07 -9.439087e-01 -1.685181e-01 1.385622e-05 -3.375486e-05 3.161840e-05 1.970679e-06 9.875488e-01 2.432251e-01
1.001691e+08 -9.437256e-01 -1.701050e-01 1.545157e-05 7.429160e-06 3.598630e-05 -1.374632e-05 9.874268e-01 2.429199e-01
1.003869e+08 -9.434814e-01 -1.713257e-01 -1.661107e-05 4.436448e-05 -1.048390e-05 7.256866e-06 9.876709e-01 2.437744e-01
1.006047e+08 -9.436646e-01 -1.717529e-01 -3.434718e-06 2.690963e-05 2.612360e-06 -9.445939e-06 9.873657e-01 2.442017e-01
1.008225e+08 -9.429932e-01 -1.716309e-01 -1.718383e-05 6.036833e-06 9.442214e-06 2.603978e-06 9.880981e-01 2.434082e-01
1.010403e+08 -9.422607e-01 -1.738281e-01 1.276471e-05 1.803320e-05 -1.905393e-05 1.488253e-06 9.875488e-01 2.434082e-01
1.012581e+08 -9.420776e-01 -1.736450e-01 1.176260e-05 1.518149e-05 5.067885e-05 -3.002584e-05 9.877319e-01 2.435913e-01
1.014759e+08 -9.434204e-01 -1.737061e-01 -1.147017e-05 4.017726e-06 5.055219e-06 -1.217797e-05 9.876709e-01 2.443237e-01
1.016938e+08 -9.427490e-01 -1.740112e-01 -2.493709e-05 2.313405e-06 4.209578e-07 4.759058e-05 9.869995e-01 2.437134e-01
1.019116e+08 -9.424438e-01 -1.760864e-01 2.182275e-05 4.388765e-05 -8.022413e-06 3.510714e-05 9.874878e-01 2.444458e-01
1.021294e+08 -9.423218e-01 -1.763306e-01 5.736481e-06 -2.011657e-06 2.135895e-05 2.500601e-06 9.871826e-01 2.445068e-01
1.023472e+08 -9.429932e-01 -1.773682e-01 -8.455478e-06 1.262967e-05 -1.561455e-05 -1.111068e-05 9.866333e-01 2.445068e-01
1.025650e+08 -9.424438e-01 -1.784058e-01 3.976002e-05 2.150610e-05 -1.524109e-05 5.977228e-06 9.866333e-01 2.448730e-01
1.027828e+08 -9.424438e-01 -1.794434e-01 -6.172806e-06 3.762729e-05 1.648813e-05 7.955357e-06 9.868774e-01 2.457886e-01
1.030006e+08 -9.419556e-01 -1.803589e-01 1.953542e-05 1.895055e-05 1.578010e-06 4.366739e-07 9.864502e-01 2.454224e-01
1.032184e+08 -9.417725e-01 -1.809692e-01 2.327561e-05 1.120195e-05 -3.099442e-06 6.030127e-05 9.862671e-01 2.458496e-01
1.034362e+08 -9.416504e-01 -1.819458e-01 7.124618e-07 -1.638662e-05 -2.067909e-05 3.166310e-05 9.864502e-01 2.456665e-01
1.036541e+08 -9.420166e-01 -1.826782e-01 3.082678e-07 1.925882e-05 1.810491e-05 3.901497e-05 9.863281e-01 2.450562e-01
1.038719e+08 -9.421997e-01 -1.831665e-01 1.927000e-05 -3.119931e-07 -3.509596e-05 3.913417e-06 9.868164e-01 2.451782e-01
1.040897e+08 -9.419556e-01 -1.834106e-01 -6.757677e-06 -8.610077e-07 -4.854426e-05 3.421307e-05 9.859619e-01 2.461548e-01
1.043075e+08 -9.420166e-01 -1.843872e-01 1.150463e-05 -4.035421e-06 -1.956522e-05 5.243719e-05 9.862671e-01 2.462158e-01
1.045253e+08 -9.408569e-01 -1.849365e-01 -3.081746e-05 4.341826e-06 1.014210e-05 -2.440810e-05 9.868164e-01 2.465210e-01
1.047431e+08 -9.413452e-01 -1.853027e-01 1.554936e-05 7.472932e-06 3.146939e-05 1.547113e-05 9.856567e-01 2.462769e-01
1.049609e+08 -9.408569e-01 -1.867676e-01 -2.132356e-05 -5.459413e-06 4.797801e-05 2.345443e-05 9.858398e-01 2.473145e-01
1.051788e+08 -9.409790e-01 -1.868896e-01 3.153086e-05 -2.079271e-05 -8.297153e-06 -1.930539e-05 9.861450e-01 2.466431e-01
1.053966e+08 -9.412231e-01 -1.879883e-01 -8.798670e-06 -6.618444e-06 8.236617e-06 -1.134817e-05 9.856567e-01 2.468872e-01
1.056144e+08 -9.408569e-01 -1.884155e-01 5.442649e-06 -2.132729e-05 -2.864376e-05 -1.082197e-06 9.848633e-01 2.468872e-01
1.058322e+08 -9.414062e-01 -1.901245e-01 -1.526903e-05 1.184177e-05 -3.267638e-05 3.185309e-05 9.852905e-01 2.473755e-01
1.060500e+08 -9.412842e-01 -1.901855e-01 -4.604831e-05 -3.888458e-05 -3.504381e-05 -3.353693e-05 9.848633e-01 2.473755e-01
1.062678e+08 -9.416504e-01 -1.912231e-01 -4.743040e-05 -5.986542e-06 -4.751608e-06 -1.311768e-06 9.837036e-01 2.470703e-01
1.064856e+08 -9.411011e-01 -1.916504e-01 2.642162e-05 1.986511e-05 -3.881054e-06 -4.476868e-06 9.840088e-01 2.476807e-01
1.067034e+08 -9.418945e-01 -1.925659e-01 1.012348e-05 2.883933e-05 1.880061e-05 -1.870189e-05 9.833984e-01 2.478638e-01
1.069212e+08 -9.414673e-01 -1.938477e-01 2.744608e-05 2.274662e-05 3.450364e-05 -7.523224e-06 9.830322e-01 2.473755e-01
1.071391e+08 -9.410400e-01 -1.944580e-01 3.091991e-07 1.935288e-05 6.377697e-06 3.248453e-05 9.837036e-01 2.486572e-01
1.073569e+08 -9.413452e-01 -1.956177e-01 -1.187529e-05 -1.530908e-05 8.974224e-06 -7.761177e-06 9.835815e-01 2.489014e-01
1.075747e+08 -9.413452e-01 -1.961670e-01 2.046302e-05 -5.263835e-05 -2.253801e-06 2.668984e-05 9.829102e-01 2.485962e-01
1.077925e+08 -9.412231e-01 -1.968384e-01 -2.384745e-05 2.460741e-05 -2.674386e-05 1.651049e-05 9.829712e-01 2.495728e-01
1.080103e+08 -9.413452e-01 -1.966553e-01 -2.037920e-05 -2.585351e-06 7.693656e-06 -2.177060e-05 9.819336e-01 2.489014e-01
1.082281e+08 -9.417114e-01 -1.981201e-01 -1.728162e-05 -4.914030e-05 1.767091e-05 2.878718e-05 9.821777e-01 2.487183e-01
1.084459e+08 -9.420166e-01 -1.988525e-01 -3.430434e-05 -2.371892e-05 -1.992844e-05 -2.082437e-06 9.822998e-01 2.504272e-01
1.086638e+08 -9.423218e-01 -1.990356e-01 8.517876e-06 -1.273677e-05 8.177012e-06 2.617203e-05 9.812622e-01 2.498169e-01
1.088816e+08 -9.416504e-01 -2.006226e-01 1.023896e-05 -2.635084e-05 -1.132488e-05 -2.705306e-05 9.814453e-01 2.500000e-01
1.090994e+08 -9.428711e-01 -2.009277e-01 -9.858981e-06 -9.532087e-06 -9.933487e-06 -1.983624e-05 9.806519e-01 2.499390e-01
1.093172e+08 -9.422607e-01 -2.010498e-01 -7.130206e-06 -2.025254e-05 -3.002025e-05 -1.511909e-05 9.804077e-01 2.505493e-01
1.095350e+08 -9.418945e-01 -2.012329e-01 -1.290254e-05 -1.821108e-05 2.042018e-05 -1.829863e-05 9.791870e-01 2.508545e-01
1.097528e+08 -9.421997e-01 -2.024536e-01 -6.231666e-05 -1.060963e-05 2.394430e-05 -3.100373e-05 9.802856e-01 2.510986e-01
1.099706e+08 -9.420776e-01 -2.029419e-01 -1.668930e-06 -4.172325e-05 -3.282353e-05 1.220033e-06 9.795532e-01 2.514648e-01
1.101884e+08 -9.429932e-01 -2.036133e-01 5.794223e-06 -2.039596e-06 -1.463387e-05 9.653158e-06 9.795532e-01 2.516479e-01
1.104062e+08 -9.427490e-01 -2.050781e-01 4.777685e-06 -4.936475e-06 -5.153008e-06 -1.853611e-05 9.790649e-01 2.525024e-01
1.106241e+08 -9.426880e-01 -2.047119e-01 -3.369153e-05 -4.030392e-05 3.497116e-06 -1.272187e-05 9.790649e-01 2.534790e-01
1.108419e+08 -9.424438e-01 -2.050781e-01 4.464760e-05 -2.652407e-06 4.528835e-05 -2.176315e-05 9.776001e-01 2.529907e-01
1.110597e+08 -9.432983e-01 -2.062378e-01 2.244462e-10 -4.682477e-10 8.754432e-07 -3.182562e-06 9.776001e-01 2.525024e-01
1.112775e+08 -9.436035e-01 -2.075806e-01 -1.397356e-05 -2.116524e-05 4.097819e-08 3.083982e-05 9.774780e-01 2.531738e-01
1.114953e+08 -9.439697e-01 -2.073975e-01 -7.844530e-06 -3.762543e-06 -8.201227e-06 -2.622791e-05 9.769287e-01 2.533569e-01
1.117131e+08 -9.435425e-01 -2.089233e-01 -3.548525e-05 -2.662279e-05 4.951283e-05 6.806105e-06 9.765015e-01 2.529297e-01
1.119309e+08 -9.438477e-01 -2.089233e-01 -1.094863e-05 4.300475e-05 1.393352e-05 -1.329184e-05 9.766846e-01 2.534790e-01
1.121488e+08 -9.439697e-01 -2.089844e-01 -2.739020e-06 1.075864e-05 3.955141e-05 -1.312420e-05 9.768677e-01 2.540894e-01
1.123666e+08 -9.440308e-01 -2.105713e-01 -1.263339e-05 1.184642e-06 1.705810e-05 -4.327483e-05 9.758911e-01 2.545776e-01
1.125844e+08 -9.442139e-01 -2.103271e-01 9.199604e-06 2.614595e-05 -2.221577e-05 2.473779e-05 9.757690e-01 2.548218e-01
1.128022e+08 -9.445190e-01 -2.116089e-01 1.366250e-05 1.716428e-06 -1.401547e-05 -1.757685e-05 9.751587e-01 2.554932e-01
1.130200e+08 -9.448242e-01 -2.119751e-01 -7.167459e-06 -2.033450e-05 -1.665950e-05 -8.007511e-06 9.746704e-01 2.553101e-01
1.132378e+08 -9.443359e-01 -2.126465e-01 6.508082e-06 -1.861434e-05 1.495704e-05 4.524738e-05 9.738159e-01 2.560425e-01
1.134556e+08 -9.451904e-01 -2.120972e-01 -5.843490e-05 1.017004e-06 4.628673e-06 8.129049e-06 9.735107e-01 2.563477e-01
1.136734e+08 -9.453125e-01 -2.129517e-01 -1.265667e-05 1.193956e-06 1.634005e-05 2.165232e-05 9.736328e-01 2.570190e-01
1.138912e+08 -9.454956e-01 -2.144165e-01 -4.788861e-06 4.958827e-06 2.106186e-05 -7.926486e-06 9.730225e-01 2.567749e-01
1.141091e+08 -9.464111e-01 -2.150269e-01 1.400895e-05 2.122112e-05 6.714091e-05 -1.930445e-05 9.724731e-01 2.580566e-01
1.143269e+08 -9.466553e-01 -2.147217e-01 7.862691e-06 3.763475e-06 3.064610e-05 -5.323440e-06 9.714966e-01 2.581177e-01
1.145447e+08 -9.465332e-01 -2.150879e-01 8.556992e-06 -1.282431e-05 -2.317131e-06 -4.070112e-06 9.711304e-01 2.588501e-01
1.147625e+08 -9.459229e-01 -2.158203e-01 -1.025200e-05 -2.908893e-05 1.029717e-05 6.262213e-06 9.706421e-01 2.590942e-01
1.149803e+08 -9.464111e-01 -2.158203e-01 5.926192e-05 -1.763552e-05 -1.087785e-05 -1.671724e-05 9.710083e-01 2.595215e-01
1.151981e+08 -9.467163e-01 -2.172852e-01 -2.089888e-05 -2.208911e-05 1.111627e-05 4.086085e-05 9.705200e-01 2.595825e-01
1.154159e+08 -9.473267e-01 -2.180786e-01 -2.535805e-05 2.410263e-06 2.269447e-05 -7.523224e-06 9.702759e-01 2.600098e-01
1.156338e+08 -9.475708e-01 -2.184448e-01 -3.462099e-05 3.184564e-05 1.389253e-10 2.443414e-10 9.694824e-01 2.611084e-01
1.158516e+08 -9.476318e-01 -2.185669e-01 -4.461035e-06 2.450682e-05 -5.261041e-06 1.919456e-05 9.689941e-01 2.609253e-01
1.160694e+08 -9.477539e-01 -2.196045e-01 -3.734045e-05 -1.304969e-05 -1.823530e-05 -4.630163e-05 9.683838e-01 2.617188e-01
1.162872e+08 -9.484863e-01 -2.202759e-01 2.254410e-10 -4.709193e-10 -4.240312e-06 9.166077e-06 9.682007e-01 2.617188e-01
1.165050e+08 -9.483643e-01 -2.209473e-01 -2.815574e-05 1.318567e-05 2.168864e-05 2.529472e-06 9.684448e-01 2.631226e-01
1.167228e+08 -9.480591e-01 -2.212524e-01 2.676621e-05 2.008118e-05 4.336052e-05 5.060807e-06 9.678955e-01 2.630615e-01
1.169406e+08 -9.481201e-01 -2.207642e-01 2.677366e-05 2.008863e-05 -5.112030e-06 1.236331e-05 9.675293e-01 2.636719e-01
1.171584e+08 -9.491577e-01 -2.222900e-01 1.340732e-05 -1.784135e-05 1.906976e-05 -5.679950e-05 9.662476e-01 2.645874e-01
1.173762e+08 -9.492188e-01 -2.221680e-01 2.095848e-05 2.217479e-05 -6.407499e-07 -4.155003e-05 9.669189e-01 2.647705e-01
1.175941e+08 -9.494629e-01 -2.227173e-01 -2.851337e-05 -6.364658e-06 -3.318302e-05 -2.979860e-05 9.657593e-01 2.656860e-01
1.178119e+08 -9.500732e-01 -2.222900e-01 1.822785e-05 -2.287328e-05 3.852509e-05 -2.735853e-05 9.660645e-01 2.659912e-01
1.180297e+08 -9.504395e-01 -2.225342e-01 1.718476e-05 -2.579205e-05 -1.917779e-05 -4.320964e-05 9.655151e-01 2.661743e-01
1.182475e+08 -9.504395e-01 -2.232666e-01 1.790375e-05 1.341570e-05 -2.607703e-05 -2.439879e-05 9.656982e-01 2.670898e-01
1.184653e+08 -9.509888e-01 -2.239990e-01 -2.406538e-06 3.047474e-05 -2.480112e-05 -1.026504e-05 9.653320e-01 2.678223e-01
1.186831e+08 -9.512939e-01 -2.241211e-01 6.881543e-06 8.558854e-07 -2.174638e-06 -1.095515e-05 9.639893e-01 2.679443e-01
1.189009e+08 -9.512939e-01 -2.247925e-01 7.363781e-05 3.598630e-06 2.035685e-05 -4.274771e-05 9.633179e-01 2.686768e-01
1.191188e+08 -9.519653e-01 -2.254028e-01 -6.537884e-06 1.876708e-05 3.925711e-05 -5.487725e-05 9.633179e-01 2.694092e-01
1.193366e+08 -9.521484e-01 -2.254639e-01 -3.824010e-05 3.607944e-06 -3.214693e-06 -8.819625e-07 9.627075e-01 2.703857e-01
1.195544e+08 -9.514771e-01 -2.261963e-01 -1.136400e-05 2.378225e-05 5.945563e-06 2.236292e-05 9.626465e-01 2.707520e-01
1.197722e+08 -9.524536e-01 -2.262573e-01 -2.238527e-05 -4.481152e-05 -2.581999e-05 -3.822334e-05 9.617920e-01 2.716675e-01
1.199900e+08 -9.518433e-01 -2.266235e-01 5.167909e-06 1.465064e-05 -7.964671e-06 -4.020520e-05 9.615479e-01 2.723999e-01
1.202078e+08 -9.533691e-01 -2.272949e-01 -1.759082e-05 -4.981831e-05 1.337007e-05 5.214661e-05 9.613647e-01 2.723999e-01
1.204256e+08 -9.525757e-01 -2.273560e-01 1.173001e-05 -4.150905e-06 -1.649372e-05 -2.182834e-05 9.616089e-01 2.728882e-01
1.206434e+08 -9.542847e-01 -2.272949e-01 -2.864376e-05 4.967675e-05 -2.993643e-05 3.336743e-05 9.603271e-01 2.736206e-01
1.208612e+08 -9.533691e-01 -2.279663e-01 -9.335577e-06 -2.641045e-05 -2.430566e-05 2.458692e-07 9.605713e-01 2.742310e-01
1.210791e+08 -9.569092e-01 -2.282104e-01 -2.851710e-05 5.203485e-05 1.918525e-06 -5.882233e-05 9.576416e-01 2.747803e-01
1.212969e+08 -9.551392e-01 -2.292480e-01 -4.283152e-11 -4.903029e-10 2.726726e-05 -9.305775e-06 9.584961e-01 2.752075e-01
1.215147e+08 -9.557495e-01 -2.295532e-01 3.727153e-05 8.866191e-07 1.408532e-05 1.920667e-05 9.573364e-01 2.761230e-01
1.217325e+08 -9.558105e-01 -2.294312e-01 5.128607e-05 4.305691e-05 1.929700e-06 -2.790056e-05 9.567871e-01 2.767334e-01
1.219503e+08 -9.564819e-01 -2.297974e-01 1.417939e-05 -3.298745e-06 -9.365845e-06 3.557652e-06 9.556885e-01 2.777710e-01
1.221681e+08 -9.561157e-01 -2.297974e-01 -9.634532e-06 -1.569930e-05 -4.000217e-05 3.725290e-08 9.558716e-01 2.785034e-01
1.223859e+08 -9.556885e-01 -2.307739e-01 3.746012e-06 -4.463363e-06 2.001692e-05 -1.543760e-05 9.558105e-01 2.791138e-01
1.226038e+08 -9.563599e-01 -2.306519e-01 -2.686493e-05 2.644956e-07 -1.105946e-06 -4.287809e-06 9.552002e-01 2.800903e-01
1.228216e+08 -9.565430e-01 -2.310181e-01 -4.776940e-05 -2.071261e-06 -3.669411e-06 1.238380e-05 9.548950e-01 2.811279e-01
1.230394e+08 -9.575806e-01 -2.307739e-01 -4.097074e-05 -1.920015e-05 3.127195e-05 1.481362e-05 9.542236e-01 2.814331e-01
1.232572e+08 -9.573364e-01 -2.316284e-01 3.276207e-05 1.989678e-05 3.007241e-06 7.232185e-06 9.534912e-01 2.822266e-01
1.234750e+08 -9.567871e-01 -2.318726e-01 1.188368e-06 6.197020e-05 3.652461e-05 -2.682209e-07 9.531860e-01 2.833862e-01
1.236928e+08 -9.567871e-01 -2.313232e-01 -2.902001e-05 -2.440065e-05 -3.081001e-05 9.099022e-06 9.531860e-01 2.835693e-01
1.239106e+08 -9.571533e-01 -2.319946e-01 1.269672e-05 3.042631e-06 2.522022e-06 1.421943e-05 9.534302e-01 2.847900e-01
1.241284e+08 -9.572144e-01 -2.325439e-01 -8.305535e-06 2.349541e-05 7.063150e-05 3.447384e-05 9.520264e-01 2.845459e-01
1.243462e+08 -9.577637e-01 -2.321167e-01 -2.530962e-05 -2.888031e-05 2.213754e-06 8.590519e-06 9.521484e-01 2.860107e-01
1.245641e+08 -9.581299e-01 -2.327271e-01 2.031028e-05 -2.867915e-05 1.903810e-05 2.945215e-05 9.512939e-01 2.872314e-01
1.247819e+08 -9.574585e-01 -2.326660e-01 -1.645926e-05 1.421198e-06 -2.478808e-05 -7.349998e-06 9.515991e-01 2.883301e-01
1.249997e+08 -9.578247e-01 -2.329712e-01 1.269113e-05 3.043562e-06 -8.540228e-06 -2.872385e-05 9.505615e-01 2.886353e-01
1.252175e+08 -9.581299e-01 -2.331543e-01 1.318380e-05 5.686283e-05 -1.147203e-05 1.326669e-05 9.501953e-01 2.895508e-01
1.254353e+08 -9.584351e-01 -2.336426e-01 -2.851710e-06 -3.292225e-05 3.089942e-05 -9.089708e-06 9.505615e-01 2.901611e-01
1.256531e+08 -9.590454e-01 -2.333374e-01 1.645647e-05 -1.426786e-06 1.671817e-05 2.571382e-06 9.493408e-01 2.911987e-01
1.258709e+08 -9.586792e-01 -2.336426e-01 6.712507e-06 5.641486e-06 -1.987070e-05 -2.813712e-05 9.498291e-01 2.921143e-01
1.260888e+08 -9.577637e-01 -2.342529e-01 -1.565181e-05 -1.317170e-05 -5.403999e-06 -3.194204e-06 9.488525e-01 2.936401e-01
1.263066e+08 -9.588623e-01 -2.346191e-01 -2.540834e-05 -6.133690e-06 -6.282702e-06 2.912432e-05 9.481201e-01 2.949829e-01
1.265244e+08 -9.582520e-01 -2.342529e-01 7.532071e-06 -8.948613e-06 2.090354e-05 -1.684017e-05 9.487305e-01 2.951660e-01
1.267422e+08 -9.590454e-01 -2.346191e-01 2.332032e-05 -1.858920e-05 2.816319e-06 1.993868e-05 9.479370e-01 2.968750e-01
1.269600e+08 -9.580688e-01 -2.343140e-01 -1.036748e-05 -2.400205e-05 -3.369339e-05 3.847480e-05 9.473877e-01 2.966919e-01
1.271778e+08 -9.587402e-01 -2.351685e-01 -3.523566e-05 9.797513e-07 2.416596e-05 2.709217e-05 9.484253e-01 2.973633e-01
1.273956e+08 -9.589844e-01 -2.343140e-01 1.047552e-05 1.180917e-06 1.963414e-05 -8.494593e-06 9.465942e-01 2.988892e-01
1.276134e+08 -9.593506e-01 -2.351685e-01 5.393475e-05 -4.805624e-07 9.845011e-06 2.044998e-05 9.468384e-01 2.997437e-01
1.278312e+08 -9.597778e-01 -2.346802e-01 3.216416e-05 1.179054e-05 -2.444908e-05 1.662597e-05 9.465942e-01 3.011475e-01
1.280491e+08 -9.587402e-01 -2.349854e-01 -6.750599e-05 1.201034e-05 -2.577156e-05 -2.438948e-05 9.458618e-01 3.020020e-01
1.282669e+08 -9.588623e-01 -2.355347e-01 5.396083e-06 -3.372505e-05 -1.765322e-05 -1.959223e-05 9.466553e-01 3.023682e-01
1.284847e+08 -9.593506e-01 -2.349854e-01 -1.861900e-05 -2.334081e-05 1.953356e-05 -2.687052e-05 9.459839e-01 3.031616e-01
1.287025e+08 -9.588013e-01 -2.355347e-01 -1.049694e-05 -1.175329e-06 -5.612150e-06 9.484589e-06 9.459839e-01 3.037109e-01
1.289203e+08 -9.587402e-01 -2.360229e-01 -1.510512e-05 1.791399e-05 -9.435229e-06 3.566965e-06 9.451904e-01 3.052979e-01
1.291381e+08 -9.589844e-01 -2.358398e-01 2.392195e-05 1.251325e-05 1.989305e-06 -2.810918e-05 9.445190e-01 3.064575e-01
1.293559e+08 -9.592285e-01 -2.360840e-01 -2.491102e-05 2.499670e-05 2.533011e-05 3.147125e-05 9.443970e-01 3.074341e-01
1.295738e+08 -9.586792e-01 -2.368164e-01 1.850724e-05 4.624203e-05 -5.627517e-06 9.488780e-06 9.440918e-01 3.079834e-01
1.297916e+08 -9.592896e-01 -2.359619e-01 -8.256175e-06 7.008202e-07 -4.338473e-05 2.378039e-05 9.437256e-01 3.095703e-01
1.300094e+08 -9.594727e-01 -2.360229e-01 5.681068e-07 3.114343e-05 2.906658e-06 -1.110788e-05 9.436646e-01 3.103638e-01
1.302272e+08 -9.588623e-01 -2.362061e-01 -3.682077e-05 7.294118e-06 3.567897e-05 -4.533678e-06 9.435425e-01 3.107910e-01
1.304450e+08 -9.598999e-01 -2.365112e-01 -9.800307e-06 7.084571e-06 4.434027e-06 1.730397e-05 9.439697e-01 3.114014e-01
1.306628e+08 -9.594727e-01 -2.372437e-01 -9.527430e-06 -3.873557e-05 -2.509914e-06 -1.433957e-05 9.433594e-01 3.131714e-01
1.308806e+08 -9.578857e-01 -2.366943e-01 -7.438473e-06 -1.393724e-05 -4.182383e-05 2.106652e-05 9.433594e-01 3.135986e-01
1.310984e+08 -9.583130e-01 -2.367554e-01 3.246404e-05 -3.400445e-05 2.766401e-05 9.050593e-06 9.426880e-01 3.133545e-01
1.313162e+08 -9.586792e-01 -2.368164e-01 9.937212e-06 -2.999417e-05 1.278054e-05 9.410083e-06 9.423218e-01 3.152466e-01
1.315341e+08 -9.587402e-01 -2.364502e-01 -2.778135e-05 -8.046627e-06 6.329268e-06 -2.928637e-05 9.430542e-01 3.162231e-01
1.317519e+08 -9.583130e-01 -2.369385e-01 -4.214940e-11 -4.942251e-10 2.355501e-05 -2.568588e-06 9.425659e-01 3.171997e-01
1.319697e+08 -9.583130e-01 -2.374268e-01 -1.206156e-05 5.201437e-06 -4.723668e-06 -2.301112e-05 9.426880e-01 3.175049e-01
1.321875e+08 -9.590454e-01 -2.366943e-01 3.180653e-05 -4.232675e-05 3.811345e-05 2.256222e-05 9.423218e-01 3.190918e-01
1.324053e+08 -9.592285e-01 -2.374268e-01 2.497435e-05 -2.504699e-05 3.732741e-06 -1.250673e-05 9.424438e-01 3.205566e-01
1.326231e+08 -9.577637e-01 -2.369385e-01 2.751499e-05 5.395710e-05 6.861240e-05 5.167350e-05 9.425049e-01 3.212891e-01
1.328409e+08 -9.580078e-01 -2.367554e-01 -2.794527e-05 1.488440e-05 1.198333e-05 1.078099e-05 9.423828e-01 3.233032e-01
1.330588e+08 -9.577637e-01 -2.360229e-01 -4.353002e-06 -2.673827e-05 -2.308749e-05 -4.477799e-06 9.418945e-01 3.236084e-01
1.332766e+08 -9.572754e-01 -2.376099e-01 3.073178e-05 1.822598e-05 4.718080e-06 2.303906e-05 9.412842e-01 3.240356e-01
1.334944e+08 -9.569702e-01 -2.369385e-01 1.068600e-05 -2.176687e-05 1.361221e-05 8.062460e-06 9.418335e-01 3.263550e-01
1.337122e+08 -9.574585e-01 -2.380981e-01 -2.090633e-05 -2.536736e-05 8.288771e-08 1.846533e-05 9.415894e-01 3.267822e-01
1.339300e+08 -9.564819e-01 -2.374878e-01 8.288305e-06 -6.966293e-07 -2.492033e-05 1.098774e-05 9.416504e-01 3.277588e-01
1.341478e+08 -9.564819e-01 -2.369995e-01 -7.237494e-05 8.247793e-06 3.058650e-05 2.916157e-05 9.420776e-01 3.278809e-01
1.343656e+08 -9.570312e-01 -2.376709e-01 -1.953635e-05 -8.786097e-06 6.352551e-06 2.034474e-05 9.417725e-01 3.292236e-01
1.345834e+08 -9.565430e-01 -2.369385e-01 -2.517924e-05 4.808977e-05 -4.339265e-06 1.110137e-06 9.421997e-01 3.305054e-01
1.348012e+08 -9.567871e-01 -2.377319e-01 -2.054684e-05 2.888963e-05 -1.567230e-05 2.019573e-05 9.412231e-01 3.320312e-01
1.350191e+08 -9.562988e-01 -2.379761e-01 -6.048009e-06 2.594665e-06 -8.907169e-06 1.499802e-05 9.413452e-01 3.331299e-01
1.352369e+08 -9.556274e-01 -2.366333e-01 2.264045e-05 -3.997236e-06 -1.778174e-05 -1.974870e-05 9.414062e-01 3.335571e-01
1.354547e+08 -9.542847e-01 -2.371216e-01 -2.126768e-05 2.058409e-05 1.725741e-05 2.681091e-05 9.415283e-01 3.352051e-01
1.356725e+08 -9.548340e-01 -2.376099e-01 -2.560019e-05 -6.211922e-06 -1.871772e-05 1.287181e-05 9.417114e-01 3.356934e-01
1.358903e+08 -9.545898e-01 -2.378540e-01 4.741549e-05 1.690164e-05 3.316812e-05 -6.139278e-06 9.418335e-01 3.365479e-01
1.361081e+08 -9.548340e-01 -2.374878e-01 7.789582e-06 -3.199279e-05 -8.568168e-08 -1.851097e-05 9.415283e-01 3.376465e-01
1.363259e+08 -9.541626e-01 -2.376099e-01 7.447787e-06 1.401640e-05 -1.026317e-06 1.415890e-05 9.422607e-01 3.384399e-01
1.365438e+08 -9.545288e-01 -2.376099e-01 1.592562e-05 -9.704381e-06 4.654285e-06 4.608417e-06 9.421387e-01 3.393555e-01
1.367616e+08 -9.539185e-01 -2.378540e-01 9.168871e-06 -1.541153e-05 2.346747e-05 1.024827e-05 9.418945e-01 3.405151e-01
1.369794e+08 -9.536743e-01 -2.381592e-01 2.096407e-05 2.545305e-05 -1.003640e-05 1.067249e-05 9.419556e-01 3.414917e-01
1.371972e+08 -9.536743e-01 -2.374268e-01 1.141988e-05 -1.350604e-05 2.664141e-05 -1.377054e-05 9.415283e-01 3.421021e-01
1.374150e+08 -9.527588e-01 -2.373047e-01 -2.074987e-06 -2.493151e-05 -7.901341e-06 8.577481e-07 9.417114e-01 3.438110e-01
1.376328e+08 -9.520874e-01 -2.379761e-01 -1.089275e-05 4.485622e-05 1.063431e-05 7.697381e-07 9.420166e-01 3.441162e-01
1.378506e+08 -9.525146e-01 -2.377930e-01 1.889002e-05 5.103648e-07 3.102794e-05 -1.487508e-05 9.427490e-01 3.454590e-01
1.380684e+08 -9.520874e-01 -2.382812e-01 -6.952323e-07 -8.316711e-06 8.147210e-06 5.479157e-05 9.426270e-01 3.462524e-01
1.382862e+08 -9.514160e-01 -2.380981e-01 -8.145347e-06 -2.236664e-05 2.668053e-05 -1.375936e-05 9.424438e-01 3.477173e-01
1.385041e+08 -9.512939e-01 -2.377930e-01 5.368143e-06 -1.092441e-05 -5.204231e-06 5.242601e-05 9.429321e-01 3.475952e-01
1.387219e+08 -9.500732e-01 -2.381592e-01 1.941063e-05 3.189221e-05 2.158247e-05 7.266179e-06 9.424438e-01 3.489380e-01
1.389397e+08 -9.507446e-01 -2.387085e-01 -5.140901e-07 -3.138930e-05 6.291084e-06 1.883600e-06 9.430542e-01 3.500366e-01
1.391575e+08 -9.501953e-01 -2.374268e-01 4.664436e-05 3.179535e-05 2.709217e-05 1.049414e-05 9.432983e-01 3.516846e-01
1.393753e+08 -9.490967e-01 -2.391357e-01 -1.892634e-05 -5.299225e-07 7.085502e-06 6.906688e-05 9.441528e-01 3.522339e-01
1.395931e+08 -9.487305e-01 -2.388916e-01 3.056601e-05 -3.606267e-05 3.107078e-05 -1.488067e-05 9.434204e-01 3.532715e-01
1.398109e+08 -9.484863e-01 -2.389526e-01 6.256625e-06 -2.569146e-05 2.708472e-05 1.055188e-05 9.442749e-01 3.541870e-01
1.400288e+08 -9.477539e-01 -2.385254e-01 5.467609e-05 -2.342090e-05 1.198612e-05 -7.702969e-06 9.447632e-01 3.551025e-01
1.402466e+08 -9.475098e-01 -2.390137e-01 -4.184619e-05 2.655759e-05 2.582930e-05 -3.100559e-05 9.443359e-01 3.560791e-01
1.404644e+08 -9.476929e-01 -2.396851e-01 -2.658553e-05 8.504838e-06 2.601370e-05 6.187707e-06 9.451904e-01 3.571167e-01
1.406822e+08 -9.466553e-01 -2.397461e-01 3.017858e-05 1.010485e-05 -2.459623e-05 3.915280e-06 9.437866e-01 3.584595e-01
1.409000e+08 -9.466553e-01 -2.394409e-01 8.841977e-06 3.075413e-05 1.705904e-05 2.126116e-05 9.450073e-01 3.591919e-01
1.411178e+08 -9.461670e-01 -2.395020e-01 5.964935e-05 -6.583706e-05 -1.585949e-05 1.704320e-06 9.459839e-01 3.596802e-01
1.413356e+08 -9.456787e-01 -2.403564e-01 1.932308e-05 -4.568696e-05 -4.187971e-05 -4.496425e-06 9.456177e-01 3.604736e-01
1.415534e+08 -9.456177e-01 -2.400513e-01 1.894403e-05 5.336478e-07 8.968636e-06 -1.509208e-05 9.460449e-01 3.610840e-01
1.417712e+08 -9.443970e-01 -2.395020e-01 4.174188e-05 -3.457069e-06 1.840200e-05 1.278147e-05 9.469604e-01 3.621216e-01
1.419891e+08 -9.435425e-01 -2.404785e-01 -2.749264e-05 2.327189e-05 2.713874e-05 1.058169e-05 9.462891e-01 3.633423e-01
1.422069e+08 -9.436646e-01 -2.408447e-01 4.713424e-06 -1.930911e-05 -1.937151e-05 -4.869699e-05 9.470825e-01 3.642578e-01
1.424247e+08 -9.431152e-01 -2.401733e-01 -9.744428e-06 -1.602899e-05 1.306459e-05 -2.196431e-05 9.483032e-01 3.652344e-01
1.426425e+08 -9.424438e-01 -2.408447e-01 -5.210750e-06 -1.218077e-05 1.899712e-05 2.431311e-05 9.475098e-01 3.657227e-01
1.428603e+08 -9.418945e-01 -2.411499e-01 5.234778e-05 -2.235174e-06 -1.290813e-05 -9.537674e-06 9.478149e-01 3.662109e-01
1.430781e+08 -9.413452e-01 -2.412109e-01 -4.695728e-05 -8.743256e-06 5.080923e-05 3.955886e-05 9.479370e-01 3.673706e-01
1.432959e+08 -9.415283e-01 -2.415771e-01 -1.924485e-05 -5.518273e-05 -1.322385e-05 -1.530256e-05 9.483032e-01 3.685303e-01
1.435138e+08 -9.406128e-01 -2.418823e-01 -3.838912e-06 4.517613e-06 1.017470e-05 7.913448e-06 9.489136e-01 3.696289e-01
1.437316e+08 -9.399414e-01 -2.424316e-01 2.349168e-05 4.392117e-06 -2.304092e-05 1.175329e-06 9.487305e-01 3.700562e-01
1.439494e+08 -9.395142e-01 -2.421265e-01 1.604576e-05 -9.739771e-06 2.282485e-05 1.170486e-05 9.503174e-01 3.710327e-01
1.441672e+08 -9.385376e-01 -2.416992e-01 4.860759e-05 2.317131e-06 -1.977105e-05 -4.308298e-06 9.502563e-01 3.717041e-01
1.443850e+08 -9.390259e-01 -2.426758e-01 -2.421066e-05 -1.275912e-05 -1.288205e-05 9.106472e-06 9.509277e-01 3.720093e-01
1.446028e+08 -9.373779e-01 -2.422485e-01 2.942048e-06 1.028553e-05 -3.801659e-06 1.263432e-05 9.506836e-01 3.735352e-01
1.448206e+08 -9.368896e-01 -2.426758e-01 1.742970e-05 7.000752e-06 4.163943e-05 -1.989678e-05 9.517822e-01 3.742065e-01
1.450384e+08 -9.369507e-01 -2.432251e-01 3.572181e-05 -8.307397e-07 8.195639e-07 -1.375680e-06 9.517822e-01 3.746338e-01
1.452562e+08 -9.371338e-01 -2.431030e-01 1.084805e-05 -2.194755e-05 -2.315082e-05 -1.750700e-05 9.523926e-01 3.759155e-01
1.454741e+08 -9.354858e-01 -2.430420e-01 -8.364208e-06 6.877817e-07 8.428469e-06 -2.666563e-05 9.522095e-01 3.755493e-01
1.456919e+08 -9.348145e-01 -2.435913e-01 2.477318e-06 -2.127141e-05 1.844577e-05 1.284946e-05 9.524536e-01 3.773804e-01
1.459097e+08 -9.350586e-01 -2.443237e-01 2.194569e-05 1.087412e-05 -2.956949e-07 -5.774200e-06 9.531250e-01 3.783569e-01
1.461275e+08 -9.341431e-01 -2.443848e-01 -9.274110e-06 1.549814e-05 -6.239861e-08 -1.869258e-05 9.534302e-01 3.784180e-01
1.463453e+08 -9.334717e-01 -2.452393e-01 -1.403131e-05 3.484823e-05 -6.329734e-06 -1.906883e-06 9.536743e-01 3.795166e-01
1.465631e+08 -9.324951e-01 -2.446289e-01 -1.198612e-05 -1.799408e-05 4.916266e-05 -1.361966e-05 9.539185e-01 3.806152e-01
1.467809e+08 -9.316406e-01 -2.452393e-01 4.733354e-05 -1.444295e-05 -2.915040e-07 -5.771872e-06 9.558716e-01 3.806152e-01
1.469988e+08 -9.309692e-01 -2.459106e-01 2.852827e-05 -3.816187e-05 2.086442e-05 -9.953044e-06 9.555054e-01 3.815308e-01
1.472166e+08 -9.309082e-01 -2.451172e-01 -2.604537e-05 1.688115e-05 8.859672e-06 1.646951e-05 9.562378e-01 3.825073e-01
1.474344e+08 -9.302979e-01 -2.465820e-01 1.291092e-05 3.165565e-06 2.165511e-05 -3.004633e-05 9.561157e-01 3.825073e-01
1.476522e+08 -9.302368e-01 -2.467041e-01 1.449697e-05 -3.286637e-06 -2.776086e-05 1.521595e-05 9.569702e-01 3.836060e-01
1.478700e+08 -9.293213e-01 -2.472534e-01 7.467344e-06 1.415983e-05 3.663823e-06 3.768690e-05 9.569702e-01 3.847046e-01
1.480878e+08 -9.282837e-01 -2.471313e-01 -3.444217e-05 1.754798e-05 -2.785586e-05 -2.220459e-05 9.575195e-01 3.850098e-01
1.483056e+08 -9.276123e-01 -2.474365e-01 1.203734e-05 1.802668e-05 6.560609e-05 2.783537e-05 9.591064e-01 3.855591e-01
1.485234e+08 -9.271240e-01 -2.489624e-01 -1.113862e-06 -4.002452e-05 -1.876429e-05 -1.868978e-05 9.591675e-01 3.863525e-01
1.487412e+08 -9.268799e-01 -2.483521e-01 -3.859401e-06 4.538801e-06 3.006123e-05 1.230277e-05 9.606323e-01 3.869629e-01
1.489591e+08 -9.254150e-01 -2.487793e-01 3.421679e-06 -3.618747e-05 3.634021e-06 1.898501e-05 9.604492e-01 3.877563e-01
1.491769e+08 -9.248657e-01 -2.493896e-01 -4.014000e-05 -2.631545e-05 -2.090540e-05 9.963289e-06 9.605713e-01 3.876343e-01
1.493947e+08 -9.245605e-01 -2.495728e-01 -6.125309e-06 2.610032e-06 -1.925696e-05 7.207505e-06 9.610596e-01 3.877563e-01
1.496125e+08 -9.235840e-01 -2.501221e-01 4.830956e-05 -2.926588e-05 1.935055e-06 3.023772e-06 9.610596e-01 3.886719e-01
1.498303e+08 -9.238892e-01 -2.503052e-01 2.715737e-06 3.361143e-05 -1.922250e-05 2.594478e-05 9.625854e-01 3.897705e-01
1.500481e+08 -9.236450e-01 -2.516479e-01 -1.428276e-05 -1.998805e-05 4.911423e-05 1.810864e-05 9.624023e-01 3.905029e-01
1.502659e+08 -9.222412e-01 -2.517700e-01 1.592562e-06 -6.468967e-06 1.300126e-05 2.836250e-05 9.636841e-01 3.907471e-01
1.504838e+08 -9.216309e-01 -2.517700e-01 -1.495332e-05 -2.839416e-05 -2.785213e-05 -3.512949e-06 9.635620e-01 3.917847e-01
1.507016e+08 -9.214478e-01 -2.521973e-01 -3.589131e-05 7.636845e-07 -2.428703e-05 -3.255904e-06 9.646606e-01 3.919067e-01
1.509194e+08 -9.203491e-01 -2.523193e-01 3.026426e-05 -4.471466e-05 4.801899e-05 1.364574e-05 9.652710e-01 3.922729e-01
1.511372e+08 -9.200439e-01 -2.531738e-01 1.747813e-05 7.057562e-06 -2.728030e-05 8.046627e-06 9.649658e-01 3.928223e-01
1.513550e+08 -9.196777e-01 -2.539673e-01 2.563000e-05 2.966262e-05 -3.397092e-05 -1.840852e-05 9.654541e-01 3.931885e-01
1.515728e+08 -9.179077e-01 -2.540894e-01 -1.498498e-05 -2.841651e-05 3.204681e-05 3.410690e-05 9.667358e-01 3.930664e-01
1.517906e+08 -9.179077e-01 -2.542114e-01 -1.135375e-05 -9.665266e-06 9.885058e-06 -1.657289e-05 9.669189e-01 3.935547e-01
1.520084e+08 -9.170532e-01 -2.551880e-01 2.508983e-06 -2.137758e-05 -1.129508e-05 6.364658e-06 9.681396e-01 3.940430e-01
1.522262e+08 -9.173584e-01 -2.556152e-01 6.571412e-06 2.911128e-05 4.307739e-05 3.198162e-06 9.685059e-01 3.946533e-01
1.524441e+08 -9.165039e-01 -2.567139e-01 -3.189780e-06 1.295749e-05 -2.490357e-05 -3.362820e-05 9.688721e-01 3.944092e-01
1.526619e+08 -9.148560e-01 -2.567139e-01 -6.809831e-06 -5.805865e-06 -1.410395e-05 -1.404341e-05 9.690552e-01 3.957520e-01
1.528797e+08 -9.151611e-01 -2.565308e-01 -9.344891e-06 1.556892e-05 2.172962e-05 -3.013387e-05 9.696655e-01 3.961792e-01
1.530975e+08 -9.142456e-01 -2.572021e-01 -2.163649e-05 2.077408e-05 1.194887e-05 4.276447e-05 9.697876e-01 3.966675e-01
1.533153e+08 -9.142456e-01 -2.590942e-01 -4.317611e-06 -2.717786e-05 -9.719282e-06 -5.276501e-05 9.708252e-01 3.963623e-01
1.535331e+08 -9.130249e-01 -2.593384e-01 4.370511e-05 -9.883195e-06 3.873836e-06 6.069895e-06 9.725342e-01 3.963623e-01
1.537509e+08 -9.120483e-01 -2.601318e-01 1.068786e-05 1.265667e-06 1.379102e-05 -1.051184e-05 9.715576e-01 3.977661e-01
1.539688e+08 -9.120483e-01 -2.603760e-01 -5.731359e-06 3.432110e-05 5.070120e-06 6.687269e-05 9.717407e-01 3.975220e-01
1.541866e+08 -9.108276e-01 -2.609253e-01 3.664382e-05 7.662922e-06 9.644777e-06 -2.237596e-05 9.736938e-01 3.978882e-01
1.544044e+08 -9.108887e-01 -2.619629e-01 -1.269765e-05 -2.653152e-05 -1.655519e-05 2.764724e-05 9.732056e-01 3.984985e-01
1.546222e+08 -9.099121e-01 -2.624512e-01 1.600944e-06 -6.487593e-06 2.568774e-05 -5.265698e-06 9.746704e-01 3.978882e-01
1.548400e+08 -9.093018e-01 -2.629395e-01 7.078052e-06 -1.751911e-05 1.102500e-05 -3.095903e-05 9.739990e-01 3.984985e-01
1.550578e+08 -9.088135e-01 -2.629395e-01 -1.551677e-05 1.819991e-05 2.682582e-05 1.792423e-05 9.752197e-01 3.991089e-01
1.552756e+08 -9.087524e-01 -2.637939e-01 -2.368540e-05 -4.488975e-06 7.451512e-06 -1.245458e-05 9.758911e-01 3.999634e-01
1.554934e+08 -9.080811e-01 -2.639771e-01 -6.148126e-06 2.612360e-06 -1.104269e-05 1.218170e-05 9.757080e-01 3.986206e-01
1.557112e+08 -9.074707e-01 -2.651978e-01 2.007186e-05 -1.432002e-05 9.657815e-06 -2.241135e-05 9.771118e-01 4.001465e-01
1.559291e+08 -9.064941e-01 -2.659912e-01 -2.141297e-05 -2.544373e-06 -6.644055e-06 -7.738825e-06 9.777222e-01 3.995972e-01
1.561469e+08 -9.060059e-01 -2.669067e-01 3.052503e-05 1.032837e-05 1.024641e-05 2.680905e-05 9.782715e-01 4.007568e-01
1.563647e+08 -9.055176e-01 -2.672119e-01 3.322959e-06 4.215166e-05 -5.005673e-05 -1.681969e-05 9.782104e-01 4.000244e-01
1.565825e+08 -9.049072e-01 -2.677612e-01 1.231674e-05 -5.217269e-06 -2.625585e-05 1.247227e-05 9.784546e-01 4.003906e-01
1.568003e+08 -9.038696e-01 -2.686768e-01 3.803894e-05 2.458319e-05 1.050998e-05 1.381710e-05 9.795532e-01 4.000244e-01
1.570181e+08 -9.028931e-01 -2.686157e-01 1.232885e-05 -5.225651e-06 2.515875e-05 1.899898e-06 9.803467e-01 4.004517e-01
1.572359e+08 -9.031372e-01 -2.698975e-01 -1.232605e-05 5.224720e-06 -1.163036e-05 -1.824740e-05 9.806519e-01 4.003296e-01
1.574538e+08 -9.022827e-01 -2.711792e-01 -4.284084e-06 -2.727658e-05 1.300406e-05 9.682961e-06 9.809570e-01 4.006348e-01
1.576716e+08 -9.011841e-01 -2.717896e-01 2.279878e-06 1.944485e-06 -2.018735e-05 8.569099e-06 9.822388e-01 4.004517e-01
1.578894e+08 -9.008179e-01 -2.720947e-01 -8.828938e-06 -3.116205e-05 -1.686625e-05 -1.576170e-05 9.819946e-01 4.007568e-01
1.581072e+08 -9.007568e-01 -2.726440e-01 7.777009e-06 -9.108800e-06 1.936778e-05 1.161639e-05 9.823608e-01 4.009399e-01
1.583250e+08 -8.998413e-01 -2.736816e-01 9.279698e-06 -7.087737e-05 -3.154576e-05 -4.147738e-05 9.829712e-01 4.010620e-01
1.585428e+08 -8.994141e-01 -2.747192e-01 -2.212077e-05 -1.099892e-05 1.465995e-05 -1.190696e-05 9.833374e-01 4.003296e-01
1.587606e+08 -8.997803e-01 -2.754517e-01 1.623482e-05 -9.789132e-06 7.192604e-06 -1.827721e-05 9.842529e-01 4.007568e-01
1.589784e+08 -8.988647e-01 -2.757568e-01 1.167692e-05 -1.366902e-05 -3.986806e-05 -8.828938e-06 9.842529e-01 4.005127e-01
1.591962e+08 -8.979492e-01 -2.767944e-01 2.309307e-05 -3.946945e-06 -2.547167e-05 1.107901e-05 9.854126e-01 4.007568e-01
1.594141e+08 -8.975220e-01 -2.773438e-01 -4.484877e-05 2.476200e-05 -2.712384e-05 -4.984438e-06 9.853516e-01 4.006348e-01
1.596319e+08 -8.977661e-01 -2.785034e-01 -1.007132e-05 7.169321e-06 1.662178e-06 -2.769986e-06 9.859619e-01 4.003906e-01
1.598497e+08 -8.961182e-01 -2.789917e-01 1.073349e-05 1.275912e-06 1.771376e-05 -4.428439e-06 9.862061e-01 3.997192e-01
1.600675e+08 -8.965454e-01 -2.799683e-01 1.501106e-05 2.858602e-05 -2.465583e-05 -9.136274e-06 9.866333e-01 4.005127e-01
1.602853e+08 -8.950806e-01 -2.807617e-01 5.602837e-06 4.422292e-05 1.411047e-05 1.411978e-05 9.867554e-01 4.006348e-01
1.605031e+08 -8.950195e-01 -2.816162e-01 -2.214499e-05 -1.102500e-05 -2.880767e-05 1.660734e-05 9.874878e-01 4.006958e-01
1.607209e+08 -8.947144e-01 -2.821655e-01 -2.375618e-05 -4.529953e-06 -1.412630e-05 4.714355e-06 9.874268e-01 4.013672e-01
1.609388e+08 -8.941040e-01 -2.830200e-01 -8.460134e-06 6.570481e-07 6.921589e-06 -5.263835e-06 9.880981e-01 4.005127e-01
1.611566e+08 -8.936768e-01 -2.842407e-01 -2.508797e-05 -2.147630e-05 -1.107343e-05 -2.547726e-05 9.890137e-01 4.008179e-01
1.613744e+08 -8.927612e-01 -2.844849e-01 -1.236144e-05 5.224720e-06 3.875792e-05 -1.437776e-05 9.888916e-01 3.997192e-01
1.615922e+08 -8.920288e-01 -2.853394e-01 -2.943911e-06 -1.041964e-05 -4.124641e-05 -2.812594e-07 9.896240e-01 4.000244e-01
1.618100e+08 -8.925781e-01 -2.863159e-01 3.965199e-05 -3.716350e-05 1.912192e-05 -1.302361e-05 9.892578e-01 3.991089e-01
1.620278e+08 -8.913574e-01 -2.875977e-01 7.143244e-06 -1.758989e-05 -8.868519e-06 2.205372e-06 9.891357e-01 3.994141e-01
1.622456e+08 -8.911133e-01 -2.882080e-01 4.655868e-05 -3.129244e-05 -2.991781e-05 -2.551451e-05 9.894409e-01 3.999634e-01
1.624634e+08 -8.899536e-01 -2.887573e-01 9.428710e-06 -1.566857e-05 5.281530e-06 -2.131518e-05 9.915161e-01 3.991089e-01
1.626812e+08 -8.901978e-01 -2.892456e-01 -1.886860e-05 3.129430e-05 1.994148e-05 4.439615e-06 9.904175e-01 3.992310e-01
1.628991e+08 -8.905029e-01 -2.899170e-01 -1.532584e-05 -5.185604e-06 -9.701122e-06 3.593974e-06 9.913330e-01 3.983765e-01
1.631169e+08 -8.895874e-01 -2.916260e-01 1.272000e-05 2.671592e-05 1.577009e-05 1.138262e-05 9.912720e-01 3.993530e-01
1.633347e+08 -8.886719e-01 -2.936401e-01 -1.009740e-05 7.189810e-06 3.376976e-05 1.280755e-05 9.925537e-01 3.980103e-01
1.635525e+08 -8.883057e-01 -2.936401e-01 -1.432374e-05 3.520586e-05 -2.475455e-06 -1.469348e-05 9.918823e-01 3.980713e-01
1.637703e+08 -8.889160e-01 -2.945557e-01 1.038983e-05 -3.066286e-05 5.431473e-05 4.777312e-05 9.921875e-01 3.970337e-01
1.639881e+08 -8.879395e-01 -2.944946e-01 -2.054498e-05 -1.759455e-05 1.137052e-05 -6.372109e-06 9.916992e-01 3.976440e-01
1.642059e+08 -8.874512e-01 -2.951050e-01 2.837554e-05 8.467585e-06 -1.107110e-06 -4.436588e-06 9.924316e-01 3.975220e-01
1.644238e+08 -8.868408e-01 -2.965088e-01 4.372001e-05 1.367927e-05 -3.655255e-05 -1.445785e-05 9.925537e-01 3.970947e-01
1.646416e+08 -8.858643e-01 -2.979736e-01 4.196540e-06 -2.806447e-05 -2.780184e-05 5.866587e-05 9.931030e-01 3.957520e-01
1.648594e+08 -8.864136e-01 -2.982178e-01 2.648309e-05 3.848970e-05 2.799556e-05 3.632158e-06 9.935303e-01 3.960571e-01
1.650772e+08 -8.854980e-01 -2.991943e-01 -2.184138e-05 2.090633e-05 -1.244899e-05 -1.692027e-05 9.934082e-01 3.953247e-01
1.652950e+08 -8.861694e-01 -3.001709e-01 -2.088770e-05 5.876645e-06 -1.248345e-05 1.932494e-06 9.930420e-01 3.958740e-01
1.655128e+08 -8.847046e-01 -3.010254e-01 6.617047e-07 8.485746e-06 1.332723e-05 -2.214871e-05 9.941406e-01 3.949585e-01
1.657306e+08 -8.848267e-01 -3.020020e-01 -1.860783e-05 7.843599e-06 1.924112e-06 2.191216e-05 9.936523e-01 3.955078e-01
1.659484e+08 -8.842163e-01 -3.029175e-01 -8.815899e-06 2.418645e-05 -7.478055e-06 -6.382354e-06 9.945679e-01 3.949585e-01
1.661662e+08 -8.842773e-01 -3.043823e-01 -1.241267e-05 5.234964e-06 1.328904e-05 1.555681e-05 9.945679e-01 3.941040e-01
1.663841e+08 -8.840942e-01 -3.050537e-01 -3.067963e-05 -1.042522e-05 5.667098e-07 -7.207971e-06 9.932861e-01 3.933716e-01
1.666019e+08 -8.839111e-01 -3.053589e-01 3.594905e-06 -3.662147e-05 2.303161e-05 -6.910414e-06 9.950562e-01 3.940430e-01
1.668197e+08 -8.829956e-01 -3.067017e-01 -1.698826e-05 1.316890e-06 -2.140366e-05 4.183501e-05 9.943237e-01 3.935547e-01
1.670375e+08 -8.836670e-01 -3.072510e-01 -3.071502e-05 -1.044944e-05 -2.243929e-05 -3.802404e-05 9.942627e-01 3.932495e-01
1.672553e+08 -8.833008e-01 -3.090210e-01 4.412234e-05 -9.804964e-06 4.690140e-05 3.684312e-06 9.943848e-01 3.932495e-01
1.674731e+08 -8.826904e-01 -3.100586e-01 -4.775450e-05 -9.175390e-06 -1.158379e-05 -3.720820e-05 9.946899e-01 3.934326e-01
1.676909e+08 -8.822632e-01 -3.108521e-01 7.179566e-06 -1.767371e-05 1.968909e-05 -1.348555e-06 9.948730e-01 3.918457e-01
1.679088e+08 -8.817749e-01 -3.111572e-01 -4.279241e-05 2.681464e-05 1.277868e-05 -1.495518e-05 9.938354e-01 3.917847e-01
1.681266e+08 -8.813477e-01 -3.123169e-01 1.601130e-05 -4.184619e-05 5.841255e-06 -9.695068e-06 9.940186e-01 3.915405e-01
1.683444e+08 -8.817139e-01 -3.132935e-01 1.277402e-05 -2.878159e-05 -2.334267e-05 1.994707e-05 9.942627e-01 3.916626e-01
1.685622e+08 -8.807983e-01 -3.146362e-01 3.857538e-05 1.320615e-06 1.143664e-05 -2.522394e-05 9.938965e-01 3.906250e-01
1.687800e+08 -8.809204e-01 -3.148193e-01 1.242571e-05 -5.242415e-06 -3.574416e-05 -3.473088e-05 9.945068e-01 3.894653e-01
1.689978e+08 -8.806763e-01 -3.162231e-01 2.815202e-05 3.205240e-05 -2.740882e-06 -2.053659e-05 9.944458e-01 3.894043e-01
1.692156e+08 -8.804321e-01 -3.177490e-01 -9.890646e-07 1.505204e-05 2.555549e-05 -1.104921e-05 9.935303e-01 3.897705e-01
1.694334e+08 -8.807983e-01 -3.178101e-01 1.177564e-05 -1.373142e-05 -2.474338e-05 2.854131e-05 9.926758e-01 3.889771e-01
1.696512e+08 -8.803101e-01 -3.190918e-01 3.597699e-06 1.897849e-05 8.048955e-06 -8.163042e-07 9.930420e-01 3.889771e-01
1.698691e+08 -8.806763e-01 -3.199463e-01 4.026294e-05 -5.222857e-06 9.182841e-06 -1.524668e-05 9.933472e-01 3.884888e-01
1.700869e+08 -8.794556e-01 -3.204346e-01 8.840114e-06 -2.422743e-05 -3.096461e-05 -4.889816e-05 9.929810e-01 3.880615e-01
1.703047e+08 -8.795166e-01 -3.215332e-01 3.927880e-11 5.089476e-10 2.738088e-06 2.053939e-05 9.936523e-01 3.874512e-01
1.705225e+08 -8.798828e-01 -3.231201e-01 -1.702271e-05 1.306646e-06 -3.106892e-05 -1.118332e-05 9.928589e-01 3.870850e-01
1.707403e+08 -8.796387e-01 -3.237305e-01 1.212303e-05 1.834054e-05 -3.304332e-06 -1.334306e-05 9.931641e-01 3.867188e-01
1.709581e+08 -8.792114e-01 -3.251343e-01 2.816878e-05 -2.356805e-05 8.631032e-06 -8.029398e-06 9.924316e-01 3.858643e-01
1.711759e+08 -8.793945e-01 -3.258057e-01 -2.062134e-05 -1.771748e-05 8.319970e-06 5.020760e-06 9.919434e-01 3.865356e-01
1.713938e+08 -8.786621e-01 -3.266602e-01 2.326630e-05 -3.919005e-06 -3.916956e-05 8.499250e-06 9.918213e-01 3.858032e-01
1.716116e+08 -8.786621e-01 -3.275146e-01 2.193078e-05 3.476813e-05 -8.889008e-06 2.199318e-06 9.916382e-01 3.855591e-01
1.718294e+08 -8.786011e-01 -3.289795e-01 5.577691e-06 -1.114607e-05 -1.308322e-05 9.118579e-06 9.916382e-01 3.850098e-01
1.720472e+08 -8.792114e-01 -3.302612e-01 7.214956e-06 -1.770724e-05 -2.135243e-05 -1.480337e-05 9.915161e-01 3.840332e-01
1.722650e+08 -8.777466e-01 -3.301392e-01 -2.983958e-05 3.015064e-05 1.720432e-05 2.820045e-06 9.908447e-01 3.836060e-01
1.724828e+08 -8.782349e-01 -3.312988e-01 -1.377799e-05 -1.181010e-05 -3.076531e-05 -2.425350e-05 9.912109e-01 3.830566e-01
1.727006e+08 -8.783569e-01 -3.322144e-01 -2.882630e-05 -4.066527e-05 7.539056e-06 -1.247413e-05 9.896851e-01 3.829956e-01
1.729184e+08 -8.782349e-01 -3.333130e-01 -3.053434e-05 2.163649e-05 -3.414229e-06 2.442859e-05 9.896851e-01 3.830566e-01
1.731362e+08 -8.786011e-01 -3.345337e-01 2.231449e-05 1.117028e-05 1.077726e-05 1.977012e-05 9.899902e-01 3.827515e-01
1.733541e+08 -8.779907e-01 -3.355713e-01 -3.773347e-05 -1.645088e-05 1.909584e-05 2.478063e-05 9.895020e-01 3.820190e-01
1.735719e+08 -8.784180e-01 -3.364258e-01 1.378357e-05 -4.399195e-05 -3.528222e-05 -4.263595e-06 9.893188e-01 3.814087e-01
1.737897e+08 -8.785400e-01 -3.377075e-01 6.530434e-06 2.955087e-05 1.426414e-05 -2.358668e-05 9.885254e-01 3.821411e-01
1.740075e+08 -8.779297e-01 -3.383179e-01 1.993030e-06 -3.020279e-05 9.154901e-06 3.645197e-06 9.880981e-01 3.814697e-01
1.742253e+08 -8.781738e-01 -3.397217e-01 1.213327e-05 1.839455e-05 3.502890e-05 -1.536682e-06 9.872437e-01 3.809204e-01
1.744431e+08 -8.786621e-01 -3.404541e-01 -3.881007e-05 5.446747e-05 1.679175e-06 -2.776040e-06 9.873047e-01 3.807373e-01
1.746609e+08 -8.776855e-01 -3.415527e-01 3.905143e-11 5.101128e-10 3.418885e-05 -1.452863e-07 9.864502e-01 3.798828e-01
1.748788e+08 -8.783569e-01 -3.420410e-01 -1.413934e-05 1.181848e-05 1.826696e-05 2.619997e-05 9.859619e-01 3.801270e-01
1.750966e+08 -8.785400e-01 -3.430176e-01 1.149625e-05 9.861775e-06 -2.395548e-05 8.258969e-06 9.856567e-01 3.793335e-01
1.753144e+08 -8.785400e-01 -3.439941e-01 1.020078e-05 -7.220544e-06 -1.377426e-05 3.528409e-05 9.850464e-01 3.797607e-01
1.755322e+08 -8.779907e-01 -3.445435e-01 6.277114e-05 5.979091e-06 -1.678010e-06 2.774410e-06 9.849243e-01 3.790894e-01
1.757500e+08 -8.775024e-01 -3.462524e-01 3.414229e-05 5.329028e-05 1.234934e-06 -3.335997e-05 9.843140e-01 3.789673e-01
1.759678e+08 -8.787231e-01 -3.471680e-01 1.221895e-05 -3.746897e-05 2.124347e-05 -2.886355e-05 9.839478e-01 3.784790e-01
1.761856e+08 -8.789062e-01 -3.476562e-01 2.890453e-05 4.083663e-05 6.071292e-06 1.504924e-05 9.837646e-01 3.782959e-01
1.764034e+08 -8.785400e-01 -3.493652e-01 -2.896413e-05 1.510046e-05 -2.489053e-05 -3.407151e-05 9.830322e-01 3.775024e-01
1.766212e+08 -8.784180e-01 -3.497314e-01 1.682341e-05 -3.357045e-05 -1.709536e-05 -4.070066e-05 9.826050e-01 3.778687e-01
1.768391e+08 -8.787842e-01 -3.502808e-01 -3.017485e-07 -3.224798e-05 -8.401461e-06 1.387764e-05 9.815674e-01 3.769531e-01
1.770569e+08 -8.790283e-01 -3.518677e-01 1.251511e-05 -5.252659e-06 3.064051e-05 -4.414469e-07 9.807739e-01 3.770142e-01
1.772747e+08 -8.789062e-01 -3.521118e-01 -2.768077e-05 3.222190e-05 6.651506e-06 7.819850e-06 9.799805e-01 3.765869e-01
1.774925e+08 -8.790894e-01 -3.534546e-01 1.385808e-06 -3.885105e-05 1.337659e-05 -3.282912e-06 9.793701e-01 3.770142e-01
1.777103e+08 -8.789673e-01 -3.540039e-01 4.114956e-05 3.330410e-06 1.303945e-05 9.798445e-06 9.788208e-01 3.756104e-01
1.779281e+08 -8.789673e-01 -3.554077e-01 -4.318357e-05 2.694875e-05 4.032627e-06 3.092550e-05 9.783325e-01 3.759766e-01
1.781459e+08 -8.806152e-01 -3.562012e-01 2.201274e-05 -5.075708e-06 2.055895e-05 -7.566065e-06 9.776001e-01 3.761597e-01
1.783638e+08 -8.791504e-01 -3.574829e-01 2.878159e-05 2.907589e-05 -8.568168e-07 -5.512498e-06 9.779663e-01 3.748169e-01
1.785816e+08 -8.808594e-01 -3.577881e-01 -1.628511e-05 1.668278e-05 -2.899580e-05 -1.852214e-05 9.765015e-01 3.749390e-01
1.787994e+08 -8.798828e-01 -3.595581e-01 -2.201647e-05 5.101785e-06 1.641456e-05 1.613889e-05 9.761963e-01 3.744507e-01
1.790172e+08 -8.803711e-01 -3.602905e-01 3.473088e-05 -2.691522e-06 1.076981e-05 3.571063e-05 9.751587e-01 3.746338e-01
1.792350e+08 -8.803101e-01 -3.604126e-01 -7.936731e-06 -2.782978e-05 3.673136e-06 6.816816e-06 9.745483e-01 3.750610e-01
1.794528e+08 -8.807373e-01 -3.611450e-01 -4.446134e-06 -3.246032e-05 2.487376e-05 2.002716e-05 9.745483e-01 3.745117e-01
1.796706e+08 -8.807373e-01 -3.621826e-01 -4.757196e-05 1.478195e-05 5.620532e-06 2.603978e-06 9.733887e-01 3.742676e-01
1.798884e+08 -8.815918e-01 -3.631592e-01 -6.650680e-11 -4.845333e-10 1.840759e-05 -1.026038e-05 9.724121e-01 3.737183e-01
1.801062e+08 -8.812256e-01 -3.643799e-01 3.936142e-05 8.083880e-07 -4.163012e-07 -1.385342e-05 9.714966e-01 3.739014e-01
1.803241e+08 -8.812866e-01 -3.652344e-01 -1.107343e-06 -8.116942e-06 1.771003e-05 3.551319e-05 9.713135e-01 3.739014e-01
1.805419e+08 -8.817749e-01 -3.651733e-01 -2.659485e-05 -1.290254e-05 3.449619e-06 2.208166e-05 9.708862e-01 3.735962e-01
1.807597e+08 -8.824463e-01 -3.665161e-01 -1.285225e-06 2.084672e-05 2.621301e-05 -4.960224e-06 9.692383e-01 3.731689e-01
1.809775e+08 -8.826294e-01 -3.674316e-01 4.764646e-06 -2.546981e-05 1.556054e-05 3.281981e-05 9.689941e-01 3.724976e-01
1.811953e+08 -8.825684e-01 -3.683472e-01 -2.889521e-05 -1.467764e-05 2.269074e-05 3.956445e-05 9.682007e-01 3.735352e-01
1.814131e+08 -8.822632e-01 -3.690186e-01 -1.830608e-05 -4.301965e-05 9.056181e-06 2.469309e-05 9.674683e-01 3.728638e-01
1.816309e+08 -8.834229e-01 -3.703613e-01 2.094544e-05 -1.320429e-05 -2.945773e-05 -1.024827e-05 9.661865e-01 3.728638e-01
1.818488e+08 -8.842773e-01 -3.709106e-01 1.043640e-05 6.416813e-07 -4.097819e-07 -1.388323e-05 9.663086e-01 3.730469e-01
1.820666e+08 -8.844604e-01 -3.709106e-01 -7.878989e-06 -4.239380e-05 1.494959e-05 1.204759e-05 9.655151e-01 3.731079e-01
1.822844e+08 -8.838501e-01 -3.726196e-01 -5.451590e-05 -4.999340e-06 3.332272e-05 -7.177517e-05 9.644165e-01 3.739014e-01
1.825022e+08 -8.848877e-01 -3.734131e-01 -1.197215e-06 6.375369e-06 -3.316067e-05 -1.708232e-05 9.636841e-01 3.728027e-01
1.827200e+08 -8.854370e-01 -3.737183e-01 3.805570e-05 3.620982e-05 5.526468e-05 3.590062e-05 9.626465e-01 3.732910e-01
1.829378e+08 -8.856812e-01 -3.736572e-01 4.520267e-05 1.244992e-05 -5.117059e-05 -1.512840e-05 9.622803e-01 3.728638e-01
1.831556e+08 -8.852539e-01 -3.748779e-01 1.370907e-05 3.955513e-05 1.469254e-05 2.734922e-05 9.617920e-01 3.731079e-01
1.833734e+08 -8.858032e-01 -3.759766e-01 -2.662465e-05 -1.294166e-05 9.758398e-06 1.101755e-06 9.604492e-01 3.732300e-01
1.835912e+08 -8.867188e-01 -3.764648e-01 -1.969747e-05 -7.670373e-06 3.711693e-05 8.637086e-06 9.599609e-01 3.729858e-01
1.838091e+08 -8.871460e-01 -3.776855e-01 -6.398931e-05 1.698360e-05 -2.616551e-06 5.641021e-06 9.586182e-01 3.735352e-01
1.840269e+08 -8.864746e-01 -3.783569e-01 -5.227700e-05 -3.229827e-06 2.164743e-06 2.716202e-06 9.587402e-01 3.732300e-01
1.842447e+08 -8.875122e-01 -3.790283e-01 2.983212e-05 5.190447e-05 4.987465e-06 4.025875e-06 9.572754e-01 3.738403e-01
1.844625e+08 -8.871460e-01 -3.793335e-01 -3.712252e-06 3.367849e-05 2.908520e-05 -3.652647e-06 9.567261e-01 3.734131e-01
1.846803e+08 -8.887329e-01 -3.799438e-01 -3.143772e-05 1.255795e-05 2.258271e-05 1.044944e-05 9.548950e-01 3.732300e-01
1.848981e+08 -8.889160e-01 -3.808594e-01 3.322959e-06 2.442300e-05 8.465722e-06 3.921334e-06 9.547729e-01 3.731079e-01
1.851159e+08 -8.888550e-01 -3.807983e-01 -3.478862e-05 -1.187436e-05 2.648309e-05 1.985580e-06 9.540405e-01 3.738403e-01
1.853338e+08 -8.893433e-01 -3.826294e-01 3.722124e-05 -9.313226e-07 3.173575e-05 -9.277835e-06 9.538574e-01 3.733521e-01
1.855516e+08 -8.895874e-01 -3.830566e-01 3.867224e-05 -5.090982e-05 2.190657e-05 1.188740e-05 9.525146e-01 3.731079e-01
1.857694e+08 -8.899536e-01 -3.838501e-01 6.029382e-06 -3.193691e-05 -2.212077e-05 -1.883507e-05 9.511719e-01 3.739014e-01
1.859872e+08 -8.911743e-01 -3.846436e-01 2.675503e-05 -1.579523e-06 3.835186e-06 3.608689e-05 9.505005e-01 3.734131e-01
1.862050e+08 -8.910522e-01 -3.855591e-01 -1.388136e-05 -1.055654e-05 -4.850328e-06 2.519414e-05 9.490356e-01 3.739624e-01
1.864228e+08 -8.911743e-01 -3.853760e-01 3.952160e-05 8.530915e-07 -1.149066e-05 -1.218636e-05 9.476929e-01 3.744507e-01
1.866406e+08 -8.914795e-01 -3.855591e-01 -1.075864e-05 4.297122e-05 -2.932176e-05 -3.302470e-06 9.477539e-01 3.745117e-01
1.868584e+08 -8.919067e-01 -3.868408e-01 1.871493e-05 -1.499895e-05 -4.803762e-05 1.862645e-08 9.468994e-01 3.746338e-01
1.870762e+08 -8.930054e-01 -3.878174e-01 -8.153263e-06 1.110137e-06 -1.423061e-06 -4.874542e-05 9.461060e-01 3.745117e-01
1.872941e+08 -8.939209e-01 -3.883057e-01 2.406538e-06 -1.278706e-05 -1.618639e-06 4.048832e-05 9.454956e-01 3.746338e-01
1.875119e+08 -8.939819e-01 -3.887939e-01 -6.038696e-06 3.195740e-05 -1.670606e-05 -2.321973e-05 9.439697e-01 3.757935e-01
1.877297e+08 -8.943481e-01 -3.894653e-01 -4.652143e-05 -6.124377e-06 -9.063631e-06 4.905462e-05 9.439087e-01 3.756104e-01
1.879475e+08 -8.947144e-01 -3.900146e-01 9.358861e-06 -7.501803e-06 -1.069345e-05 1.565460e-05 9.424438e-01 3.757935e-01
1.881653e+08 -8.956299e-01 -3.912354e-01 3.506802e-05 -1.721084e-05 4.218891e-05 3.506802e-05 9.421387e-01 3.763428e-01
1.883831e+08 -8.962402e-01 -3.915405e-01 2.106093e-05 -1.324713e-05 1.132488e-05 5.254522e-06 9.414062e-01 3.765259e-01
1.886009e+08 -8.959351e-01 -3.916626e-01 -2.520159e-06 2.734177e-05 3.995374e-07 1.393817e-05 9.400024e-01 3.763428e-01
1.888188e+08 -8.964844e-01 -3.922119e-01 -5.370006e-05 1.765788e-05 -4.808605e-05 -2.234429e-05 9.392700e-01 3.769531e-01
1.890366e+08 -8.966675e-01 -3.925171e-01 -3.607944e-05 -5.492941e-06 4.187226e-06 -2.384372e-05 9.387207e-01 3.772583e-01
1.892544e+08 -8.977661e-01 -3.933105e-01 -2.558716e-05 -4.826114e-06 -2.669170e-06 2.800673e-05 9.373779e-01 3.768921e-01
1.894722e+08 -8.982544e-01 -3.944092e-01 3.043190e-05 -2.077222e-05 5.222857e-05 4.319847e-05 9.370117e-01 3.774414e-01
1.896900e+08 -8.984375e-01 -3.949585e-01 -1.048669e-05 -6.547198e-07 3.033690e-05 -1.345761e-05 9.367065e-01 3.779907e-01
1.899078e+08 -8.988647e-01 -3.950195e-01 -6.190687e-05 1.878291e-05 -2.963282e-05 -1.033023e-05 9.352417e-01 3.784790e-01
1.901256e+08 -8.986816e-01 -3.953247e-01 -1.280010e-05 -2.425164e-06 4.802132e-06 -2.929242e-06 9.339600e-01 3.787842e-01
1.903434e+08 -8.989868e-01 -3.961792e-01 -3.276207e-05 1.902692e-05 -1.119636e-05 2.404302e-05 9.338989e-01 3.784790e-01
1.905612e+08 -8.997803e-01 -3.960571e-01 1.180731e-05 -2.031587e-05 -1.295097e-05 3.528967e-05 9.326782e-01 3.796997e-01
1.907791e+08 -8.997803e-01 -3.969727e-01 -2.319366e-05 -1.765229e-05 -1.000380e-05 -8.095521e-06 9.320068e-01 3.793945e-01
1.909969e+08 -9.008179e-01 -3.970947e-01 2.633780e-06 -4.194677e-05 2.002344e-07 6.979331e-06 9.302979e-01 3.804321e-01
1.912147e+08 -9.005737e-01 -3.973999e-01 -4.408881e-06 -3.268011e-05 3.948063e-05 -1.090765e-05 9.294434e-01 3.807373e-01
1.914325e+08 -9.013062e-01 -3.980713e-01 -2.340227e-05 1.148507e-05 -2.555363e-05 1.049973e-05 9.287109e-01 3.807983e-01
1.916503e+08 -9.025879e-01 -3.985596e-01 4.769117e-05 1.436472e-05 -3.315136e-05 -1.024455e-05 9.273682e-01 3.818359e-01
1.918681e+08 -9.026489e-01 -3.989258e-01 -9.386335e-06 7.521827e-06 -2.432615e-06 1.265015e-05 9.276123e-01 3.818359e-01
1.920859e+08 -9.031982e-01 -3.994141e-01 5.255267e-05 -1.122802e-05 -1.806580e-05 -2.045650e-05 9.255371e-01 3.825684e-01
1.923038e+08 -9.036865e-01 -3.997192e-01 1.587719e-05 5.611405e-05 2.187863e-05 -1.741014e-05 9.255371e-01 3.828735e-01
1.925216e+08 -9.041748e-01 -4.000854e-01 -8.173287e-06 1.104083e-06 1.828372e-05 2.744794e-05 9.244385e-01 3.825684e-01
1.927394e+08 -9.044189e-01 -4.008179e-01 1.181662e-05 -2.032332e-05 -2.354197e-05 -1.612119e-05 9.236450e-01 3.831787e-01
1.929572e+08 -9.047241e-01 -4.006348e-01 8.079223e-06 1.348369e-05 4.553050e-05 5.044043e-05 9.237671e-01 3.836670e-01
1.931750e+08 -9.061890e-01 -4.006348e-01 1.536869e-05 -2.497993e-05 -7.562339e-07 -5.039573e-05 9.224854e-01 3.845825e-01
1.933928e+08 -9.060059e-01 -4.016113e-01 -9.890646e-07 -2.276152e-05 1.491606e-05 -1.722295e-05 9.210815e-01 3.851929e-01
1.936106e+08 -9.067383e-01 -4.016113e-01 1.558661e-05 -5.419552e-05 1.993403e-05 -1.316983e-05 9.212036e-01 3.860474e-01
1.938284e+08 -9.067993e-01 -4.022827e-01 -1.380779e-05 -2.519786e-05 -1.829490e-05 -2.749451e-05 9.196167e-01 3.860474e-01
1.940462e+08 -9.079590e-01 -4.025879e-01 1.148321e-05 2.342649e-05 2.754852e-05 7.618219e-06 9.185181e-01 3.867188e-01
1.942641e+08 -9.082642e-01 -4.025879e-01 -1.415983e-05 1.858268e-05 -8.263625e-06 -1.938734e-05 9.186401e-01 3.876343e-01
1.944819e+08 -9.085693e-01 -4.033813e-01 3.636256e-05 -2.367236e-05 -2.285466e-05 -4.000589e-05 9.177856e-01 3.873901e-01
1.946997e+08 -9.080811e-01 -4.033813e-01 9.392854e-06 -7.518101e-06 -3.301073e-06 7.097144e-06 9.163818e-01 3.879395e-01
1.949175e+08 -9.087524e-01 -4.038086e-01 -4.001707e-05 4.287809e-05 -1.485925e-05 -5.190261e-06 9.154663e-01 3.886719e-01
1.951353e+08 -9.095459e-01 -4.033813e-01 -4.554167e-05 1.959503e-06 2.385490e-05 7.227063e-07 9.144897e-01 3.896484e-01
1.953531e+08 -9.100952e-01 -4.037476e-01 -9.288546e-06 -7.081311e-06 1.373794e-05 1.502782e-05 9.144897e-01 3.898926e-01
1.955709e+08 -9.100342e-01 -4.044189e-01 -1.604110e-05 -4.159659e-05 -2.140552e-05 -1.341850e-05 9.138794e-01 3.905029e-01
1.957888e+08 -9.108887e-01 -4.043579e-01 3.485382e-05 2.654642e-05 -3.997982e-05 -2.548844e-05 9.133911e-01 3.908081e-01
1.960066e+08 -9.104004e-01 -4.053955e-01 9.071082e-06 3.628992e-05 -6.146263e-06 5.776528e-06 9.124146e-01 3.911133e-01
1.962244e+08 -9.113770e-01 -4.053955e-01 3.651716e-06 -1.924671e-05 2.280436e-05 -1.185946e-05 9.105225e-01 3.919678e-01
1.964422e+08 -9.111938e-01 -4.049683e-01 2.555549e-05 1.952425e-05 -3.171526e-05 -6.105751e-06 9.105225e-01 3.939819e-01
1.966600e+08 -9.119263e-01 -4.057007e-01 3.542984e-06 -4.647765e-06 3.616512e-05 -1.082942e-05 9.097290e-01 3.932495e-01
1.968778e+08 -9.129028e-01 -4.055786e-01 -1.908839e-05 4.427880e-05 2.975576e-05 1.038425e-05 9.088745e-01 3.947754e-01
1.970956e+08 -9.127808e-01 -4.055786e-01 1.038890e-05 1.528859e-05 -5.435199e-05 1.277775e-05 9.078979e-01 3.947754e-01
1.973134e+08 -9.131470e-01 -4.062500e-01 5.113706e-05 3.901869e-05 -1.078006e-05 1.574308e-05 9.075928e-01 3.956299e-01
1.975312e+08 -9.136353e-01 -4.060059e-01 -1.266599e-07 1.461059e-05 -5.178154e-07 3.088824e-05 9.064941e-01 3.962402e-01
1.977491e+08 -9.139404e-01 -4.068604e-01 1.527742e-05 -1.040194e-05 4.399195e-05 1.702085e-05 9.057617e-01 3.961182e-01
1.979669e+08 -9.149170e-01 -4.066162e-01 2.892874e-05 2.948008e-05 2.211146e-05 1.201220e-05 9.038086e-01 3.976440e-01
1.981847e+08 -9.152222e-01 -4.070435e-01 -3.960729e-05 -1.554564e-05 -3.578141e-06 2.258457e-05 9.036255e-01 3.980713e-01
1.984025e+08 -9.157715e-01 -4.079590e-01 3.521331e-05 -1.724437e-05 -6.827991e-06 7.218681e-06 9.033203e-01 3.981934e-01
1.986203e+08 -9.158936e-01 -4.071655e-01 -3.377721e-05 -1.840666e-05 -3.126264e-05 3.742427e-05 9.033203e-01 3.992310e-01
1.988381e+08 -9.160767e-01 -4.074097e-01 1.614913e-05 2.702139e-05 -1.510885e-05 -1.223665e-05 9.019165e-01 3.995361e-01
1.990559e+08 -9.166870e-01 -4.066162e-01 3.644451e-05 -2.366304e-05 -9.478070e-06 1.293141e-05 9.017944e-01 4.011841e-01
1.992738e+08 -9.172363e-01 -4.072876e-01 -4.782528e-05 -1.439452e-05 9.909272e-07 -3.943965e-05 9.011230e-01 4.011841e-01
1.994916e+08 -9.171143e-01 -4.080200e-01 3.618002e-05 5.587935e-06 5.813316e-06 3.220700e-05 8.994141e-01 4.026489e-01
1.997094e+08 -9.169922e-01 -4.083862e-01 1.040474e-05 1.528952e-05 2.359040e-05 3.874861e-05 9.000854e-01 4.025879e-01
1.999272e+08 -9.172363e-01 -4.073486e-01 2.691150e-05 -1.486391e-06 3.568456e-05 4.258938e-05 8.984375e-01 4.046631e-01
2.001450e+08 -9.176025e-01 -4.078369e-01 4.777685e-06 -1.105666e-05 4.231557e-05 2.835318e-05 8.972168e-01 4.047241e-01
2.003628e+08 -9.180908e-01 -4.083252e-01 2.703257e-05 -1.613051e-05 1.797918e-05 1.356658e-05 8.972778e-01 4.048462e-01
2.005806e+08 -9.193726e-01 -4.082031e-01 -2.240948e-05 1.968071e-05 2.395734e-05 7.357448e-07 8.969116e-01 4.061890e-01
2.007984e+08 -9.187622e-01 -4.075317e-01 -1.051929e-05 -6.798655e-07 4.222803e-05 -2.372265e-05 8.961182e-01 4.063110e-01
2.010162e+08 -9.180298e-01 -4.082642e-01 1.160894e-05 8.883886e-06 9.343773e-05 2.273917e-05 8.949585e-01 4.078979e-01
2.012341e+08 -9.197998e-01 -4.086914e-01 1.149625e-05 2.350099e-05 -4.106201e-06 -2.102088e-05 8.953857e-01 4.077759e-01
2.014519e+08 -9.180908e-01 -4.078369e-01 -1.039729e-05 -1.530629e-05 -2.100319e-05 -2.191216e-05 8.947144e-01 4.089355e-01
2.016697e+08 -9.199829e-01 -4.083862e-01 4.688650e-05 -8.363277e-06 2.164580e-05 -3.159977e-05 8.935547e-01 4.094238e-01
2.018875e+08 -9.192505e-01 -4.082642e-01 4.810840e-05 -1.475960e-05 7.424504e-06 1.387112e-05 8.923340e-01 4.104004e-01
2.021053e+08 -9.192505e-01 -4.091187e-01 -4.604086e-05 4.574284e-05 -3.506802e-05 3.051944e-05 8.912354e-01 4.111328e-01
2.023231e+08 -9.207764e-01 -4.086914e-01 -1.053046e-05 -6.798655e-07 -1.435820e-05 1.590047e-05 8.919067e-01 4.118042e-01
2.025409e+08 -9.204102e-01 -4.083862e-01 -1.888070e-05 1.504086e-05 9.160489e-06 2.510101e-05 8.909912e-01 4.129639e-01
2.027588e+08 -9.207153e-01 -4.081421e-01 5.073100e-05 -4.223734e-05 1.036189e-05 -7.339288e-06 8.900146e-01 4.137573e-01
2.029766e+08 -9.217529e-01 -4.094238e-01 -3.424473e-06 -9.984709e-06 1.895707e-05 -3.341585e-06 8.900146e-01 4.140625e-01
2.031944e+08 -9.210815e-01 -4.082642e-01 -3.025867e-05 -2.312474e-05 1.681410e-05 -2.866611e-05 8.900757e-01 4.149170e-01
2.034122e+08 -9.210205e-01 -4.084473e-01 -3.749877e-05 8.232892e-07 -1.627300e-05 -2.363697e-06 8.891602e-01 4.154663e-01
2.036300e+08 -9.213867e-01 -4.094849e-01 -1.409184e-05 3.959052e-06 -2.161413e-05 9.057112e-06 8.880005e-01 4.168091e-01
2.038478e+08 -9.219971e-01 -4.091187e-01 3.298745e-06 2.462976e-05 1.582690e-05 1.083873e-05 8.884277e-01 4.161377e-01
2.040656e+08 -9.214478e-01 -4.096680e-01 -2.015382e-06 -3.103912e-05 -2.525188e-05 -2.045929e-05 8.864136e-01 4.179688e-01
2.042834e+08 -9.219971e-01 -4.086914e-01 -2.245232e-05 1.968071e-05 2.973154e-05 3.380701e-06 8.862305e-01 4.189453e-01
2.045012e+08 -9.224854e-01 -4.091797e-01 1.387671e-06 -2.106652e-05 8.186325e-06 -1.011183e-05 8.856812e-01 4.195557e-01
2.047191e+08 -9.230957e-01 -4.089966e-01 1.861807e-05 1.425482e-05 -1.477916e-05 1.827255e-06 8.862305e-01 4.212646e-01
2.049369e+08 -9.216309e-01 -4.102173e-01 -2.912804e-05 -1.493469e-05 -1.486577e-05 -2.783909e-05 8.848267e-01 4.213257e-01
2.051547e+08 -9.226074e-01 -4.099121e-01 -2.109259e-05 -1.374632e-06 1.268089e-05 2.508424e-05 8.851929e-01 4.223022e-01
2.053725e+08 -9.232178e-01 -4.088745e-01 -1.163688e-05 -8.896925e-06 8.983538e-06 1.811888e-05 8.842773e-01 4.224854e-01
2.055903e+08 -9.226685e-01 -4.091797e-01 -3.411435e-06 -9.990297e-06 1.411326e-05 -3.874302e-07 8.829346e-01 4.235840e-01
2.058081e+08 -9.227905e-01 -4.094849e-01 1.396332e-05 1.068972e-05 1.735240e-05 1.507066e-05 8.836060e-01 4.249268e-01
2.060259e+08 -9.230957e-01 -4.091797e-01 8.773059e-06 -5.970895e-05 2.861582e-05 1.334585e-05 8.831787e-01 4.255371e-01
2.062438e+08 -9.227905e-01 -4.092407e-01 -1.286995e-05 -2.460554e-06 -5.017594e-05 -2.687797e-05 8.825073e-01 4.253540e-01
2.064616e+08 -9.227295e-01 -4.092407e-01 -3.330037e-05 4.835427e-05 -1.142919e-05 4.692748e-05 8.825684e-01 4.268799e-01
2.066794e+08 -9.234009e-01 -4.089966e-01 9.424984e-07 2.287328e-05 -2.644025e-05 -1.057610e-05 8.817139e-01 4.277344e-01
2.068972e+08 -9.232788e-01 -4.093628e-01 4.508533e-06 1.821853e-05 2.482347e-05 2.899952e-05 8.807373e-01 4.285278e-01
2.071150e+08 -9.233398e-01 -4.086304e-01 -2.917834e-05 -1.495332e-05 3.941730e-05 2.008677e-05 8.801880e-01 4.296875e-01
2.073328e+08 -9.233398e-01 -4.093018e-01 5.894806e-06 -2.875924e-06 -5.814247e-06 1.995172e-05 8.802490e-01 4.301147e-01
2.075506e+08 -9.240723e-01 -4.097900e-01 2.574548e-05 4.947186e-06 1.546927e-05 -3.259629e-06 8.788452e-01 4.312744e-01
2.077684e+08 -9.236450e-01 -4.093628e-01 1.536217e-05 -1.039915e-05 1.240429e-05 -1.165736e-05 8.791504e-01 4.320679e-01
2.079862e+08 -9.234009e-01 -4.099731e-01 -1.706928e-05 -5.005673e-05 -1.661666e-05 1.318473e-05 8.787231e-01 4.327393e-01
2.082041e+08 -9.230957e-01 -4.097290e-01 2.373755e-05 -2.612919e-05 2.282485e-05 -1.901016e-05 8.775024e-01 4.337158e-01
2.084219e+08 -9.232788e-01 -4.097900e-01 3.865734e-05 7.461756e-06 8.212868e-06 -1.012627e-05 8.781128e-01 4.345093e-01
2.086397e+08 -9.232788e-01 -4.094238e-01 -3.538467e-05 1.720153e-05 4.479289e-05 8.661300e-06 8.768921e-01 4.353638e-01
2.088575e+08 -9.232178e-01 -4.112549e-01 3.568828e-06 -4.658941e-06 4.155561e-05 4.562736e-05 8.773804e-01 4.360352e-01
2.090753e+08 -9.238892e-01 -4.099121e-01 1.694635e-05 6.473064e-05 2.237037e-05 -1.052581e-05 8.771973e-01 4.363403e-01
2.092931e+08 -9.238281e-01 -4.103394e-01 -2.018362e-05 2.151169e-05 2.744421e-05 4.599243e-05 8.765869e-01 4.374390e-01
2.095109e+08 -9.235840e-01 -4.100342e-01 -1.195073e-05 2.043508e-05 -2.133846e-05 -2.916530e-05 8.768311e-01 4.381104e-01
2.097288e+08 -9.226685e-01 -4.102783e-01 8.229166e-06 -1.085922e-06 -1.423806e-05 -2.934225e-05 8.754883e-01 4.387817e-01
2.099466e+08 -9.236450e-01 -4.103394e-01 1.071114e-05 -1.397915e-05 -2.677552e-06 5.742535e-06 8.756714e-01 4.395752e-01
2.101644e+08 -9.229736e-01 -4.105225e-01 -1.025572e-05 -3.004819e-05 -4.691072e-06 1.004152e-05 8.750610e-01 4.402466e-01
2.103822e+08 -9.238892e-01 -4.107056e-01 -2.793409e-05 -2.144277e-05 1.904368e-05 4.911050e-05 8.741455e-01 4.417114e-01
2.106000e+08 -9.233398e-01 -4.102173e-01 -1.615472e-05 -2.719089e-05 1.081359e-05 6.800983e-06 8.747559e-01 4.428101e-01
2.108178e+08 -9.238281e-01 -4.105835e-01 1.926348e-05 -4.445016e-05 2.221391e-05 3.486685e-05 8.746338e-01 4.434204e-01
2.110356e+08 -9.223022e-01 -4.104614e-01 3.574649e-06 -4.662434e-06 -2.868101e-05 -1.343153e-05 8.741455e-01 4.444580e-01
2.112534e+08 -9.238281e-01 -4.107056e-01 -4.009530e-05 1.372397e-05 1.025759e-05 -1.446065e-05 8.744507e-01 4.444580e-01
2.114712e+08 -9.227295e-01 -4.105835e-01 3.154762e-05 1.678243e-05 2.602674e-05 1.914985e-05 8.735962e-01 4.458008e-01
2.116891e+08 -9.226685e-01 -4.106445e-01 -6.990507e-06 -5.363487e-06 1.789909e-05 6.614253e-06 8.733521e-01 4.462280e-01
2.119069e+08 -9.226685e-01 -4.109497e-01 -1.181848e-05 5.743466e-06 -3.226474e-05 -1.333281e-05 8.730469e-01 4.475098e-01
2.121247e+08 -9.221191e-01 -4.108887e-01 -1.181662e-05 5.750917e-06 -1.044339e-05 7.368624e-06 8.726196e-01 4.477539e-01
2.123425e+08 -9.221191e-01 -4.115601e-01 3.205612e-05 -2.728775e-05 1.033302e-05 1.532957e-05 8.723145e-01 4.492188e-01
2.125603e+08 -9.219360e-01 -4.106445e-01 -7.307157e-06 2.401695e-05 -3.447570e-05 -1.607835e-05 8.716431e-01 4.492798e-01
2.127781e+08 -9.212036e-01 -4.105835e-01 -1.592562e-07 1.470000e-05 4.250742e-05 -1.139939e-06 8.721313e-01 4.500122e-01
2.129959e+08 -9.222412e-01 -4.109497e-01 -3.356487e-05 -4.798919e-05 1.044525e-05 -7.376075e-06 8.712769e-01 4.509277e-01
2.132138e+08 -9.212646e-01 -4.107666e-01 -9.652227e-06 2.223812e-05 1.235399e-05 1.101755e-05 8.712769e-01 4.515991e-01
2.134316e+08 -9.223633e-01 -4.119263e-01 3.329478e-05 -3.375486e-05 2.301298e-05 1.076609e-05 8.709717e-01 4.523926e-01
2.136494e+08 -9.215088e-01 -4.115601e-01 1.639128e-07 -1.470372e-05 -2.617575e-05 3.535300e-06 8.706665e-01 4.534912e-01
2.138672e+08 -9.204102e-01 -4.111328e-01 -8.245930e-06 1.081731e-06 -1.781806e-05 2.316758e-05 8.703003e-01 4.542236e-01
2.140850e+08 -9.216309e-01 -4.119873e-01 3.875606e-05 7.495284e-06 -3.012456e-05 -1.058355e-05 8.706055e-01 4.550171e-01
2.143028e+08 -9.213257e-01 -4.114990e-01 1.758151e-05 6.081536e-06 -1.764297e-05 -2.224930e-05 8.699951e-01 4.557495e-01
2.145206e+08 -9.213867e-01 -4.122314e-01 -1.168344e-05 -8.961186e-06 -2.647378e-05 -3.340095e-05 8.709106e-01 4.563599e-01
2.147384e+08 -9.214478e-01 -4.114380e-01 -1.850538e-05 -2.904050e-05 3.828481e-05 2.311915e-05 8.698120e-01 4.567871e-01
2.149562e+08 -9.206543e-01 -4.122314e-01 -9.005889e-06 -3.659539e-05 -2.781302e-05 -3.053062e-05 8.695679e-01 4.579468e-01
2.151741e+08 -9.208374e-01 -4.122314e-01 5.584210e-06 2.656505e-05 -8.927658e-06 1.161732e-05 8.695068e-01 4.589844e-01
2.153919e+08 -9.190674e-01 -4.128418e-01 2.742372e-05 -3.090873e-05 -4.220055e-06 1.530396e-06 8.693848e-01 4.591064e-01
2.156097e+08 -9.204712e-01 -4.129028e-01 -1.742318e-05 -2.082251e-05 -2.967007e-05 -1.912005e-05 8.691406e-01 4.601440e-01
2.158275e+08 -9.196777e-01 -4.127808e-01 -2.727844e-05 1.616590e-05 2.620183e-05 -3.544614e-06 8.686523e-01 4.607544e-01
2.160453e+08 -9.194336e-01 -4.132690e-01 -7.005408e-06 -5.380251e-06 -1.611188e-05 -1.805183e-05 8.684692e-01 4.611816e-01
2.162631e+08 -9.186401e-01 -4.133301e-01 1.059566e-05 7.143244e-07 -1.872703e-05 1.753587e-05 8.687744e-01 4.628906e-01
2.164809e+08 -9.184570e-01 -4.133301e-01 -4.475564e-05 -4.664063e-06 -1.696125e-05 -2.372637e-05 8.691406e-01 4.636230e-01
2.166988e+08 -9.194336e-01 -4.142456e-01 2.846122e-06 -4.237890e-05 -1.666695e-05 -3.942661e-05 8.681030e-01 4.637451e-01
2.169166e+08 -9.192505e-01 -4.143066e-01 2.586097e-05 5.014241e-06 2.312288e-05 -4.188344e-05 8.678589e-01 4.643555e-01
2.171344e+08 -9.183350e-01 -4.143677e-01 3.306381e-05 -4.353002e-06 -6.202608e-06 3.571995e-05 8.689575e-01 4.648438e-01
2.173522e+08 -9.183350e-01 -4.140015e-01 -1.402665e-05 -1.078006e-05 -5.761161e-06 -2.698041e-06 8.678589e-01 4.660034e-01
2.175700e+08 -9.177856e-01 -4.146118e-01 -1.095980e-05 2.877042e-05 6.010383e-05 1.409277e-05 8.678589e-01 4.667969e-01
2.177878e+08 -9.176025e-01 -4.149170e-01 -1.060870e-05 -7.124618e-07 1.023524e-05 3.816560e-05 8.676758e-01 4.671021e-01
2.180056e+08 -9.179688e-01 -4.148560e-01 -2.264604e-05 1.978502e-05 3.828108e-05 -6.675720e-06 8.672485e-01 4.680176e-01
2.182234e+08 -9.170532e-01 -4.152832e-01 -1.169275e-05 -8.994713e-06 -2.655573e-05 1.920760e-05 8.672485e-01 4.692383e-01
2.184412e+08 -9.169922e-01 -4.152222e-01 -2.214126e-05 -2.444349e-05 -1.086062e-05 -6.841961e-06 8.673706e-01 4.689941e-01
2.186591e+08 -9.168701e-01 -4.157715e-01 -2.050027e-05 3.634021e-05 -4.873425e-05 -3.863871e-05 8.672485e-01 4.699707e-01
2.188769e+08 -9.160767e-01 -4.158936e-01 -6.604567e-05 -6.072223e-06 1.049554e-05 -7.390045e-06 8.674927e-01 4.702759e-01
2.190947e+08 -9.164429e-01 -4.158936e-01 -2.842955e-05 7.944182e-06 5.591661e-05 -1.426786e-05 8.674927e-01 4.707642e-01
2.193125e+08 -9.157104e-01 -4.169312e-01 -3.423542e-06 -1.007691e-05 -1.748931e-05 -1.522619e-05 8.668823e-01 4.720459e-01
2.195303e+08 -9.152222e-01 -4.171753e-01 1.926906e-05 -2.988614e-05 3.970601e-05 2.035499e-05 8.669434e-01 4.728394e-01
2.197481e+08 -9.155273e-01 -4.176636e-01 -3.779121e-05 7.376075e-07 3.124960e-05 2.343953e-05 8.671265e-01 4.722900e-01
2.199659e+08 -9.143677e-01 -4.178467e-01 -1.925416e-05 2.986565e-05 9.374693e-06 3.253482e-05 8.665161e-01 4.732666e-01
2.201838e+08 -9.151001e-01 -4.177856e-01 -3.530830e-05 -1.221895e-05 -2.831966e-05 7.862225e-06 8.674927e-01 4.736328e-01
2.204016e+08 -9.135132e-01 -4.184570e-01 7.021707e-06 5.405862e-06 -9.646639e-06 1.306087e-05 8.668823e-01 4.754028e-01
2.206194e+08 -9.143677e-01 -4.180298e-01 -2.142787e-05 1.331978e-05 -1.655892e-06 1.858175e-05 8.666382e-01 4.751587e-01
2.208372e+08 -9.137573e-01 -4.190674e-01 -1.098402e-05 2.882257e-05 1.532957e-06 4.238682e-06 8.668213e-01 4.755859e-01
2.210550e+08 -9.135742e-01 -4.189453e-01 -3.944710e-05 3.672391e-05 1.172815e-05 1.252908e-05 8.662720e-01 4.765015e-01
2.212728e+08 -9.142456e-01 -4.188232e-01 1.297519e-05 2.523884e-06 -1.234002e-06 -1.993496e-05 8.666992e-01 4.772949e-01
2.214906e+08 -9.133911e-01 -4.202881e-01 -9.368639e-06 -7.205177e-06 2.782606e-05 7.338822e-07 8.665161e-01 4.770508e-01
2.217084e+08 -9.134521e-01 -4.198608e-01 6.135553e-06 -1.766533e-05 -1.358148e-05 -1.081266e-06 8.664551e-01 4.782715e-01
2.219262e+08 -9.128418e-01 -4.210815e-01 -3.211387e-05 1.262128e-05 2.512895e-05 6.522983e-06 8.668213e-01 4.788208e-01
2.221441e+08 -9.127808e-01 -4.205322e-01 4.382059e-05 -3.639609e-06 -2.188236e-05 9.115785e-06 8.671875e-01 4.790039e-01
2.223619e+08 -9.126587e-01 -4.205933e-01 -1.405180e-05 -1.082104e-05 1.151301e-05 -2.454966e-05 8.654785e-01 4.797974e-01
2.225797e+08 -9.120483e-01 -4.212036e-01 6.869435e-06 2.020411e-05 9.025447e-06 1.832191e-05 8.664551e-01 4.803467e-01
2.227975e+08 -9.116821e-01 -4.214478e-01 -4.132465e-05 -9.369105e-06 -3.154203e-05 2.218038e-05 8.659668e-01 4.809570e-01
2.230153e+08 -9.121704e-01 -4.223022e-01 2.454780e-05 2.632476e-05 1.951680e-05 -1.904927e-05 8.657227e-01 4.809570e-01
2.232331e+08 -9.110718e-01 -4.231567e-01 3.193878e-05 2.153218e-06 1.647230e-05 2.446584e-06 8.657227e-01 4.816284e-01
2.234509e+08 -9.110718e-01 -4.229126e-01 -7.763505e-05 5.231053e-05 1.679827e-05 -1.326669e-05 8.657227e-01 4.821777e-01
2.236688e+08 -9.107056e-01 -4.239502e-01 4.297495e-05 -2.668425e-05 -1.209229e-05 -2.683140e-05 8.654785e-01 4.826660e-01
2.238866e+08 -9.110718e-01 -4.241333e-01 -5.773269e-06 -1.192931e-05 2.415292e-05 2.367981e-05 8.660278e-01 4.835815e-01
2.241044e+08 -9.105225e-01 -4.244385e-01 3.077090e-06 -5.744770e-05 -5.249865e-06 1.869164e-05 8.657837e-01 4.835815e-01
2.243222e+08 -9.103394e-01 -4.251709e-01 -2.747588e-05 1.625717e-05 -3.415532e-05 5.124137e-06 8.661499e-01 4.843750e-01
2.245400e+08 -9.100952e-01 -4.256592e-01 -3.108382e-05 2.097711e-05 1.682900e-06 -1.860969e-05 8.660889e-01 4.843140e-01
2.247578e+08 -9.099731e-01 -4.259033e-01 3.128871e-05 -3.579445e-05 -2.715271e-06 5.782116e-06 8.662109e-01 4.849854e-01
2.249756e+08 -9.098511e-01 -4.260254e-01 1.611933e-05 -5.495921e-05 -8.178875e-06 -1.265761e-05 8.656616e-01 4.855957e-01
2.251934e+08 -9.093628e-01 -4.267578e-01 2.495013e-05 -3.252178e-06 5.259179e-06 -1.870841e-05 8.656616e-01 4.855957e-01
2.254112e+08 -9.097290e-01 -4.269409e-01 7.415190e-06 -2.423488e-05 -1.239963e-05 1.888536e-05 8.658447e-01 4.855957e-01
2.256291e+08 -9.089355e-01 -4.271240e-01 -2.929941e-05 -3.003515e-05 -2.738833e-05 -9.316951e-06 8.657227e-01 4.865112e-01
2.258469e+08 -9.091797e-01 -4.281006e-01 4.740059e-05 6.586313e-06 -3.554672e-05 8.016825e-06 8.653564e-01 4.878540e-01
2.260647e+08 -9.088135e-01 -4.284058e-01 -2.410077e-05 2.639182e-05 -3.111735e-05 1.363084e-05 8.651123e-01 4.877319e-01
2.262825e+08 -9.090576e-01 -4.284058e-01 1.825392e-06 -5.101785e-05 1.034699e-06 1.284294e-05 8.652954e-01 4.870605e-01
2.265003e+08 -9.083252e-01 -4.293213e-01 1.774170e-05 6.167218e-06 -4.964322e-05 1.548976e-05 8.656006e-01 4.885254e-01
2.267181e+08 -9.079590e-01 -4.296875e-01 -2.263673e-05 5.057082e-06 -1.104549e-05 1.598708e-05 8.653564e-01 4.884644e-01
2.269359e+08 -9.086304e-01 -4.298096e-01 -3.605522e-05 3.222190e-05 5.261973e-06 -1.871586e-05 8.654175e-01 4.885864e-01
2.271538e+08 -9.080200e-01 -4.307861e-01 -7.584691e-06 -5.834922e-05 1.345947e-05 2.397224e-05 8.653564e-01 4.893799e-01
2.273716e+08 -9.080811e-01 -4.306641e-01 2.904050e-05 -3.765710e-05 2.667122e-05 -1.926161e-05 8.652344e-01 4.899292e-01
2.275894e+08 -9.077148e-01 -4.324341e-01 -1.432095e-05 3.959052e-06 4.429370e-06 3.566034e-05 8.645630e-01 4.904785e-01
2.278072e+08 -9.067993e-01 -4.325562e-01 3.239140e-06 2.502277e-05 -1.223758e-05 2.603233e-05 8.654175e-01 4.910278e-01
2.280250e+08 -9.066162e-01 -4.331055e-01 -1.432188e-05 3.975816e-06 8.676201e-06 4.079659e-06 8.643799e-01 4.909058e-01
2.282428e+08 -9.068604e-01 -4.329224e-01 -2.865680e-05 7.946044e-06 -1.512840e-05 2.468750e-05 8.640747e-01 4.913940e-01
2.284606e+08 -9.072266e-01 -4.342041e-01 2.867915e-05 -7.949769e-06 -1.413934e-05 3.755093e-05 8.648071e-01 4.918213e-01
2.286784e+08 -9.068604e-01 -4.340820e-01 2.550893e-06 -1.305994e-05 7.677823e-06 2.127234e-05 8.643799e-01 4.918213e-01
2.288962e+08 -9.063110e-01 -4.358521e-01 -2.869405e-05 7.942319e-06 -4.223920e-05 -4.488975e-07 8.645630e-01 4.924927e-01
2.291141e+08 -9.069824e-01 -4.359741e-01 9.223819e-06 2.215989e-05 4.941365e-06 -2.979767e-06 8.643188e-01 4.929810e-01
2.293319e+08 -9.060669e-01 -4.361572e-01 -2.955645e-05 -1.525134e-05 -1.600757e-05 -1.106132e-05 8.635864e-01 4.921265e-01
2.295497e+08 -9.064941e-01 -4.365234e-01 9.438023e-06 7.270370e-06 -5.095452e-05 -3.455579e-05 8.641968e-01 4.929810e-01
2.297675e+08 -9.064941e-01 -4.372559e-01 -3.153458e-05 -4.689768e-05 3.526360e-05 -5.238503e-05 8.638916e-01 4.936523e-01
2.299853e+08 -9.057617e-01 -4.382935e-01 -3.440306e-06 -1.017191e-05 7.665716e-06 2.129469e-05 8.635864e-01 4.932251e-01
2.302031e+08 -9.057007e-01 -4.386597e-01 5.720556e-05 -1.005828e-06 6.144866e-06 -4.310161e-05 8.633423e-01 4.937134e-01
2.304209e+08 -9.063721e-01 -4.382935e-01 -3.579259e-05 2.471730e-06 8.497387e-06 -3.315508e-05 8.630981e-01 4.948120e-01
2.306388e+08 -9.059448e-01 -4.390259e-01 1.200289e-05 -5.801208e-06 3.918633e-05 -8.115545e-06 8.632202e-01 4.945679e-01
2.308566e+08 -9.056396e-01 -4.402466e-01 1.691654e-05 -1.706183e-05 -8.349773e-06 1.022359e-05 8.630371e-01 4.942627e-01
2.310744e+08 -9.053345e-01 -4.408569e-01 -2.421625e-05 2.653338e-05 7.160008e-06 2.990291e-05 8.638916e-01 4.945068e-01
2.312922e+08 -9.055176e-01 -4.411621e-01 3.838353e-05 -1.557544e-05 1.141895e-05 -1.708046e-06 8.628540e-01 4.950562e-01
2.315100e+08 -9.058228e-01 -4.417114e-01 3.190711e-05 -6.578118e-05 -5.166233e-05 -3.047287e-06 8.626709e-01 4.948120e-01
2.317278e+08 -9.057617e-01 -4.421997e-01 1.909584e-05 -3.539026e-07 2.898509e-06 1.361361e-06 8.628540e-01 4.946289e-01
2.319456e+08 -9.053955e-01 -4.433594e-01 -6.806850e-05 2.644956e-07 -2.045278e-05 -1.671258e-05 8.628540e-01 4.953613e-01
2.321634e+08 -9.050903e-01 -4.445801e-01 1.732260e-06 4.657730e-05 -1.725741e-06 1.866743e-05 8.623657e-01 4.957886e-01
2.323812e+08 -9.058228e-01 -4.443359e-01 -4.895404e-05 -8.195639e-08 1.636334e-05 -3.478676e-05 8.617554e-01 4.960327e-01
2.325991e+08 -9.053345e-01 -4.456787e-01 -5.330890e-06 4.115328e-05 2.863072e-05 2.943538e-05 8.627930e-01 4.957275e-01
2.328169e+08 -9.051514e-01 -4.461670e-01 -4.789978e-05 8.277595e-06 3.495626e-05 -6.539747e-06 8.616333e-01 4.960938e-01
2.330347e+08 -9.060059e-01 -4.467163e-01 9.464100e-06 7.302966e-06 -1.331605e-05 1.321733e-05 8.621216e-01 4.965820e-01
2.332525e+08 -9.052124e-01 -4.467773e-01 1.784321e-05 6.224960e-06 -2.523698e-05 -6.565824e-06 8.610229e-01 4.968872e-01
2.334703e+08 -9.053955e-01 -4.472046e-01 -3.592297e-05 2.481043e-06 2.391636e-06 4.008040e-05 8.611450e-01 4.978027e-01
2.336881e+08 -9.051514e-01 -4.479370e-01 8.592382e-06 -1.602434e-05 -1.125317e-05 -2.124533e-05 8.608398e-01 4.976807e-01
2.339059e+08 -9.049683e-01 -4.486694e-01 -3.246963e-05 1.272187e-05 -1.498498e-05 -2.833270e-05 8.607788e-01 4.974976e-01
2.341238e+08 -9.052734e-01 -4.497681e-01 1.224875e-05 -2.077408e-05 -3.362074e-05 3.622845e-06 8.606567e-01 4.978638e-01
2.343416e+08 -9.045410e-01 -4.497681e-01 -3.227219e-05 -2.244487e-06 1.757126e-05 -1.474004e-05 8.599854e-01 4.981079e-01
2.345594e+08 -9.049072e-01 -4.505005e-01 -1.786835e-05 -6.224029e-06 -3.086217e-05 -3.226846e-05 8.601074e-01 4.978638e-01
2.347772e+08 -9.062500e-01 -4.514771e-01 -3.250316e-05 1.273304e-05 -2.032053e-05 -9.579584e-06 8.599243e-01 4.981689e-01
2.349950e+08 -9.049683e-01 -4.517822e-01 -5.511940e-05 2.805144e-06 1.381617e-05 8.280389e-06 8.595581e-01 4.984131e-01
2.352128e+08 -9.047241e-01 -4.526367e-01 -7.319730e-06 9.474345e-06 -3.326312e-05 -1.214445e-05 8.590088e-01 4.981689e-01
2.354306e+08 -9.057007e-01 -4.533691e-01 2.369634e-06 1.829700e-06 -1.535518e-06 -4.269648e-06 8.587036e-01 4.987183e-01
2.356484e+08 -9.057617e-01 -4.539185e-01 6.032176e-06 -2.911314e-06 1.262501e-05 1.836475e-05 8.587036e-01 4.989014e-01
2.358662e+08 -9.060669e-01 -4.548950e-01 1.915824e-05 -3.287569e-07 -3.492460e-07 1.580361e-05 8.574829e-01 4.984131e-01
2.360841e+08 -9.060059e-01 -4.549561e-01 2.067536e-05 -2.190471e-05 6.844057e-07 -1.451466e-06 8.585815e-01 4.989624e-01
2.363019e+08 -9.053955e-01 -4.558716e-01 -9.896234e-06 2.262928e-05 6.323215e-06 -5.883630e-06 8.576050e-01 4.985352e-01
2.365197e+08 -9.057617e-01 -4.559937e-01 -7.321127e-06 9.485520e-06 -1.279451e-05 -2.552755e-05 8.573608e-01 4.987183e-01
2.367375e+08 -9.059448e-01 -4.569702e-01 -4.379451e-05 -4.137680e-05 9.743497e-06 -1.314189e-05 8.569946e-01 4.991455e-01
2.369553e+08 -9.064331e-01 -4.569702e-01 -3.868714e-06 1.973659e-05 -5.636830e-06 4.436821e-06 8.569946e-01 4.990845e-01
2.371731e+08 -9.059448e-01 -4.584351e-01 2.286769e-05 -5.086884e-06 9.908341e-06 -5.961861e-06 8.569946e-01 4.991455e-01
2.373909e+08 -9.066162e-01 -4.588013e-01 2.097338e-06 -6.655231e-05 9.554438e-06 9.829644e-06 8.561401e-01 4.994507e-01
2.376088e+08 -9.071655e-01 -4.597168e-01 3.433041e-05 3.407523e-05 1.060311e-05 -7.423107e-06 8.559570e-01 4.996338e-01
2.378266e+08 -9.066162e-01 -4.594116e-01 -9.292737e-06 -2.233684e-05 -2.973340e-05 1.790747e-05 8.554077e-01 4.999390e-01
2.380444e+08 -9.063721e-01 -4.598389e-01 -2.028793e-05 -8.074567e-06 4.447997e-06 -2.450682e-05 8.547974e-01 4.993896e-01
2.382622e+08 -9.066772e-01 -4.605713e-01 5.159527e-06 -2.633035e-05 -3.312901e-05 -4.973263e-06 8.542480e-01 4.996948e-01
2.384800e+08 -9.071655e-01 -4.613647e-01 1.920480e-05 -3.362074e-07 1.846533e-05 -9.038486e-06 8.535156e-01 4.998169e-01
2.386978e+08 -9.071655e-01 -4.617920e-01 -1.466554e-05 1.902040e-05 -2.576038e-06 1.298077e-05 8.539429e-01 4.998169e-01
2.389156e+08 -9.075317e-01 -4.631348e-01 -5.375594e-06 4.134700e-05 1.759548e-05 1.539662e-05 8.526001e-01 4.998779e-01
2.391334e+08 -9.076538e-01 -4.640503e-01 3.675697e-06 -4.752539e-06 -3.452785e-05 -2.091751e-06 8.526001e-01 5.009155e-01
2.393512e+08 -9.082031e-01 -4.644165e-01 -3.154203e-05 2.118200e-05 -2.187118e-05 -1.388043e-05 8.521729e-01 5.012207e-01
2.395691e+08 -9.076538e-01 -4.641724e-01 -9.505078e-06 -7.343479e-06 -4.395843e-06 -3.580749e-05 8.515015e-01 5.007324e-01
2.397869e+08 -9.083862e-01 -4.661255e-01 1.964718e-05 -3.038347e-05 1.421291e-05 -7.503666e-06 8.514404e-01 5.009766e-01
2.400047e+08 -9.083862e-01 -4.666138e-01 1.318008e-05 2.591871e-06 3.344193e-05 -4.817545e-05 8.502808e-01 5.012817e-01
2.402225e+08 -9.083862e-01 -4.663696e-01 -3.464520e-06 -1.027063e-05 2.186559e-05 1.388043e-05 8.504639e-01 5.012817e-01
2.404403e+08 -9.093018e-01 -4.672852e-01 1.748838e-05 3.630109e-05 -1.411140e-05 -5.287677e-05 8.494263e-01 5.015869e-01
2.406581e+08 -9.089966e-01 -4.673462e-01 -2.376735e-05 -1.836568e-05 -8.827075e-06 -4.147924e-05 8.490601e-01 5.011597e-01
2.408759e+08 -9.097290e-01 -4.682617e-01 -1.965463e-05 3.037415e-05 -4.513189e-05 -2.487004e-05 8.489380e-01 5.014038e-01
2.410938e+08 -9.107056e-01 -4.695435e-01 3.634021e-05 -1.755171e-05 -2.430752e-06 2.020691e-05 8.492432e-01 5.017090e-01
2.413116e+08 -9.097290e-01 -4.694824e-01 2.659112e-05 -9.851530e-06 3.693625e-05 1.211464e-05 8.479614e-01 5.017700e-01
2.415294e+08 -9.111328e-01 -4.707031e-01 6.437517e-11 5.038601e-10 -1.009554e-06 -1.293328e-05 8.471069e-01 5.023193e-01
2.417472e+08 -9.105835e-01 -4.703979e-01 2.769008e-05 -1.426786e-06 -6.660353e-06 -8.478761e-06 8.475342e-01 5.015869e-01
2.419650e+08 -9.107056e-01 -4.710083e-01 -1.861341e-05 3.881007e-05 -2.745539e-06 5.813316e-06 8.456421e-01 5.023804e-01
2.421828e+08 -9.106445e-01 -4.715576e-01 2.381857e-06 1.838896e-06 2.497993e-05 -7.737428e-06 8.460693e-01 5.023804e-01
2.424006e+08 -9.112549e-01 -4.719849e-01 -4.264712e-05 3.548339e-05 -1.658034e-05 -2.509914e-06 8.450928e-01 5.031128e-01
2.426184e+08 -9.110718e-01 -4.722290e-01 6.265938e-06 -1.796708e-05 -5.070120e-06 -3.436394e-05 8.450317e-01 5.023804e-01
2.428362e+08 -9.121704e-01 -4.738770e-01 -2.077222e-05 2.199411e-05 1.865998e-05 -1.842156e-06 8.445435e-01 5.021973e-01
2.430541e+08 -9.125366e-01 -4.744873e-01 9.303913e-06 2.240203e-05 -1.500733e-05 -2.844632e-05 8.436890e-01 5.025635e-01
2.432719e+08 -9.125977e-01 -4.749756e-01 -4.569814e-05 -4.891306e-06 4.893541e-05 1.825392e-06 8.430176e-01 5.031738e-01
2.434897e+08 -9.130859e-01 -4.755249e-01 1.016259e-05 -3.777631e-05 1.583062e-05 -3.342889e-05 8.422852e-01 5.023804e-01
2.437075e+08 -9.134521e-01 -4.764404e-01 -4.073232e-05 -1.621991e-05 6.812625e-06 1.568161e-05 8.416748e-01 5.028076e-01
2.439253e+08 -9.135132e-01 -4.768066e-01 2.606772e-06 -1.321826e-05 -9.410549e-06 -2.678484e-06 8.410034e-01 5.040283e-01
2.441431e+08 -9.139404e-01 -4.774780e-01 -2.274290e-05 -9.955838e-06 2.983958e-05 4.971027e-05 8.402100e-01 5.027466e-01
2.443609e+08 -9.141846e-01 -4.781494e-01 -2.405234e-05 -3.369525e-06 -8.419622e-06 1.024595e-05 8.394775e-01 5.040283e-01
2.445788e+08 -9.148560e-01 -4.782715e-01 -8.670613e-06 1.614820e-05 3.748946e-05 3.529713e-06 8.392334e-01 5.039673e-01
2.447966e+08 -9.159546e-01 -4.789429e-01 7.153489e-06 5.530659e-06 3.239140e-05 -6.947666e-07 8.385010e-01 5.044556e-01
2.450144e+08 -9.155884e-01 -4.794312e-01 3.097951e-05 2.393499e-05 1.209229e-05 2.709217e-05 8.371582e-01 5.040894e-01
2.452322e+08 -9.164429e-01 -4.794312e-01 2.514757e-05 1.183338e-05 2.014637e-05 -3.497489e-05 8.371582e-01 5.048828e-01
2.454500e+08 -9.175415e-01 -4.794312e-01 2.495758e-05 2.687424e-05 1.233164e-05 4.056841e-06 8.368530e-01 5.047607e-01
2.456678e+08 -9.176025e-01 -4.806519e-01 -1.299195e-06 6.620307e-06 -1.677871e-05 -9.730458e-06 8.366699e-01 5.054932e-01
2.458856e+08 -9.171143e-01 -4.809570e-01 -9.082258e-06 -3.752112e-05 4.977221e-06 -2.983259e-06 8.347778e-01 5.056152e-01
2.461034e+08 -9.186401e-01 -4.810181e-01 1.453049e-05 -4.007481e-06 -2.934970e-05 9.277835e-06 8.341064e-01 5.056763e-01
2.463212e+08 -9.180298e-01 -4.821167e-01 2.363697e-05 3.351271e-05 -2.066046e-05 -2.406165e-05 8.336182e-01 5.059204e-01
2.465391e+08 -9.201050e-01 -4.823608e-01 2.906285e-05 -8.022413e-06 8.202158e-06 1.280662e-05 8.327637e-01 5.059814e-01
2.467569e+08 -9.186401e-01 -4.826050e-01 1.975149e-05 -3.047474e-05 3.896840e-05 3.806129e-05 8.322144e-01 5.062256e-01
2.469747e+08 -9.201050e-01 -4.829712e-01 -2.385117e-06 -1.845998e-06 -2.643839e-05 1.065247e-05 8.314209e-01 5.062256e-01
2.471925e+08 -9.201050e-01 -4.840698e-01 1.714844e-05 -1.725554e-05 1.680106e-06 1.149625e-05 8.311768e-01 5.064087e-01
2.474103e+08 -9.203491e-01 -4.840698e-01 2.432056e-05 -1.171045e-05 -2.763234e-06 5.816109e-06 8.305054e-01 5.066528e-01
2.476281e+08 -9.213257e-01 -4.847412e-01 4.255027e-05 -2.053753e-05 -2.072891e-06 4.364643e-06 8.301392e-01 5.066528e-01
2.478459e+08 -9.215088e-01 -4.847412e-01 -1.040474e-05 -3.093854e-05 3.211200e-05 -1.506880e-05 8.291626e-01 5.068359e-01
2.480638e+08 -9.222412e-01 -4.846802e-01 1.369976e-05 -2.759881e-05 -4.582107e-07 -2.160203e-05 8.289795e-01 5.077515e-01
2.482816e+08 -9.229126e-01 -4.863892e-01 1.536682e-06 -2.170727e-05 -9.279232e-06 4.514586e-06 8.269653e-01 5.077515e-01
2.484994e+08 -9.239502e-01 -4.861450e-01 -1.500733e-05 3.418885e-05 4.589558e-06 1.288485e-05 8.264771e-01 5.081177e-01
2.487172e+08 -9.240723e-01 -4.864502e-01 2.541766e-05 -3.252178e-06 1.935475e-05 -4.077516e-05 8.261719e-01 5.081787e-01
2.489350e+08 -9.244385e-01 -4.871216e-01 -6.930903e-06 -2.062693e-05 4.092231e-05 2.656132e-05 8.240356e-01 5.081177e-01
2.491528e+08 -9.246826e-01 -4.869385e-01 1.177564e-05 -5.963817e-05 1.065852e-05 -7.429626e-06 8.241577e-01 5.089722e-01
2.493706e+08 -9.249268e-01 -4.873657e-01 -1.536682e-06 2.172403e-05 -1.673214e-05 2.772361e-05 8.229370e-01 5.092773e-01
2.495884e+08 -9.255371e-01 -4.866943e-01 -2.779625e-05 1.389533e-06 -1.134537e-05 8.882955e-06 8.218994e-01 5.092163e-01
2.498062e+08 -9.273682e-01 -4.870605e-01 -1.412071e-05 -2.619624e-05 -1.536682e-07 -7.212628e-06 8.220215e-01 5.095215e-01
2.500241e+08 -9.279175e-01 -4.877930e-01 -4.555099e-06 -1.879875e-05 -2.025254e-05 -2.470799e-06 8.211060e-01 5.098877e-01
2.502419e+08 -9.284058e-01 -4.880371e-01 9.560492e-06 7.392839e-06 2.125185e-05 1.542922e-05 8.202515e-01 5.100708e-01
2.504597e+08 -9.284668e-01 -4.883423e-01 1.456589e-05 -4.014932e-06 -2.147909e-05 7.656403e-06 8.195801e-01 5.104980e-01
2.506775e+08 -9.293213e-01 -4.887085e-01 2.065673e-05 -6.951392e-06 3.430806e-05 1.803041e-05 8.191528e-01 5.103149e-01
2.508953e+08 -9.299316e-01 -4.894409e-01 -2.412125e-07 1.511257e-05 5.683862e-06 -4.447531e-06 8.180542e-01 5.120239e-01
2.511131e+08 -9.296265e-01 -4.893799e-01 -2.256967e-05 -2.514943e-05 -5.480833e-07 8.670613e-06 8.167114e-01 5.126343e-01
2.513309e+08 -9.303589e-01 -4.896240e-01 1.242384e-05 -2.098270e-05 3.312714e-06 -1.450535e-05 8.167114e-01 5.127563e-01
2.515488e+08 -9.312134e-01 -4.904175e-01 -2.175011e-05 -1.544133e-06 -7.912982e-06 1.603272e-06 8.157959e-01 5.129395e-01
2.517666e+08 -9.318237e-01 -4.901123e-01 2.891384e-05 7.085502e-06 -1.745671e-05 2.924539e-05 8.146973e-01 5.127563e-01
2.519844e+08 -9.322510e-01 -4.904785e-01 -3.694184e-05 -3.625080e-05 -8.655712e-06 -3.449060e-05 8.139038e-01 5.132446e-01
2.522022e+08 -9.329224e-01 -4.912109e-01 -8.972362e-06 3.131665e-05 1.221895e-05 -3.141351e-06 8.131104e-01 5.145874e-01
2.524200e+08 -9.335938e-01 -4.901733e-01 2.676249e-05 -9.870157e-06 -1.779757e-06 1.881272e-05 8.120728e-01 5.144653e-01
2.526378e+08 -9.343872e-01 -4.904785e-01 -4.135817e-05 1.386181e-05 2.224231e-06 2.843328e-06 8.112793e-01 5.148926e-01
2.528556e+08 -9.349365e-01 -4.913330e-01 -1.936127e-05 3.036112e-07 1.167133e-05 5.547889e-06 8.103027e-01 5.148926e-01
2.530734e+08 -9.356079e-01 -4.910278e-01 2.147630e-06 1.697429e-05 -1.017936e-05 -3.881380e-05 8.096313e-01 5.158691e-01
2.532912e+08 -9.363403e-01 -4.912109e-01 -2.846122e-05 -3.734604e-05 3.042072e-05 3.719702e-06 8.087769e-01 5.159912e-01
2.535091e+08 -9.362183e-01 -4.916992e-01 1.195353e-05 9.255484e-06 2.263859e-05 1.256168e-05 8.077393e-01 5.159302e-01
2.537269e+08 -9.378052e-01 -4.910278e-01 1.326390e-05 2.631918e-06 3.663823e-06 3.751740e-05 8.065796e-01 5.169067e-01
2.539447e+08 -9.376831e-01 -4.912109e-01 2.652965e-05 5.241483e-06 2.225395e-06 2.846587e-06 8.058472e-01 5.170288e-01
2.541625e+08 -9.379272e-01 -4.917603e-01 -2.414547e-05 -3.408641e-06 2.404116e-05 9.652227e-06 8.052368e-01 5.174561e-01
2.543803e+08 -9.389648e-01 -4.909668e-01 -3.469177e-06 -1.035072e-05 -1.681969e-06 -1.153257e-05 8.045654e-01 5.188599e-01
2.545981e+08 -9.390259e-01 -4.918823e-01 1.805555e-05 6.340444e-06 -7.485971e-06 2.327748e-05 8.031006e-01 5.188599e-01
2.548159e+08 -9.408569e-01 -4.921265e-01 4.541129e-06 1.883414e-05 -3.572553e-06 3.769808e-05 8.023071e-01 5.194702e-01
2.550338e+08 -9.399414e-01 -4.916992e-01 2.331659e-05 -2.020597e-05 -1.025014e-05 2.911501e-05 8.015747e-01 5.191650e-01
2.552516e+08 -9.406738e-01 -4.917603e-01 1.302455e-05 1.775846e-05 -6.389804e-06 5.913898e-06 8.005981e-01 5.197754e-01
2.554694e+08 -9.411011e-01 -4.912109e-01 -2.866611e-06 2.840348e-05 -1.083640e-05 2.225861e-07 8.001099e-01 5.202637e-01
2.556872e+08 -9.426270e-01 -4.913940e-01 1.087971e-05 7.851049e-07 1.109764e-05 -2.338178e-05 7.986450e-01 5.212402e-01
2.559050e+08 -9.429932e-01 -4.918213e-01 2.199970e-05 -1.357868e-05 3.769808e-05 3.580004e-06 7.980347e-01 5.213013e-01
2.561228e+08 -9.431152e-01 -4.918823e-01 4.805624e-07 -3.027916e-05 -1.293607e-05 4.601665e-06 7.977905e-01 5.220947e-01
2.563406e+08 -9.446411e-01 -4.913940e-01 3.075600e-05 -2.976134e-05 -6.544869e-06 -1.313165e-06 7.962646e-01 5.225220e-01
2.565584e+08 -9.443359e-01 -4.913940e-01 -7.179100e-06 -5.569775e-06 4.012138e-06 -1.600571e-05 7.960815e-01 5.242310e-01
2.567762e+08 -9.448853e-01 -4.916992e-01 3.218465e-05 3.263913e-05 2.227956e-06 2.851244e-06 7.951660e-01 5.246582e-01
2.569941e+08 -9.462891e-01 -4.911499e-01 -3.965572e-06 1.991726e-05 5.706679e-06 -4.462432e-06 7.935791e-01 5.250244e-01
2.572119e+08 -9.463501e-01 -4.907837e-01 4.675239e-07 -3.024936e-05 -2.226420e-05 9.140000e-06 7.930298e-01 5.245361e-01
2.574297e+08 -9.472656e-01 -4.905396e-01 8.495525e-06 -1.078472e-06 3.288127e-05 1.383573e-05 7.925415e-01 5.255737e-01
2.576475e+08 -9.473877e-01 -4.908447e-01 1.064967e-05 1.593214e-05 -4.277565e-05 -5.960464e-07 7.921143e-01 5.269775e-01
2.578653e+08 -9.475098e-01 -4.899902e-01 -3.557093e-05 2.607517e-05 -2.905726e-06 3.626943e-05 7.904053e-01 5.276489e-01
2.580831e+08 -9.484253e-01 -4.902954e-01 2.150424e-06 1.699757e-05 4.039332e-05 -9.499490e-06 7.901001e-01 5.275269e-01
2.583009e+08 -9.487305e-01 -4.899902e-01 2.262928e-05 2.520345e-05 3.479421e-06 -7.315539e-06 7.893677e-01 5.283813e-01
2.585188e+08 -9.491577e-01 -4.904785e-01 -4.224479e-05 -9.812415e-06 2.465770e-05 9.741634e-07 7.877808e-01 5.295410e-01
2.587366e+08 -9.498291e-01 -4.906616e-01 4.489347e-05 -3.486872e-06 2.049375e-05 9.752810e-06 7.872925e-01 5.297852e-01
2.589544e+08 -9.509277e-01 -4.900513e-01 -2.309680e-05 5.068257e-06 3.103167e-06 4.636869e-05 7.862549e-01 5.297241e-01
2.591722e+08 -9.504395e-01 -4.890137e-01 2.705678e-05 -2.500042e-05 -1.560058e-05 1.770444e-05 7.853394e-01 5.306396e-01
2.593900e+08 -9.509888e-01 -4.893188e-01 -4.063919e-05 3.747642e-05 -4.042313e-05 9.488314e-06 7.844849e-01 5.320435e-01
2.596078e+08 -9.519653e-01 -4.891357e-01 -3.981963e-05 6.115809e-05 2.190098e-05 6.822869e-06 7.835693e-01 5.326538e-01
2.598256e+08 -9.518433e-01 -4.882812e-01 2.392451e-06 1.858338e-06 3.737956e-05 1.952797e-05 7.824097e-01 5.329590e-01
2.600434e+08 -9.520264e-01 -4.884644e-01 7.696450e-06 -2.473034e-05 5.711336e-06 -4.461966e-06 7.822266e-01 5.336914e-01
2.602612e+08 -9.528809e-01 -4.885864e-01 -1.065899e-06 -8.500181e-06 6.136484e-06 -2.044253e-05 7.804565e-01 5.344238e-01
2.604791e+08 -9.540405e-01 -4.884644e-01 -1.276098e-05 3.614835e-05 -2.789311e-06 5.864073e-06 7.797241e-01 5.356445e-01
2.606969e+08 -9.542236e-01 -4.868164e-01 -1.890399e-05 -3.000908e-05 -2.045184e-06 4.213117e-05 7.796021e-01 5.352783e-01
2.609147e+08 -9.537354e-01 -4.872437e-01 -3.719004e-06 4.789094e-06 4.861504e-06 -4.798546e-05 7.791748e-01 5.363770e-01
2.611325e+08 -9.550171e-01 -4.870605e-01 -2.500415e-05 -2.707727e-05 -8.433126e-07 -5.791895e-06 7.779541e-01 5.368652e-01
2.613503e+08 -9.558105e-01 -4.866333e-01 4.727021e-05 -1.620501e-06 -4.902110e-05 -1.792610e-05 7.766724e-01 5.374146e-01
2.615681e+08 -9.561157e-01 -4.858398e-01 -8.241273e-06 -1.408905e-05 4.619732e-05 -1.401827e-05 7.760620e-01 5.391846e-01
2.617859e+08 -9.558105e-01 -4.859009e-01 1.646951e-05 -4.093349e-05 -2.331659e-05 -3.898516e-06 7.751465e-01 5.397339e-01
2.620038e+08 -9.570312e-01 -4.852905e-01 1.700781e-05 -2.138317e-06 1.075165e-05 -7.477589e-06 7.749023e-01 5.397949e-01
2.622216e+08 -9.580078e-01 -4.848633e-01 1.859665e-05 -2.394803e-05 -2.967380e-05 -2.849475e-05 7.740479e-01 5.415649e-01
2.624394e+08 -9.583130e-01 -4.849243e-01 -2.500601e-05 -2.711453e-05 -2.504513e-05 -1.550093e-05 7.734375e-01 5.421143e-01
2.626572e+08 -9.583740e-01 -4.848022e-01 -4.513189e-06 -1.886766e-05 -1.826324e-06 -1.887605e-05 7.717896e-01 5.426636e-01
2.628750e+08 -9.577637e-01 -4.832764e-01 2.259761e-05 2.524443e-05 1.423620e-05 -1.480896e-05 7.713623e-01 5.434570e-01
2.630928e+08 -9.594727e-01 -4.833374e-01 -1.542084e-05 -1.966208e-05 -5.320646e-06 -1.153443e-05 7.703857e-01 5.440674e-01
2.633106e+08 -9.586792e-01 -4.843750e-01 3.401935e-05 -4.261732e-06 -1.847558e-05 2.360716e-05 7.699585e-01 5.446777e-01
2.635284e+08 -9.603271e-01 -4.828491e-01 3.671832e-05 -1.757033e-05 5.592592e-06 -1.175608e-05 7.698975e-01 5.461426e-01
2.637462e+08 -9.599609e-01 -4.824829e-01 -4.248694e-06 3.510527e-05 1.706555e-05 -2.070516e-05 7.686768e-01 5.465088e-01
2.639641e+08 -9.606934e-01 -4.819336e-01 2.152286e-05 1.673028e-05 1.552328e-05 -2.505071e-05 7.671509e-01 5.468140e-01
2.641819e+08 -9.613037e-01 -4.813843e-01 -7.443130e-06 9.571202e-06 -4.198402e-06 8.821487e-06 7.667236e-01 5.480347e-01
2.643997e+08 -9.616699e-01 -4.815063e-01 5.854294e-06 1.222454e-05 8.220598e-05 -5.941838e-06 7.662964e-01 5.482788e-01
2.646175e+08 -9.609375e-01 -4.806519e-01 -1.783296e-05 -2.155267e-05 -7.142313e-06 7.412396e-06 7.658691e-01 5.499878e-01
2.648353e+08 -9.619751e-01 -4.790649e-01 2.420880e-05 3.458932e-06 -5.625188e-06 -2.610311e-05 7.644653e-01 5.508423e-01
2.650531e+08 -9.618530e-01 -4.794312e-01 -2.261996e-05 -2.525188e-05 -3.227964e-06 2.191588e-05 7.636108e-01 5.512695e-01
2.652709e+08 -9.619751e-01 -4.779663e-01 -1.888908e-05 -3.004260e-05 1.106411e-06 -1.749489e-05 7.625732e-01 5.520630e-01
2.654888e+08 -9.622803e-01 -4.780884e-01 2.313405e-05 -5.049631e-06 2.871081e-05 1.546741e-05 7.616577e-01 5.531006e-01
2.657066e+08 -9.630127e-01 -4.774170e-01 6.463751e-05 -1.892820e-05 -3.110431e-05 1.227297e-05 7.615967e-01 5.538940e-01
2.659244e+08 -9.628906e-01 -4.777222e-01 -3.200024e-06 -2.552569e-05 -2.144184e-05 -1.563970e-05 7.601929e-01 5.545044e-01
2.661422e+08 -9.622803e-01 -4.772339e-01 2.395362e-06 1.862762e-06 3.642403e-06 -6.938353e-08 7.599487e-01 5.560303e-01
2.663600e+08 -9.612427e-01 -4.757690e-01 1.873821e-06 -3.697351e-05 3.903918e-05 2.399459e-05 7.591553e-01 5.563354e-01
2.665778e+08 -9.633179e-01 -4.749756e-01 -3.722729e-06 4.786998e-06 1.165830e-05 3.621168e-05 7.583008e-01 5.567627e-01
2.667956e+08 -9.632568e-01 -4.748535e-01 1.596287e-06 -2.183393e-05 -4.772097e-06 -2.032239e-05 7.584229e-01 5.582886e-01
2.670134e+08 -9.635010e-01 -4.754028e-01 -4.016608e-05 7.163733e-06 2.455525e-05 -1.359358e-05 7.562256e-01 5.590210e-01
2.672312e+08 -9.633179e-01 -4.737549e-01 3.004633e-05 1.574121e-05 -1.360290e-05 1.338869e-05 7.561035e-01 5.604858e-01
2.674491e+08 -9.638672e-01 -4.725342e-01 1.333654e-06 -6.653834e-06 1.332909e-05 9.947456e-06 7.556763e-01 5.609741e-01
2.676669e+08 -9.639893e-01 -4.731445e-01 -4.315004e-05 3.559515e-05 1.515821e-05 -9.048730e-06 7.546387e-01 5.620117e-01
2.678847e+08 -9.646606e-01 -4.730225e-01 -2.239272e-05 2.872944e-05 2.232939e-05 2.149120e-05 7.542114e-01 5.632935e-01
2.681025e+08 -9.647217e-01 -4.715576e-01 3.434159e-05 -1.940131e-05 -2.765283e-05 4.908070e-06 7.532959e-01 5.640869e-01
2.683203e+08 -9.645996e-01 -4.707031e-01 1.197588e-05 9.317882e-06 -1.908839e-05 -5.468726e-06 7.531128e-01 5.646973e-01
2.685381e+08 -9.639893e-01 -4.703979e-01 -3.173947e-06 -2.555363e-05 1.855008e-05 -2.370402e-05 7.519531e-01 5.659180e-01
2.687559e+08 -9.641724e-01 -4.695435e-01 5.584210e-06 2.741627e-05 -7.435679e-06 -7.161405e-06 7.517700e-01 5.664062e-01
2.689738e+08 -9.645386e-01 -4.691162e-01 2.634712e-05 2.052821e-05 5.639158e-07 -8.777250e-06 7.511597e-01 5.682983e-01
2.691916e+08 -9.643555e-01 -4.681396e-01 -1.493189e-05 1.916103e-05 -1.825485e-05 3.473833e-07 7.503052e-01 5.690308e-01
2.694094e+08 -9.644165e-01 -4.674683e-01 3.303215e-05 -1.277588e-05 -1.728162e-05 5.146489e-05 7.501221e-01 5.695801e-01
2.696272e+08 -9.646606e-01 -4.677734e-01 -6.124843e-06 2.922025e-06 1.658872e-05 -1.200289e-05 7.487183e-01 5.706787e-01
2.698450e+08 -9.647217e-01 -4.664307e-01 -7.187016e-06 -5.595852e-06 4.909933e-06 2.768822e-05 7.485352e-01 5.714111e-01
2.700628e+08 -9.645386e-01 -4.658203e-01 7.726252e-05 -3.988296e-05 -3.513321e-05 3.575347e-05 7.473145e-01 5.726929e-01
2.702806e+08 -9.644165e-01 -4.652710e-01 3.063306e-05 -1.461618e-05 4.131533e-05 1.968257e-05 7.468872e-01 5.730591e-01
2.704984e+08 -9.641113e-01 -4.644775e-01 -1.053326e-06 -8.524396e-06 -1.194701e-05 -1.292862e-05 7.460327e-01 5.745239e-01
2.707162e+08 -9.645386e-01 -4.640503e-01 3.034621e-05 5.681068e-07 8.577481e-06 -1.040753e-05 7.452393e-01 5.750732e-01
2.709341e+08 -9.635010e-01 -4.633179e-01 -1.332629e-05 -2.685003e-06 -1.195632e-05 2.508238e-05 7.459106e-01 5.766602e-01
2.711519e+08 -9.638672e-01 -4.625854e-01 2.478994e-05 -2.688169e-05 4.344806e-05 -2.279319e-05 7.448730e-01 5.764160e-01
2.713697e+08 -9.633179e-01 -4.619751e-01 1.620501e-06 -2.185069e-05 -3.191456e-05 1.377426e-05 7.441406e-01 5.781860e-01
2.715875e+08 -9.635620e-01 -4.623413e-01 2.855249e-05 -3.166683e-05 -2.251379e-05 9.199604e-06 7.433472e-01 5.793457e-01
2.718053e+08 -9.638672e-01 -4.605103e-01 1.916476e-05 1.492910e-05 -2.040341e-05 4.784204e-06 7.426758e-01 5.798340e-01
2.720231e+08 -9.630737e-01 -4.595337e-01 2.393499e-06 1.866953e-06 -3.943220e-06 -1.455750e-05 7.417603e-01 5.808105e-01
2.722409e+08 -9.627686e-01 -4.598389e-01 -7.655472e-06 -4.450232e-05 -3.771298e-05 1.826510e-05 7.412109e-01 5.824585e-01
2.724588e+08 -9.626465e-01 -4.586182e-01 -1.733471e-05 1.730770e-05 -1.238286e-05 3.162771e-06 7.412720e-01 5.829468e-01
2.726766e+08 -9.625244e-01 -4.576416e-01 -3.976002e-05 4.597008e-05 -2.670102e-06 1.322664e-05 7.393188e-01 5.840454e-01
2.728944e+08 -9.624023e-01 -4.566650e-01 1.513772e-05 3.492832e-05 6.036833e-06 -2.793968e-05 7.401123e-01 5.849609e-01
2.731122e+08 -9.623413e-01 -4.566040e-01 2.501905e-05 2.720952e-05 4.055724e-05 1.386553e-05 7.396851e-01 5.859985e-01
2.733300e+08 -9.613037e-01 -4.557495e-01 -1.121964e-05 1.436379e-05 -5.346537e-05 -1.914799e-06 7.386475e-01 5.871582e-01
2.735478e+08 -9.612427e-01 -4.561768e-01 2.961606e-06 -2.848916e-05 2.082158e-05 1.719221e-05 7.377319e-01 5.877075e-01
2.737656e+08 -9.615479e-01 -4.548340e-01 3.735535e-06 -4.792353e-06 3.026985e-05 1.261383e-05 7.378540e-01 5.891724e-01
2.739834e+08 -9.614258e-01 -4.548950e-01 -7.763505e-06 2.476200e-05 -5.946308e-05 -4.738569e-06 7.368164e-01 5.902710e-01
2.742012e+08 -9.607544e-01 -4.544067e-01 -2.100132e-06 -1.706928e-05 6.053597e-06 1.014303e-05 7.372437e-01 5.916748e-01
2.744191e+08 -9.600220e-01 -4.539185e-01 -1.179427e-05 4.474819e-05 7.060589e-07 -1.479173e-06 7.363892e-01 5.922241e-01
2.746369e+08 -9.601440e-01 -4.533691e-01 -5.490705e-05 1.109019e-05 -2.975762e-05 1.668185e-05 7.357178e-01 5.932007e-01
2.748547e+08 -9.595337e-01 -4.519043e-01 2.050586e-05 8.305535e-06 1.974404e-06 -1.176819e-05 7.352295e-01 5.946655e-01
2.750725e+08 -9.606934e-01 -4.518433e-01 1.227111e-05 -5.846843e-06 2.142787e-05 4.656613e-05 7.352295e-01 5.950317e-01
2.752903e+08 -9.591675e-01 -4.514771e-01 -1.197495e-05 -9.351410e-06 1.154281e-05 2.913736e-05 7.340088e-01 5.958862e-01
2.755081e+08 -9.580688e-01 -4.504395e-01 -1.917593e-05 -1.497008e-05 1.902692e-05 -1.822598e-06 7.338867e-01 5.979004e-01
2.757259e+08 -9.577637e-01 -4.495850e-01 3.933907e-05 3.848970e-05 -1.522712e-05 9.086914e-06 7.325439e-01 5.991821e-01
2.759438e+08 -9.574585e-01 -4.494629e-01 3.816374e-05 -2.418831e-05 1.058914e-05 -2.220273e-05 7.323608e-01 5.996704e-01
2.761616e+08 -9.585571e-01 -4.492188e-01 -2.394547e-06 -1.868932e-06 8.049421e-06 -1.620967e-06 7.316895e-01 6.000366e-01
2.763794e+08 -9.577026e-01 -4.483032e-01 5.541369e-06 2.747774e-05 3.756955e-05 -3.303587e-05 7.318726e-01 6.016846e-01
2.765972e+08 -9.559326e-01 -4.476318e-01 -1.496729e-05 1.913868e-05 -3.243797e-05 -8.203089e-06 7.305298e-01 6.023560e-01
2.768150e+08 -9.540405e-01 -4.464111e-01 9.097159e-06 -3.144704e-05 -1.478940e-05 -7.055700e-06 7.314453e-01 6.027832e-01
2.770328e+08 -9.544678e-01 -4.464111e-01 1.543202e-05 1.976267e-05 -2.691522e-06 1.325645e-05 7.306519e-01 6.046143e-01
2.772506e+08 -9.541626e-01 -4.456177e-01 -1.735613e-05 1.730956e-05 1.806859e-05 -1.500640e-05 7.306519e-01 6.051636e-01
2.774684e+08 -9.527588e-01 -4.447021e-01 1.002848e-05 4.640594e-05 2.101343e-05 -1.359079e-05 7.294922e-01 6.065674e-01
2.776862e+08 -9.530640e-01 -4.451294e-01 4.796777e-06 3.739027e-06 1.282897e-06 -1.030229e-05 7.301636e-01 6.068726e-01
2.779041e+08 -9.517212e-01 -4.440308e-01 -1.677033e-05 -1.309253e-05 -2.961839e-06 -1.411419e-06 7.290039e-01 6.082153e-01
2.781219e+08 -9.511719e-01 -4.444580e-01 -2.396991e-06 -1.874636e-06 -3.101863e-05 -1.119077e-05 7.291260e-01 6.099854e-01
2.783397e+08 -9.511719e-01 -4.429932e-01 7.787719e-06 -2.479553e-05 -4.220195e-05 1.989119e-05 7.285156e-01 6.109009e-01
2.785575e+08 -9.507446e-01 -4.431763e-01 2.698973e-06 -1.333654e-05 -5.327165e-07 -2.935529e-05 7.282715e-01 6.117554e-01
2.787753e+08 -9.500122e-01 -4.426880e-01 -1.976639e-05 1.540780e-05 3.766268e-05 1.254305e-05 7.271118e-01 6.123047e-01
2.789931e+08 -9.498291e-01 -4.414062e-01 1.977198e-05 -1.543202e-05 1.720618e-05 1.729466e-05 7.274780e-01 6.134033e-01
2.792109e+08 -9.490356e-01 -4.419556e-01 7.192604e-06 5.614012e-06 -1.765043e-05 -1.152046e-06 7.271729e-01 6.145020e-01
2.794288e+08 -9.485474e-01 -4.404297e-01 3.279001e-05 2.464280e-06 -2.992339e-05 9.380281e-06 7.263184e-01 6.151123e-01
2.796466e+08 -9.483032e-01 -4.404297e-01 -7.394701e-07 -2.374873e-05 5.489215e-06 1.900271e-05 7.266846e-01 6.169434e-01
2.798644e+08 -9.462891e-01 -4.396973e-01 1.018681e-05 -2.292357e-05 5.204231e-05 3.574044e-05 7.262573e-01 6.177368e-01
2.800822e+08 -9.458618e-01 -4.392090e-01 1.604762e-05 -1.063198e-05 4.708767e-05 4.613400e-05 7.258911e-01 6.195679e-01
2.803000e+08 -9.454956e-01 -4.395752e-01 -2.145581e-05 3.729388e-05 -5.671754e-06 1.185481e-05 7.251587e-01 6.205444e-01
2.805178e+08 -9.448853e-01 -4.384155e-01 -1.501292e-06 -4.749000e-05 3.802590e-06 7.276889e-06 7.246094e-01 6.207275e-01
2.807356e+08 -9.434204e-01 -4.382935e-01 2.998859e-07 -1.521315e-05 -1.281220e-05 -1.886953e-05 7.248535e-01 6.221924e-01
2.809534e+08 -9.430542e-01 -4.378662e-01 -4.613772e-05 -5.148351e-06 1.500361e-05 -2.377108e-05 7.240601e-01 6.224365e-01
2.811712e+08 -9.426270e-01 -4.371948e-01 -2.053566e-05 -8.320436e-06 -1.398101e-05 -1.217239e-06 7.240601e-01 6.240234e-01
2.813891e+08 -9.422607e-01 -4.371338e-01 3.792159e-05 -8.981675e-06 -1.359731e-05 2.082530e-05 7.236328e-01 6.251831e-01
2.816069e+08 -9.414062e-01 -4.369507e-01 1.498405e-05 -1.917779e-05 -7.420778e-06 3.834441e-05 7.233276e-01 6.256714e-01
2.818247e+08 -9.403076e-01 -4.368896e-01 8.240342e-06 1.415797e-05 2.526306e-05 1.572631e-05 7.236328e-01 6.267700e-01
2.820425e+08 -9.396362e-01 -4.364014e-01 -1.364015e-05 1.249276e-05 -1.089321e-05 7.540453e-06 7.224121e-01 6.279907e-01
2.822603e+08 -9.389648e-01 -4.356689e-01 -8.233823e-06 -1.416262e-05 -4.447997e-05 -2.124533e-05 7.229614e-01 6.286621e-01
2.824781e+08 -9.385376e-01 -4.354858e-01 2.396642e-06 1.874985e-06 -5.297735e-05 -3.468245e-06 7.227173e-01 6.301880e-01
2.826959e+08 -9.378052e-01 -4.356079e-01 4.813448e-05 -3.189221e-05 -2.823956e-05 -1.714565e-05 7.225952e-01 6.308594e-01
2.829138e+08 -9.364624e-01 -4.357300e-01 2.562813e-05 -3.138557e-06 1.135282e-05 -2.371520e-05 7.222290e-01 6.317749e-01
2.831316e+08 -9.359131e-01 -4.357910e-01 -7.338822e-07 -2.376549e-05 -2.627729e-10 9.256951e-11 7.225342e-01 6.331787e-01
2.833494e+08 -9.345703e-01 -4.348145e-01 -3.553554e-05 1.083873e-05 3.287196e-05 3.030710e-05 7.218018e-01 6.338501e-01
2.835672e+08 -9.349976e-01 -4.342651e-01 2.630055e-06 -6.755814e-05 -3.353320e-05 1.678616e-05 7.217407e-01 6.353149e-01
2.837850e+08 -9.335938e-01 -4.347534e-01 1.659617e-06 -2.188794e-05 -9.019859e-06 -1.161452e-05 7.218018e-01 6.357422e-01
2.840028e+08 -9.318237e-01 -4.341431e-01 -1.709536e-05 2.081506e-06 -2.490170e-05 -3.925525e-05 7.210083e-01 6.374512e-01
2.842206e+08 -9.323120e-01 -4.331665e-01 2.492219e-06 5.606562e-05 6.767921e-06 8.702278e-06 7.208252e-01 6.377563e-01
2.844384e+08 -9.314575e-01 -4.334717e-01 -3.948808e-07 -3.898516e-05 -1.231488e-05 1.050904e-05 7.205811e-01 6.391602e-01
2.846562e+08 -9.298096e-01 -4.336548e-01 1.826882e-05 6.066263e-05 -1.386367e-05 6.106682e-06 7.208252e-01 6.395264e-01
2.848741e+08 -9.285278e-01 -4.332275e-01 9.907410e-06 -7.718801e-06 1.042755e-05 8.645002e-06 7.208862e-01 6.409912e-01
2.850919e+08 -9.280396e-01 -4.331055e-01 4.739314e-05 -5.575642e-05 2.904609e-05 2.303533e-05 7.213135e-01 6.412964e-01
2.853097e+08 -9.280396e-01 -4.334106e-01 3.151037e-05 9.171665e-06 1.992099e-05 4.086643e-06 7.208862e-01 6.433105e-01
2.855275e+08 -9.268188e-01 -4.323120e-01 2.635457e-05 2.063252e-05 4.552305e-05 -3.717840e-06 7.193604e-01 6.437378e-01
2.857453e+08 -9.262695e-01 -4.331055e-01 -1.260079e-05 2.106838e-05 4.510861e-06 5.807728e-06 7.202759e-01 6.444702e-01
2.859631e+08 -9.254761e-01 -4.326782e-01 -1.189113e-05 4.484504e-05 1.375005e-05 -1.347531e-05 7.198486e-01 6.458130e-01
2.861809e+08 -9.246826e-01 -4.320679e-01 1.889654e-05 3.026985e-05 3.806129e-05 -1.093745e-05 7.204590e-01 6.469727e-01
2.863988e+08 -9.234009e-01 -4.319458e-01 1.982227e-05 -1.542270e-05 5.885959e-07 -8.830801e-06 7.191772e-01 6.475220e-01
2.866166e+08 -9.236450e-01 -4.317017e-01 -2.223812e-05 1.354888e-05 -1.922902e-05 -5.551614e-06 7.193604e-01 6.489258e-01
2.868344e+08 -9.213257e-01 -4.331665e-01 -1.638010e-05 2.587773e-05 7.238239e-06 -7.469207e-06 7.193604e-01 6.493530e-01
2.870522e+08 -9.208984e-01 -4.324341e-01 3.222004e-05 3.298372e-05 -2.300926e-05 -1.287088e-05 7.188721e-01 6.506958e-01
2.872700e+08 -9.196167e-01 -4.315796e-01 -3.693625e-05 1.750700e-05 9.119511e-06 -2.662279e-05 7.187500e-01 6.511230e-01
2.874878e+08 -9.202271e-01 -4.315796e-01 1.064315e-05 1.607928e-05 -4.514121e-06 -5.811453e-06 7.191772e-01 6.525269e-01
2.877056e+08 -9.193115e-01 -4.321899e-01 -1.336448e-05 -2.725981e-06 2.149679e-05 8.475035e-06 7.190552e-01 6.535645e-01
2.879234e+08 -9.169312e-01 -4.312134e-01 2.567470e-05 -3.110617e-06 1.979154e-05 -3.272668e-06 7.186279e-01 6.541138e-01
2.881412e+08 -9.168701e-01 -4.316406e-01 2.873875e-05 -3.171898e-05 2.208352e-05 4.524738e-05 7.188110e-01 6.553955e-01
2.883591e+08 -9.151611e-01 -4.318237e-01 -1.232512e-05 5.844980e-06 7.468741e-06 7.234048e-06 7.191162e-01 6.559448e-01
2.885769e+08 -9.151611e-01 -4.318237e-01 -1.096725e-05 -8.353963e-07 3.455207e-06 3.085099e-05 7.192383e-01 6.566772e-01
2.887947e+08 -9.138184e-01 -4.312134e-01 -2.193078e-05 -1.659617e-06 2.442859e-05 9.886920e-06 7.191772e-01 6.569214e-01
2.890125e+08 -9.135132e-01 -4.318237e-01 1.304969e-05 1.796987e-05 2.277456e-05 -1.842156e-06 7.186279e-01 6.587524e-01
2.892303e+08 -9.121704e-01 -4.318848e-01 1.304224e-05 1.796894e-05 -2.488866e-05 -3.931113e-05 7.185059e-01 6.595459e-01
2.894481e+08 -9.110107e-01 -4.328003e-01 -1.359265e-06 6.683636e-06 -1.137145e-05 -2.188236e-05 7.184448e-01 6.602173e-01
2.896659e+08 -9.104004e-01 -4.321289e-01 1.849514e-05 -8.773059e-06 -1.280382e-05 -1.890957e-05 7.191162e-01 6.607056e-01
2.898838e+08 -9.097900e-01 -4.329224e-01 8.559786e-06 -1.035165e-06 4.187599e-05 -3.604218e-06 7.176514e-01 6.613159e-01
2.901016e+08 -9.085083e-01 -4.329834e-01 5.549937e-05 -2.634525e-05 9.667128e-07 -3.236905e-05 7.196655e-01 6.621704e-01
2.903194e+08 -9.074097e-01 -4.332275e-01 -4.284456e-05 5.174428e-06 -2.987310e-05 -2.895482e-05 7.186279e-01 6.637573e-01
2.905372e+08 -9.070435e-01 -4.323120e-01 -5.789101e-06 4.201010e-05 3.366545e-05 -9.374693e-06 7.187500e-01 6.642456e-01
2.907550e+08 -9.060669e-01 -4.326782e-01 4.966184e-05 -3.867969e-05 1.300126e-06 3.528036e-05 7.192383e-01 6.647949e-01
2.909728e+08 -9.060669e-01 -4.328613e-01 2.125837e-05 -2.214313e-05 -1.542084e-05 1.722947e-06 7.188721e-01 6.668091e-01
2.911906e+08 -9.048462e-01 -4.335327e-01 -3.810972e-05 -4.542246e-05 4.859641e-06 2.788380e-05 7.178955e-01 6.674805e-01
2.914084e+08 -9.025879e-01 -4.328613e-01 6.087124e-06 -5.727261e-05 1.101941e-05 -1.769513e-07 7.178955e-01 6.674805e-01
2.916262e+08 -9.022827e-01 -4.331055e-01 -3.022142e-05 -1.590140e-05 1.137704e-05 -2.371334e-05 7.185669e-01 6.683350e-01
2.918441e+08 -9.017334e-01 -4.338989e-01 -2.162904e-05 -1.697615e-05 -4.671887e-05 -2.429634e-05 7.178345e-01 6.699829e-01
2.920619e+08 -9.014282e-01 -4.337769e-01 2.469681e-05 -1.168624e-05 -7.589348e-06 -1.459848e-05 7.182007e-01 6.705933e-01
2.922797e+08 -9.003296e-01 -4.344482e-01 -3.445894e-06 -1.046620e-05 -1.768488e-05 -1.202337e-06 7.185669e-01 6.710815e-01
2.924975e+08 -8.993530e-01 -4.336548e-01 -2.784841e-05 -1.404248e-05 7.236842e-06 -7.471070e-06 7.192993e-01 6.721191e-01
2.927153e+08 -8.982544e-01 -4.349976e-01 -3.632158e-05 4.138798e-05 8.181669e-06 5.763490e-06 7.179565e-01 6.723633e-01
2.929331e+08 -8.970947e-01 -4.341431e-01 3.570504e-05 -1.084059e-05 3.461353e-05 3.872439e-06 7.183838e-01 6.737061e-01
2.931509e+08 -8.966675e-01 -4.342041e-01 -1.476333e-05 3.967434e-06 -8.065253e-06 1.602340e-06 7.188721e-01 6.739502e-01
2.933688e+08 -8.961792e-01 -4.342041e-01 2.679043e-05 5.455688e-06 1.828000e-05 3.795885e-05 7.185059e-01 6.745605e-01
2.935866e+08 -8.952637e-01 -4.357300e-01 -2.075918e-06 -1.718104e-05 -8.185394e-06 -5.758833e-06 7.188721e-01 6.762085e-01
2.938044e+08 -8.942261e-01 -4.358521e-01 -2.989918e-05 2.323091e-05 1.673959e-05 -1.204107e-05 7.194824e-01 6.768799e-01
2.940222e+08 -8.939209e-01 -4.364014e-01 7.213093e-06 5.675945e-06 3.792811e-06 7.302035e-06 7.184448e-01 6.779785e-01
2.942400e+08 -8.917847e-01 -4.368286e-01 1.036562e-06 8.591916e-06 -6.968156e-06 -2.342835e-05 7.191772e-01 6.779175e-01
2.944578e+08 -8.919678e-01 -4.359741e-01 8.267350e-06 1.425948e-05 -1.316424e-05 4.624017e-06 7.196655e-01 6.785278e-01
2.946756e+08 -8.909912e-01 -4.378052e-01 -3.062189e-06 2.871454e-05 2.136081e-05 1.146458e-06 7.197876e-01 6.790161e-01
2.948934e+08 -8.902588e-01 -4.372559e-01 1.887791e-05 -2.408028e-05 3.023073e-05 5.102158e-05 7.194824e-01 6.792603e-01
2.951112e+08 -8.892212e-01 -4.377441e-01 -8.761883e-05 3.235787e-05 -8.066650e-06 1.595821e-06 7.188721e-01 6.803589e-01
2.953291e+08 -8.878784e-01 -4.377441e-01 -1.067668e-05 -1.615845e-05 -2.942979e-06 -4.700199e-05 7.194824e-01 6.812744e-01
2.955469e+08 -8.879395e-01 -4.378662e-01 -1.444295e-05 4.316866e-05 4.245900e-05 3.317185e-05 7.189941e-01 6.823120e-01
2.957647e+08 -8.870850e-01 -4.389038e-01 -6.221512e-11 -5.136656e-10 9.723473e-06 1.015421e-05 7.197266e-01 6.823120e-01
2.959825e+08 -8.858643e-01 -4.388428e-01 -9.305775e-06 -2.286211e-05 1.482014e-05 7.125549e-06 7.192383e-01 6.827393e-01
2.962003e+08 -8.833008e-01 -4.388428e-01 -9.067357e-06 6.548315e-05 2.712361e-06 2.187793e-06 7.199707e-01 6.856079e-01
2.964181e+08 -8.826294e-01 -4.390869e-01 2.488494e-05 6.736442e-05 2.644584e-05 1.613051e-06 7.208862e-01 6.857910e-01
2.966359e+08 -8.811035e-01 -4.395142e-01 1.411140e-05 1.864042e-05 1.331326e-05 1.789257e-05 7.200928e-01 6.865845e-01
2.968538e+08 -8.806763e-01 -4.400635e-01 2.056547e-05 -3.848225e-06 3.395602e-05 2.558529e-05 7.208862e-01 6.871948e-01
2.970716e+08 -8.806763e-01 -4.401245e-01 -1.906324e-05 -1.444295e-05 -8.140225e-06 -6.558839e-06 7.205200e-01 6.875610e-01
2.972894e+08 -8.790894e-01 -4.406128e-01 1.979433e-05 -1.681410e-05 1.537846e-06 -4.127854e-06 7.218018e-01 6.884155e-01
2.975072e+08 -8.780518e-01 -4.412231e-01 1.184642e-05 2.399273e-05 4.706532e-05 9.343028e-06 7.210083e-01 6.890869e-01
2.977250e+08 -8.781128e-01 -4.409180e-01 2.403930e-05 1.025759e-05 -1.854543e-05 1.191348e-05 7.208252e-01 6.903687e-01
2.979428e+08 -8.770142e-01 -4.415894e-01 1.295749e-05 -7.729977e-07 1.040380e-05 -1.845974e-05 7.200928e-01 6.907959e-01
2.981606e+08 -8.767700e-01 -4.421387e-01 3.009476e-05 -1.872145e-05 -6.463379e-06 -5.530939e-05 7.205811e-01 6.911621e-01
2.983784e+08 -8.757324e-01 -4.434204e-01 -7.244200e-05 7.010996e-06 8.340925e-06 4.074909e-05 7.213135e-01 6.911621e-01
2.985962e+08 -8.745728e-01 -4.426880e-01 3.128499e-05 7.115304e-07 2.237968e-06 1.610629e-05 7.212524e-01 6.923828e-01
2.988141e+08 -8.743896e-01 -4.437866e-01 -2.673129e-06 -1.139706e-06 2.538972e-05 -8.190051e-06 7.212524e-01 6.929321e-01
2.990319e+08 -8.735962e-01 -4.446411e-01 1.720339e-05 2.629682e-05 -1.948047e-05 -1.390465e-06 7.208862e-01 6.933594e-01
2.992497e+08 -8.724976e-01 -4.445190e-01 4.319102e-05 2.469122e-05 1.484435e-05 1.377147e-05 7.223511e-01 6.932983e-01
2.994675e+08 -8.718262e-01 -4.453125e-01 2.207980e-05 -2.218038e-05 -1.177005e-05 -2.202764e-05 7.214966e-01 6.938477e-01
2.996853e+08 -8.712769e-01 -4.451904e-01 5.744398e-06 8.760486e-06 3.313646e-05 8.836389e-06 7.216187e-01 6.944580e-01
2.999031e+08 -8.710938e-01 -4.463501e-01 -2.211705e-05 2.217852e-05 1.645833e-05 4.731491e-05 7.218018e-01 6.951904e-01
3.001209e+08 -8.701782e-01 -4.468994e-01 -3.740191e-05 2.830289e-05 -1.004664e-05 8.011237e-06 7.218018e-01 6.962891e-01
3.003388e+08 -8.693237e-01 -4.471436e-01 5.346257e-06 2.285466e-06 -1.784414e-06 1.109205e-05 7.213745e-01 6.964722e-01
3.005566e+08 -8.684692e-01 -4.478149e-01 -6.854534e-06 1.604576e-05 -2.212264e-05 3.406778e-05 7.216797e-01 6.971436e-01
3.007744e+08 -8.676147e-01 -4.484863e-01 -1.935288e-06 -3.246404e-05 2.514571e-05 -1.188368e-06 7.214966e-01 6.984253e-01
3.009922e+08 -8.661499e-01 -4.477539e-01 1.643505e-05 1.334772e-05 -7.523224e-06 -2.394244e-05 7.214355e-01 6.983643e-01
3.012100e+08 -8.665771e-01 -4.497681e-01 -9.965152e-06 -3.590621e-05 -1.067109e-05 2.542511e-05 7.219238e-01 6.992188e-01
3.014278e+08 -8.657227e-01 -4.495850e-01 -7.249881e-06 9.557698e-06 -1.109205e-05 -1.785345e-06 7.217407e-01 6.993408e-01
3.016456e+08 -8.654785e-01 -4.501343e-01 1.449417e-05 -1.911540e-05 -1.645461e-05 3.149919e-05 7.216187e-01 6.997681e-01
3.018634e+08 -8.642578e-01 -4.498901e-01 -3.021955e-05 -2.556667e-05 -3.395602e-06 -2.241693e-05 7.218018e-01 7.006226e-01
3.020812e+08 -8.635254e-01 -4.514160e-01 3.670156e-05 3.006309e-06 -1.170672e-05 1.562014e-05 7.222900e-01 7.008667e-01
3.022991e+08 -8.630371e-01 -4.526978e-01 -1.382083e-05 -5.652755e-05 -4.686415e-06 -2.527051e-05 7.216187e-01 7.008667e-01
3.025169e+08 -8.621826e-01 -4.529419e-01 3.284588e-05 -1.765788e-05 1.362897e-05 -3.018789e-05 7.229614e-01 7.011719e-01
3.027347e+08 -8.616333e-01 -4.534912e-01 -1.678430e-05 2.450310e-05 1.293374e-06 2.834946e-06 7.225342e-01 7.018433e-01
3.029525e+08 -8.609619e-01 -4.542847e-01 3.125519e-05 -4.361942e-05 -2.246350e-06 -5.378574e-05 7.221069e-01 7.016602e-01
3.031703e+08 -8.602295e-01 -4.537354e-01 -9.611249e-06 -2.942234e-05 -1.711678e-05 1.124199e-05 7.225342e-01 7.022705e-01
3.033881e+08 -8.600464e-01 -4.548950e-01 -4.206225e-05 -5.256385e-06 1.054071e-05 -2.194010e-05 7.224121e-01 7.023315e-01
3.036059e+08 -8.599854e-01 -4.561768e-01 3.634952e-05 -3.501773e-06 5.532056e-07 2.374314e-05 7.225342e-01 7.036133e-01
3.038238e+08 -8.580322e-01 -4.561157e-01 3.501773e-07 -3.787316e-05 1.842808e-05 -8.398667e-06 7.217407e-01 7.042236e-01
3.040416e+08 -8.580322e-01 -4.572754e-01 1.189113e-05 2.408028e-05 -5.951151e-06 -2.812408e-05 7.222290e-01 7.039185e-01
3.042594e+08 -8.577271e-01 -4.571533e-01 -1.456961e-05 -2.524257e-05 1.020730e-05 2.617761e-05 7.221069e-01 7.048340e-01
3.044772e+08 -8.569946e-01 -4.591675e-01 -4.256144e-06 -2.717599e-05 6.582588e-06 1.071207e-05 7.228394e-01 7.050171e-01
3.046950e+08 -8.569336e-01 -4.580078e-01 -2.219528e-05 -2.218038e-05 1.134817e-05 -5.173497e-06 7.212524e-01 7.053223e-01
3.049128e+08 -8.557739e-01 -4.588623e-01 -2.868660e-05 4.339963e-07 -6.714836e-06 -7.215887e-06 7.219238e-01 7.045898e-01
3.051306e+08 -8.549194e-01 -4.591675e-01 -1.604110e-05 3.755651e-05 6.419048e-05 -1.866370e-06 7.222900e-01 7.064209e-01
3.053484e+08 -8.550415e-01 -4.601440e-01 3.071036e-06 7.646158e-06 4.373118e-05 2.459064e-05 7.215576e-01 7.062378e-01
3.055662e+08 -8.542480e-01 -4.611816e-01 3.906898e-07 6.505754e-06 -1.251046e-05 -1.159497e-06 7.219238e-01 7.069092e-01
3.057841e+08 -8.535767e-01 -4.616089e-01 -2.834201e-05 6.945804e-06 2.075452e-05 4.235655e-06 7.227173e-01 7.077026e-01
3.060019e+08 -8.533325e-01 -4.622192e-01 -4.555658e-05 2.496690e-05 7.467344e-06 -1.368020e-05 7.222900e-01 7.082520e-01
3.062197e+08 -8.522339e-01 -4.628296e-01 -4.283711e-05 2.610683e-05 3.984571e-05 1.610629e-05 7.216187e-01 7.080078e-01
3.064375e+08 -8.518677e-01 -4.639282e-01 -7.878989e-07 -1.303013e-05 -3.869087e-05 -4.745275e-05 7.227783e-01 7.084961e-01
3.066553e+08 -8.517456e-01 -4.649048e-01 -1.959503e-06 -3.258139e-05 3.857538e-05 1.329370e-05 7.224121e-01 7.094116e-01
3.068731e+08 -8.513184e-01 -4.652710e-01 2.115220e-05 4.709139e-05 5.483627e-05 -1.122802e-05 7.220459e-01 7.089233e-01
3.070909e+08 -8.509521e-01 -4.654541e-01 1.034699e-05 -1.927838e-06 -2.257898e-05 6.848946e-06 7.225342e-01 7.094727e-01
3.073088e+08 -8.503418e-01 -4.657593e-01 -1.152046e-05 -1.762621e-05 1.704693e-05 2.990663e-05 7.224121e-01 7.100220e-01
3.075266e+08 -8.496704e-01 -4.658813e-01 -1.572259e-05 -3.781170e-07 -4.987791e-05 2.957135e-05 7.219238e-01 7.106323e-01
3.077444e+08 -8.490601e-01 -4.668579e-01 2.109073e-05 2.652407e-06 -1.950003e-05 -3.905036e-05 7.222290e-01 7.102051e-01
3.079622e+08 -8.486328e-01 -4.677124e-01 -3.642589e-05 3.455207e-06 3.236905e-05 -7.877126e-06 7.211914e-01 7.113647e-01
3.081800e+08 -8.481445e-01 -4.683838e-01 1.113676e-05 1.111347e-05 5.252659e-07 2.373196e-05 7.221069e-01 7.112427e-01
3.083978e+08 -8.482666e-01 -4.683838e-01 -1.035538e-05 1.938082e-06 3.507920e-05 -5.710870e-06 7.227173e-01 7.109375e-01
3.086156e+08 -8.476562e-01 -4.697266e-01 -7.692724e-06 -4.144013e-05 -3.032945e-05 2.748333e-05 7.216797e-01 7.121582e-01
3.088334e+08 -8.472900e-01 -4.699707e-01 -2.191029e-05 -1.571327e-05 2.504326e-05 2.315268e-06 7.222900e-01 7.123413e-01
3.090512e+08 -8.471069e-01 -4.711304e-01 -2.032332e-05 1.037307e-05 1.922250e-06 2.311543e-05 7.214966e-01 7.119751e-01
3.092691e+08 -8.456421e-01 -4.716797e-01 3.070384e-05 -1.232885e-05 9.814277e-06 -3.869832e-05 7.223511e-01 7.128906e-01
3.094869e+08 -8.460693e-01 -4.715576e-01 -1.524575e-06 1.842529e-05 1.097564e-05 5.279668e-06 7.213745e-01 7.130737e-01
3.097047e+08 -8.457031e-01 -4.724731e-01 -2.537109e-05 -2.991408e-05 3.691204e-05 -1.680665e-05 7.210083e-01 7.131348e-01
3.099225e+08 -8.452759e-01 -4.738159e-01 8.847564e-06 1.649372e-05 -2.066232e-05 -7.756986e-06 7.207031e-01 7.132568e-01
3.101403e+08 -8.444214e-01 -4.736328e-01 -8.070841e-06 -3.446825e-06 -2.710149e-06 -2.193963e-06 7.213135e-01 7.135010e-01
3.103581e+08 -8.439331e-01 -4.749146e-01 1.423899e-05 1.881924e-05 1.936220e-05 4.260056e-05 7.208862e-01 7.149658e-01
3.105759e+08 -8.436890e-01 -4.751587e-01 -2.995692e-05 -1.917593e-05 1.045968e-05 -1.845788e-05 7.200928e-01 7.142944e-01
3.107938e+08 -8.447266e-01 -4.759521e-01 3.036112e-05 2.574548e-05 3.620051e-06 1.550652e-05 7.203369e-01 7.155762e-01
3.110116e+08 -8.433228e-01 -4.763184e-01 -5.381647e-06 -2.302695e-06 3.796257e-05 3.073737e-05 7.205200e-01 7.155151e-01
3.112294e+08 -8.433228e-01 -4.769287e-01 2.961233e-05 -3.189594e-05 3.407709e-05 2.222136e-05 7.198486e-01 7.163086e-01
3.114472e+08 -8.429565e-01 -4.780884e-01 2.226233e-05 -6.684288e-05 -2.284348e-05 -2.390333e-05 7.194214e-01 7.155151e-01
3.116650e+08 -8.426514e-01 -4.782715e-01 7.525086e-07 -7.610768e-05 3.331713e-05 5.440786e-06 7.199707e-01 7.156982e-01
3.118828e+08 -8.422241e-01 -4.788818e-01 2.808683e-05 3.111921e-05 1.097377e-05 5.301088e-06 7.201538e-01 7.161255e-01
3.121006e+08 -8.410645e-01 -4.788208e-01 5.500764e-05 -1.952052e-06 2.722256e-05 -1.921877e-05 7.199707e-01 7.167358e-01
3.123184e+08 -8.408813e-01 -4.796143e-01 -2.192333e-05 -1.575239e-05 6.028637e-05 3.088266e-05 7.193604e-01 7.166748e-01
3.125362e+08 -8.419189e-01 -4.807129e-01 -1.153909e-05 -1.769327e-05 -1.369696e-05 -7.502735e-06 7.194214e-01 7.174683e-01
3.127541e+08 -8.404541e-01 -4.809570e-01 4.690140e-05 -5.003065e-05 3.522821e-05 2.855062e-05 7.191772e-01 7.175293e-01
3.129719e+08 -8.400269e-01 -4.819336e-01 2.498925e-05 2.343766e-05 2.221391e-05 3.632158e-06 7.186279e-01 7.167969e-01
3.131897e+08 -8.397827e-01 -4.820557e-01 -1.922995e-05 -1.461245e-05 -7.284060e-05 5.666167e-06 7.183228e-01 7.177734e-01
3.134075e+08 -8.399048e-01 -4.827271e-01 6.921589e-06 -6.081164e-05 -9.428710e-06 -9.441748e-06 7.185669e-01 7.186890e-01
3.136253e+08 -8.392944e-01 -4.833984e-01 1.845788e-05 1.535751e-06 1.292583e-05 -9.289943e-06 7.177734e-01 7.182617e-01
3.138431e+08 -8.389893e-01 -4.838257e-01 6.886944e-05 1.035258e-05 -2.297945e-05 -2.044067e-05 7.179565e-01 7.185059e-01
3.140609e+08 -8.389282e-01 -4.841919e-01 3.194623e-05 7.294118e-06 5.848706e-06 -4.380569e-05 7.182617e-01 7.186890e-01
3.142788e+08 -8.391724e-01 -4.858398e-01 -1.535565e-05 5.082786e-05 2.251379e-05 -3.337860e-06 7.181396e-01 7.188721e-01
3.144966e+08 -8.386230e-01 -4.857178e-01 -5.003531e-06 4.240312e-06 3.873836e-06 8.534640e-06 7.186890e-01 7.186890e-01
3.147144e+08 -8.378906e-01 -4.864502e-01 -1.502130e-05 1.270138e-05 -4.187413e-05 -1.581386e-06 7.174683e-01 7.199707e-01
3.149322e+08 -8.385620e-01 -4.869995e-01 -2.735667e-05 2.652779e-05 -1.863670e-05 1.189578e-05 7.164917e-01 7.199707e-01
3.151500e+08 -8.379517e-01 -4.874878e-01 -2.156571e-05 -9.253621e-06 -1.022965e-05 1.150090e-05 7.169800e-01 7.207031e-01
3.153678e+08 -8.383179e-01 -4.889526e-01 4.042685e-05 1.731887e-05 -1.295097e-05 9.308569e-06 7.167358e-01 7.203369e-01
3.155856e+08 -8.374634e-01 -4.890137e-01 -1.462363e-05 -2.542324e-05 2.612174e-05 1.218542e-05 7.157593e-01 7.210083e-01
3.158034e+08 -8.374023e-01 -4.885864e-01 -1.389161e-05 3.233366e-05 1.992285e-05 -9.044074e-06 7.150269e-01 7.212524e-01
3.160212e+08 -8.374634e-01 -4.899292e-01 4.623085e-06 -1.077540e-05 1.514051e-05 6.873161e-06 7.145996e-01 7.208862e-01
3.162391e+08 -8.369141e-01 -4.898071e-01 3.869645e-07 6.549992e-06 2.509542e-05 2.345070e-06 7.155151e-01 7.216187e-01
3.164569e+08 -8.369141e-01 -4.905396e-01 4.246831e-06 -1.733657e-05 2.047047e-05 -2.302416e-05 7.149048e-01 7.221680e-01
3.166747e+08 -8.363647e-01 -4.920654e-01 -3.352575e-05 1.117215e-05 -5.970709e-06 9.569805e-06 7.150879e-01 7.216187e-01
3.168925e+08 -8.360596e-01 -4.916992e-01 -5.009118e-06 4.236121e-06 9.571668e-06 5.962793e-06 7.141724e-01 7.221680e-01
3.171103e+08 -8.360596e-01 -4.918823e-01 2.311543e-06 3.927015e-05 2.691150e-05 2.900325e-05 7.135620e-01 7.216187e-01
3.173281e+08 -8.359985e-01 -4.929810e-01 -9.624287e-06 -2.966635e-05 -2.755597e-05 -1.155213e-05 7.135010e-01 7.224121e-01
3.175459e+08 -8.347778e-01 -4.932861e-01 -2.041645e-05 -3.431179e-05 4.537869e-06 -8.918811e-06 7.135620e-01 7.229614e-01
3.177638e+08 -8.361816e-01 -4.942017e-01 1.038238e-05 -4.664809e-05 -5.171634e-06 -1.140404e-05 7.135620e-01 7.228394e-01
3.179816e+08 -8.355713e-01 -4.941406e-01 -2.465956e-05 2.774224e-05 -2.720580e-05 1.576357e-05 7.128296e-01 7.230835e-01
3.181994e+08 -8.355713e-01 -4.950562e-01 -4.357472e-05 1.963228e-05 3.594905e-07 2.732873e-05 7.125854e-01 7.237549e-01
3.184172e+08 -8.346558e-01 -4.954224e-01 -1.965277e-05 -2.122484e-05 3.713369e-05 -5.455688e-05 7.125854e-01 7.240601e-01
3.186350e+08 -8.341675e-01 -4.954834e-01 -1.518056e-06 -2.621673e-05 2.123509e-05 -6.183982e-06 7.116699e-01 7.243042e-01
3.188528e+08 -8.348999e-01 -4.960938e-01 -1.193583e-05 -2.429634e-05 -2.165884e-05 1.668278e-05 7.118530e-01 7.245483e-01
3.190706e+08 -8.341064e-01 -4.966431e-01 -2.470613e-05 2.773665e-05 -2.824143e-05 5.912036e-06 7.109375e-01 7.247925e-01
3.192884e+08 -8.339844e-01 -4.970703e-01 1.428649e-05 -2.581626e-05 -9.387732e-06 -4.730374e-05 7.107544e-01 7.250977e-01
3.195062e+08 -8.343506e-01 -4.975586e-01 -1.619942e-05 -6.946735e-06 -5.083159e-06 2.292544e-05 7.113037e-01 7.250366e-01
3.197241e+08 -8.338623e-01 -4.978638e-01 1.136214e-06 1.966022e-05 -2.031308e-05 -1.829676e-05 7.100830e-01 7.254028e-01
3.199419e+08 -8.349609e-01 -4.989624e-01 8.089002e-06 3.473833e-06 4.712120e-05 -2.135709e-05 7.091064e-01 7.255859e-01
3.201597e+08 -8.341675e-01 -4.984131e-01 -3.354996e-05 1.117587e-05 1.457706e-05 -5.131587e-05 7.094727e-01 7.261963e-01
3.203775e+08 -8.328857e-01 -4.992676e-01 3.430434e-05 1.966953e-06 -3.136508e-05 1.421757e-05 7.084351e-01 7.267456e-01
3.205953e+08 -8.333130e-01 -5.004883e-01 4.636124e-06 -1.079589e-05 1.225248e-05 4.605204e-05 7.086792e-01 7.272339e-01
3.208131e+08 -8.324585e-01 -5.000610e-01 2.048165e-05 -5.513802e-05 1.746323e-05 1.958013e-05 7.080688e-01 7.273560e-01
3.210309e+08 -8.331909e-01 -5.008545e-01 -1.387764e-05 -1.235865e-05 -1.762155e-05 -1.609512e-05 7.080688e-01 7.279663e-01
3.212488e+08 -8.339844e-01 -5.018921e-01 3.704615e-05 3.112480e-06 -1.143105e-05 5.180016e-06 7.080688e-01 7.280884e-01
3.214666e+08 -8.328247e-01 -5.022583e-01 3.783964e-05 -2.850406e-05 3.453344e-05 -2.253801e-05 7.066650e-01 7.285767e-01
3.216844e+08 -8.327026e-01 -5.022583e-01 -3.471598e-05 -8.529052e-06 -1.794472e-05 2.877042e-05 7.065430e-01 7.283936e-01
3.219022e+08 -8.325806e-01 -5.020752e-01 -7.281080e-06 -3.511645e-05 -1.102407e-05 -5.331822e-06 7.061157e-01 7.283936e-01
3.221200e+08 -8.325195e-01 -5.028076e-01 -1.836042e-10 -4.608580e-10 1.583993e-05 -1.062173e-05 7.048340e-01 7.288208e-01
3.223378e+08 -8.317871e-01 -5.032959e-01 1.889374e-05 8.135103e-06 -9.457115e-06 -9.482726e-06 7.048340e-01 7.300415e-01
3.225556e+08 -8.316650e-01 -5.040894e-01 1.896359e-05 -3.663450e-05 -4.455075e-05 2.704561e-05 7.044678e-01 7.302856e-01
3.227734e+08 -8.327026e-01 -5.042725e-01 1.963601e-05 2.124533e-05 3.132597e-05 -1.073629e-05 7.036133e-01 7.300415e-01
3.229912e+08 -8.324585e-01 -5.044556e-01 -7.719267e-06 3.075227e-06 -1.440570e-05 -2.793968e-05 7.036743e-01 7.302856e-01
3.232091e+08 -8.316040e-01 -5.046387e-01 -1.507625e-05 1.268089e-05 -2.613477e-05 2.215803e-05 7.021484e-01 7.311401e-01
3.234269e+08 -8.310547e-01 -5.048828e-01 1.852214e-05 1.558103e-06 5.715527e-06 -2.583489e-06 7.032471e-01 7.309570e-01
3.236447e+08 -8.311768e-01 -5.048828e-01 -3.013946e-05 2.540275e-05 1.102313e-05 5.337410e-06 7.020874e-01 7.314453e-01
3.238625e+08 -8.313599e-01 -5.053711e-01 -2.430193e-05 -1.046993e-05 8.195639e-08 3.439374e-05 7.019043e-01 7.324219e-01
3.240803e+08 -8.315430e-01 -5.068359e-01 4.122406e-05 3.053993e-05 3.481656e-05 8.381903e-06 7.015991e-01 7.318726e-01
3.242981e+08 -8.310547e-01 -5.065308e-01 1.206994e-06 -2.507865e-05 -3.288127e-05 1.488812e-05 7.012939e-01 7.325439e-01
3.245159e+08 -8.303223e-01 -5.068359e-01 2.435781e-05 -3.428012e-05 1.075584e-05 1.235865e-05 7.001343e-01 7.327881e-01
3.247338e+08 -8.300171e-01 -5.071411e-01 3.658980e-05 4.132092e-05 -2.199784e-05 2.371892e-05 7.002563e-01 7.327881e-01
3.249516e+08 -8.300171e-01 -5.076904e-01 3.556907e-05 -2.305023e-05 3.743917e-06 1.208950e-05 6.991577e-01 7.346191e-01
3.251694e+08 -8.301392e-01 -5.074463e-01 3.894791e-06 -2.392568e-05 -2.636202e-05 -8.743256e-06 6.997681e-01 7.344971e-01
3.253872e+08 -8.301392e-01 -5.072632e-01 -4.170462e-06 -2.740882e-05 7.546507e-06 -1.376588e-05 6.984253e-01 7.351074e-01
3.256050e+08 -8.300781e-01 -5.082397e-01 2.158619e-05 9.322539e-06 -9.402633e-06 -4.747137e-05 6.979370e-01 7.358398e-01
3.258228e+08 -8.302002e-01 -5.087891e-01 5.398318e-05 2.327561e-05 -1.635961e-05 -1.328439e-05 6.979980e-01 7.358398e-01
3.260406e+08 -8.302612e-01 -5.093384e-01 -4.318729e-05 -1.860783e-05 -1.747161e-06 4.564971e-05 6.975708e-01 7.360229e-01
3.262584e+08 -8.302612e-01 -5.095825e-01 -3.565103e-06 3.048778e-05 -3.307872e-05 1.840852e-05 6.968994e-01 7.373657e-01
3.264762e+08 -8.294678e-01 -5.093384e-01 3.812835e-06 2.084114e-05 2.126209e-05 -4.066341e-05 6.965942e-01 7.363281e-01
3.266941e+08 -8.300171e-01 -5.098267e-01 2.856925e-05 -6.882474e-06 -8.857809e-06 1.092162e-05 6.962891e-01 7.369385e-01
3.269119e+08 -8.297729e-01 -5.098877e-01 1.432747e-05 -2.582930e-05 -2.094172e-05 -4.319474e-06 6.958008e-01 7.376709e-01
3.271297e+08 -8.291626e-01 -5.098877e-01 -3.330410e-06 -5.903095e-05 -6.265007e-06 1.664460e-05 6.950684e-01 7.376709e-01
3.273475e+08 -8.289185e-01 -5.101929e-01 -2.122298e-05 -2.749264e-06 3.082678e-05 3.295019e-06 6.945801e-01 7.382812e-01
3.275653e+08 -8.281860e-01 -5.112305e-01 3.431924e-05 2.017245e-06 4.228204e-06 3.605336e-05 6.932373e-01 7.384644e-01
3.277831e+08 -8.291626e-01 -5.114746e-01 -1.226179e-05 -3.091432e-05 1.468789e-05 2.097711e-05 6.930542e-01 7.396240e-01
3.280009e+08 -8.286133e-01 -5.119019e-01 2.391264e-05 3.932044e-06 -2.335198e-05 2.092682e-05 6.926270e-01 7.398071e-01
3.282188e+08 -8.278198e-01 -5.113525e-01 -4.129857e-05 1.417100e-05 1.528300e-05 -3.108755e-05 6.923218e-01 7.396851e-01
3.284366e+08 -8.279419e-01 -5.120239e-01 -3.246218e-05 3.080443e-05 -2.294406e-05 1.037493e-05 6.921997e-01 7.399902e-01
3.286544e+08 -8.283691e-01 -5.119019e-01 -6.852672e-06 -2.857298e-05 -2.535433e-05 -3.690459e-05 6.909180e-01 7.412109e-01
3.288722e+08 -8.274536e-01 -5.122681e-01 -1.079589e-05 -4.654750e-06 -2.218038e-05 -4.523620e-05 6.913452e-01 7.413940e-01
3.290900e+08 -8.276367e-01 -5.123291e-01 -9.692274e-06 1.501478e-05 4.709698e-06 -1.250394e-05 6.904907e-01 7.418823e-01
3.293078e+08 -8.272705e-01 -5.128784e-01 -1.889560e-05 -8.147210e-06 -1.988560e-05 -3.247894e-05 6.910400e-01 7.420654e-01
3.295256e+08 -8.273315e-01 -5.127563e-01 5.210936e-05 -9.465963e-06 -1.734495e-05 1.130812e-05 6.893311e-01 7.428589e-01
3.297434e+08 -8.267212e-01 -5.136719e-01 -1.653656e-05 -1.355074e-05 -4.236028e-05 1.866370e-06 6.886597e-01 7.429199e-01
3.299612e+08 -8.267822e-01 -5.129395e-01 3.163144e-05 8.624047e-07 -3.463402e-05 -1.543947e-05 6.887207e-01 7.438354e-01
3.301791e+08 -8.268433e-01 -5.130615e-01 -1.311954e-05 7.292256e-07 -1.944974e-05 2.955832e-05 6.882324e-01 7.448730e-01
3.303969e+08 -8.265381e-01 -5.138550e-01 -2.327375e-06 5.392823e-06 9.711832e-06 -3.204867e-05 6.879883e-01 7.445068e-01
3.306147e+08 -8.265381e-01 -5.139160e-01 -7.361174e-06 9.617768e-06 3.283843e-06 -1.186132e-05 6.868286e-01 7.458496e-01
3.308325e+08 -8.258057e-01 -5.143433e-01 5.036965e-05 5.378947e-05 5.271658e-05 -1.342967e-05 6.869507e-01 7.463989e-01
3.310503e+08 -8.258667e-01 -5.141602e-01 1.165643e-05 -2.694502e-05 1.769513e-06 2.686679e-05 6.855469e-01 7.463989e-01
3.312681e+08 -8.252563e-01 -5.149536e-01 3.029406e-05 -7.016584e-05 3.978610e-06 -2.945773e-05 6.867676e-01 7.470703e-01
3.314859e+08 -8.251953e-01 -5.144653e-01 7.584691e-06 4.165992e-05 5.438924e-07 -1.408253e-05 6.849976e-01 7.473145e-01
3.317038e+08 -8.245850e-01 -5.145264e-01 3.415719e-05 4.680082e-05 -1.586229e-05 -2.740137e-05 6.846924e-01 7.485352e-01
3.319216e+08 -8.251953e-01 -5.159912e-01 -1.680478e-05 -6.489828e-05 -1.006061e-05 4.548114e-06 6.853638e-01 7.491455e-01
3.321394e+08 -8.245239e-01 -5.150757e-01 2.106652e-05 4.752353e-05 4.027970e-05 1.637079e-05 6.842041e-01 7.493286e-01
3.323572e+08 -8.249512e-01 -5.152588e-01 -7.414073e-05 3.840402e-05 -1.759548e-05 -1.973659e-05 6.843262e-01 7.490845e-01
3.325750e+08 -8.242798e-01 -5.162964e-01 -2.854131e-05 6.854534e-06 1.479685e-05 -1.707207e-05 6.828613e-01 7.495117e-01
3.327928e+08 -8.238525e-01 -5.162354e-01 3.702566e-05 3.239140e-06 8.622650e-06 -3.899913e-06 6.825562e-01 7.517700e-01
3.330106e+08 -8.233032e-01 -5.161133e-01 1.097098e-06 1.967885e-05 -3.029779e-05 5.178154e-05 6.831055e-01 7.513428e-01
3.332284e+08 -8.228760e-01 -5.161133e-01 -3.185868e-05 -5.222112e-05 5.158782e-05 5.286932e-05 6.824951e-01 7.524414e-01
3.334462e+08 -8.229370e-01 -5.164795e-01 1.814310e-05 -4.956499e-06 2.607889e-05 1.939200e-05 6.814575e-01 7.523193e-01
3.336641e+08 -8.231812e-01 -5.166626e-01 3.162771e-05 8.940697e-07 -9.520445e-06 -9.563286e-06 6.806030e-01 7.534180e-01
3.338819e+08 -8.222656e-01 -5.165405e-01 3.036857e-05 -7.004291e-05 4.181638e-07 -1.057843e-05 6.795044e-01 7.539673e-01
3.340997e+08 -8.218384e-01 -5.169678e-01 1.762621e-05 3.323704e-05 1.323316e-05 -1.289882e-05 6.802368e-01 7.541504e-01
3.343175e+08 -8.215332e-01 -5.169678e-01 -1.150928e-05 -1.778174e-05 -2.965890e-05 -4.675239e-07 6.793823e-01 7.547607e-01
3.345353e+08 -8.213501e-01 -5.165405e-01 2.928451e-05 6.278977e-06 -5.941838e-06 -2.848916e-05 6.789551e-01 7.552490e-01
3.347531e+08 -8.220825e-01 -5.169067e-01 5.745329e-06 8.890871e-06 -1.007877e-05 4.556961e-06 6.781006e-01 7.561646e-01
3.349709e+08 -8.208618e-01 -5.175781e-01 2.515130e-05 -2.114661e-05 1.714099e-05 -4.271977e-06 6.788330e-01 7.574463e-01
3.351888e+08 -8.198242e-01 -5.172119e-01 -2.586283e-05 7.994473e-06 -3.809854e-05 3.455393e-05 6.777954e-01 7.572632e-01
3.354066e+08 -8.206787e-01 -5.175171e-01 1.274981e-05 -7.279217e-06 8.360483e-06 3.156718e-06 6.774292e-01 7.581177e-01
3.356244e+08 -8.198853e-01 -5.181274e-01 -8.446164e-06 -1.005828e-05 4.883856e-06 -1.606904e-05 6.770630e-01 7.587891e-01
3.358422e+08 -8.197632e-01 -5.182495e-01 -1.456589e-06 -2.623908e-05 -9.713694e-06 -4.068762e-05 6.768799e-01 7.595215e-01
3.360600e+08 -8.189087e-01 -5.180054e-01 1.652818e-05 1.357496e-05 -9.658281e-06 -6.040093e-06 6.759644e-01 7.609253e-01
3.362778e+08 -8.189087e-01 -5.182495e-01 1.823537e-10 4.619096e-10 7.656403e-06 2.081227e-05 6.765747e-01 7.612305e-01
3.364956e+08 -8.188477e-01 -5.183105e-01 -5.011633e-05 -2.540648e-06 8.314848e-06 -3.150292e-05 6.750488e-01 7.615356e-01
3.367134e+08 -8.189697e-01 -5.187988e-01 9.573996e-06 -6.629899e-05 -1.358148e-05 -1.469534e-05 6.751709e-01 7.623901e-01
3.369312e+08 -8.181763e-01 -5.192871e-01 2.408028e-05 -4.078075e-05 1.354422e-05 -1.998991e-05 6.746216e-01 7.626953e-01
3.371491e+08 -8.170166e-01 -5.189209e-01 -2.084486e-05 3.755093e-06 5.063601e-06 1.505762e-05 6.741333e-01 7.634888e-01
3.373669e+08 -8.171997e-01 -5.191650e-01 -1.652353e-05 -1.357403e-05 -4.786998e-06 -2.213567e-05 6.739502e-01 7.643433e-01
3.375847e+08 -8.167725e-01 -5.188599e-01 3.163144e-05 8.922070e-07 -2.349354e-05 2.101064e-05 6.739502e-01 7.648926e-01
3.378025e+08 -8.170166e-01 -5.191650e-01 1.524948e-05 3.863685e-05 -7.530674e-06 -2.439506e-05 6.731567e-01 7.656860e-01
3.380203e+08 -8.159790e-01 -5.191040e-01 7.730443e-06 -3.054272e-06 5.295128e-05 2.124906e-05 6.735229e-01 7.665405e-01
3.382381e+08 -8.156738e-01 -5.197754e-01 1.346227e-05 5.853362e-06 -1.732819e-05 -2.691336e-05 6.716309e-01 7.669678e-01
3.384559e+08 -8.161621e-01 -5.184326e-01 -2.155453e-05 -9.350479e-06 1.641735e-05 5.164370e-05 6.723022e-01 7.671509e-01
3.386738e+08 -8.148193e-01 -5.199585e-01 -6.290153e-06 2.926029e-05 -5.466864e-06 3.024936e-05 6.715698e-01 7.675171e-01
3.388916e+08 -8.142090e-01 -5.202026e-01 1.130998e-05 -3.350154e-05 -3.838725e-05 3.814511e-05 6.720581e-01 7.682495e-01
3.391094e+08 -8.145142e-01 -5.200195e-01 -8.082483e-06 -3.500376e-06 -2.198108e-05 -1.788512e-05 6.716919e-01 7.683716e-01
3.393272e+08 -8.137817e-01 -5.207520e-01 -4.474446e-05 -1.639128e-07 -5.158409e-05 1.282617e-05 6.714478e-01 7.697144e-01
3.395450e+08 -8.136597e-01 -5.202026e-01 2.208538e-05 -2.882071e-05 -5.213544e-06 -1.155026e-05 6.705933e-01 7.698975e-01
3.397628e+08 -8.129272e-01 -5.206299e-01 -1.454726e-05 -2.551265e-05 -2.455153e-05 1.107343e-05 6.701660e-01 7.716064e-01
3.399806e+08 -8.123779e-01 -5.210571e-01 1.418684e-05 1.896266e-05 3.317371e-06 -1.192186e-05 6.702881e-01 7.720337e-01
3.401984e+08 -8.113403e-01 -5.205078e-01 2.552196e-05 -1.453608e-05 -3.551319e-05 2.117828e-06 6.696777e-01 7.727051e-01
3.404162e+08 -8.113403e-01 -5.207520e-01 1.239777e-05 -1.382828e-05 -1.490209e-05 -1.761876e-05 6.693115e-01 7.734985e-01
3.406341e+08 -8.110962e-01 -5.212402e-01 -3.089756e-05 1.220405e-05 -3.023259e-05 -2.461299e-05 6.690063e-01 7.740479e-01
3.408519e+08 -8.102417e-01 -5.206909e-01 -1.346972e-05 -5.857088e-06 -1.415890e-05 -5.653128e-07 6.684570e-01 7.755127e-01
3.410697e+08 -8.106079e-01 -5.213013e-01 5.390495e-06 2.338551e-06 -2.747402e-05 1.237914e-05 6.688843e-01 7.758789e-01
3.412875e+08 -8.094482e-01 -5.216064e-01 2.337620e-06 -5.389564e-06 -2.963655e-05 -4.041940e-06 6.683960e-01 7.764282e-01
3.415053e+08 -8.092041e-01 -5.214844e-01 -1.430511e-06 -2.622046e-05 -8.217990e-06 2.805144e-05 6.682129e-01 7.763062e-01
3.417231e+08 -8.084106e-01 -5.217285e-01 -4.677102e-06 1.077447e-05 3.764406e-06 1.220778e-05 6.678467e-01 7.776489e-01
3.419409e+08 -8.085938e-01 -5.219727e-01 -8.985400e-06 2.810359e-05 -1.020264e-06 -9.977724e-06 6.679077e-01 7.778931e-01
3.421588e+08 -8.075562e-01 -5.222778e-01 -7.163733e-06 -3.512204e-05 1.705624e-05 -7.329509e-07 6.677246e-01 7.788086e-01
3.423766e+08 -8.073120e-01 -5.224609e-01 9.701587e-06 -1.499336e-05 1.692399e-05 2.804212e-06 6.669922e-01 7.794189e-01
3.425944e+08 -8.072510e-01 -5.217896e-01 -2.049655e-05 1.032278e-05 4.756078e-05 -1.798198e-05 6.675415e-01 7.807617e-01
3.428122e+08 -8.060303e-01 -5.222778e-01 -2.353638e-05 2.596527e-06 -5.769730e-05 2.252683e-05 6.668091e-01 7.809448e-01
3.430300e+08 -8.060913e-01 -5.231934e-01 7.726718e-06 -3.047287e-06 -1.693610e-05 -2.819113e-06 6.661987e-01 7.819824e-01
3.432478e+08 -8.054810e-01 -5.223999e-01 1.510978e-05 -1.267064e-05 6.210990e-06 -1.324341e-05 6.669312e-01 7.833862e-01
3.434656e+08 -8.046265e-01 -5.230713e-01 -3.127195e-05 5.636364e-06 1.489371e-05 -1.716241e-05 6.664429e-01 7.835083e-01
3.436834e+08 -8.037109e-01 -5.230713e-01 6.219372e-05 -1.782179e-05 2.979487e-05 5.029142e-07 6.663818e-01 7.837524e-01
3.439012e+08 -8.041382e-01 -5.230713e-01 2.681091e-05 -3.958866e-05 -4.059169e-06 -5.138339e-06 6.660767e-01 7.843628e-01
3.441191e+08 -8.032837e-01 -5.230103e-01 1.721457e-05 2.669357e-05 4.238635e-05 -2.956949e-05 6.656494e-01 7.848511e-01
3.443369e+08 -8.022461e-01 -5.236816e-01 2.496876e-05 2.365559e-05 -3.471971e-06 1.549162e-05 6.660156e-01 7.862549e-01
3.445547e+08 -8.019409e-01 -5.239868e-01 5.209446e-05 -9.384006e-06 7.382594e-06 -6.804708e-06 6.655884e-01 7.859497e-01
3.447725e+08 -8.013916e-01 -5.244751e-01 2.340879e-06 -5.393755e-06 -3.866665e-05 -2.789125e-05 6.658936e-01 7.884521e-01
3.449903e+08 -8.004761e-01 -5.247192e-01 -3.033318e-05 -2.601370e-05 3.895909e-05 -1.402944e-05 6.646729e-01 7.886963e-01
3.452081e+08 -8.004150e-01 -5.245361e-01 2.086349e-05 -3.764406e-06 -1.043454e-05 -2.317689e-05 6.652832e-01 7.893066e-01
3.454259e+08 -7.999878e-01 -5.245972e-01 1.708977e-05 -2.461299e-05 7.525552e-06 -1.036422e-05 6.646118e-01 7.896118e-01
3.456438e+08 -7.988281e-01 -5.255737e-01 -2.025440e-05 -3.444031e-05 1.969747e-05 5.071983e-06 6.637573e-01 7.904053e-01
3.458616e+08 -7.980957e-01 -5.256958e-01 -3.211573e-05 -5.882606e-05 6.649643e-06 4.578009e-05 6.643066e-01 7.913208e-01
3.460794e+08 -7.976074e-01 -5.255127e-01 -1.138449e-05 3.352761e-05 8.754432e-07 4.838780e-05 6.641846e-01 7.925415e-01
3.462972e+08 -7.969971e-01 -5.258789e-01 -7.388182e-06 9.606127e-06 -1.449371e-06 6.512273e-07 6.643066e-01 7.927246e-01
3.465150e+08 -7.969971e-01 -5.252686e-01 -2.732500e-05 -1.827255e-05 -1.698360e-05 -3.766641e-05 6.646729e-01 7.931519e-01
3.467328e+08 -7.958984e-01 -5.263672e-01 -2.015382e-05 1.687743e-05 -5.797949e-06 2.608169e-06 6.643066e-01 7.937012e-01
3.469506e+08 -7.952881e-01 -5.259399e-01 3.965572e-06 -2.392381e-05 -2.130121e-05 -8.596107e-07 6.647339e-01 7.944946e-01
3.471684e+08 -7.949829e-01 -5.266113e-01 -1.370907e-05 3.892928e-05 -2.522022e-05 -4.444271e-05 6.641235e-01 7.954712e-01
3.473862e+08 -7.944946e-01 -5.275879e-01 -3.774092e-05 -1.641363e-05 6.891787e-07 5.201995e-05 6.638794e-01 7.957764e-01
3.476041e+08 -7.935181e-01 -5.269775e-01 6.437302e-06 2.203695e-05 1.258962e-05 3.965758e-05 6.638794e-01 7.963257e-01
3.478219e+08 -7.931519e-01 -5.273438e-01 1.384318e-05 1.244154e-05 1.101196e-05 8.999370e-06 6.646729e-01 7.977905e-01
3.480397e+08 -7.921143e-01 -5.281372e-01 -1.653936e-05 -1.360942e-05 1.491234e-05 1.771655e-05 6.641235e-01 7.983398e-01
3.482575e+08 -7.925415e-01 -5.285645e-01 4.112720e-06 2.743863e-05 -7.818453e-06 -1.742318e-05 6.643677e-01 7.983398e-01
3.484753e+08 -7.907715e-01 -5.277710e-01 -2.226979e-05 -2.252869e-05 7.919967e-06 4.870817e-05 6.637573e-01 7.993164e-01
3.486931e+08 -7.910767e-01 -5.281372e-01 3.200583e-05 7.519498e-06 -2.841651e-05 -3.607012e-05 6.633911e-01 8.001099e-01
3.489109e+08 -7.902222e-01 -5.291748e-01 2.758577e-05 -2.650544e-05 -1.486763e-05 4.851446e-05 6.644287e-01 8.007202e-01
3.491288e+08 -7.893066e-01 -5.294800e-01 -1.114979e-05 -1.126621e-05 -5.954877e-06 6.158371e-06 6.645508e-01 8.013916e-01
3.493466e+08 -7.896118e-01 -5.299072e-01 -6.319955e-06 2.933107e-05 -3.077649e-05 -1.412071e-05 6.647949e-01 8.012695e-01
3.495644e+08 -7.878418e-01 -5.296631e-01 -2.757646e-05 2.650917e-05 1.152512e-06 6.456859e-06 6.643677e-01 8.024902e-01
3.497822e+08 -7.876587e-01 -5.302124e-01 -3.999099e-06 2.394430e-05 -1.943763e-05 -1.221150e-05 6.641846e-01 8.040161e-01
3.500000e+08 -7.867432e-01 -5.307007e-01 4.798174e-06 4.059076e-05 3.339350e-05 -1.497939e-05 6.642456e-01 8.037720e-01
