# Hz S RI R 50
! RAW DATA - UNCALIBRATED
1.500000e+06 9.781494e-01 -1.379395e-02 1.857243e-05 9.267591e-06 5.641021e-06 -1.895241e-07 -1.002502e+00 3.033447e-02
1.717812e+06 9.781494e-01 -1.580811e-02 -1.449697e-05 -1.821481e-05 -9.007286e-06 -9.192154e-07 -1.002380e+00 2.673340e-02
1.935625e+06 9.782715e-01 -1.184082e-02 1.812540e-05 1.209788e-05 4.601665e-06 -1.120847e-05 -1.003418e+00 2.581787e-02
2.153438e+06 9.782715e-01 -1.062012e-02 1.091510e-06 -1.031719e-05 -1.628790e-05 -1.514424e-05 -1.004700e+00 2.197266e-02
2.371250e+06 9.776001e-01 -8.239746e-03 -1.430325e-05 -6.166287e-06 7.463619e-06 -4.624017e-06 -1.005615e+00 1.885986e-02
2.589062e+06 9.783936e-01 -6.774902e-03 2.071261e-06 1.032557e-05 -9.506010e-06 1.103338e-05 -1.005859e+00 1.409912e-02
2.806875e+06 9.779053e-01 -1.586914e-03 1.686346e-05 4.922971e-06 7.734634e-07 -9.746291e-06 -1.007568e+00 1.171875e-02
3.024688e+06 9.786377e-01 2.441406e-04 -5.566515e-06 -8.997973e-06 2.809800e-06 -2.077688e-05 -1.008728e+00 7.629395e-03
3.242500e+06 9.778442e-01 5.004883e-03 1.718942e-05 1.778360e-05 1.636706e-05 -8.251518e-07 -1.009399e+00 3.601074e-03
3.460312e+06 9.751587e-01 5.798340e-03 -7.569790e-06 4.081801e-05 1.705904e-05 2.309680e-06 -1.014343e+00 -9.765625e-04
3.678125e+06 9.747314e-01 4.882812e-03 -8.094124e-06 -1.121685e-05 -5.015871e-06 5.125301e-06 -1.014587e+00 7.324219e-04
3.895938e+06 9.755249e-01 5.493164e-03 -8.169562e-06 1.175050e-05 -2.597831e-05 1.819804e-06 -1.013794e+00 6.103516e-04
4.113750e+06 9.738770e-01 5.065918e-03 -1.964811e-05 8.530915e-07 2.345536e-06 -8.784235e-06 -1.013855e+00 7.934570e-04
4.331562e+06 9.727783e-01 4.272461e-03 4.191417e-06 -5.562790e-06 -1.706276e-05 2.882443e-06 -1.013916e+00 1.037598e-03
4.549375e+06 9.730835e-01 4.577637e-03 5.727634e-07 1.258496e-05 -2.646819e-06 -2.027582e-05 -1.014343e+00 7.934570e-04
4.767188e+06 9.725342e-01 4.333496e-03 5.991198e-06 -1.267251e-05 2.855249e-05 -6.584451e-06 -1.013916e+00 1.037598e-03
4.985000e+06 9.715576e-01 5.493164e-03 -4.808418e-06 1.321733e-05 2.564630e-06 -4.567206e-06 -1.014038e+00 1.220703e-03
5.202812e+06 9.711914e-01 5.187988e-03 1.706555e-05 4.408881e-06 3.502704e-06 -1.080474e-05 -1.013916e+00 7.324219e-04
5.420625e+06 9.696045e-01 5.920410e-03 -1.166016e-05 -1.620315e-05 1.756474e-05 8.574687e-06 -1.013733e+00 1.953125e-03
5.638438e+06 9.694824e-01 7.751465e-03 2.468750e-05 1.778826e-06 -1.995359e-05 8.486211e-06 -1.013550e+00 8.544922e-04
5.856250e+06 9.688721e-01 6.591797e-03 -6.877817e-06 1.077075e-05 -1.913588e-05 -9.270385e-06 -1.013672e+00 1.159668e-03
6.074062e+06 9.676514e-01 8.728027e-03 1.229625e-05 1.281127e-05 -2.451230e-10 3.649347e-11 -1.013855e+00 2.441406e-03
6.291875e+06 9.679565e-01 9.826660e-03 5.062475e-10 3.240643e-10 8.296687e-06 3.274530e-06 -1.014221e+00 1.647949e-03
6.509688e+06 9.669800e-01 9.887695e-03 -1.131184e-05 1.124106e-05 -8.169096e-06 -1.027109e-05 -1.014160e+00 9.155273e-04
6.727500e+06 9.674072e-01 1.025391e-02 -4.354399e-06 -9.780284e-06 -6.424729e-06 -8.421950e-06 -1.013428e+00 1.831055e-03
6.945312e+06 9.665527e-01 1.269531e-02 1.332536e-05 8.819625e-06 -6.141141e-06 1.367927e-05 -1.012756e+00 1.098633e-03
7.163125e+06 9.658813e-01 1.409912e-02 1.534726e-05 -1.543760e-05 -9.310432e-06 3.259163e-06 -1.012756e+00 8.544922e-04
7.380938e+06 9.654541e-01 1.556396e-02 -6.717630e-06 -1.317635e-05 1.472188e-06 4.854519e-08 -1.013000e+00 0.000000e+00
7.598750e+06 9.663696e-01 1.739502e-02 2.307352e-06 -7.695984e-06 -9.194482e-06 -5.350914e-06 -1.013428e+00 4.272461e-04
7.816562e+06 9.652710e-01 1.861572e-02 -7.071321e-11 -6.037340e-10 -3.030524e-06 9.412412e-06 -1.013123e+00 6.103516e-04
8.034375e+06 9.653320e-01 1.885986e-02 -9.056181e-06 -5.901325e-06 -8.950941e-06 7.273629e-07 -1.013977e+00 3.662109e-04
8.252188e+06 9.651489e-01 2.130127e-02 -2.030283e-05 -2.317503e-05 -8.584931e-06 -1.577660e-05 -1.013123e+00 3.051758e-04
8.470000e+06 9.646606e-01 2.270508e-02 9.476673e-06 -3.793743e-06 -3.592111e-06 -8.101109e-06 -1.012878e+00 1.220703e-04
8.687812e+06 9.658203e-01 2.392578e-02 1.596101e-05 -2.518669e-05 -5.643815e-07 -1.321174e-05 -1.013123e+00 1.220703e-04
8.905625e+06 9.655762e-01 2.471924e-02 3.521563e-06 8.416828e-07 8.217175e-07 1.228822e-06 -1.012390e+00 1.220703e-04
9.123438e+06 9.658813e-01 2.685547e-02 2.190471e-06 -1.432281e-05 -1.250301e-05 -2.031494e-05 -1.012756e+00 1.831055e-04
9.341250e+06 9.664307e-01 2.825928e-02 6.226823e-06 1.496915e-05 -9.150244e-07 -5.257782e-06 -1.011841e+00 6.103516e-04
9.559062e+06 9.673462e-01 3.027344e-02 1.428649e-05 -2.194941e-05 -3.192807e-06 -8.773059e-07 -1.012146e+00 0.000000e+00
9.776875e+06 9.674683e-01 3.155518e-02 -2.170727e-05 1.898035e-06 -2.825633e-06 -1.335703e-05 -1.011047e+00 -1.831055e-04
9.994688e+06 9.675293e-01 3.186035e-02 -2.028607e-05 1.075678e-05 1.801271e-05 -5.923212e-06 -1.011475e+00 9.765625e-04
1.021250e+07 9.683838e-01 3.356934e-02 -3.530178e-06 8.796342e-07 3.894558e-06 2.132729e-06 -1.011719e+00 1.220703e-04
1.043031e+07 9.694214e-01 3.588867e-02 1.153629e-05 -1.146458e-05 -8.234754e-06 1.086993e-05 -1.010803e+00 -7.324219e-04
1.064812e+07 9.708252e-01 3.662109e-02 1.679547e-05 -6.956048e-06 -3.009103e-06 8.347910e-06 -1.010193e+00 -6.103516e-05
1.086594e+07 9.713135e-01 3.759766e-02 2.593547e-05 -1.316145e-05 -1.063664e-05 -5.986076e-06 -1.009521e+00 7.324219e-04
1.108375e+07 9.725342e-01 3.845215e-02 1.002103e-05 2.382323e-06 -1.543760e-05 -5.920418e-06 -1.009888e+00 -1.831055e-04
1.130156e+07 9.729004e-01 4.010010e-02 -1.016818e-05 -1.614913e-06 9.452458e-06 -4.939735e-06 -1.009033e+00 4.272461e-04
1.151938e+07 9.730225e-01 4.187012e-02 -1.027714e-05 -7.553026e-07 -1.818873e-06 1.177657e-05 -1.007812e+00 3.051758e-04
1.173719e+07 9.737549e-01 4.376221e-02 -1.024548e-05 1.037866e-05 -2.636109e-06 6.069895e-06 -1.008423e+00 7.934570e-04
1.195500e+07 9.741821e-01 4.516602e-02 -7.935334e-06 -1.883600e-06 -6.260350e-06 -2.133194e-06 -1.007935e+00 -2.441406e-04
1.217281e+07 9.746094e-01 4.461670e-02 2.457388e-05 -9.421259e-06 9.615906e-07 4.327856e-06 -1.007507e+00 -4.882812e-04
1.239062e+07 9.755249e-01 4.595947e-02 5.484559e-06 -9.476673e-06 4.873611e-06 -1.396239e-05 -1.006348e+00 -4.882812e-04
1.260844e+07 9.766235e-01 4.724121e-02 -5.781651e-06 2.958812e-05 4.328322e-06 -4.981644e-06 -1.006531e+00 -1.220703e-03
1.282625e+07 9.782715e-01 4.858398e-02 7.618219e-07 -2.309866e-05 -1.189299e-05 -4.246831e-07 -1.005432e+00 -1.281738e-03
1.304406e+07 9.793091e-01 4.821777e-02 -8.979812e-06 5.147420e-06 -5.686190e-06 -3.356021e-06 -1.005676e+00 -6.713867e-04
1.326188e+07 9.799805e-01 4.998779e-02 -2.877600e-05 -5.155802e-06 5.966052e-06 2.837274e-06 -1.003601e+00 -4.882812e-04
1.347969e+07 9.805908e-01 5.078125e-02 -1.762155e-05 -8.891337e-06 -9.678304e-06 1.124665e-05 -1.004456e+00 -1.281738e-03
1.369750e+07 9.812622e-01 5.126953e-02 7.186551e-06 -7.449649e-06 3.487105e-06 4.987465e-06 -1.003296e+00 -1.281738e-03
1.391531e+07 9.827271e-01 5.194092e-02 -2.791639e-06 7.700641e-06 3.420981e-06 -4.814239e-06 -1.002136e+00 -2.136230e-03
1.413312e+07 9.833374e-01 5.261230e-02 -7.164665e-06 1.563225e-06 8.063391e-06 -1.410395e-05 -1.001709e+00 -2.502441e-03
1.435094e+07 9.839478e-01 5.352783e-02 -5.913898e-06 1.736730e-05 1.148041e-05 -7.855706e-06 -1.000732e+00 -2.502441e-03
1.456875e+07 9.849243e-01 5.474854e-02 -6.703660e-06 3.010966e-06 9.168405e-06 -9.509269e-06 -1.001770e+00 -2.502441e-03
1.478656e+07 9.850464e-01 5.487061e-02 1.861993e-05 -1.924112e-05 -1.071766e-05 8.204952e-07 -1.000122e+00 -4.333496e-03
1.500438e+07 9.866943e-01 5.511475e-02 6.483868e-06 8.924864e-06 -5.161855e-06 -7.947441e-06 -9.987183e-01 -4.516602e-03
1.522219e+07 9.865723e-01 5.633545e-02 1.534726e-05 5.966984e-06 -1.454493e-06 2.969755e-06 -9.990234e-01 -5.004883e-03
1.544000e+07 9.876709e-01 5.676270e-02 4.896428e-06 -5.508773e-06 -1.485273e-05 3.455207e-07 -9.981079e-01 -5.981445e-03
1.565781e+07 9.887695e-01 5.700684e-02 1.062403e-10 6.141363e-10 4.998641e-06 1.864741e-06 -9.974365e-01 -5.554199e-03
1.587562e+07 9.891968e-01 5.749512e-02 -3.156066e-05 5.011633e-05 -1.792889e-05 -6.170012e-06 -9.971924e-01 -6.774902e-03
1.609344e+07 9.920044e-01 5.755615e-02 -5.517527e-05 2.464652e-05 -1.932262e-06 3.543217e-06 -9.965820e-01 -1.141357e-02
1.631125e+07 9.930420e-01 5.688477e-02 -3.090501e-05 1.616776e-06 9.290874e-06 3.149919e-05 -9.958496e-01 -1.110840e-02
1.652906e+07 9.943237e-01 5.718994e-02 -2.905726e-07 1.188088e-05 2.577715e-05 2.669916e-05 -9.954834e-01 -1.177979e-02
1.674688e+07 9.946289e-01 5.706787e-02 1.203734e-05 -5.654059e-06 2.909265e-05 -2.628192e-06 -9.943848e-01 -1.287842e-02
1.696469e+07 9.951782e-01 5.718994e-02 -3.821403e-05 3.883615e-06 1.807138e-05 4.101545e-05 -9.939575e-01 -1.184082e-02
1.718250e+07 9.955444e-01 5.633545e-02 3.635697e-05 -2.303347e-05 1.639128e-06 -3.494136e-05 -9.942627e-01 -1.263428e-02
1.740031e+07 9.953003e-01 5.566406e-02 3.758818e-06 4.427135e-05 -1.010671e-05 -2.401322e-05 -9.921875e-01 -1.330566e-02
1.761812e+07 9.960938e-01 5.578613e-02 -2.932735e-05 2.684630e-05 -7.873401e-05 -2.156943e-06 -9.920654e-01 -1.440430e-02
1.783594e+07 9.963379e-01 5.529785e-02 7.025152e-05 -3.548712e-05 -6.196648e-05 -1.619756e-05 -9.912720e-01 -1.464844e-02
1.805375e+07 9.966431e-01 5.578613e-02 -1.143478e-05 -2.421439e-05 2.265535e-05 5.295500e-06 -9.901123e-01 -1.531982e-02
1.827156e+07 9.973755e-01 5.499268e-02 1.077726e-05 5.422905e-05 4.183687e-05 -2.151541e-05 -9.897461e-01 -1.599121e-02
1.848938e+07 9.971924e-01 5.548096e-02 3.181398e-06 -3.476441e-05 1.772307e-06 1.606345e-05 -9.891968e-01 -1.708984e-02
1.870719e+07 9.982910e-01 5.419922e-02 1.688953e-05 -3.241003e-06 3.409199e-05 2.310053e-05 -9.879761e-01 -1.715088e-02
1.892500e+07 9.973755e-01 5.401611e-02 1.703855e-05 -9.275042e-06 1.313724e-05 -3.716536e-05 -9.883423e-01 -1.721191e-02
1.914281e+07 9.979248e-01 5.371094e-02 -1.779199e-05 4.541129e-05 -3.809109e-05 4.469976e-05 -9.875488e-01 -1.824951e-02
1.936062e+07 9.983521e-01 5.377197e-02 -3.653951e-05 1.730025e-05 4.561618e-05 1.062825e-05 -9.865723e-01 -1.989746e-02
1.957844e+07 9.989014e-01 5.273438e-02 4.490092e-05 4.798919e-05 1.488440e-05 9.201467e-06 -9.868164e-01 -1.983643e-02
1.979625e+07 9.983521e-01 5.279541e-02 -2.301857e-05 6.118417e-05 -1.798943e-05 3.125891e-05 -9.865112e-01 -2.117920e-02
2.001406e+07 9.988403e-01 5.310059e-02 2.430007e-05 -5.571172e-06 1.312420e-05 -6.967224e-06 -9.850464e-01 -2.111816e-02
2.023188e+07 9.982910e-01 5.249023e-02 -1.403503e-05 -2.571940e-05 -2.375431e-05 2.236292e-05 -9.851074e-01 -2.246094e-02
2.044969e+07 9.985352e-01 5.255127e-02 -4.845113e-05 -9.573996e-07 5.175360e-06 -3.080582e-06 -9.840698e-01 -2.264404e-02
2.066750e+07 9.981079e-01 5.249023e-02 1.260825e-05 -2.402253e-05 2.714805e-05 -1.123920e-05 -9.835815e-01 -2.423096e-02
2.088531e+07 9.990845e-01 5.236816e-02 -4.608184e-05 -5.699694e-06 3.210455e-05 -5.092472e-06 -9.834595e-01 -2.380371e-02
2.110312e+07 9.984131e-01 5.236816e-02 6.755814e-06 2.809428e-05 -3.060885e-05 2.607703e-08 -9.822388e-01 -2.593994e-02
2.132094e+07 9.977417e-01 5.255127e-02 5.265698e-06 -2.184138e-05 1.320802e-05 -7.038936e-06 -9.832764e-01 -2.606201e-02
2.153875e+07 9.980469e-01 5.230713e-02 -3.750622e-05 -8.119643e-05 -1.199264e-05 -1.939200e-05 -9.823608e-01 -2.703857e-02
2.175656e+07 9.974976e-01 5.169678e-02 3.365986e-05 2.990477e-05 3.196858e-05 4.189089e-06 -9.823608e-01 -2.801514e-02
2.197438e+07 9.981689e-01 5.236816e-02 -4.159659e-05 2.931803e-06 -2.463162e-05 3.054738e-05 -9.808960e-01 -2.874756e-02
2.219219e+07 9.982910e-01 5.249023e-02 -7.171184e-06 -9.906478e-06 1.306646e-05 3.304519e-05 -9.811401e-01 -2.905273e-02
2.241000e+07 9.978638e-01 5.218506e-02 -2.885237e-05 -3.355183e-05 4.112720e-05 1.375936e-05 -9.812012e-01 -2.941895e-02
2.262781e+07 9.971313e-01 5.236816e-02 9.821728e-06 -1.059845e-06 2.434291e-05 -1.192093e-06 -9.799194e-01 -3.112793e-02
2.284562e+07 9.967651e-01 5.328369e-02 2.462044e-05 -5.753711e-06 2.527237e-05 -6.943569e-05 -9.796143e-01 -3.045654e-02
2.306344e+07 9.971924e-01 5.242920e-02 3.381446e-05 3.617816e-05 -3.562868e-05 3.553554e-05 -9.801025e-01 -3.228760e-02
2.328125e+07 9.971924e-01 5.322266e-02 4.875707e-06 2.538553e-06 -5.770475e-06 -2.922863e-05 -9.793701e-01 -3.332520e-02
2.349906e+07 9.971313e-01 5.383301e-02 2.291799e-05 -5.011261e-05 1.548231e-05 -5.401671e-08 -9.791870e-01 -3.393555e-02
2.371688e+07 9.968872e-01 5.310059e-02 2.375618e-05 5.583093e-05 3.510155e-05 2.348609e-05 -9.791260e-01 -3.491211e-02
2.393469e+07 9.965210e-01 5.438232e-02 4.892703e-06 2.536690e-06 -5.356222e-05 -2.346933e-06 -9.783936e-01 -3.509521e-02
2.415250e+07 9.968872e-01 5.444336e-02 1.892820e-05 5.333871e-05 -2.631918e-05 3.602728e-05 -9.779053e-01 -3.625488e-02
2.437031e+07 9.972534e-01 5.487061e-02 -1.426414e-05 -3.851578e-05 1.642574e-05 2.760440e-06 -9.784546e-01 -3.704834e-02
2.458812e+07 9.968872e-01 5.523682e-02 -1.710653e-05 -1.507718e-05 1.513585e-05 -1.504086e-06 -9.774780e-01 -3.747559e-02
2.480594e+07 9.978027e-01 5.541992e-02 4.574656e-06 2.729334e-05 -2.469867e-06 2.260879e-05 -9.778442e-01 -3.765869e-02
2.502375e+07 9.968872e-01 5.560303e-02 2.010167e-05 -2.078898e-05 2.263300e-05 2.447516e-06 -9.772339e-01 -3.918457e-02
2.524156e+07 9.968262e-01 5.566406e-02 2.736971e-05 -4.589558e-06 4.638918e-06 -1.548883e-05 -9.780884e-01 -4.010010e-02
2.545938e+07 9.971924e-01 5.603027e-02 2.252869e-05 -1.333840e-05 -1.249090e-05 -5.098432e-05 -9.768677e-01 -4.113770e-02
2.567719e+07 9.970093e-01 5.718994e-02 2.697483e-05 2.642162e-05 1.166854e-05 7.386319e-06 -9.765015e-01 -4.125977e-02
2.589500e+07 9.973145e-01 5.749512e-02 2.739765e-05 -4.630536e-06 8.811243e-06 8.272938e-06 -9.767456e-01 -4.187012e-02
2.611281e+07 9.973755e-01 5.767822e-02 -4.946254e-06 -2.549961e-06 3.573671e-05 1.413003e-05 -9.766235e-01 -4.272461e-02
2.633062e+07 9.974976e-01 5.755615e-02 -3.505684e-05 1.325831e-05 -2.916530e-05 7.398427e-06 -9.765625e-01 -4.449463e-02
2.654844e+07 9.981689e-01 5.780029e-02 1.539104e-05 -3.599003e-05 4.156306e-05 -8.072704e-06 -9.766235e-01 -4.455566e-02
2.676625e+07 9.981689e-01 5.871582e-02 2.459437e-05 3.146380e-05 -1.776032e-06 -5.752314e-06 -9.758911e-01 -4.541016e-02
2.698406e+07 9.987183e-01 5.786133e-02 2.481602e-05 1.276284e-05 1.105294e-05 -4.597008e-05 -9.750977e-01 -4.602051e-02
2.720188e+07 9.979248e-01 5.853271e-02 -3.017113e-05 1.592003e-05 3.234670e-05 -1.786090e-05 -9.755249e-01 -4.711914e-02
2.741969e+07 9.995728e-01 5.926514e-02 3.718026e-05 3.170967e-05 2.509169e-05 9.633601e-06 -9.758301e-01 -4.766846e-02
2.763750e+07 9.999390e-01 5.963135e-02 6.565824e-08 -6.266870e-06 1.731329e-05 -2.590008e-05 -9.763794e-01 -4.833984e-02
2.785531e+07 9.990234e-01 6.005859e-02 2.744049e-05 1.406111e-05 -2.378039e-05 1.529045e-05 -9.752808e-01 -4.870605e-02
2.807312e+07 1.000122e+00 5.969238e-02 2.561137e-06 -4.997011e-06 -1.712143e-05 1.638569e-05 -9.758301e-01 -4.998779e-02
2.829094e+07 1.000732e+00 6.115723e-02 -2.533197e-07 2.512895e-05 -6.192364e-06 2.095569e-05 -9.757690e-01 -5.059814e-02
2.850875e+07 1.001038e+00 6.066895e-02 -1.032464e-05 2.631359e-05 -7.343479e-06 7.050112e-06 -9.757690e-01 -5.145264e-02
2.872656e+07 1.001648e+00 6.079102e-02 -2.562534e-06 5.010050e-06 2.036057e-05 1.435447e-05 -9.750366e-01 -5.206299e-02
2.894438e+07 1.002014e+00 6.085205e-02 1.510791e-05 1.395121e-06 -6.709248e-06 -1.097098e-06 -9.753418e-01 -5.352783e-02
2.916219e+07 1.002075e+00 6.115723e-02 -2.507865e-05 -1.914799e-05 -4.266622e-06 -3.453111e-06 -9.757080e-01 -5.346680e-02
2.938000e+07 1.002991e+00 6.097412e-02 -1.800805e-05 4.149973e-05 2.243370e-05 1.056492e-05 -9.753418e-01 -5.426025e-02
2.959781e+07 1.003723e+00 6.109619e-02 3.819913e-05 -3.126077e-05 -1.695007e-07 -4.148670e-05 -9.755859e-01 -5.548096e-02
2.981562e+07 1.003479e+00 6.170654e-02 -2.529100e-05 -1.974404e-07 -2.404116e-05 -5.284324e-06 -9.756470e-01 -5.584717e-02
3.003344e+07 1.004700e+00 6.195068e-02 -5.190261e-06 1.642108e-05 -6.072223e-06 -6.049499e-05 -9.756470e-01 -5.651855e-02
3.025125e+07 1.005432e+00 6.152344e-02 -1.240708e-05 -3.811531e-05 -2.519600e-05 1.460314e-06 -9.763184e-01 -5.664062e-02
3.046906e+07 1.004883e+00 6.085205e-02 -4.794449e-05 -3.707036e-05 5.050004e-05 -3.341958e-05 -9.753418e-01 -5.731201e-02
3.068688e+07 1.005798e+00 6.164551e-02 -1.783855e-05 1.002382e-05 -2.405420e-05 1.555495e-05 -9.755249e-01 -5.895996e-02
3.090469e+07 1.006348e+00 6.195068e-02 2.514198e-05 4.463270e-05 1.810864e-05 4.739314e-05 -9.761963e-01 -5.963135e-02
3.112250e+07 1.006470e+00 6.274414e-02 -3.811531e-05 3.793463e-05 -2.983585e-05 -4.640594e-05 -9.758301e-01 -6.048584e-02
3.134031e+07 1.007812e+00 6.256104e-02 1.845509e-05 3.590807e-05 -8.122995e-06 -8.936971e-06 -9.755859e-01 -6.121826e-02
3.155812e+07 1.007019e+00 6.353760e-02 -5.269423e-05 1.655519e-05 -2.557039e-05 1.911819e-05 -9.760742e-01 -6.311035e-02
3.177594e+07 1.007690e+00 6.317139e-02 -2.657808e-05 -1.432188e-05 8.339528e-06 4.689675e-06 -9.751587e-01 -6.390381e-02
3.199375e+07 1.008423e+00 6.390381e-02 -1.161173e-05 5.234405e-05 2.008863e-05 -3.868155e-05 -9.758301e-01 -6.433105e-02
3.221156e+07 1.008667e+00 6.439209e-02 3.589503e-05 3.240071e-05 5.276874e-06 2.386421e-05 -9.767456e-01 -6.604004e-02
3.242938e+07 1.008606e+00 6.365967e-02 8.618459e-06 2.362207e-05 2.296828e-05 -8.556992e-06 -9.758911e-01 -6.695557e-02
3.264719e+07 1.009460e+00 6.390381e-02 3.189780e-07 -2.795365e-06 -1.419336e-06 -1.510512e-05 -9.763184e-01 -6.811523e-02
3.286500e+07 1.009338e+00 6.469727e-02 2.475083e-05 3.114343e-05 1.224596e-05 1.347810e-05 -9.758911e-01 -6.866455e-02
3.308281e+07 1.009155e+00 6.494141e-02 -6.891787e-06 1.055188e-05 -3.053993e-05 -1.334026e-05 -9.768677e-01 -7.043457e-02
3.330062e+07 1.008911e+00 6.530762e-02 -1.248065e-05 9.922311e-06 -6.145239e-05 2.395362e-06 -9.759521e-01 -7.055664e-02
3.351844e+07 1.010315e+00 6.475830e-02 3.104843e-05 2.628379e-05 -3.022142e-05 2.331473e-05 -9.762573e-01 -7.226562e-02
3.373625e+07 1.010864e+00 6.463623e-02 -2.016127e-05 -2.221391e-05 -5.002599e-06 -7.784925e-06 -9.764404e-01 -7.373047e-02
3.395406e+07 1.010315e+00 6.622314e-02 -2.102181e-05 3.449805e-05 -2.492964e-05 -6.371737e-05 -9.760742e-01 -7.421875e-02
3.417188e+07 1.010742e+00 6.549072e-02 5.290844e-06 3.454741e-06 1.384132e-05 3.914349e-06 -9.767456e-01 -7.519531e-02
3.438969e+07 1.010132e+00 6.579590e-02 -2.053939e-05 -1.945905e-05 -3.263168e-05 4.885718e-06 -9.773560e-01 -7.629395e-02
3.460750e+07 1.010986e+00 6.488037e-02 1.382269e-05 -2.118945e-05 1.151022e-05 -1.455657e-05 -9.766235e-01 -7.708740e-02
3.482531e+07 1.011414e+00 6.549072e-02 -6.920658e-06 1.059752e-05 -2.904795e-06 1.498964e-05 -9.772339e-01 -7.849121e-02
3.504312e+07 1.011719e+00 6.628418e-02 7.376075e-07 4.285574e-05 3.226474e-05 3.747642e-06 -9.770508e-01 -7.958984e-02
3.526094e+07 1.011963e+00 6.610107e-02 -6.489083e-05 1.814216e-05 -3.085844e-05 1.148693e-05 -9.774780e-01 -8.081055e-02
3.547875e+07 1.011658e+00 6.469727e-02 -3.679655e-06 -1.755171e-05 6.733462e-06 -2.675317e-05 -9.773560e-01 -8.093262e-02
3.569656e+07 1.011169e+00 6.567383e-02 -1.095701e-05 -4.124828e-06 -3.905781e-05 -4.307926e-05 -9.783936e-01 -8.227539e-02
3.591438e+07 1.012268e+00 6.719971e-02 6.628688e-06 -7.807743e-06 1.050159e-05 7.032882e-06 -9.785767e-01 -8.422852e-02
3.613219e+07 1.011108e+00 6.628418e-02 -2.053566e-05 2.903678e-05 3.278814e-05 -4.876405e-06 -9.776611e-01 -8.483887e-02
3.635000e+07 1.012207e+00 6.573486e-02 -3.224425e-05 -1.805462e-05 -3.011525e-05 -5.830079e-06 -9.787598e-01 -8.532715e-02
3.656781e+07 1.011536e+00 6.597900e-02 -4.005618e-06 -1.478195e-05 3.034249e-05 1.510605e-06 -9.786987e-01 -8.636475e-02
3.678562e+07 1.010986e+00 6.628418e-02 -2.045184e-06 -3.176928e-05 1.372490e-05 8.289702e-06 -9.790039e-01 -8.740234e-02
3.700344e+07 1.011841e+00 6.573486e-02 2.162531e-05 1.113489e-05 -3.451295e-05 -6.128103e-06 -9.790039e-01 -8.911133e-02
3.722125e+07 1.012329e+00 6.573486e-02 -3.759377e-05 2.715550e-05 -1.667440e-05 6.789342e-06 -9.793091e-01 -8.935547e-02
3.743906e+07 1.012451e+00 6.518555e-02 -1.664460e-05 -4.817732e-06 -9.128358e-06 8.255709e-06 -9.788818e-01 -9.033203e-02
3.765688e+07 1.011414e+00 6.555176e-02 8.687377e-06 2.399646e-05 2.602860e-05 -1.939759e-05 -9.796753e-01 -9.149170e-02
3.787469e+07 1.010986e+00 6.567383e-02 -3.003143e-05 1.085922e-05 -2.751127e-05 -1.665391e-05 -9.801636e-01 -9.252930e-02
3.809250e+07 1.011841e+00 6.573486e-02 -2.006069e-06 -3.188290e-05 -2.600625e-05 -4.712865e-05 -9.804077e-01 -9.332275e-02
3.831031e+07 1.010742e+00 6.604004e-02 2.539717e-05 2.888776e-05 2.565049e-05 -1.072511e-05 -9.813232e-01 -9.417725e-02
3.852812e+07 1.011230e+00 6.530762e-02 -5.982071e-05 -3.008917e-05 -2.631545e-05 2.379902e-05 -9.810181e-01 -9.582520e-02
3.874594e+07 1.010864e+00 6.512451e-02 -3.175437e-05 2.509914e-05 1.657382e-05 1.834892e-05 -9.812622e-01 -9.576416e-02
3.896375e+07 1.011230e+00 6.542969e-02 2.439320e-05 3.748015e-05 -1.167879e-05 1.472235e-05 -9.813232e-01 -9.710693e-02
3.918156e+07 1.010620e+00 6.536865e-02 1.440197e-05 2.478994e-05 -5.070120e-06 -7.913448e-06 -9.823608e-01 -9.759521e-02
3.939938e+07 1.010437e+00 6.585693e-02 1.973473e-05 -2.075545e-05 2.672896e-07 1.644529e-05 -9.813232e-01 -9.832764e-02
3.961719e+07 1.010498e+00 6.549072e-02 2.113171e-05 -3.217719e-05 -2.831407e-05 -3.609806e-06 -9.827881e-01 -9.942627e-02
3.983500e+07 1.010986e+00 6.628418e-02 2.649799e-05 2.044998e-05 -2.012961e-05 -3.609248e-05 -9.831543e-01 -9.985352e-02
4.005281e+07 1.009827e+00 6.579590e-02 -1.074374e-05 4.209951e-05 -1.338776e-05 -1.712795e-05 -9.830322e-01 -1.003418e-01
4.027062e+07 1.010559e+00 6.610107e-02 -1.005828e-05 -1.275819e-05 1.543574e-05 -1.410954e-06 -9.825439e-01 -1.021118e-01
4.048844e+07 1.009216e+00 6.573486e-02 4.398078e-05 -2.953410e-05 7.275492e-05 5.975366e-05 -9.832764e-01 -1.026001e-01
4.070625e+07 1.009094e+00 6.542969e-02 2.719648e-05 1.481734e-05 -2.358854e-05 -5.401671e-05 -9.838867e-01 -1.043091e-01
4.092406e+07 1.008667e+00 6.536865e-02 2.655573e-05 2.054311e-05 -1.761038e-05 -2.180506e-05 -9.850464e-01 -1.045532e-01
4.114188e+07 1.009460e+00 6.597900e-02 3.126264e-05 2.979673e-05 -3.740191e-06 -3.430806e-05 -9.846191e-01 -1.049194e-01
4.135969e+07 1.008667e+00 6.530762e-02 1.381151e-05 -1.866464e-05 1.041498e-05 1.155119e-05 -9.845581e-01 -1.058350e-01
4.157750e+07 1.008057e+00 6.561279e-02 2.759323e-05 1.200289e-05 2.312125e-06 -2.083369e-06 -9.853516e-01 -1.072388e-01
4.179531e+07 1.007690e+00 6.579590e-02 -4.204363e-05 -3.692135e-05 -4.675612e-05 -1.232326e-05 -9.851074e-01 -1.075439e-01
4.201312e+07 1.007019e+00 6.634521e-02 -8.728355e-06 -2.430007e-05 2.410449e-05 2.443790e-05 -9.861450e-01 -1.086426e-01
4.223094e+07 1.007019e+00 6.640625e-02 -2.704933e-05 3.167428e-05 -4.563481e-07 2.978928e-05 -9.865112e-01 -1.093750e-01
4.244875e+07 1.006897e+00 6.488037e-02 -4.150346e-05 -4.276261e-05 -3.387965e-05 -7.277355e-06 -9.875488e-01 -1.099243e-01
4.266656e+07 1.006104e+00 6.610107e-02 -2.194569e-05 -1.136214e-05 1.740735e-05 5.333684e-06 -9.884033e-01 -1.113892e-01
4.288438e+07 1.005249e+00 6.597900e-02 -3.288127e-05 3.103539e-05 8.122995e-06 1.369044e-05 -9.883423e-01 -1.123657e-01
4.310219e+07 1.005432e+00 6.628418e-02 -1.322012e-05 1.298357e-05 1.463573e-05 -4.773960e-06 -9.880371e-01 -1.130981e-01
4.332000e+07 1.005005e+00 6.658936e-02 -4.133955e-05 3.810972e-06 -3.906339e-05 -1.535192e-05 -9.898682e-01 -1.134644e-01
4.353781e+07 1.004761e+00 6.530762e-02 -1.623854e-05 -1.069810e-05 -1.488999e-05 9.207986e-06 -9.894409e-01 -1.135864e-01
4.375562e+07 1.004822e+00 6.597900e-02 3.559329e-05 -4.487112e-06 3.734604e-06 3.458932e-05 -9.897461e-01 -1.151123e-01
4.397344e+07 1.004700e+00 6.640625e-02 4.724134e-06 9.342097e-06 5.821697e-06 -5.247071e-06 -9.907227e-01 -1.153564e-01
4.419125e+07 1.003052e+00 6.665039e-02 -2.638996e-05 -2.365746e-05 1.912564e-05 1.654401e-05 -9.903564e-01 -1.165161e-01
4.440906e+07 1.002686e+00 6.781006e-02 1.223665e-05 -4.393049e-06 -4.455447e-05 -4.012138e-05 -9.917603e-01 -1.160278e-01
4.462688e+07 1.002502e+00 6.658936e-02 3.501028e-05 1.262873e-06 -7.477589e-06 1.517963e-05 -9.922485e-01 -1.167603e-01
4.484469e+07 1.001831e+00 6.799316e-02 -1.031533e-05 3.688224e-05 8.642673e-06 4.908070e-06 -9.924927e-01 -1.180420e-01
4.506250e+07 1.002197e+00 6.719971e-02 4.165620e-05 -5.364791e-05 5.371869e-06 3.628200e-06 -9.929810e-01 -1.184692e-01
4.528031e+07 1.000671e+00 6.707764e-02 1.507625e-05 -2.752990e-05 8.624047e-06 2.609752e-05 -9.935303e-01 -1.195068e-01
4.549812e+07 9.998779e-01 6.738281e-02 -1.422130e-05 -2.818368e-05 7.454306e-06 4.836917e-05 -9.946289e-01 -1.201782e-01
4.571594e+07 9.990845e-01 6.781006e-02 1.175702e-05 4.844740e-05 8.902047e-06 4.810281e-07 -9.940186e-01 -1.209717e-01
4.593375e+07 9.987793e-01 6.860352e-02 -3.535300e-06 2.898090e-05 2.811663e-05 1.712702e-05 -9.945679e-01 -1.219482e-01
4.615156e+07 9.987183e-01 6.787109e-02 5.097128e-06 6.505288e-06 3.072433e-06 -1.549069e-05 -9.956665e-01 -1.217651e-01
4.636938e+07 9.980469e-01 6.860352e-02 3.685243e-06 1.811236e-05 1.244154e-05 1.855474e-05 -9.957275e-01 -1.222534e-01
4.658719e+07 9.969482e-01 6.872559e-02 8.113682e-06 3.046170e-05 1.573097e-05 1.986139e-05 -9.968262e-01 -1.226196e-01
4.680500e+07 9.965210e-01 6.958008e-02 -1.849420e-05 6.610528e-06 8.359551e-06 5.196407e-05 -9.968262e-01 -1.228638e-01
4.702281e+07 9.956055e-01 6.988525e-02 -1.063570e-06 8.725096e-06 -1.693238e-05 2.454035e-06 -9.976196e-01 -1.239624e-01
4.724062e+07 9.953613e-01 7.049561e-02 -1.163874e-05 -1.420267e-06 1.522806e-05 -9.019859e-06 -9.984741e-01 -1.246948e-01
4.745844e+07 9.947510e-01 7.037354e-02 -1.164153e-05 -1.419336e-06 8.690171e-06 -1.173653e-05 -9.980469e-01 -1.251221e-01
4.767625e+07 9.950562e-01 6.982422e-02 6.292015e-06 4.511327e-05 -6.892718e-06 -7.451978e-06 -9.985962e-01 -1.259155e-01
4.789406e+07 9.934692e-01 7.122803e-02 -3.139116e-05 -3.340282e-05 3.243051e-05 -3.571622e-05 -9.988403e-01 -1.261597e-01
4.811188e+07 9.931641e-01 7.080078e-02 1.498125e-05 2.256036e-05 -3.707223e-05 1.539104e-05 -9.995117e-01 -1.268311e-01
4.832969e+07 9.928589e-01 7.122803e-02 -5.032867e-06 4.085153e-05 9.617303e-06 9.019859e-07 -1.000305e+00 -1.278687e-01
4.854750e+07 9.918823e-01 7.159424e-02 -6.198883e-06 2.204441e-06 -3.399327e-07 -4.753470e-06 -1.001160e+00 -1.281128e-01
4.876531e+07 9.903564e-01 7.220459e-02 -2.657808e-05 2.342835e-05 2.263114e-06 -1.289882e-05 -1.001343e+00 -1.282349e-01
4.898312e+07 9.915771e-01 7.269287e-02 -6.562099e-06 5.120877e-06 -1.508184e-05 1.224317e-05 -1.001343e+00 -1.291504e-01
4.920094e+07 9.902954e-01 7.281494e-02 3.501773e-05 -4.319102e-05 -6.126240e-06 3.628898e-06 -1.002563e+00 -1.298828e-01
4.941875e+07 9.893188e-01 7.397461e-02 1.909398e-05 3.799051e-05 -1.124758e-05 2.155174e-05 -1.003113e+00 -1.296387e-01
4.963656e+07 9.891357e-01 7.360840e-02 -1.504458e-05 -2.264790e-05 -5.437061e-06 -3.156811e-05 -1.003418e+00 -1.301880e-01
4.985438e+07 9.884644e-01 7.366943e-02 -6.942078e-06 8.065719e-06 4.988164e-06 2.522208e-05 -1.004272e+00 -1.303101e-01
5.007219e+07 9.875488e-01 7.507324e-02 -1.721177e-05 -5.104579e-06 -1.119450e-06 -1.590885e-05 -1.003723e+00 -1.314087e-01
5.029000e+07 9.864502e-01 7.513428e-02 -2.911314e-06 2.346374e-05 -2.048351e-05 2.704933e-05 -1.004822e+00 -1.320801e-01
5.050781e+07 9.862671e-01 7.531738e-02 4.323944e-05 -1.249090e-05 -7.379800e-06 -1.388602e-05 -1.005127e+00 -1.327515e-01
5.072562e+07 9.863281e-01 7.666016e-02 -5.354360e-05 -6.780028e-07 -6.719492e-07 -9.567477e-06 -1.006104e+00 -1.328125e-01
5.094344e+07 9.846802e-01 7.690430e-02 3.630295e-05 -4.421920e-06 1.737848e-06 -2.094265e-05 -1.005554e+00 -1.330566e-01
5.116125e+07 9.846191e-01 7.708740e-02 -1.617149e-05 -1.394190e-05 -2.804026e-05 1.160614e-05 -1.006958e+00 -1.331177e-01
5.137906e+07 9.839478e-01 7.830811e-02 2.197921e-06 -1.763366e-05 2.312101e-05 9.614974e-06 -1.007324e+00 -1.336060e-01
5.159688e+07 9.830322e-01 7.873535e-02 -2.179295e-06 1.765229e-05 1.563132e-05 -5.902722e-06 -1.008301e+00 -1.332397e-01
5.181469e+07 9.816895e-01 7.885742e-02 -3.417954e-05 -1.322478e-05 -7.169787e-06 -1.072837e-05 -1.007751e+00 -1.341553e-01
5.203250e+07 9.817505e-01 7.910156e-02 1.213327e-05 -1.472421e-06 -3.537908e-05 -7.227063e-07 -1.008484e+00 -1.344604e-01
5.225031e+07 9.807739e-01 7.995605e-02 -3.677793e-06 -1.838524e-05 8.855015e-06 3.471412e-05 -1.008423e+00 -1.350708e-01
5.246812e+07 9.807739e-01 8.044434e-02 -6.405264e-05 -1.398474e-05 1.885183e-05 -6.142072e-06 -1.009583e+00 -1.349487e-01
5.268594e+07 9.801636e-01 8.172607e-02 -7.374212e-06 1.105666e-05 5.843583e-06 -8.443370e-06 -1.010620e+00 -1.358643e-01
5.290375e+07 9.788208e-01 8.166504e-02 -1.804437e-05 7.282943e-07 -1.471676e-05 -2.630614e-05 -1.010193e+00 -1.359253e-01
5.312156e+07 9.786377e-01 8.239746e-02 -1.806114e-05 7.357448e-07 -9.720214e-06 -9.285286e-07 -1.011230e+00 -1.355591e-01
5.333938e+07 9.770508e-01 8.264160e-02 6.339327e-05 1.990795e-05 -1.459382e-06 -2.080295e-05 -1.011047e+00 -1.359253e-01
5.355719e+07 9.772339e-01 8.367920e-02 3.708992e-07 -2.949964e-06 -2.261624e-05 4.504621e-05 -1.011108e+00 -1.365356e-01
5.377500e+07 9.765015e-01 8.477783e-02 -2.951920e-05 -3.706664e-06 -6.743241e-06 -4.363712e-06 -1.011902e+00 -1.365967e-01
5.399281e+07 9.759521e-01 8.508301e-02 -1.404714e-05 1.622271e-05 2.079923e-05 2.110191e-05 -1.012817e+00 -1.370239e-01
5.421062e+07 9.751587e-01 8.489990e-02 1.660828e-05 1.109485e-05 -2.701022e-05 -1.745299e-05 -1.013550e+00 -1.367798e-01
5.442844e+07 9.743042e-01 8.593750e-02 1.404528e-05 -1.624227e-05 -1.483038e-05 -2.797879e-05 -1.013000e+00 -1.369629e-01
5.464625e+07 9.750977e-01 8.630371e-02 -2.769940e-05 -1.848862e-05 9.976793e-06 4.146248e-06 -1.013550e+00 -1.373291e-01
5.486406e+07 9.735107e-01 8.709717e-02 -1.145620e-05 -4.455447e-06 -1.075491e-05 -1.538731e-05 -1.014465e+00 -1.380615e-01
5.508188e+07 9.732666e-01 8.862305e-02 1.294445e-05 -7.387251e-06 1.850910e-05 3.425963e-05 -1.014771e+00 -1.373291e-01
5.529969e+07 9.719849e-01 8.929443e-02 1.107622e-05 7.401221e-06 4.783273e-06 -2.454221e-05 -1.013611e+00 -1.378784e-01
5.551750e+07 9.704590e-01 8.929443e-02 2.033077e-05 2.963655e-05 -6.758142e-06 -4.375353e-06 -1.016113e+00 -1.381226e-01
5.573531e+07 9.714355e-01 9.008789e-02 -2.736226e-05 -2.150610e-05 -2.773944e-06 6.658491e-06 -1.015503e+00 -1.379395e-01
5.595312e+07 9.701538e-01 9.167480e-02 -8.469447e-06 -2.815388e-05 -2.419576e-05 2.427399e-05 -1.015808e+00 -1.381226e-01
5.617094e+07 9.692383e-01 9.204102e-02 -3.393739e-06 2.664886e-05 -1.121499e-05 2.499670e-05 -1.015686e+00 -1.387329e-01
5.638875e+07 9.692383e-01 9.295654e-02 1.628138e-05 1.411792e-05 3.043003e-05 -2.795458e-05 -1.017090e+00 -1.386108e-01
5.660656e+07 9.678345e-01 9.295654e-02 -1.132023e-06 8.892734e-06 -1.065526e-05 -1.381990e-05 -1.016785e+00 -1.389160e-01
5.682438e+07 9.672241e-01 9.448242e-02 -6.005913e-05 -1.654029e-06 -4.094094e-05 -3.119744e-05 -1.017212e+00 -1.389160e-01
5.704219e+07 9.672241e-01 9.490967e-02 8.951873e-06 -2.295338e-05 1.933239e-05 -1.327135e-06 -1.016235e+00 -1.387939e-01
5.726000e+07 9.671631e-01 9.527588e-02 8.463860e-06 2.822652e-05 -1.440756e-06 -2.095755e-05 -1.018311e+00 -1.389160e-01
5.747781e+07 9.660034e-01 9.600830e-02 -2.260134e-05 -1.192279e-05 3.998168e-06 1.105759e-05 -1.017517e+00 -1.387329e-01
5.769562e+07 9.650269e-01 9.771729e-02 -1.745112e-05 -5.245209e-06 -2.738088e-06 -4.030205e-05 -1.019226e+00 -1.390381e-01
5.791344e+07 9.645386e-01 9.844971e-02 3.236160e-05 -1.697615e-05 -2.291240e-05 -3.311783e-06 -1.018005e+00 -1.395264e-01
5.813125e+07 9.635010e-01 9.899902e-02 5.922467e-05 -3.774464e-05 -2.405606e-05 2.755597e-05 -1.018982e+00 -1.390991e-01
5.834906e+07 9.633179e-01 9.960938e-02 2.667308e-06 -2.081320e-05 -4.375353e-06 3.110245e-05 -1.019531e+00 -1.391602e-01
5.856688e+07 9.628296e-01 1.014404e-01 2.682954e-05 -2.076477e-05 -1.056399e-05 -1.226179e-05 -1.019653e+00 -1.387939e-01
5.878469e+07 9.628906e-01 1.013184e-01 3.993884e-05 -2.815574e-05 7.709488e-06 -2.975576e-05 -1.020020e+00 -1.394043e-01
5.900250e+07 9.624634e-01 1.036377e-01 5.188398e-06 6.723683e-06 6.864965e-05 -4.196540e-05 -1.020142e+00 -1.394043e-01
5.922031e+07 9.619141e-01 1.032104e-01 2.784468e-05 1.871586e-05 -6.802380e-06 -4.417263e-06 -1.019348e+00 -1.390991e-01
5.943812e+07 9.616089e-01 1.038208e-01 1.864415e-05 -3.674068e-06 -5.605444e-05 -1.085922e-05 -1.020569e+00 -1.381226e-01
5.965594e+07 9.606323e-01 1.059570e-01 3.019534e-05 8.307397e-07 2.646074e-05 6.366521e-06 -1.020752e+00 -1.390381e-01
5.987375e+07 9.605103e-01 1.057739e-01 2.154335e-05 2.098270e-05 -2.045184e-06 1.803413e-05 -1.020935e+00 -1.395264e-01
6.009156e+07 9.596558e-01 1.068726e-01 -5.161390e-05 2.365932e-05 6.591436e-06 1.183711e-06 -1.020996e+00 -1.390991e-01
6.030938e+07 9.590454e-01 1.072998e-01 -1.908187e-05 6.638467e-06 1.177192e-05 -1.872052e-05 -1.021484e+00 -1.394653e-01
6.052719e+07 9.581299e-01 1.083984e-01 9.238720e-06 2.245232e-05 -4.466623e-05 1.442805e-05 -1.020874e+00 -1.390381e-01
6.074500e+07 9.580078e-01 1.098633e-01 -3.468804e-05 -1.362525e-05 -4.718825e-05 -2.294034e-05 -1.021545e+00 -1.395874e-01
6.096281e+07 9.575806e-01 1.109009e-01 2.431124e-05 1.173466e-07 4.876405e-06 2.414733e-05 -1.022034e+00 -1.394653e-01
6.118062e+07 9.591675e-01 1.127319e-01 -1.372397e-05 -4.537031e-05 1.805648e-05 -2.407096e-05 -1.021790e+00 -1.392212e-01
6.139844e+07 9.580688e-01 1.116943e-01 -9.342562e-06 6.360933e-06 1.394376e-05 -6.219372e-06 -1.021057e+00 -1.380005e-01
6.161625e+07 9.579468e-01 1.137695e-01 -7.858500e-06 -1.499429e-06 2.153590e-05 1.801178e-06 -1.021790e+00 -1.389160e-01
6.183406e+07 9.570312e-01 1.145020e-01 -2.827123e-05 -1.316890e-06 -3.399886e-05 4.775822e-06 -1.022095e+00 -1.384888e-01
6.205188e+07 9.569702e-01 1.148071e-01 3.844500e-06 -9.457115e-06 -1.775660e-05 2.212822e-06 -1.022278e+00 -1.383057e-01
6.226969e+07 9.566650e-01 1.167603e-01 -8.718576e-06 -7.772353e-06 -2.795458e-05 1.242943e-05 -1.022278e+00 -1.373901e-01
6.248750e+07 9.563599e-01 1.168213e-01 4.536286e-05 -2.401322e-05 2.717972e-05 -5.031750e-05 -1.022461e+00 -1.377563e-01
6.270531e+07 9.550781e-01 1.178589e-01 1.405645e-05 -9.572133e-06 -2.194196e-05 -2.070703e-05 -1.022217e+00 -1.369629e-01
6.292312e+07 9.553833e-01 1.184082e-01 2.420694e-05 6.584823e-05 -1.754612e-06 -1.296774e-05 -1.022217e+00 -1.375122e-01
6.314094e+07 9.552002e-01 1.187134e-01 -4.875474e-06 -1.728255e-05 4.063360e-06 1.664180e-05 -1.023438e+00 -1.378784e-01
6.335875e+07 9.547729e-01 1.199341e-01 9.778887e-06 3.453717e-05 2.390705e-05 5.448237e-06 -1.022705e+00 -1.369019e-01
6.357656e+07 9.544067e-01 1.216431e-01 1.193397e-05 1.249183e-05 1.084898e-05 2.134684e-05 -1.023499e+00 -1.369629e-01
6.379438e+07 9.541626e-01 1.226807e-01 3.947318e-05 7.499009e-06 -1.905393e-05 1.452677e-05 -1.023315e+00 -1.364746e-01
6.401219e+07 9.538574e-01 1.228638e-01 -2.950430e-05 4.756823e-05 1.252070e-05 -6.590039e-06 -1.023315e+00 -1.362915e-01
6.423000e+07 9.531250e-01 1.243896e-01 -1.155585e-05 2.848916e-05 1.234934e-05 2.171099e-05 -1.023193e+00 -1.358032e-01
6.444781e+07 9.530029e-01 1.250610e-01 8.933246e-06 2.831966e-05 -1.321267e-05 9.587035e-06 -1.023560e+00 -1.361084e-01
6.466562e+07 9.526978e-01 1.258545e-01 1.881272e-06 3.315508e-05 8.988660e-06 2.050307e-06 -1.024353e+00 -1.362915e-01
6.488344e+07 9.518433e-01 1.271362e-01 -2.825819e-05 1.919083e-05 -2.269074e-05 5.785748e-05 -1.023315e+00 -1.367188e-01
6.510125e+07 9.517822e-01 1.276855e-01 -1.563039e-05 1.752377e-05 1.366064e-05 -2.527051e-05 -1.023438e+00 -1.356201e-01
6.531906e+07 9.525146e-01 1.280518e-01 -1.111906e-05 -6.216578e-06 -8.597039e-06 1.698174e-05 -1.023315e+00 -1.353149e-01
6.553688e+07 9.516602e-01 1.295776e-01 -5.580857e-05 -5.166233e-05 -1.678057e-05 -1.645274e-05 -1.023499e+00 -1.353149e-01
6.575469e+07 9.518433e-01 1.306152e-01 -2.574734e-05 3.821217e-05 -2.498180e-05 -1.517311e-05 -1.023743e+00 -1.351318e-01
6.597250e+07 9.503174e-01 1.301270e-01 3.899448e-05 2.179481e-05 -2.837554e-05 -1.136214e-07 -1.023926e+00 -1.348267e-01
6.619031e+07 9.511108e-01 1.322632e-01 4.736478e-10 9.038104e-11 4.371628e-06 -5.328096e-06 -1.023254e+00 -1.354370e-01
6.640812e+07 9.506226e-01 1.329346e-01 -4.925765e-06 -1.737196e-05 -2.541207e-05 5.438924e-07 -1.023804e+00 -1.337280e-01
6.662594e+07 9.509888e-01 1.350098e-01 4.290789e-05 1.224875e-05 1.597032e-05 4.795194e-05 -1.023804e+00 -1.342773e-01
6.684375e+07 9.501953e-01 1.356812e-01 -3.498234e-05 -1.075119e-05 2.613291e-06 -1.839176e-05 -1.023499e+00 -1.343994e-01
6.706156e+07 9.505615e-01 1.361084e-01 1.141056e-05 -4.925951e-05 2.900697e-05 -9.223819e-06 -1.023071e+00 -1.336060e-01
6.727938e+07 9.503174e-01 1.376343e-01 -1.784414e-05 3.984198e-05 2.641976e-05 9.192154e-06 -1.023132e+00 -1.329956e-01
6.749719e+07 9.501343e-01 1.378784e-01 1.977757e-05 -6.545335e-06 -2.309680e-07 -4.758686e-05 -1.023621e+00 -1.328125e-01
6.771500e+07 9.494629e-01 1.386719e-01 -2.470985e-05 -1.086853e-05 -9.451993e-06 1.368392e-05 -1.023010e+00 -1.329956e-01
6.793281e+07 9.492188e-01 1.399536e-01 -5.593058e-06 -3.122259e-06 -2.452172e-05 1.025759e-05 -1.023438e+00 -1.326904e-01
6.815062e+07 9.492798e-01 1.397705e-01 -5.250797e-05 -5.863607e-06 -3.976747e-06 2.446212e-05 -1.023193e+00 -1.333008e-01
6.836844e+07 9.490967e-01 1.418457e-01 -7.504597e-06 -3.649481e-05 -2.578832e-05 2.266653e-05 -1.023193e+00 -1.328125e-01
6.858625e+07 9.489746e-01 1.419678e-01 3.161281e-05 6.173179e-05 2.729706e-05 -2.234615e-05 -1.022522e+00 -1.325073e-01
6.880406e+07 9.493408e-01 1.436157e-01 -3.492087e-05 9.890646e-06 1.988746e-05 -1.770351e-05 -1.022644e+00 -1.320190e-01
6.902188e+07 9.490967e-01 1.444092e-01 -3.967434e-05 1.312792e-05 -6.725546e-06 1.649838e-06 -1.022156e+00 -1.317749e-01
6.923969e+07 9.494019e-01 1.460571e-01 1.162663e-05 4.768744e-05 4.666857e-06 7.419847e-06 -1.022705e+00 -1.317749e-01
6.945750e+07 9.491577e-01 1.461792e-01 6.683171e-06 -4.627556e-05 -3.640726e-05 -1.462549e-05 -1.021973e+00 -1.317139e-01
6.967531e+07 9.494629e-01 1.477051e-01 -1.940876e-05 -2.849102e-05 -2.611801e-05 9.959564e-06 -1.021301e+00 -1.319580e-01
6.989312e+07 9.484253e-01 1.483154e-01 -2.311543e-05 1.827255e-06 -5.087815e-06 8.380972e-06 -1.021912e+00 -1.315308e-01
7.011094e+07 9.495239e-01 1.495972e-01 -1.361221e-05 -4.654750e-06 -2.408214e-05 8.847564e-07 -1.021729e+00 -1.321411e-01
7.032875e+07 9.483032e-01 1.500854e-01 -2.419949e-05 -2.531521e-05 -2.062600e-05 -1.423433e-05 -1.021667e+00 -1.317749e-01
7.054656e+07 9.487915e-01 1.514282e-01 4.910305e-05 3.621355e-05 1.402386e-05 2.230331e-05 -1.021362e+00 -1.305542e-01
7.076438e+07 9.483643e-01 1.523438e-01 -1.884811e-05 3.375299e-05 -4.279613e-05 -2.886169e-05 -1.021545e+00 -1.315918e-01
7.098219e+07 9.492188e-01 1.527710e-01 9.518117e-06 -6.494112e-06 2.452731e-05 1.831539e-05 -1.020264e+00 -1.307983e-01
7.120000e+07 9.487915e-01 1.545410e-01 2.402067e-05 4.539266e-06 1.635402e-05 6.112084e-05 -1.019836e+00 -1.307983e-01
7.141781e+07 9.486694e-01 1.560059e-01 -2.552569e-05 3.466383e-06 2.905540e-05 1.939945e-05 -1.018860e+00 -1.306152e-01
7.163562e+07 9.490967e-01 1.558838e-01 2.382905e-06 -1.626089e-06 3.320165e-06 -2.158433e-05 -1.020630e+00 -1.303101e-01
7.185344e+07 9.489746e-01 1.555786e-01 1.342595e-05 6.068125e-05 -3.501773e-05 2.078153e-05 -1.019653e+00 -1.300659e-01
7.207125e+07 9.490356e-01 1.579590e-01 -3.511831e-05 9.967014e-06 -3.669783e-05 -2.114661e-05 -1.019043e+00 -1.301880e-01
7.228906e+07 9.484253e-01 1.579590e-01 2.276152e-05 3.341958e-05 -2.868660e-05 -1.303852e-07 -1.018982e+00 -1.304932e-01
7.250688e+07 9.486694e-01 1.592407e-01 1.605414e-05 3.033318e-06 -1.145527e-05 -4.091859e-05 -1.018433e+00 -1.298828e-01
7.272469e+07 9.489746e-01 1.603394e-01 4.598498e-05 3.158301e-05 -1.863949e-05 -2.338737e-05 -1.017822e+00 -1.301270e-01
7.294250e+07 9.490356e-01 1.617432e-01 2.389308e-06 -1.629698e-06 1.146272e-05 5.800277e-06 -1.018311e+00 -1.300659e-01
7.316031e+07 9.484253e-01 1.619873e-01 6.068498e-06 -3.216788e-05 -1.711212e-05 1.209322e-05 -1.017822e+00 -1.294556e-01
7.337812e+07 9.494629e-01 1.633911e-01 2.621673e-06 1.922250e-05 2.078246e-06 -9.124633e-06 -1.016907e+00 -1.291504e-01
7.359594e+07 9.494019e-01 1.646118e-01 1.456589e-05 1.108181e-05 4.848465e-06 -2.129842e-05 -1.016663e+00 -1.296997e-01
7.381375e+07 9.496460e-01 1.654663e-01 -1.154840e-05 -2.718903e-05 3.251992e-05 3.300607e-05 -1.016785e+00 -1.290894e-01
7.403156e+07 9.502563e-01 1.666260e-01 -2.160668e-06 2.252124e-05 3.712624e-05 3.407523e-05 -1.016174e+00 -1.285400e-01
7.424938e+07 9.492188e-01 1.673584e-01 -9.572599e-06 6.530900e-06 2.380833e-05 1.502596e-05 -1.015259e+00 -1.290894e-01
7.446719e+07 9.501343e-01 1.678467e-01 4.353747e-05 1.242012e-05 -4.892796e-05 1.775101e-05 -1.015076e+00 -1.297607e-01
7.468500e+07 9.497070e-01 1.693726e-01 -1.896918e-05 -4.322827e-05 -3.325753e-05 5.258247e-06 -1.014771e+00 -1.293945e-01
7.490281e+07 9.501953e-01 1.697998e-01 -1.109764e-05 1.459662e-05 1.496635e-05 -9.427778e-06 -1.013611e+00 -1.289673e-01
7.512062e+07 9.505005e-01 1.707153e-01 2.549402e-05 -2.443418e-05 2.121925e-05 -1.603737e-06 -1.014038e+00 -1.296387e-01
7.533844e+07 9.506226e-01 1.718140e-01 -2.573244e-05 3.496185e-06 4.116446e-07 -1.595635e-05 -1.013428e+00 -1.298828e-01
7.555625e+07 9.514160e-01 1.719971e-01 -9.372830e-06 -4.982576e-05 1.291372e-05 -2.896413e-07 -1.013123e+00 -1.300049e-01
7.577406e+07 9.509888e-01 1.730957e-01 1.661852e-05 4.493818e-05 1.346041e-05 -9.790994e-06 -1.012817e+00 -1.295776e-01
7.599188e+07 9.510498e-01 1.748047e-01 1.224037e-05 1.276564e-05 -8.178875e-06 -2.755970e-05 -1.012939e+00 -1.295166e-01
7.620969e+07 9.515381e-01 1.745605e-01 -2.423860e-05 -4.563481e-06 -1.917500e-05 -7.559545e-06 -1.011902e+00 -1.294556e-01
7.642750e+07 9.516602e-01 1.760254e-01 1.680572e-05 -1.149252e-05 1.445133e-05 5.774200e-08 -1.011841e+00 -1.291504e-01
7.664531e+07 9.515991e-01 1.762085e-01 -4.325062e-06 4.519522e-05 -3.470108e-05 4.677847e-05 -1.010071e+00 -1.294556e-01
7.686312e+07 9.515381e-01 1.771240e-01 -2.427213e-05 -4.570931e-06 6.664079e-06 -8.136965e-06 -1.010498e+00 -1.293945e-01
7.708094e+07 9.525757e-01 1.784668e-01 4.585832e-06 -2.426840e-05 -1.836754e-05 -4.159287e-06 -1.009460e+00 -1.300049e-01
7.729875e+07 9.522705e-01 1.793213e-01 -8.094124e-06 -1.524575e-06 1.097750e-05 -2.003554e-05 -1.009094e+00 -1.295776e-01
7.751656e+07 9.526367e-01 1.806641e-01 -6.990507e-06 2.592988e-05 4.184432e-06 1.704972e-05 -1.008667e+00 -1.298828e-01
7.773438e+07 9.535522e-01 1.815186e-01 -3.001280e-05 -7.770956e-06 5.992129e-06 3.036112e-05 -1.009094e+00 -1.301270e-01
7.795219e+07 9.534912e-01 1.819458e-01 -6.524846e-05 2.333522e-05 1.044245e-05 -1.052534e-05 -1.007751e+00 -1.305542e-01
7.817000e+07 9.531860e-01 1.826172e-01 1.796987e-05 1.598801e-05 1.627766e-05 -2.208725e-05 -1.006836e+00 -1.303711e-01
7.838781e+07 9.533691e-01 1.840820e-01 8.114614e-06 1.524575e-06 1.226272e-05 2.790242e-06 -1.006958e+00 -1.297607e-01
7.860562e+07 9.536133e-01 1.851807e-01 1.229066e-05 1.281593e-05 1.100916e-05 -2.007000e-05 -1.006042e+00 -1.304932e-01
7.882344e+07 9.541626e-01 1.856079e-01 -1.272559e-05 2.283044e-05 1.324713e-05 -2.280436e-05 -1.006165e+00 -1.309814e-01
7.904125e+07 9.544067e-01 1.862183e-01 1.600571e-05 -1.801737e-05 -3.123097e-05 2.602115e-06 -1.005371e+00 -1.309204e-01
7.925906e+07 9.550781e-01 1.867676e-01 3.440492e-05 -3.769435e-05 -2.298132e-05 6.581843e-05 -1.004578e+00 -1.309814e-01
7.947688e+07 9.552002e-01 1.871338e-01 -1.053605e-05 1.210719e-07 1.307949e-05 -2.932362e-05 -1.003784e+00 -1.315308e-01
7.969469e+07 9.556274e-01 1.887207e-01 -1.206528e-05 8.258969e-06 -1.229066e-05 -2.785586e-06 -1.004028e+00 -1.305542e-01
7.991250e+07 9.563599e-01 1.900024e-01 3.303168e-06 4.833564e-06 2.976134e-05 -2.952293e-06 -1.003967e+00 -1.315918e-01
8.013031e+07 9.563599e-01 1.901245e-01 2.352148e-05 -1.898035e-06 -1.383293e-05 -3.145076e-06 -1.003113e+00 -1.325073e-01
8.034812e+07 9.568481e-01 1.903687e-01 -3.308523e-06 -4.834495e-06 -2.685562e-05 -3.843009e-05 -1.002808e+00 -1.317139e-01
8.056594e+07 9.572144e-01 1.913452e-01 7.496215e-06 1.616683e-05 -8.801930e-06 1.742132e-05 -1.002136e+00 -1.325684e-01
8.078375e+07 9.575195e-01 1.911011e-01 4.099682e-05 2.877414e-05 -1.747534e-05 5.761161e-06 -1.001770e+00 -1.326294e-01
8.100156e+07 9.575195e-01 1.930542e-01 -3.306661e-06 -4.840316e-06 2.590008e-05 2.852827e-05 -1.000854e+00 -1.331787e-01
8.121938e+07 9.585571e-01 1.937866e-01 -2.184883e-05 -6.318837e-05 3.302284e-05 -3.139861e-05 -1.000183e+00 -1.336060e-01
8.143719e+07 9.583740e-01 1.937256e-01 4.103780e-05 2.880394e-05 -6.961636e-07 3.080815e-06 -1.000000e+00 -1.333008e-01
8.165500e+07 9.591064e-01 1.947021e-01 -3.863685e-05 -3.050454e-05 1.207739e-05 2.542138e-05 -9.996948e-01 -1.333008e-01
8.187281e+07 9.590454e-01 1.958008e-01 9.940937e-06 1.453888e-05 -2.268702e-06 -3.294647e-05 -9.983521e-01 -1.336670e-01
8.209062e+07 9.590454e-01 1.967773e-01 -4.785508e-05 1.849234e-05 -5.328283e-05 -1.529977e-05 -9.982300e-01 -1.339722e-01
8.230844e+07 9.600830e-01 1.974487e-01 4.842877e-07 4.238263e-05 -2.275221e-05 -2.138317e-05 -9.979248e-01 -1.343994e-01
8.252625e+07 9.605103e-01 1.979370e-01 -1.662225e-05 -2.426095e-05 -4.487112e-06 5.478505e-06 -9.979248e-01 -1.339111e-01
8.274406e+07 9.602661e-01 1.982422e-01 1.148414e-05 6.395392e-06 8.808449e-06 -1.748372e-05 -9.961548e-01 -1.354980e-01
8.296188e+07 9.609375e-01 1.993408e-01 1.327693e-05 1.942832e-05 1.002289e-05 3.474206e-05 -9.961548e-01 -1.353149e-01
8.317969e+07 9.614258e-01 1.998291e-01 3.538653e-05 2.568960e-05 -1.494773e-07 -6.530900e-06 -9.950562e-01 -1.354980e-01
8.339750e+07 9.624023e-01 2.005615e-01 1.483131e-05 1.125783e-05 4.016235e-05 -2.671033e-05 -9.949951e-01 -1.361084e-01
8.361531e+07 9.625854e-01 2.009888e-01 -1.205131e-05 -4.888326e-05 3.024377e-05 1.007132e-05 -9.949341e-01 -1.359863e-01
8.383312e+07 9.632568e-01 2.016602e-01 1.751631e-05 3.084540e-05 5.796552e-06 1.757871e-05 -9.938965e-01 -1.372681e-01
8.405094e+07 9.632568e-01 2.031250e-01 1.539476e-06 -8.193310e-06 -4.195422e-05 -1.599826e-05 -9.937134e-01 -1.375732e-01
8.426875e+07 9.635620e-01 2.023926e-01 2.663024e-05 3.892183e-05 -1.275912e-05 -5.171075e-05 -9.929810e-01 -1.372681e-01
8.448656e+07 9.628906e-01 2.026367e-01 -1.216028e-05 8.323230e-06 -1.858268e-05 -4.195608e-06 -9.920044e-01 -1.376953e-01
8.470438e+07 9.644775e-01 2.026978e-01 -2.171844e-06 2.294034e-05 -1.256634e-05 -9.343959e-06 -9.921875e-01 -1.381836e-01
8.492219e+07 9.643555e-01 2.041626e-01 -2.665073e-05 -3.900193e-05 -3.962219e-05 -1.219846e-05 -9.917603e-01 -1.392212e-01
8.514000e+07 9.643555e-01 2.051392e-01 5.226582e-06 -3.936514e-05 1.450721e-05 -6.497838e-06 -9.906616e-01 -1.387939e-01
8.535781e+07 9.649658e-01 2.052612e-01 -4.193932e-05 -1.421943e-05 -2.868287e-05 -3.906898e-05 -9.901733e-01 -1.389160e-01
8.557562e+07 9.652710e-01 2.061768e-01 -2.862141e-05 5.247071e-06 -2.553128e-05 -2.507120e-06 -9.898682e-01 -1.405029e-01
8.579344e+07 9.656982e-01 2.064209e-01 -9.387732e-06 -2.937391e-05 -3.991835e-05 1.055747e-05 -9.886475e-01 -1.401978e-01
8.601125e+07 9.656982e-01 2.071533e-01 5.355105e-06 3.930181e-05 -2.018828e-05 -4.561618e-06 -9.886475e-01 -1.421509e-01
8.622906e+07 9.671021e-01 2.079468e-01 1.836196e-05 -4.127249e-05 1.491979e-05 4.255772e-05 -9.888306e-01 -1.415405e-01
8.644688e+07 9.669800e-01 2.086182e-01 3.071874e-05 2.918765e-05 -5.915761e-06 1.173187e-05 -9.878540e-01 -1.417847e-01
8.666469e+07 9.671631e-01 2.086182e-01 -1.491513e-05 -1.132116e-05 -9.571202e-06 2.071448e-05 -9.871216e-01 -1.422119e-01
8.688250e+07 9.681396e-01 2.090454e-01 -5.529262e-06 1.814589e-05 6.303191e-06 -2.801232e-05 -9.871216e-01 -1.423950e-01
8.710031e+07 9.678955e-01 2.094116e-01 1.184456e-05 2.780184e-05 -1.536682e-07 -6.575137e-06 -9.865723e-01 -1.431885e-01
8.731812e+07 9.683228e-01 2.103271e-01 -3.453530e-05 2.063811e-06 -4.908070e-06 2.179388e-05 -9.866333e-01 -1.442871e-01
8.753594e+07 9.685059e-01 2.109375e-01 -1.030974e-05 -3.607757e-05 -5.984679e-06 -2.425350e-05 -9.857178e-01 -1.441650e-01
8.775375e+07 9.702759e-01 2.123413e-01 -1.894496e-05 -1.418404e-06 -2.632476e-05 3.664754e-05 -9.852905e-01 -1.452637e-01
8.797156e+07 9.700317e-01 2.117920e-01 -1.225714e-05 8.388422e-06 1.332629e-05 6.270595e-06 -9.851074e-01 -1.455688e-01
8.818938e+07 9.705811e-01 2.126465e-01 -1.863576e-05 -3.767200e-05 7.338822e-06 -1.801178e-05 -9.849854e-01 -1.454468e-01
8.840719e+07 9.711914e-01 2.122803e-01 -3.005564e-05 3.496371e-05 4.789606e-05 -8.881092e-06 -9.834595e-01 -1.467896e-01
8.862500e+07 9.713135e-01 2.127686e-01 1.462922e-05 4.763901e-05 3.254414e-05 -3.530644e-05 -9.835815e-01 -1.467285e-01
8.884281e+07 9.719849e-01 2.127075e-01 -1.963880e-05 1.343898e-05 1.842529e-05 -8.987263e-06 -9.832764e-01 -1.480103e-01
8.906062e+07 9.720459e-01 2.134399e-01 1.836661e-05 1.626555e-05 4.241057e-05 -1.342595e-05 -9.827881e-01 -1.475830e-01
8.927844e+07 9.725952e-01 2.138062e-01 -3.216974e-05 3.762543e-07 3.624707e-05 2.129003e-05 -9.814453e-01 -1.494751e-01
8.949625e+07 9.727783e-01 2.145996e-01 9.085052e-07 6.596092e-06 6.252900e-06 1.409557e-06 -9.818115e-01 -1.494751e-01
8.971406e+07 9.727783e-01 2.149048e-01 3.583543e-05 2.597831e-05 -2.235547e-05 4.094653e-05 -9.806519e-01 -1.501465e-01
8.993188e+07 9.737549e-01 2.152100e-01 -2.825633e-06 3.805012e-05 9.475276e-06 3.828667e-05 -9.807739e-01 -1.504517e-01
9.014969e+07 9.743042e-01 2.149048e-01 -3.407337e-05 -1.280569e-05 2.624467e-05 2.232194e-05 -9.805298e-01 -1.517334e-01
9.036750e+07 9.744263e-01 2.156982e-01 3.525242e-05 4.089996e-05 -2.122205e-05 -8.050352e-06 -9.796753e-01 -1.520386e-01
9.058531e+07 9.746704e-01 2.167969e-01 -2.150238e-05 2.626330e-07 3.752299e-05 -2.777390e-05 -9.791260e-01 -1.525879e-01
9.080312e+07 9.750977e-01 2.166748e-01 -2.269819e-05 -2.785400e-05 1.990143e-05 -1.528393e-05 -9.786987e-01 -1.530762e-01
9.102094e+07 9.751587e-01 2.169189e-01 3.781170e-07 -3.644265e-05 -9.479001e-06 2.750754e-05 -9.784546e-01 -1.535645e-01
9.123875e+07 9.755249e-01 2.175293e-01 -2.399459e-05 1.946464e-06 2.713688e-05 2.587400e-05 -9.779663e-01 -1.547852e-01
9.145656e+07 9.766846e-01 2.180176e-01 -1.180917e-06 -2.814643e-05 1.333095e-05 -2.998859e-05 -9.769897e-01 -1.546631e-01
9.167438e+07 9.769897e-01 2.180176e-01 1.013000e-05 1.479406e-05 -2.095848e-05 5.190261e-06 -9.770508e-01 -1.560669e-01
9.189219e+07 9.774780e-01 2.183228e-01 -1.507159e-05 -1.142267e-05 -1.539197e-05 9.746291e-06 -9.773560e-01 -1.559448e-01
9.211000e+07 9.769287e-01 2.192383e-01 2.431311e-05 1.960993e-05 -6.281771e-06 -1.415610e-06 -9.771118e-01 -1.569824e-01
9.232781e+07 9.779663e-01 2.189941e-01 3.380701e-06 4.939735e-06 4.638359e-05 4.345924e-05 -9.765625e-01 -1.580200e-01
9.254562e+07 9.782104e-01 2.189941e-01 -3.673136e-06 -2.652779e-05 -3.647804e-05 4.466996e-05 -9.765625e-01 -1.578979e-01
9.276344e+07 9.784546e-01 2.191772e-01 -7.027760e-06 -3.147870e-05 1.714192e-05 -2.761371e-06 -9.756470e-01 -1.594238e-01
9.298125e+07 9.800415e-01 2.202759e-01 6.009638e-05 2.415851e-05 -2.149958e-05 -1.477823e-05 -9.750366e-01 -1.594849e-01
9.319906e+07 9.792480e-01 2.206421e-01 -1.942553e-05 -2.303161e-05 -2.314150e-05 1.464412e-05 -9.756470e-01 -1.596069e-01
9.341688e+07 9.794922e-01 2.198486e-01 1.205131e-05 -3.009290e-05 -1.090765e-05 3.393181e-05 -9.744873e-01 -1.600342e-01
9.363469e+07 9.800415e-01 2.206421e-01 4.296377e-05 -2.216548e-05 1.810491e-05 -2.903678e-05 -9.739990e-01 -1.618042e-01
9.385250e+07 9.801636e-01 2.209473e-01 -4.784763e-05 -3.257766e-05 -1.260918e-05 -2.827495e-06 -9.732056e-01 -1.611328e-01
9.407031e+07 9.810181e-01 2.205200e-01 4.601106e-05 1.936406e-05 2.121553e-06 -9.461772e-06 -9.730835e-01 -1.629028e-01
9.428812e+07 9.805908e-01 2.214355e-01 1.642667e-05 -1.853146e-05 3.839843e-05 -1.320615e-06 -9.736938e-01 -1.641846e-01
9.450594e+07 9.812622e-01 2.210693e-01 -4.785135e-05 -3.275275e-05 -1.964811e-05 -1.097098e-06 -9.724121e-01 -1.652222e-01
9.472375e+07 9.815063e-01 2.213135e-01 2.908707e-05 -5.377457e-06 9.562820e-06 3.862008e-05 -9.727173e-01 -1.649170e-01
9.494156e+07 9.826050e-01 2.219849e-01 -3.665686e-06 -2.663210e-05 2.545305e-05 1.234189e-05 -9.723511e-01 -1.663208e-01
9.515938e+07 9.816284e-01 2.228394e-01 -1.423713e-05 -4.827976e-06 -3.831461e-05 -5.839393e-05 -9.721680e-01 -1.669312e-01
9.537719e+07 9.826050e-01 2.232666e-01 4.521385e-05 1.278520e-05 -3.107265e-05 -1.696311e-05 -9.720459e-01 -1.679688e-01
9.559500e+07 9.823608e-01 2.216797e-01 1.019519e-05 1.488160e-05 3.868341e-05 -2.454408e-05 -9.708862e-01 -1.682129e-01
9.581281e+07 9.828491e-01 2.228394e-01 2.759881e-05 2.987683e-06 -2.557412e-05 -4.893914e-05 -9.719849e-01 -1.691284e-01
9.603062e+07 9.830933e-01 2.228394e-01 -1.987442e-05 1.361407e-05 -7.750466e-06 4.907604e-06 -9.715576e-01 -1.700439e-01
9.624844e+07 9.840698e-01 2.224731e-01 2.793968e-07 2.172776e-05 1.955405e-05 -5.605631e-06 -9.716187e-01 -1.698608e-01
9.646625e+07 9.833984e-01 2.239380e-01 -9.015203e-06 1.348555e-05 1.512188e-05 6.728806e-06 -9.704590e-01 -1.708374e-01
9.668406e+07 9.838257e-01 2.244263e-01 9.229407e-07 6.674789e-06 1.069903e-05 1.904089e-05 -9.703369e-01 -1.714478e-01
9.690188e+07 9.833374e-01 2.227783e-01 -7.452909e-06 5.110167e-06 -9.877607e-06 1.441967e-05 -9.694214e-01 -1.722412e-01
9.711969e+07 9.845581e-01 2.231445e-01 4.669651e-06 -2.514198e-05 -7.979572e-06 2.818927e-05 -9.691162e-01 -1.723633e-01
9.733750e+07 9.845581e-01 2.233276e-01 1.115166e-05 2.160668e-05 5.131587e-06 -1.550559e-05 -9.694214e-01 -1.740112e-01
9.755531e+07 9.849243e-01 2.235718e-01 -2.267957e-05 -6.388873e-06 4.264526e-06 -1.903903e-05 -9.691162e-01 -1.743774e-01
9.777312e+07 9.844971e-01 2.241821e-01 1.994334e-05 -1.366250e-05 1.951307e-05 2.437830e-05 -9.697266e-01 -1.762085e-01
9.799094e+07 9.848022e-01 2.241211e-01 2.205931e-05 2.147816e-05 -4.926231e-06 -7.772353e-06 -9.683228e-01 -1.760864e-01
9.820875e+07 9.852905e-01 2.235107e-01 -4.987698e-06 3.417488e-06 -3.322028e-05 2.926774e-05 -9.689941e-01 -1.773071e-01
9.842656e+07 9.859009e-01 2.242432e-01 2.583489e-05 -1.039915e-05 7.281080e-06 -2.508610e-05 -9.680176e-01 -1.776123e-01
9.864438e+07 9.850464e-01 2.241821e-01 1.153164e-05 -1.525413e-05 -5.934387e-06 -4.806742e-05 -9.683838e-01 -1.782227e-01
9.886219e+07 9.852295e-01 2.247925e-01 1.223758e-06 2.850406e-05 -9.644777e-06 5.795062e-05 -9.682007e-01 -1.790161e-01
9.908000e+07 9.862671e-01 2.247925e-01 -2.364814e-05 -1.310371e-05 -4.554912e-05 4.664063e-05 -9.670410e-01 -1.801758e-01
9.929781e+07 9.858398e-01 2.245483e-01 3.149919e-05 -2.894178e-05 2.704933e-05 6.051734e-06 -9.672241e-01 -1.809692e-01
9.951562e+07 9.854736e-01 2.243042e-01 1.276750e-05 1.326669e-05 -3.060885e-05 9.868294e-06 -9.674072e-01 -1.820068e-01
9.973344e+07 9.860840e-01 2.252197e-01 1.341198e-05 -1.863576e-06 -9.279698e-06 4.140288e-05 -9.673462e-01 -1.820679e-01
9.995125e+07 9.857788e-01 2.256470e-01 -6.407499e-07 1.513120e-05 -1.354516e-05 -3.649853e-05 -9.675903e-01 -1.830444e-01
1.001691e+08 9.867554e-01 2.249146e-01 -1.219660e-05 3.043003e-05 2.835505e-05 -7.065013e-06 -9.678955e-01 -1.835327e-01
1.003869e+08 9.852295e-01 2.254028e-01 7.485226e-05 7.417053e-06 6.201677e-06 -5.302019e-06 -9.664917e-01 -1.849976e-01
1.006047e+08 9.863892e-01 2.252808e-01 3.734604e-06 2.684072e-05 1.471583e-05 -1.346041e-05 -9.668579e-01 -1.856689e-01
1.008225e+08 9.860229e-01 2.260132e-01 -9.238720e-07 5.216897e-05 8.104369e-06 3.863685e-05 -9.674683e-01 -1.858521e-01
1.010403e+08 9.860840e-01 2.250977e-01 1.571607e-06 -8.426607e-06 4.649162e-06 -3.579445e-05 -9.661255e-01 -1.876221e-01
1.012581e+08 9.860840e-01 2.257080e-01 -3.000721e-05 2.059527e-05 -6.925780e-06 8.501578e-06 -9.664917e-01 -1.876831e-01
1.014759e+08 9.867554e-01 2.255859e-01 3.153272e-05 2.988242e-05 -5.802140e-06 -4.152954e-05 -9.665527e-01 -1.887207e-01
1.016938e+08 9.862671e-01 2.258911e-01 -1.468509e-05 -2.674013e-05 -2.042018e-05 8.847564e-06 -9.664917e-01 -1.893311e-01
1.019116e+08 9.869995e-01 2.255249e-01 -5.935878e-05 -3.288314e-05 -1.915358e-05 -3.446266e-05 -9.658813e-01 -1.902466e-01
1.021294e+08 9.868774e-01 2.257080e-01 1.374632e-05 2.003089e-05 1.278426e-05 2.854504e-06 -9.661865e-01 -1.911621e-01
1.023472e+08 9.858398e-01 2.257690e-01 2.060644e-05 3.005192e-05 2.141576e-06 -9.583309e-06 -9.656982e-01 -1.919556e-01
1.025650e+08 9.866943e-01 2.254639e-01 -3.659725e-05 -2.649054e-05 2.113543e-05 1.813471e-05 -9.660034e-01 -1.928101e-01
1.027828e+08 9.864502e-01 2.258301e-01 -5.193055e-05 2.097338e-05 -2.986751e-05 1.348183e-05 -9.655762e-01 -1.922607e-01
1.030006e+08 9.862671e-01 2.261963e-01 -2.377667e-05 -1.315586e-05 2.347678e-05 -1.490861e-05 -9.654541e-01 -1.941528e-01
1.032184e+08 9.864502e-01 2.261963e-01 1.438614e-05 4.864298e-06 -2.792291e-05 -2.877787e-06 -9.647827e-01 -1.948242e-01
1.034362e+08 9.858398e-01 2.259521e-01 2.538785e-05 -5.429611e-05 -1.946464e-06 -1.386646e-05 -9.652710e-01 -1.956787e-01
1.036541e+08 9.868774e-01 2.263794e-01 -2.924353e-07 -2.193823e-05 -2.562813e-05 -5.718321e-06 -9.658813e-01 -1.965332e-01
1.038719e+08 9.866943e-01 2.267456e-01 -5.387887e-05 -5.159155e-05 -3.043376e-05 -6.783754e-06 -9.663086e-01 -1.968384e-01
1.040897e+08 9.863281e-01 2.276611e-01 2.910942e-05 3.166497e-05 2.884120e-05 6.439164e-06 -9.655762e-01 -1.976929e-01
1.043075e+08 9.854736e-01 2.272339e-01 -4.331395e-05 4.449114e-05 -1.530070e-05 -6.778166e-06 -9.662476e-01 -1.990356e-01
1.045253e+08 9.860840e-01 2.269287e-01 -1.849793e-05 5.330890e-06 -1.105666e-05 3.456138e-05 -9.660034e-01 -1.983643e-01
1.047431e+08 9.849243e-01 2.274780e-01 2.545863e-05 -5.440786e-05 8.553267e-06 -8.186325e-06 -9.661865e-01 -2.004395e-01
1.049609e+08 9.854126e-01 2.275391e-01 1.664180e-05 -1.881365e-05 -2.031121e-05 -1.463201e-05 -9.659424e-01 -2.011108e-01
1.051788e+08 9.851074e-01 2.272949e-01 -5.648285e-05 9.238720e-06 1.818594e-05 -6.048009e-06 -9.658203e-01 -2.019043e-01
1.053966e+08 9.851074e-01 2.265015e-01 1.222454e-05 2.857298e-05 1.889747e-05 2.102926e-05 -9.661865e-01 -2.030029e-01
1.056144e+08 9.846802e-01 2.276611e-01 -1.882296e-05 -1.666415e-05 -2.105627e-05 1.887884e-05 -9.661865e-01 -2.039795e-01
1.058322e+08 9.846191e-01 2.277222e-01 -4.963577e-05 1.930073e-05 -1.963228e-05 1.247227e-05 -9.664917e-01 -2.041626e-01
1.060500e+08 9.841309e-01 2.274780e-01 -4.303828e-05 7.349998e-06 -1.430511e-06 6.422400e-06 -9.660645e-01 -2.047729e-01
1.062678e+08 9.845581e-01 2.285156e-01 -6.847456e-05 2.622604e-06 1.268089e-05 -3.911555e-06 -9.659424e-01 -2.052612e-01
1.064856e+08 9.842529e-01 2.274780e-01 1.257192e-05 -8.636154e-06 3.106892e-05 -3.357977e-05 -9.660034e-01 -2.059937e-01
1.067034e+08 9.841309e-01 2.278442e-01 -1.316518e-05 -3.538094e-05 1.929700e-05 -2.608635e-05 -9.663086e-01 -2.072144e-01
1.069212e+08 9.834595e-01 2.291870e-01 -2.818182e-06 -2.028234e-05 -2.117828e-06 -2.072658e-05 -9.664917e-01 -2.077637e-01
1.071391e+08 9.840088e-01 2.282715e-01 -5.643815e-06 -4.055724e-05 3.217952e-06 7.154886e-07 -9.661865e-01 -2.080078e-01
1.073569e+08 9.833374e-01 2.296143e-01 -6.617047e-06 1.195259e-05 7.673167e-06 1.859386e-05 -9.664917e-01 -2.093506e-01
1.075747e+08 9.833374e-01 2.288208e-01 -7.253140e-06 2.722256e-05 -1.072977e-05 -1.251046e-05 -9.667358e-01 -2.101440e-01
1.077925e+08 9.833374e-01 2.294922e-01 1.236796e-06 2.879277e-05 2.559274e-05 -3.148243e-05 -9.662476e-01 -2.105103e-01
1.080103e+08 9.816284e-01 2.301636e-01 -3.745593e-05 -1.136214e-05 -3.933441e-06 2.499437e-06 -9.669800e-01 -2.114868e-01
1.082281e+08 9.828491e-01 2.296753e-01 -5.886704e-05 -2.631173e-05 -1.592562e-05 -2.720766e-05 -9.670410e-01 -2.114258e-01
1.084459e+08 9.827271e-01 2.299194e-01 -2.204627e-05 2.961606e-07 -9.128824e-06 -1.217518e-05 -9.671631e-01 -2.127075e-01
1.086638e+08 9.816895e-01 2.294922e-01 -5.080381e-10 -9.424639e-11 -3.005937e-05 -1.681037e-05 -9.672241e-01 -2.130737e-01
1.088816e+08 9.815063e-01 2.303467e-01 -1.249835e-06 3.056601e-05 7.312745e-06 3.544800e-05 -9.678955e-01 -2.127686e-01
1.090994e+08 9.813232e-01 2.299194e-01 -1.291279e-05 -1.340080e-05 3.743358e-05 2.182275e-05 -9.672241e-01 -2.151489e-01
1.093172e+08 9.812622e-01 2.297974e-01 4.513562e-05 6.559119e-05 -5.917624e-06 -1.146272e-05 -9.685669e-01 -2.147827e-01
1.095350e+08 9.805908e-01 2.297974e-01 -1.859944e-05 5.365349e-06 -4.260801e-05 2.436154e-05 -9.678955e-01 -2.159424e-01
1.097528e+08 9.808350e-01 2.301636e-01 -5.676411e-06 1.876894e-05 3.567711e-05 4.514679e-05 -9.682007e-01 -2.164917e-01
1.099706e+08 9.805908e-01 2.322388e-01 -1.136959e-05 3.755651e-05 -3.438443e-06 2.294965e-05 -9.687500e-01 -2.175293e-01
1.101884e+08 9.806519e-01 2.313843e-01 -1.040939e-05 -1.514424e-05 -3.372692e-05 -7.282943e-07 -9.683838e-01 -2.177124e-01
1.104062e+08 9.799194e-01 2.314453e-01 -5.681068e-06 -4.072487e-05 -1.022406e-05 7.891562e-06 -9.689331e-01 -2.186890e-01
1.106241e+08 9.793701e-01 2.310181e-01 2.649426e-05 1.152791e-05 1.131929e-05 3.298000e-05 -9.682007e-01 -2.194214e-01
1.108419e+08 9.788208e-01 2.319946e-01 -2.807938e-05 -2.993271e-06 4.301779e-06 -1.936406e-05 -9.680176e-01 -2.190552e-01
1.110597e+08 9.794312e-01 2.325439e-01 -1.279637e-06 3.061444e-05 -1.560804e-05 1.687743e-05 -9.685059e-01 -2.203369e-01
1.112775e+08 9.786377e-01 2.326660e-01 1.737662e-05 2.527982e-05 -1.183525e-05 3.805012e-05 -9.694214e-01 -2.210083e-01
1.114953e+08 9.783325e-01 2.332764e-01 -5.209073e-05 -1.626462e-05 1.937151e-05 -2.621673e-05 -9.685059e-01 -2.210693e-01
1.117131e+08 9.780884e-01 2.333374e-01 4.548579e-05 2.823770e-05 -5.387235e-06 8.976553e-06 -9.688110e-01 -2.214355e-01
1.119309e+08 9.774170e-01 2.336426e-01 -3.793277e-05 -3.349967e-05 5.738810e-06 -2.586283e-05 -9.698486e-01 -2.224121e-01
1.121488e+08 9.770508e-01 2.331543e-01 9.438954e-07 6.795861e-06 3.269501e-05 2.078712e-05 -9.701538e-01 -2.232056e-01
1.123666e+08 9.774780e-01 2.338867e-01 -5.375594e-06 -1.864135e-05 -3.581867e-06 1.617614e-05 -9.700317e-01 -2.230225e-01
1.125844e+08 9.770508e-01 2.340088e-01 -3.132410e-05 1.408532e-05 -5.019829e-06 2.264977e-05 -9.712524e-01 -2.241211e-01
1.128022e+08 9.766235e-01 2.348633e-01 1.360010e-05 -1.901761e-06 -2.407096e-05 3.202260e-05 -9.708862e-01 -2.241821e-01
1.130200e+08 9.756470e-01 2.351685e-01 -1.011975e-05 6.968156e-06 -9.709038e-06 -2.154149e-06 -9.714966e-01 -2.243042e-01
1.132378e+08 9.754028e-01 2.346802e-01 1.579057e-06 -8.540694e-06 -7.070601e-06 -5.249679e-05 -9.708862e-01 -2.254639e-01
1.134556e+08 9.752197e-01 2.359009e-01 2.945960e-05 3.194064e-05 1.366436e-05 -3.093667e-05 -9.716187e-01 -2.259521e-01
1.136734e+08 9.752808e-01 2.356567e-01 1.771469e-05 -1.218356e-05 -1.385808e-05 -6.472692e-06 -9.710693e-01 -2.268677e-01
1.138912e+08 9.746094e-01 2.357788e-01 3.135577e-05 4.560873e-05 6.681308e-06 3.885850e-05 -9.721680e-01 -2.277222e-01
1.141091e+08 9.745483e-01 2.364502e-01 1.361314e-05 -1.904555e-06 1.042522e-05 -3.168732e-05 -9.718628e-01 -2.278442e-01
1.143269e+08 9.738770e-01 2.375488e-01 -1.870003e-05 5.386770e-06 -7.025898e-06 -2.196431e-05 -9.725952e-01 -2.290039e-01
1.145447e+08 9.732056e-01 2.371216e-01 1.680478e-05 4.068390e-05 1.277216e-05 -3.971159e-06 -9.721680e-01 -2.286987e-01
1.147625e+08 9.736328e-01 2.379150e-01 -2.187490e-05 8.222461e-05 -1.781434e-05 2.668425e-05 -9.725952e-01 -2.297974e-01
1.149803e+08 9.733887e-01 2.384033e-01 -3.899820e-05 1.931004e-05 -7.521361e-06 4.940853e-05 -9.727173e-01 -2.304688e-01
1.151981e+08 9.722900e-01 2.393799e-01 -1.679827e-05 1.901481e-05 -1.371466e-05 -3.026798e-05 -9.728394e-01 -2.302856e-01
1.154159e+08 9.725952e-01 2.386475e-01 6.295741e-07 4.436821e-05 -8.981675e-06 2.525561e-05 -9.727783e-01 -2.310791e-01
1.156338e+08 9.716187e-01 2.391968e-01 -1.078472e-05 2.237782e-05 -5.625188e-07 -2.055336e-05 -9.741821e-01 -2.318115e-01
1.158516e+08 9.717407e-01 2.408447e-01 -1.301337e-05 -1.348369e-05 -3.139675e-05 3.393739e-05 -9.738159e-01 -2.314453e-01
1.160694e+08 9.715576e-01 2.404175e-01 -2.092682e-05 -3.047287e-05 -4.096702e-05 8.003786e-06 -9.741211e-01 -2.324219e-01
1.162872e+08 9.708862e-01 2.407227e-01 -2.411008e-05 -1.335703e-05 -5.248003e-06 -1.479778e-05 -9.743042e-01 -2.330933e-01
1.165050e+08 9.699097e-01 2.412109e-01 -9.194016e-06 -4.605204e-05 1.155958e-05 9.370968e-06 -9.750366e-01 -2.332153e-01
1.167228e+08 9.704590e-01 2.410889e-01 -1.175702e-05 -4.432350e-05 6.563962e-06 3.213249e-05 -9.755249e-01 -2.333374e-01
1.169406e+08 9.692383e-01 2.427368e-01 -1.366250e-05 1.910143e-06 1.985766e-05 -1.265854e-05 -9.755249e-01 -2.334595e-01
1.171584e+08 9.692383e-01 2.426147e-01 5.091075e-06 -3.500842e-06 3.685057e-05 -1.233816e-05 -9.765015e-01 -2.341919e-01
1.173762e+08 9.691162e-01 2.436523e-01 -9.611249e-07 5.310029e-05 -1.771748e-05 2.907589e-06 -9.755859e-01 -2.346191e-01
1.175941e+08 9.683228e-01 2.444458e-01 7.955357e-06 1.702644e-05 -1.084432e-05 1.808163e-05 -9.762573e-01 -2.356567e-01
1.178119e+08 9.679565e-01 2.444458e-01 3.214367e-05 -2.959557e-05 1.518004e-10 2.382166e-10 -9.764404e-01 -2.357788e-01
1.180297e+08 9.683228e-01 2.438965e-01 -3.342144e-05 4.880130e-07 -3.395602e-06 2.315640e-05 -9.765625e-01 -2.360229e-01
1.182475e+08 9.672852e-01 2.444458e-01 2.644956e-05 -1.066923e-05 -3.419071e-05 -7.528812e-06 -9.775391e-01 -2.368164e-01
1.184653e+08 9.672852e-01 2.461548e-01 2.420507e-05 1.337379e-05 -2.422556e-05 3.222935e-05 -9.768677e-01 -2.367554e-01
1.186831e+08 9.669189e-01 2.456665e-01 -3.185496e-05 -8.108094e-06 -5.800743e-06 -4.693866e-06 -9.770508e-01 -2.370605e-01
1.189009e+08 9.664307e-01 2.467041e-01 -2.883375e-06 -2.055615e-05 -1.436565e-06 6.518792e-06 -9.776611e-01 -2.368164e-01
1.191188e+08 9.661255e-01 2.473755e-01 -6.409362e-06 -2.568960e-05 -2.801791e-05 4.169717e-05 -9.793091e-01 -2.374878e-01
1.193366e+08 9.660034e-01 2.472534e-01 -1.752004e-05 3.458932e-05 -1.657754e-05 4.423410e-05 -9.774780e-01 -2.380371e-01
1.195544e+08 9.658813e-01 2.478638e-01 4.436821e-06 -4.822761e-05 2.141949e-05 1.154654e-05 -9.793701e-01 -2.387085e-01
1.197722e+08 9.647827e-01 2.498169e-01 1.212955e-05 6.703660e-06 -1.107529e-05 -1.956243e-05 -9.788818e-01 -2.391357e-01
1.199900e+08 9.643555e-01 2.489014e-01 1.257285e-06 -3.097765e-05 9.004027e-06 -2.538972e-05 -9.793701e-01 -2.387085e-01
1.202078e+08 9.639282e-01 2.502441e-01 -7.661991e-06 5.267560e-06 9.983312e-06 9.050127e-06 -9.792480e-01 -2.394409e-01
1.204256e+08 9.635620e-01 2.504272e-01 -3.450364e-05 -6.372109e-06 1.985580e-05 -4.356541e-05 -9.798584e-01 -2.394409e-01
1.206434e+08 9.641724e-01 2.514038e-01 -6.463379e-07 1.550280e-05 -3.773533e-05 1.568533e-05 -9.802246e-01 -2.397461e-01
1.208612e+08 9.631958e-01 2.521362e-01 -1.089089e-05 -3.774278e-05 8.361880e-06 8.699019e-06 -9.808350e-01 -2.398071e-01
1.210791e+08 9.642334e-01 2.531738e-01 3.266148e-05 -3.356300e-05 -4.657544e-06 1.321919e-05 -9.790039e-01 -2.408447e-01
1.212969e+08 9.639282e-01 2.532349e-01 -3.147870e-07 3.031082e-05 9.836629e-06 7.918105e-06 -9.790039e-01 -2.400513e-01
1.215147e+08 9.640503e-01 2.542725e-01 -1.007691e-05 -4.547462e-05 -3.974512e-05 -9.521842e-06 -9.794922e-01 -2.406006e-01
1.217325e+08 9.625854e-01 2.548218e-01 -1.513865e-05 1.042057e-05 -8.101575e-06 2.090447e-05 -9.797974e-01 -2.403564e-01
1.219503e+08 9.629517e-01 2.555542e-01 2.234057e-05 -6.455928e-06 1.532864e-05 1.134258e-05 -9.796143e-01 -2.402954e-01
1.221681e+08 9.611816e-01 2.555542e-01 -2.233870e-05 6.454065e-06 2.207235e-05 4.800037e-06 -9.798584e-01 -2.404785e-01
1.223859e+08 9.616089e-01 2.566528e-01 6.767921e-06 -7.996801e-06 4.883856e-05 -3.613532e-06 -9.794922e-01 -2.414551e-01
1.226038e+08 9.606934e-01 2.573242e-01 -3.040396e-05 -2.147630e-05 5.781651e-06 -1.430884e-05 -9.799194e-01 -2.411499e-01
1.228216e+08 9.608154e-01 2.583008e-01 -3.279373e-05 -8.711591e-06 -1.089834e-05 -1.127180e-05 -9.805908e-01 -2.417603e-01
1.230394e+08 9.602051e-01 2.597656e-01 -7.958151e-06 1.441129e-05 -6.215647e-05 3.319234e-06 -9.811401e-01 -2.417603e-01
1.232572e+08 9.601440e-01 2.598877e-01 3.956631e-05 7.078052e-07 -1.277402e-05 -3.126264e-05 -9.807129e-01 -2.423096e-01
1.234750e+08 9.600220e-01 2.603149e-01 -1.484342e-05 -1.996569e-05 -2.429634e-05 -7.055700e-06 -9.812622e-01 -2.425537e-01
1.236928e+08 9.598389e-01 2.611694e-01 1.678616e-05 -4.836358e-06 5.962327e-06 4.227087e-05 -9.811401e-01 -2.427368e-01
1.239106e+08 9.591064e-01 2.622070e-01 5.596783e-06 -1.609325e-06 1.248624e-05 -1.643132e-05 -9.804688e-01 -2.430420e-01
1.241284e+08 9.584961e-01 2.628174e-01 -1.432188e-05 3.443845e-05 2.180692e-06 2.256478e-06 -9.808350e-01 -2.425537e-01
1.243462e+08 9.579468e-01 2.631836e-01 -7.120892e-06 3.843382e-05 2.084300e-05 1.477916e-05 -9.809570e-01 -2.434692e-01
1.245641e+08 9.575195e-01 2.641602e-01 3.208779e-05 2.717599e-05 2.774596e-05 -6.183982e-07 -9.817505e-01 -2.435303e-01
1.247819e+08 9.577637e-01 2.653809e-01 -1.679547e-05 4.838221e-06 2.560206e-06 -1.994055e-05 -9.811401e-01 -2.434692e-01
1.249997e+08 9.568481e-01 2.661743e-01 6.364658e-05 -1.154840e-07 4.089996e-05 -5.257502e-05 -9.814453e-01 -2.439575e-01
1.252175e+08 9.572754e-01 2.680054e-01 -3.842451e-05 -7.146969e-06 4.000776e-05 7.357448e-07 -9.808350e-01 -2.437744e-01
1.254353e+08 9.572144e-01 2.675171e-01 1.281593e-05 2.384186e-06 9.864569e-06 7.950235e-06 -9.813232e-01 -2.437744e-01
1.256531e+08 9.570923e-01 2.684937e-01 -3.771670e-05 -2.555177e-05 4.134141e-06 1.786370e-05 -9.813232e-01 -2.437744e-01
1.258709e+08 9.561157e-01 2.691650e-01 -5.168468e-05 2.093241e-05 5.115196e-05 -1.352280e-06 -9.819336e-01 -2.447510e-01
1.260888e+08 9.561768e-01 2.708130e-01 8.381903e-07 2.403557e-05 6.332994e-07 -3.558211e-05 -9.812012e-01 -2.447510e-01
1.263066e+08 9.553833e-01 2.714844e-01 -2.489425e-05 -2.321601e-05 -4.605856e-06 8.808449e-06 -9.819336e-01 -2.446289e-01
1.265244e+08 9.547119e-01 2.717285e-01 -3.360957e-05 5.215779e-05 -2.338551e-06 6.629154e-06 -9.815063e-01 -2.449951e-01
1.267422e+08 9.545288e-01 2.724609e-01 -2.605096e-05 2.568774e-05 2.069958e-05 2.372079e-05 -9.816895e-01 -2.459106e-01
1.269600e+08 9.541626e-01 2.734375e-01 -1.881085e-05 2.970360e-05 -6.042793e-05 -4.222989e-05 -9.815674e-01 -2.456055e-01
1.271778e+08 9.545898e-01 2.745361e-01 -3.693253e-05 -1.568347e-06 -3.463775e-05 7.163733e-06 -9.820557e-01 -2.457886e-01
1.273956e+08 9.553833e-01 2.753296e-01 -2.646819e-05 1.367740e-05 2.091005e-05 -4.643202e-05 -9.816284e-01 -2.459106e-01
1.276134e+08 9.545288e-01 2.758789e-01 1.810864e-05 3.127195e-05 2.340041e-05 -6.947666e-07 -9.814453e-01 -2.451172e-01
1.278312e+08 9.534302e-01 2.770386e-01 -1.969934e-05 -3.689528e-05 8.735340e-06 9.065028e-06 -9.808960e-01 -2.461548e-01
1.280491e+08 9.538574e-01 2.777100e-01 -2.409704e-05 8.326024e-07 -2.266956e-06 2.186047e-06 -9.818726e-01 -2.457886e-01
1.282669e+08 9.536133e-01 2.794189e-01 -2.204254e-05 6.109104e-05 -4.000776e-05 -5.185604e-06 -9.822388e-01 -2.462158e-01
1.284847e+08 9.534302e-01 2.800293e-01 -6.828457e-06 8.040573e-06 1.198705e-05 1.470186e-05 -9.820557e-01 -2.462769e-01
1.287025e+08 9.522095e-01 2.800903e-01 4.321805e-10 2.396803e-10 1.141150e-05 -1.538824e-05 -9.813232e-01 -2.463379e-01
1.289203e+08 9.522705e-01 2.811890e-01 -3.541075e-05 4.066154e-06 -2.752990e-06 -3.236346e-05 -9.830322e-01 -2.459106e-01
1.291381e+08 9.526367e-01 2.822876e-01 -3.634021e-06 -2.332404e-05 -2.423674e-05 -1.604855e-05 -9.817505e-01 -2.461548e-01
1.293559e+08 9.521484e-01 2.827759e-01 1.651421e-05 2.574362e-05 -3.111735e-05 -5.017966e-06 -9.818115e-01 -2.463379e-01
1.295738e+08 9.517212e-01 2.837524e-01 2.975576e-05 -2.434477e-06 4.455913e-06 8.312054e-08 -9.807129e-01 -2.465820e-01
1.297916e+08 9.515991e-01 2.850952e-01 1.730397e-05 7.228926e-06 -1.774170e-05 -4.799105e-06 -9.814453e-01 -2.463379e-01
1.300094e+08 9.515991e-01 2.852783e-01 2.898462e-05 1.608208e-05 -1.556426e-05 -2.518296e-06 -9.811401e-01 -2.469482e-01
1.302272e+08 9.515381e-01 2.867432e-01 2.378039e-05 2.974458e-05 1.160055e-05 -2.431683e-05 -9.812012e-01 -2.459717e-01
1.304450e+08 9.511108e-01 2.872925e-01 3.172085e-06 -3.141165e-05 -1.733750e-05 -2.709217e-05 -9.813232e-01 -2.457886e-01
1.306628e+08 9.522705e-01 2.879639e-01 -1.776591e-05 -6.198511e-05 -1.462176e-06 -4.246272e-05 -9.805298e-01 -2.465210e-01
1.308806e+08 9.506226e-01 2.900391e-01 2.033077e-06 1.772773e-05 2.652779e-05 1.390465e-05 -9.814453e-01 -2.463989e-01
1.310984e+08 9.506226e-01 2.900391e-01 -3.262796e-05 3.220513e-06 3.812835e-06 3.578141e-05 -9.799194e-01 -2.470703e-01
1.313162e+08 9.511719e-01 2.913818e-01 2.783351e-05 2.256036e-05 2.792291e-05 -5.923212e-07 -9.807129e-01 -2.466431e-01
1.315341e+08 9.505005e-01 2.923584e-01 -1.994893e-06 2.499670e-05 -5.924329e-05 4.462898e-06 -9.802246e-01 -2.463989e-01
1.317519e+08 9.513550e-01 2.936401e-01 -6.053597e-06 -1.047924e-05 7.206574e-06 3.254972e-05 -9.799194e-01 -2.465210e-01
1.319697e+08 9.502563e-01 2.949219e-01 2.018921e-05 -3.633089e-05 2.626330e-07 -1.340173e-05 -9.807129e-01 -2.471313e-01
1.321875e+08 9.505615e-01 2.946777e-01 5.649403e-06 -1.615845e-06 1.129135e-05 -6.495975e-06 -9.798584e-01 -2.468262e-01
1.324053e+08 9.500122e-01 2.965698e-01 -3.349595e-05 2.181157e-05 -2.146885e-05 -4.510954e-05 -9.804077e-01 -2.467041e-01
1.326231e+08 9.501343e-01 2.973633e-01 4.602596e-05 1.127645e-05 -1.139939e-05 -4.605576e-05 -9.801636e-01 -2.463379e-01
1.328409e+08 9.505615e-01 2.979126e-01 1.171231e-05 8.879229e-06 -3.838353e-05 1.937896e-05 -9.794312e-01 -2.473145e-01
1.330588e+08 9.501343e-01 2.987671e-01 8.478761e-06 -2.422370e-06 -1.358334e-05 8.675270e-06 -9.788208e-01 -2.474365e-01
1.332766e+08 9.498901e-01 2.996826e-01 1.372024e-05 -1.616403e-05 2.928823e-05 4.637614e-05 -9.789429e-01 -2.467041e-01
1.334944e+08 9.494629e-01 3.001099e-01 -1.414958e-05 4.040077e-06 -1.593865e-05 1.534075e-05 -9.790649e-01 -2.475586e-01
1.337122e+08 9.491577e-01 3.019409e-01 6.142259e-05 -4.207343e-05 -2.797693e-06 -2.800673e-05 -9.788208e-01 -2.468262e-01
1.339300e+08 9.500732e-01 3.032837e-01 -3.623776e-06 1.940597e-05 -4.615262e-05 1.363829e-05 -9.783325e-01 -2.465210e-01
1.341478e+08 9.492798e-01 3.036499e-01 7.294118e-06 4.691631e-05 -4.559522e-06 4.384434e-06 -9.783325e-01 -2.467651e-01
1.343656e+08 9.490967e-01 3.043213e-01 3.397651e-05 -9.696931e-06 -1.324154e-05 -9.206124e-06 -9.778442e-01 -2.471924e-01
1.345834e+08 9.492798e-01 3.048706e-01 1.199543e-06 3.641844e-05 1.402944e-05 -3.103912e-05 -9.777832e-01 -2.473145e-01
1.348012e+08 9.498291e-01 3.058472e-01 1.456961e-05 5.097687e-05 1.079030e-05 2.035405e-05 -9.766235e-01 -2.470703e-01
1.350191e+08 9.506836e-01 3.071289e-01 -2.996251e-05 -4.044175e-05 -8.692965e-06 -1.360569e-05 -9.765625e-01 -2.469482e-01
1.352369e+08 9.490967e-01 3.074951e-01 2.100319e-05 -5.500019e-05 -1.780782e-05 -4.827976e-06 -9.755249e-01 -2.468262e-01
1.354547e+08 9.497070e-01 3.084106e-01 2.422370e-06 -1.294818e-05 1.685414e-05 -3.028661e-06 -9.754028e-01 -2.471313e-01
1.356725e+08 9.500732e-01 3.095093e-01 3.808737e-05 2.592243e-05 2.894551e-06 2.359040e-05 -9.761353e-01 -2.476807e-01
1.358903e+08 9.500732e-01 3.112793e-01 -1.216773e-06 6.480608e-06 -1.819711e-05 1.308415e-05 -9.753418e-01 -2.479248e-01
1.361081e+08 9.505615e-01 3.121338e-01 -2.675317e-05 1.376122e-05 -6.585848e-06 -6.860588e-06 -9.750366e-01 -2.475586e-01
1.363259e+08 9.493408e-01 3.128052e-01 1.214631e-05 -2.190284e-05 5.620532e-06 -1.002569e-06 -9.753418e-01 -2.464600e-01
1.365438e+08 9.500122e-01 3.136597e-01 -3.893115e-05 -7.290393e-06 -1.037773e-05 1.435913e-05 -9.743042e-01 -2.472534e-01
1.367616e+08 9.507446e-01 3.145752e-01 2.309680e-05 4.869327e-05 1.780689e-06 -3.248639e-05 -9.741211e-01 -2.481689e-01
1.369794e+08 9.509888e-01 3.152466e-01 2.920255e-05 1.623109e-05 1.555867e-05 7.046387e-06 -9.733887e-01 -2.476196e-01
1.371972e+08 9.505615e-01 3.163452e-01 -3.366917e-05 -2.111681e-05 -5.696714e-05 -1.125038e-05 -9.730835e-01 -2.476196e-01
1.374150e+08 9.506836e-01 3.179321e-01 -3.163330e-05 -3.257766e-06 -1.317449e-05 3.900751e-05 -9.723511e-01 -2.476196e-01
1.376328e+08 9.511719e-01 3.184204e-01 8.111820e-06 -1.459755e-05 -1.873448e-05 -1.723040e-05 -9.717407e-01 -2.476196e-01
1.378506e+08 9.505615e-01 3.190918e-01 -2.962723e-05 1.459755e-05 -7.353723e-06 -2.371334e-05 -9.718018e-01 -2.476807e-01
1.380684e+08 9.512939e-01 3.198242e-01 -2.763793e-05 3.247149e-05 -8.699484e-06 -1.365039e-05 -9.716797e-01 -2.481689e-01
1.382862e+08 9.512939e-01 3.210449e-01 -7.309951e-06 -4.059169e-06 -7.320195e-07 3.590621e-05 -9.708252e-01 -2.471924e-01
1.385041e+08 9.523315e-01 3.217163e-01 4.306808e-05 4.310906e-05 -7.767230e-07 -1.686905e-05 -9.711914e-01 -2.479248e-01
1.387219e+08 9.518433e-01 3.225708e-01 -2.766773e-05 3.249012e-05 -2.827682e-05 9.525567e-06 -9.702148e-01 -2.481689e-01
1.389397e+08 9.526367e-01 3.238525e-01 -7.728115e-06 -1.626369e-05 -4.494330e-06 -9.336509e-08 -9.702148e-01 -2.479248e-01
1.391575e+08 9.526367e-01 3.245850e-01 -1.221150e-05 2.194010e-05 -2.351217e-05 -3.861263e-06 -9.688721e-01 -2.483521e-01
1.393753e+08 9.525146e-01 3.261108e-01 -1.873821e-05 4.228577e-05 2.046488e-05 4.203059e-05 -9.686279e-01 -2.481689e-01
1.395931e+08 9.528809e-01 3.261719e-01 -9.369105e-06 2.113916e-05 -8.333474e-06 -3.164634e-05 -9.678345e-01 -2.482910e-01
1.398109e+08 9.537354e-01 3.273926e-01 2.034754e-05 6.524846e-06 -1.119729e-05 -2.485700e-06 -9.683838e-01 -2.487183e-01
1.400288e+08 9.534302e-01 3.279419e-01 -2.157688e-05 -2.421439e-08 -4.134327e-05 -1.322478e-05 -9.678955e-01 -2.493896e-01
1.402466e+08 9.529419e-01 3.293457e-01 2.889521e-05 4.101545e-06 -1.693238e-05 3.003515e-06 -9.666138e-01 -2.500000e-01
1.404644e+08 9.542847e-01 3.299561e-01 -2.808496e-05 2.032146e-05 -1.915917e-05 5.362928e-05 -9.654541e-01 -2.492065e-01
1.406822e+08 9.539185e-01 3.306885e-01 4.235283e-05 -2.441183e-05 7.174909e-06 -2.009608e-05 -9.656982e-01 -2.492676e-01
1.409000e+08 9.541016e-01 3.317871e-01 -3.747828e-05 -1.683831e-06 1.195446e-05 -3.349036e-05 -9.650879e-01 -2.504883e-01
1.411178e+08 9.547729e-01 3.323975e-01 -1.101848e-05 1.547206e-05 -1.416542e-05 -2.167933e-05 -9.646606e-01 -2.500000e-01
1.413356e+08 9.546509e-01 3.334351e-01 -3.292412e-05 -3.995746e-05 -8.995645e-06 -1.960434e-07 -9.634399e-01 -2.503052e-01
1.415534e+08 9.553223e-01 3.347168e-01 2.071261e-06 -2.528168e-05 4.501548e-06 9.825453e-08 -9.640503e-01 -2.506104e-01
1.417712e+08 9.555054e-01 3.348389e-01 -2.933480e-05 -1.635961e-05 1.571048e-05 2.581626e-06 -9.631348e-01 -2.506104e-01
1.419891e+08 9.552612e-01 3.358154e-01 -1.638010e-05 2.934039e-05 -4.301220e-05 1.033209e-05 -9.624634e-01 -2.517090e-01
1.422069e+08 9.554443e-01 3.369751e-01 2.282672e-05 -6.498769e-06 2.210960e-05 1.850910e-05 -9.607544e-01 -2.503052e-01
1.424247e+08 9.558105e-01 3.367310e-01 1.623854e-05 5.715340e-05 9.950250e-06 -4.482269e-05 -9.611816e-01 -2.512207e-01
1.426425e+08 9.573364e-01 3.381958e-01 -8.566305e-06 2.444722e-06 1.122802e-05 -5.048886e-05 -9.606934e-01 -2.501221e-01
1.428603e+08 9.564209e-01 3.385620e-01 8.501112e-06 4.079565e-05 -4.557148e-05 -2.687424e-05 -9.595947e-01 -2.512817e-01
1.430781e+08 9.578247e-01 3.397217e-01 -4.775822e-05 -4.954636e-06 1.295283e-05 -2.564676e-05 -9.595947e-01 -2.517090e-01
1.432959e+08 9.571533e-01 3.405151e-01 -3.025681e-05 4.571304e-05 -8.908566e-06 -4.698057e-06 -9.591675e-01 -2.511597e-01
1.435138e+08 9.577026e-01 3.421021e-01 1.423992e-05 3.921799e-05 1.392700e-05 -1.772214e-05 -9.583740e-01 -2.517700e-01
1.437316e+08 9.588013e-01 3.421631e-01 2.402812e-06 3.022514e-05 2.962165e-05 3.786013e-05 -9.572144e-01 -2.520142e-01
1.439494e+08 9.589233e-01 3.433228e-01 -9.367242e-06 -2.206676e-05 -8.422881e-06 -2.726912e-05 -9.564819e-01 -2.518311e-01
1.441672e+08 9.592285e-01 3.438721e-01 3.703870e-06 -1.960155e-05 2.959743e-06 1.924112e-05 -9.556885e-01 -2.526245e-01
1.443850e+08 9.595337e-01 3.442993e-01 -1.634471e-05 -1.391675e-05 2.571568e-05 1.072511e-05 -9.561157e-01 -2.524414e-01
1.446028e+08 9.600220e-01 3.452148e-01 1.627486e-06 5.727168e-06 1.092069e-05 1.604762e-05 -9.552612e-01 -2.529297e-01
1.448206e+08 9.606934e-01 3.455811e-01 7.953495e-07 2.453104e-05 -2.582371e-05 -6.217510e-06 -9.542847e-01 -2.526245e-01
1.450384e+08 9.612427e-01 3.461914e-01 2.452731e-05 -7.860363e-07 9.678304e-06 2.166629e-05 -9.537354e-01 -2.534180e-01
1.452562e+08 9.620361e-01 3.476562e-01 -8.587725e-06 2.442859e-06 3.175810e-05 4.477426e-05 -9.530029e-01 -2.532959e-01
1.454741e+08 9.617310e-01 3.479614e-01 2.797693e-06 4.254282e-05 -1.973100e-05 2.325512e-05 -9.525146e-01 -2.539673e-01
1.456919e+08 9.619751e-01 3.479004e-01 -4.581362e-05 -3.032014e-05 -2.267025e-05 4.004687e-06 -9.519043e-01 -2.539062e-01
1.459097e+08 9.625244e-01 3.496704e-01 -1.968257e-05 1.796335e-05 9.338371e-06 -1.334213e-05 -9.508057e-01 -2.550049e-01
1.461275e+08 9.629517e-01 3.498535e-01 -1.023337e-05 -3.295019e-06 2.257712e-05 5.085021e-07 -9.508667e-01 -2.550659e-01
1.463453e+08 9.633789e-01 3.500366e-01 4.014000e-06 3.604963e-05 -7.776543e-06 -5.822163e-06 -9.498901e-01 -2.554932e-01
1.465631e+08 9.635010e-01 3.502808e-01 -4.168600e-06 5.074590e-05 -1.690630e-05 -1.503155e-06 -9.487305e-01 -2.556763e-01
1.467809e+08 9.638062e-01 3.519287e-01 1.713261e-05 3.853440e-05 -2.206303e-06 -2.310378e-06 -9.485474e-01 -2.564697e-01
1.469988e+08 9.645386e-01 3.526611e-01 4.400249e-10 2.454783e-10 -3.814884e-05 -1.218915e-05 -9.476929e-01 -2.565918e-01
1.472166e+08 9.657593e-01 3.527832e-01 -1.683086e-05 1.716707e-05 -2.859533e-05 1.405738e-05 -9.466553e-01 -2.571411e-01
1.474344e+08 9.661255e-01 3.534546e-01 -1.923274e-05 -1.313072e-05 -5.781185e-06 5.522743e-06 -9.457397e-01 -2.567749e-01
1.476522e+08 9.664307e-01 3.537598e-01 1.884624e-05 8.530915e-07 5.676877e-06 -1.003966e-06 -9.453735e-01 -2.581177e-01
1.478700e+08 9.673462e-01 3.552246e-01 3.884733e-05 3.860146e-05 -3.523380e-05 7.102266e-06 -9.444580e-01 -2.588501e-01
1.480878e+08 9.682007e-01 3.550415e-01 1.233816e-05 -2.209842e-05 -1.210719e-05 -1.498777e-05 -9.435425e-01 -2.585449e-01
1.483056e+08 9.669800e-01 3.562622e-01 -2.329797e-05 -4.923344e-05 -8.203089e-06 -3.638305e-05 -9.434204e-01 -2.584229e-01
1.485234e+08 9.683228e-01 3.568115e-01 3.730878e-06 -1.967140e-05 -5.039945e-05 -2.269074e-05 -9.423828e-01 -2.593384e-01
1.487412e+08 9.681396e-01 3.572998e-01 -3.236160e-05 -1.566112e-05 2.061389e-05 -1.082849e-05 -9.420776e-01 -2.597656e-01
1.489591e+08 9.687500e-01 3.580933e-01 -4.731119e-07 3.118068e-05 -2.135709e-05 -6.165355e-06 -9.415283e-01 -2.598267e-01
1.491769e+08 9.697876e-01 3.580322e-01 -2.374128e-05 -1.810119e-05 1.136493e-05 -2.003275e-06 -9.401855e-01 -2.604370e-01
1.493947e+08 9.699097e-01 3.587646e-01 -6.995164e-06 8.187257e-06 2.041180e-05 -1.781620e-06 -9.393311e-01 -2.614746e-01
1.496125e+08 9.704590e-01 3.591309e-01 7.748604e-07 2.462417e-05 -1.505855e-05 1.435727e-05 -9.388428e-01 -2.615356e-01
1.498303e+08 9.716797e-01 3.595581e-01 3.809109e-07 1.231581e-05 -4.503876e-06 -4.881248e-05 -9.381104e-01 -2.620850e-01
1.500481e+08 9.721680e-01 3.601074e-01 6.621704e-06 -2.053007e-05 -2.759881e-05 1.746789e-05 -9.382324e-01 -2.631226e-01
1.502659e+08 9.733887e-01 3.605957e-01 4.497822e-06 4.931819e-06 -3.371621e-06 -1.212815e-06 -9.358521e-01 -2.626953e-01
1.504838e+08 9.725952e-01 3.607788e-01 1.851097e-05 -1.144968e-05 -3.108568e-05 2.078712e-05 -9.364014e-01 -2.638550e-01
1.507016e+08 9.729614e-01 3.610229e-01 1.476239e-05 8.252449e-06 -3.517978e-05 2.583489e-06 -9.354858e-01 -2.644043e-01
1.509194e+08 9.742432e-01 3.625488e-01 9.008683e-06 9.878539e-06 -1.918897e-05 -3.861263e-06 -9.346924e-01 -2.642212e-01
1.511372e+08 9.743042e-01 3.624878e-01 1.276098e-05 -9.823591e-06 3.044493e-05 6.387010e-06 -9.336548e-01 -2.651978e-01
1.513550e+08 9.756470e-01 3.627319e-01 1.224689e-05 2.141483e-05 -2.414547e-05 1.418218e-05 -9.329834e-01 -2.664185e-01
1.515728e+08 9.758911e-01 3.630981e-01 -2.340414e-05 -5.817041e-06 2.412312e-05 3.460236e-05 -9.321899e-01 -2.658691e-01
1.517906e+08 9.761353e-01 3.635254e-01 3.820471e-05 1.407415e-05 2.443232e-05 2.099015e-05 -9.323730e-01 -2.662354e-01
1.520084e+08 9.766846e-01 3.638916e-01 -3.730692e-05 -3.300793e-05 -2.962723e-05 6.090850e-06 -9.310913e-01 -2.673950e-01
1.522262e+08 9.776611e-01 3.641357e-01 7.384922e-06 4.138332e-06 -5.155802e-06 -2.167281e-05 -9.299927e-01 -2.686768e-01
1.524441e+08 9.780884e-01 3.647461e-01 7.114932e-05 -1.385808e-06 -3.373949e-06 -1.216540e-06 -9.295654e-01 -2.690430e-01
1.526619e+08 9.780884e-01 3.641968e-01 3.406405e-05 2.148002e-05 -3.258698e-05 -1.325645e-05 -9.292603e-01 -2.687988e-01
1.528797e+08 9.785156e-01 3.647461e-01 2.179109e-05 5.215406e-08 -1.011835e-05 -3.646594e-06 -9.281616e-01 -2.689209e-01
1.530975e+08 9.804688e-01 3.649292e-01 -3.255531e-05 2.786703e-05 -2.259761e-05 -5.079433e-06 -9.268799e-01 -2.700195e-01
1.533153e+08 9.796753e-01 3.660889e-01 -1.103245e-05 -2.799556e-05 1.001498e-05 8.194242e-06 -9.268188e-01 -2.706299e-01
1.535331e+08 9.799805e-01 3.662720e-01 1.291186e-05 -5.339831e-05 -4.312489e-06 -9.188894e-06 -9.254761e-01 -2.714844e-01
1.537509e+08 9.804077e-01 3.657227e-01 -1.153350e-05 3.258698e-06 -1.188926e-05 -2.412125e-05 -9.259033e-01 -2.718506e-01
1.539688e+08 9.816895e-01 3.665161e-01 -2.430379e-05 1.309253e-05 -1.744740e-05 1.661386e-05 -9.243774e-01 -2.724609e-01
1.541866e+08 9.821167e-01 3.668213e-01 -1.622830e-06 -5.771406e-06 1.200940e-05 1.960713e-05 -9.243164e-01 -2.742920e-01
1.544044e+08 9.829102e-01 3.666382e-01 2.363697e-06 3.048591e-05 3.077462e-05 4.166365e-05 -9.237671e-01 -2.745972e-01
1.546222e+08 9.829102e-01 3.668213e-01 3.658049e-05 8.344650e-06 1.359731e-06 -5.447119e-05 -9.221802e-01 -2.744751e-01
1.548400e+08 9.825439e-01 3.665161e-01 7.759780e-06 1.647789e-05 -1.057424e-05 1.449790e-05 -9.206543e-01 -2.753906e-01
1.550578e+08 9.832764e-01 3.666382e-01 7.767230e-06 1.650862e-05 -1.528114e-05 -2.535805e-05 -9.213867e-01 -2.766113e-01
1.552756e+08 9.846802e-01 3.663330e-01 7.393304e-06 4.147179e-06 -2.577156e-05 -1.539104e-05 -9.202881e-01 -2.775269e-01
1.554934e+08 9.849243e-01 3.668213e-01 1.605880e-05 1.708977e-06 1.122430e-05 5.142018e-05 -9.202271e-01 -2.779541e-01
1.557112e+08 9.857788e-01 3.677368e-01 -1.080893e-05 2.794340e-05 -1.025666e-05 8.800998e-07 -9.185791e-01 -2.781372e-01
1.559291e+08 9.860840e-01 3.680420e-01 -1.982599e-05 1.805089e-05 1.421198e-06 3.414974e-05 -9.184570e-01 -2.784424e-01
1.561469e+08 9.868164e-01 3.682251e-01 2.526678e-05 -3.205426e-05 3.726222e-06 -1.241732e-05 -9.183350e-01 -2.797241e-01
1.563647e+08 9.868774e-01 3.679199e-01 -1.458079e-05 -5.196407e-05 7.099472e-06 -1.119636e-05 -9.166870e-01 -2.806396e-01
1.565825e+08 9.879761e-01 3.678589e-01 -3.688037e-07 -1.235958e-05 -2.311729e-05 -3.128126e-05 -9.158936e-01 -2.808838e-01
1.568003e+08 9.882202e-01 3.678589e-01 8.117408e-06 2.887845e-05 2.401136e-05 -5.090609e-06 -9.155884e-01 -2.819214e-01
1.570181e+08 9.880981e-01 3.683472e-01 2.632663e-05 5.051494e-06 -6.765593e-06 -2.448447e-06 -9.139404e-01 -2.827759e-01
1.572359e+08 9.886475e-01 3.682861e-01 5.777925e-06 -1.623295e-06 -5.611777e-05 -3.100559e-05 -9.141846e-01 -2.838135e-01
1.574538e+08 9.902344e-01 3.685913e-01 -5.771872e-06 1.624227e-06 -4.556030e-05 -1.158565e-06 -9.127808e-01 -2.839355e-01
1.576716e+08 9.902954e-01 3.681030e-01 2.095476e-05 1.905300e-05 1.154561e-05 -6.545335e-06 -9.132080e-01 -2.849731e-01
1.578894e+08 9.902954e-01 3.679810e-01 -2.203509e-05 4.357472e-05 3.382564e-06 1.223991e-06 -9.118652e-01 -2.862549e-01
1.581072e+08 9.913940e-01 3.681641e-01 1.479965e-05 8.311123e-06 -4.901551e-06 1.354143e-05 -9.116821e-01 -2.864990e-01
1.583250e+08 9.917603e-01 3.693237e-01 -1.824088e-05 2.382882e-05 1.049833e-06 3.446359e-06 -9.106445e-01 -2.874756e-01
1.585428e+08 9.920654e-01 3.681641e-01 6.681308e-06 -2.059527e-05 -1.681782e-05 -1.067389e-05 -9.105225e-01 -2.877808e-01
1.587606e+08 9.924316e-01 3.684692e-01 2.546422e-05 2.404116e-05 3.501307e-06 -3.330177e-06 -9.097900e-01 -2.892456e-01
1.589784e+08 9.927368e-01 3.684082e-01 -5.885214e-05 -2.091005e-05 1.224875e-05 -3.386848e-05 -9.085083e-01 -2.902222e-01
1.591962e+08 9.926758e-01 3.677368e-01 4.081056e-05 1.017004e-06 -2.254546e-05 -9.680167e-06 -9.079590e-01 -2.908325e-01
1.594141e+08 9.936523e-01 3.685303e-01 2.763048e-05 -1.534820e-06 -1.696497e-05 3.831275e-05 -9.075317e-01 -2.910767e-01
1.596319e+08 9.939575e-01 3.681030e-01 1.050532e-05 -4.037842e-05 7.705297e-06 1.045689e-05 -9.070435e-01 -2.923584e-01
1.598497e+08 9.944458e-01 3.669434e-01 -1.932122e-05 -1.329463e-05 -1.378171e-05 4.207715e-06 -9.061890e-01 -2.933960e-01
1.600675e+08 9.940796e-01 3.673706e-01 2.892688e-06 -8.128118e-07 -2.358668e-05 3.130175e-05 -9.063110e-01 -2.943115e-01
1.602853e+08 9.950562e-01 3.672485e-01 -2.405606e-05 2.545305e-05 -1.787767e-05 3.031269e-05 -9.050903e-01 -2.958374e-01
1.605031e+08 9.948730e-01 3.671265e-01 -2.537854e-06 1.318287e-05 -2.581626e-05 2.897531e-05 -9.042969e-01 -2.961426e-01
1.607209e+08 9.953613e-01 3.674316e-01 1.227856e-05 2.150424e-05 1.272932e-05 -5.212054e-05 -9.039307e-01 -2.967529e-01
1.609388e+08 9.968872e-01 3.673706e-01 -5.532056e-06 -4.211068e-05 4.619360e-07 -1.825206e-05 -9.030762e-01 -2.984009e-01
1.611566e+08 9.960938e-01 3.662720e-01 -8.486211e-06 -4.128739e-05 2.744794e-05 -4.830956e-05 -9.027710e-01 -2.981567e-01
1.613744e+08 9.957886e-01 3.663940e-01 9.378418e-06 2.232008e-05 -2.033357e-05 -7.371418e-06 -9.021606e-01 -2.993164e-01
1.615922e+08 9.964600e-01 3.666992e-01 -1.051277e-05 4.040450e-05 -2.780743e-05 -2.696179e-05 -9.022217e-01 -3.000488e-01
1.618100e+08 9.969482e-01 3.663940e-01 2.568960e-05 -1.968257e-05 -3.507547e-05 -1.118891e-05 -9.013672e-01 -3.013306e-01
1.620278e+08 9.979248e-01 3.662109e-01 -1.157541e-05 3.240071e-06 -2.505258e-05 -2.942979e-06 -9.001465e-01 -3.024292e-01
1.622456e+08 9.984741e-01 3.656006e-01 4.261732e-06 4.872307e-05 1.298636e-05 2.775341e-05 -8.993530e-01 -3.035889e-01
1.624634e+08 9.981079e-01 3.657227e-01 -7.058494e-06 8.218922e-06 -2.654269e-05 -3.267452e-05 -8.991699e-01 -3.039551e-01
1.626812e+08 9.989624e-01 3.645630e-01 -1.192372e-05 -9.150244e-06 1.392979e-05 -8.773990e-06 -8.986206e-01 -3.054199e-01
1.628991e+08 9.979248e-01 3.644409e-01 -3.610551e-05 -3.982335e-05 2.536178e-05 3.376044e-05 -8.983154e-01 -3.063965e-01
1.631169e+08 9.991455e-01 3.652344e-01 2.995878e-05 2.906471e-05 -3.845803e-05 2.752617e-05 -8.977051e-01 -3.071899e-01
1.633347e+08 9.984131e-01 3.645020e-01 1.679733e-05 2.649240e-05 -9.285286e-07 -8.017756e-06 -8.972778e-01 -3.070679e-01
1.635525e+08 9.990845e-01 3.649902e-01 -2.120622e-05 2.463162e-05 1.308881e-05 2.321415e-05 -8.964844e-01 -3.087158e-01
1.637703e+08 1.000122e+00 3.642578e-01 -1.548603e-05 -3.313087e-05 3.106333e-05 -7.174909e-06 -8.960571e-01 -3.101807e-01
1.639881e+08 1.000061e+00 3.635254e-01 -3.794022e-05 -1.884997e-06 8.158386e-07 1.259986e-05 -8.945312e-01 -3.104858e-01
1.642059e+08 9.987183e-01 3.626709e-01 -5.109236e-06 2.641231e-05 6.787945e-06 2.463348e-06 -8.955688e-01 -3.116455e-01
1.644238e+08 9.996948e-01 3.627930e-01 1.771655e-05 7.541850e-06 3.886409e-06 -1.704134e-05 -8.947144e-01 -3.128662e-01
1.646416e+08 1.000183e+00 3.626709e-01 -2.282113e-05 1.888722e-05 1.561083e-05 -2.815947e-05 -8.945312e-01 -3.132324e-01
1.648594e+08 1.000000e+00 3.624878e-01 -1.807883e-05 -1.995265e-05 -8.211937e-06 7.783528e-06 -8.948364e-01 -3.145142e-01
1.650772e+08 9.999390e-01 3.613281e-01 1.610257e-05 1.756474e-06 -3.173389e-05 -9.980053e-06 -8.933105e-01 -3.162842e-01
1.652950e+08 1.001099e+00 3.609619e-01 3.000163e-05 2.905354e-05 2.779998e-05 -1.300685e-05 -8.925781e-01 -3.157959e-01
1.655128e+08 1.001465e+00 3.613892e-01 2.223067e-05 1.253001e-05 -2.041552e-05 -7.403083e-06 -8.927002e-01 -3.179321e-01
1.657306e+08 1.000244e+00 3.609619e-01 2.607517e-05 -7.286668e-06 -2.391823e-05 -4.066154e-06 -8.920898e-01 -3.187866e-01
1.659484e+08 1.000244e+00 3.614502e-01 4.668534e-05 -5.178154e-07 -4.560128e-05 -5.841255e-06 -8.912964e-01 -3.195801e-01
1.661662e+08 1.000610e+00 3.604736e-01 -8.080155e-06 -2.897345e-05 -4.711375e-05 -3.559142e-05 -8.910522e-01 -3.204346e-01
1.663841e+08 9.997559e-01 3.597412e-01 -2.156012e-05 1.227297e-05 -1.125038e-06 -4.348904e-05 -8.909912e-01 -3.209229e-01
1.666019e+08 1.000610e+00 3.598022e-01 1.448579e-05 -4.035421e-06 9.767711e-06 -2.262741e-05 -8.899536e-01 -3.225708e-01
1.668197e+08 9.998779e-01 3.588867e-01 1.934450e-05 1.335330e-05 1.978315e-05 3.026985e-05 -8.902588e-01 -3.242798e-01
1.670375e+08 1.000427e+00 3.588867e-01 3.315508e-07 1.240335e-05 -4.396588e-05 -2.523884e-05 -8.898315e-01 -3.248901e-01
1.672553e+08 1.001038e+00 3.593140e-01 -7.415190e-06 -4.182104e-06 -5.539134e-05 -2.786890e-05 -8.894043e-01 -3.262329e-01
1.674731e+08 1.000732e+00 3.587646e-01 -3.036857e-05 -4.153699e-05 -3.279652e-06 -5.817041e-06 -8.892212e-01 -3.267212e-01
1.676909e+08 1.000366e+00 3.576050e-01 -6.766990e-06 2.064556e-05 -1.081917e-05 1.917314e-05 -8.891602e-01 -3.287354e-01
1.679088e+08 1.000061e+00 3.567505e-01 -4.179776e-06 7.411931e-06 -9.154901e-06 -2.463348e-07 -8.878174e-01 -3.289795e-01
1.681266e+08 9.998169e-01 3.563232e-01 -6.791204e-06 -3.559701e-05 -5.751383e-06 9.895302e-07 -8.877563e-01 -3.299561e-01
1.683444e+08 1.000244e+00 3.565674e-01 -3.855675e-06 1.981296e-05 -1.219939e-05 -1.522340e-05 -8.872070e-01 -3.309937e-01
1.685622e+08 9.992065e-01 3.572998e-01 8.065253e-06 2.900511e-05 -2.764165e-06 -2.412871e-05 -8.873291e-01 -3.325195e-01
1.687800e+08 1.000244e+00 3.563232e-01 2.095662e-05 1.916103e-05 6.814953e-06 2.476387e-06 -8.869019e-01 -3.330078e-01
1.689978e+08 9.998779e-01 3.557739e-01 8.974224e-06 -4.626438e-05 3.195554e-05 5.446374e-06 -8.869629e-01 -3.334351e-01
1.692156e+08 9.993896e-01 3.554688e-01 -2.449751e-05 1.306646e-05 -1.387671e-05 4.209578e-06 -8.861084e-01 -3.351440e-01
1.694334e+08 9.994507e-01 3.546143e-01 3.578141e-05 -2.872944e-05 5.755574e-06 -9.909272e-07 -8.859863e-01 -3.362427e-01
1.696512e+08 9.985352e-01 3.537598e-01 4.434071e-10 2.503953e-10 1.058122e-05 -1.002243e-05 -8.860474e-01 -3.375244e-01
1.698691e+08 1.000061e+00 3.541260e-01 -3.321283e-05 1.552515e-05 -4.586764e-06 -1.238659e-07 -8.860474e-01 -3.378906e-01
1.700869e+08 9.993896e-01 3.530273e-01 3.610179e-05 -1.631305e-05 2.200156e-05 -7.439405e-06 -8.852539e-01 -3.388062e-01
1.703047e+08 9.984131e-01 3.532104e-01 8.701347e-06 -2.423767e-06 7.994473e-06 1.366250e-06 -8.844604e-01 -3.399658e-01
1.705225e+08 9.985962e-01 3.517456e-01 1.353957e-05 1.498498e-05 -1.505669e-05 5.336478e-06 -8.843994e-01 -3.413696e-01
1.707403e+08 9.981689e-01 3.530273e-01 -6.140210e-06 -1.080055e-05 -1.115259e-05 -1.179520e-05 -8.850708e-01 -3.417358e-01
1.709581e+08 9.970703e-01 3.527222e-01 -5.482882e-05 -2.856553e-05 -2.175197e-05 -1.765788e-06 -8.844604e-01 -3.436279e-01
1.711759e+08 9.976196e-01 3.524780e-01 2.612174e-05 -7.255003e-06 3.008172e-06 -2.517737e-05 -8.835449e-01 -3.446045e-01
1.713938e+08 9.967041e-01 3.515625e-01 5.482696e-06 -1.403689e-05 1.036748e-05 3.930740e-05 -8.836670e-01 -3.455200e-01
1.716116e+08 9.968872e-01 3.505859e-01 -5.483627e-06 1.404248e-05 1.742691e-05 -7.563271e-06 -8.839722e-01 -3.463745e-01
1.718294e+08 9.971924e-01 3.512573e-01 1.580548e-05 -1.064409e-05 -2.376176e-05 -1.331046e-05 -8.829346e-01 -3.472900e-01
1.720472e+08 9.963989e-01 3.505249e-01 6.370246e-07 2.485886e-05 5.215406e-07 -1.836661e-05 -8.835449e-01 -3.490601e-01
1.722650e+08 9.954224e-01 3.499146e-01 -6.444752e-06 -2.324395e-05 -5.708635e-05 -1.309067e-05 -8.829346e-01 -3.497925e-01
1.724828e+08 9.951782e-01 3.489380e-01 5.712360e-05 2.872199e-06 -6.351620e-07 2.296828e-05 -8.830566e-01 -3.499756e-01
1.727006e+08 9.951782e-01 3.487549e-01 -6.135553e-06 -1.080800e-05 4.225969e-05 9.225681e-06 -8.826904e-01 -3.510742e-01
1.729184e+08 9.942017e-01 3.483887e-01 -2.065673e-05 -6.785616e-06 2.755783e-05 7.711351e-07 -8.817139e-01 -3.527832e-01
1.731362e+08 9.950562e-01 3.478394e-01 -2.934970e-05 -4.341826e-06 3.480166e-05 -1.053698e-05 -8.814697e-01 -3.534546e-01
1.733541e+08 9.935303e-01 3.479004e-01 -1.000986e-05 9.039417e-06 -2.128351e-05 -2.012588e-05 -8.823242e-01 -3.541260e-01
1.735719e+08 9.935303e-01 3.479614e-01 7.409602e-06 -5.215034e-05 -1.892820e-05 -2.238527e-05 -8.826294e-01 -3.552856e-01
1.737897e+08 9.923096e-01 3.480225e-01 2.003834e-05 -1.808628e-05 -3.282353e-05 -1.818314e-05 -8.827515e-01 -3.570557e-01
1.740075e+08 9.921875e-01 3.468628e-01 3.185123e-07 1.243316e-05 -4.073419e-05 -2.414361e-05 -8.823242e-01 -3.577271e-01
1.742253e+08 9.918213e-01 3.472900e-01 -5.816109e-06 1.610257e-06 -1.195818e-05 1.575798e-05 -8.817139e-01 -3.594360e-01
1.744431e+08 9.907837e-01 3.470459e-01 6.724149e-07 -3.150292e-05 3.850274e-05 -1.845323e-05 -8.818359e-01 -3.602905e-01
1.746609e+08 9.909668e-01 3.462524e-01 -3.230758e-06 -1.163501e-05 -2.747215e-05 -5.386770e-06 -8.816528e-01 -3.609619e-01
1.748788e+08 9.895630e-01 3.452759e-01 -4.586577e-05 -1.860037e-05 -2.955645e-05 -1.233257e-05 -8.813477e-01 -3.621826e-01
1.750966e+08 9.896851e-01 3.449707e-01 -3.101863e-05 -1.018494e-05 3.444031e-05 3.272668e-06 -8.813477e-01 -3.629761e-01
1.753144e+08 9.893188e-01 3.450928e-01 -1.486391e-05 -8.408912e-06 2.879463e-05 -3.352761e-07 -8.814087e-01 -3.639526e-01
1.755322e+08 9.884033e-01 3.447266e-01 -2.552196e-05 -2.424233e-05 3.484264e-05 -5.081668e-05 -8.815308e-01 -3.650513e-01
1.757500e+08 9.885864e-01 3.455811e-01 -1.750514e-05 6.123632e-05 -2.790801e-05 8.417293e-06 -8.815308e-01 -3.663940e-01
1.759678e+08 9.875488e-01 3.438721e-01 -1.095422e-05 -2.829731e-05 1.629628e-05 -6.452203e-06 -8.814087e-01 -3.673706e-01
1.761856e+08 9.866333e-01 3.449707e-01 -3.524870e-05 -2.786517e-06 1.827907e-05 5.139038e-06 -8.815918e-01 -3.681641e-01
1.764034e+08 9.859009e-01 3.439941e-01 3.900379e-06 -1.988374e-05 2.985261e-05 3.157184e-06 -8.815308e-01 -3.691406e-01
1.766212e+08 9.855957e-01 3.440552e-01 -1.848489e-05 2.389960e-05 -3.874302e-07 -2.652965e-05 -8.809204e-01 -3.711548e-01
1.768391e+08 9.843750e-01 3.430786e-01 4.009530e-05 2.026930e-05 3.604405e-05 2.867728e-05 -8.812256e-01 -3.715820e-01
1.770569e+08 9.843750e-01 3.428345e-01 -2.522580e-05 -1.185015e-05 1.817383e-05 9.737909e-06 -8.814087e-01 -3.726807e-01
1.772747e+08 9.834595e-01 3.424072e-01 1.327042e-05 2.606772e-06 2.883747e-05 -3.408641e-07 -8.816528e-01 -3.735352e-01
1.774925e+08 9.829102e-01 3.429565e-01 3.788061e-05 -1.047365e-05 -3.830530e-05 -3.109872e-05 -8.815308e-01 -3.743286e-01
1.777103e+08 9.821777e-01 3.413086e-01 7.452071e-05 -1.432374e-05 -1.264550e-05 -4.184432e-05 -8.820801e-01 -3.756714e-01
1.779281e+08 9.818115e-01 3.422852e-01 -9.053387e-06 -1.004711e-05 -1.738966e-05 2.958812e-06 -8.814087e-01 -3.757935e-01
1.781459e+08 9.808350e-01 3.417969e-01 -2.808496e-05 -4.509836e-05 3.502890e-05 1.391396e-06 -8.815308e-01 -3.779297e-01
1.783638e+08 9.804077e-01 3.423462e-01 1.840107e-05 -1.001824e-05 -4.297122e-06 -4.031323e-05 -8.814697e-01 -3.770752e-01
1.785816e+08 9.785767e-01 3.422241e-01 1.256540e-05 -3.653392e-05 -3.520399e-06 3.224984e-05 -8.816528e-01 -3.797607e-01
1.787994e+08 9.788208e-01 3.414307e-01 -3.826618e-05 -4.311278e-05 1.216773e-05 -1.965556e-05 -8.812866e-01 -3.802490e-01
1.790172e+08 9.780884e-01 3.410645e-01 -5.610287e-06 -5.100295e-05 -8.603558e-06 4.761387e-06 -8.820801e-01 -3.816528e-01
1.792350e+08 9.769287e-01 3.408813e-01 -3.969297e-06 -1.225714e-05 -2.682768e-05 4.293583e-05 -8.823242e-01 -3.818359e-01
1.794528e+08 9.769897e-01 3.408813e-01 -1.187250e-05 -3.679283e-05 2.739392e-05 2.815947e-05 -8.820190e-01 -3.833008e-01
1.796706e+08 9.752808e-01 3.411865e-01 -4.898012e-05 7.722527e-06 -5.879439e-06 -1.472700e-05 -8.826904e-01 -3.834229e-01
1.798884e+08 9.744873e-01 3.405762e-01 -5.309284e-05 1.171976e-05 -2.045371e-05 4.332699e-05 -8.823853e-01 -3.850098e-01
1.801062e+08 9.740601e-01 3.416748e-01 -3.029779e-05 -3.494509e-05 2.142414e-05 -3.953464e-06 -8.836670e-01 -3.855591e-01
1.803241e+08 9.727783e-01 3.406372e-01 6.176066e-06 -6.056856e-06 -3.181770e-05 -3.524497e-05 -8.830566e-01 -3.867188e-01
1.805419e+08 9.722290e-01 3.410034e-01 -1.013838e-05 -6.217510e-06 -4.949048e-06 2.464838e-05 -8.830566e-01 -3.875732e-01
1.807597e+08 9.717407e-01 3.405762e-01 -9.899959e-06 -3.069267e-05 -1.218263e-05 1.967233e-05 -8.831177e-01 -3.884888e-01
1.809775e+08 9.702148e-01 3.399048e-01 6.177928e-06 -6.061513e-06 -2.696365e-05 8.162111e-06 -8.833618e-01 -3.892212e-01
1.811953e+08 9.698486e-01 3.400879e-01 -1.907349e-06 -1.428742e-05 6.178394e-05 -8.273870e-06 -8.828735e-01 -3.895264e-01
1.814131e+08 9.694214e-01 3.401489e-01 -1.442712e-05 1.414213e-05 1.435168e-05 -4.224293e-05 -8.837891e-01 -3.914795e-01
1.816309e+08 9.681396e-01 3.397217e-01 2.075918e-05 -3.653392e-05 5.587935e-08 1.740456e-05 -8.839722e-01 -3.920288e-01
1.818488e+08 9.681396e-01 3.402710e-01 3.408268e-05 6.360933e-05 1.027901e-05 -1.298916e-05 -8.842773e-01 -3.930664e-01
1.820666e+08 9.676514e-01 3.398438e-01 2.458692e-07 -2.451614e-05 1.141336e-05 -6.866641e-06 -8.850098e-01 -3.947144e-01
1.822844e+08 9.664307e-01 3.400879e-01 -4.313141e-05 2.614781e-05 -2.014078e-05 -2.321787e-05 -8.848877e-01 -3.945923e-01
1.825022e+08 9.652100e-01 3.397827e-01 2.245978e-05 2.259389e-06 9.712763e-06 -1.605880e-05 -8.857422e-01 -3.961182e-01
1.827200e+08 9.650269e-01 3.395996e-01 1.237076e-05 -1.212582e-05 1.952983e-05 2.732500e-06 -8.844604e-01 -3.967896e-01
1.829378e+08 9.640503e-01 3.396606e-01 -8.089934e-06 -8.250587e-06 -7.038936e-06 -2.089608e-05 -8.851929e-01 -3.976440e-01
1.831556e+08 9.628296e-01 3.399658e-01 5.854294e-06 2.663024e-05 2.742186e-05 2.822094e-05 -8.858643e-01 -3.991699e-01
1.833734e+08 9.614868e-01 3.397827e-01 -5.318597e-05 3.587455e-06 4.243851e-05 2.383813e-05 -8.862915e-01 -3.992310e-01
1.835912e+08 9.619141e-01 3.404541e-01 -1.255050e-05 2.850220e-05 -4.192814e-05 -2.082437e-05 -8.864746e-01 -4.003906e-01
1.838091e+08 9.610596e-01 3.397827e-01 -1.817197e-05 -2.268329e-05 -4.258007e-06 -2.302043e-05 -8.865356e-01 -4.016113e-01
1.840269e+08 9.601440e-01 3.405762e-01 -2.062065e-06 2.022949e-06 -3.660284e-05 -9.115785e-06 -8.858032e-01 -4.010010e-01
1.842447e+08 9.587402e-01 3.410034e-01 -1.437683e-05 5.988404e-06 4.749745e-07 -3.182702e-05 -8.870239e-01 -4.024048e-01
1.844625e+08 9.577026e-01 3.408203e-01 3.635883e-06 4.505366e-05 -5.033240e-05 -3.196299e-05 -8.882446e-01 -4.031982e-01
1.846803e+08 9.576416e-01 3.411255e-01 -5.625188e-06 -5.121529e-05 1.058541e-05 -1.147855e-05 -8.879395e-01 -4.041748e-01
1.848981e+08 9.565430e-01 3.407593e-01 3.272295e-05 3.390014e-07 2.204627e-05 -8.940697e-07 -8.876343e-01 -4.048462e-01
1.851159e+08 9.556274e-01 3.411255e-01 -2.149493e-06 1.020823e-05 -3.467128e-05 -1.582690e-05 -8.883057e-01 -4.052734e-01
1.853338e+08 9.552612e-01 3.410034e-01 3.074296e-05 -5.831942e-06 -1.341663e-05 -3.876165e-06 -8.883057e-01 -4.060059e-01
1.855516e+08 9.534302e-01 3.411255e-01 5.876645e-06 2.666190e-05 3.352528e-06 9.681098e-07 -8.888550e-01 -4.066772e-01
1.857694e+08 9.520264e-01 3.413086e-01 2.248958e-05 2.266839e-06 1.925603e-05 1.215376e-06 -8.887329e-01 -4.074097e-01
1.859872e+08 9.512939e-01 3.416748e-01 -1.399033e-05 -3.496930e-05 2.757646e-05 -2.254732e-05 -8.897705e-01 -4.085693e-01
1.862050e+08 9.509277e-01 3.422241e-01 -4.051486e-06 -4.138332e-06 -1.960341e-05 -2.021063e-05 -8.890991e-01 -4.092407e-01
1.864228e+08 9.511108e-01 3.419189e-01 -9.201467e-06 -1.045093e-04 -3.367290e-05 -4.464760e-05 -8.896484e-01 -4.096069e-01
1.866406e+08 9.494629e-01 3.418579e-01 -1.828186e-05 -1.453701e-05 -1.994334e-05 -3.920123e-05 -8.900757e-01 -4.110718e-01
1.868584e+08 9.487305e-01 3.421631e-01 -3.052317e-05 -1.876988e-05 1.763180e-05 9.456649e-06 -8.899536e-01 -4.116821e-01
1.870762e+08 9.474487e-01 3.430786e-01 -1.225341e-05 -4.226342e-06 -6.679446e-06 1.552328e-05 -8.908081e-01 -4.119873e-01
1.872941e+08 9.467773e-01 3.432617e-01 -3.271550e-05 -8.549541e-06 -1.763180e-05 -9.480864e-06 -8.914795e-01 -4.133301e-01
1.875119e+08 9.461060e-01 3.432007e-01 -4.405156e-06 2.866052e-05 -4.861876e-05 2.957508e-05 -8.916016e-01 -4.142456e-01
1.877297e+08 9.454346e-01 3.431396e-01 4.922971e-05 5.029142e-07 2.213940e-05 1.659058e-05 -8.923340e-01 -4.145508e-01
1.879475e+08 9.439087e-01 3.436890e-01 -3.867224e-05 -2.706796e-05 -3.911741e-05 1.197867e-05 -8.922119e-01 -4.150391e-01
1.881653e+08 9.430542e-01 3.441772e-01 3.056973e-05 1.879036e-05 3.035180e-06 -1.804624e-05 -8.930054e-01 -4.157715e-01
1.883831e+08 9.423828e-01 3.448486e-01 -3.489852e-05 1.683831e-06 1.955684e-05 -1.472514e-05 -8.933105e-01 -4.162598e-01
1.886009e+08 9.410400e-01 3.446655e-01 1.407228e-05 2.680905e-05 5.339272e-06 1.173373e-05 -8.931274e-01 -4.166870e-01
1.888188e+08 9.401855e-01 3.442383e-01 8.847564e-08 -8.210074e-06 -4.250556e-06 -2.305955e-05 -8.940430e-01 -4.179688e-01
1.890366e+08 9.396973e-01 3.449707e-01 4.500151e-06 -3.690459e-05 -3.218465e-05 -2.019107e-06 -8.943481e-01 -4.182739e-01
1.892544e+08 9.387817e-01 3.457642e-01 -3.300607e-05 1.604855e-05 3.027730e-05 2.625212e-05 -8.940430e-01 -4.187012e-01
1.894722e+08 9.378662e-01 3.461304e-01 -2.217107e-05 -3.515370e-05 3.110617e-06 1.692586e-05 -8.943481e-01 -4.200439e-01
1.896900e+08 9.378662e-01 3.461304e-01 2.075452e-06 -2.029468e-06 -4.553795e-05 4.658103e-05 -8.947754e-01 -4.201660e-01
1.899078e+08 9.356079e-01 3.464355e-01 -3.926456e-05 2.219342e-05 -6.186776e-06 -1.635309e-05 -8.959961e-01 -4.204102e-01
1.901256e+08 9.350586e-01 3.466797e-01 1.228135e-05 4.235655e-06 -1.371652e-05 -5.425885e-06 -8.961182e-01 -4.209595e-01
1.903434e+08 9.340820e-01 3.474121e-01 3.879890e-06 2.058037e-05 -3.221259e-05 -1.952238e-05 -8.961792e-01 -4.215088e-01
1.905612e+08 9.341431e-01 3.479004e-01 -2.076384e-06 2.033310e-06 2.240576e-05 6.519258e-07 -8.970337e-01 -4.216309e-01
1.907791e+08 9.325562e-01 3.487549e-01 5.781651e-06 3.499351e-05 1.649838e-05 -1.415983e-05 -8.969727e-01 -4.227905e-01
1.909969e+08 9.320068e-01 3.486328e-01 6.575137e-06 -3.896654e-05 1.623854e-05 1.783483e-06 -8.964844e-01 -4.230347e-01
1.912147e+08 9.314575e-01 3.493652e-01 -6.578490e-05 -7.413328e-07 1.040660e-05 2.196617e-05 -8.969727e-01 -4.240112e-01
1.914325e+08 9.299927e-01 3.490601e-01 9.614974e-06 6.383285e-05 -1.121778e-05 -9.077601e-06 -8.977051e-01 -4.239502e-01
1.916503e+08 9.300537e-01 3.499146e-01 -3.707223e-05 3.695488e-06 -5.039945e-05 2.041459e-05 -8.981934e-01 -4.252930e-01
1.918681e+08 9.285278e-01 3.508301e-01 1.611374e-05 3.309548e-05 4.651770e-05 1.055375e-05 -8.991089e-01 -4.251709e-01
1.920859e+08 9.271240e-01 3.509521e-01 1.635309e-05 8.401461e-06 3.891066e-06 -1.344644e-05 -8.982544e-01 -4.252930e-01
1.923038e+08 9.268799e-01 3.518677e-01 1.419056e-05 1.870189e-05 -1.742132e-05 -2.546608e-05 -8.995361e-01 -4.272461e-01
1.925216e+08 9.258423e-01 3.518066e-01 -3.338978e-05 4.080310e-05 7.169694e-05 -8.393079e-06 -8.999023e-01 -4.267578e-01
1.927394e+08 9.254761e-01 3.524780e-01 -1.646485e-05 -1.844019e-07 2.514571e-07 -1.597404e-05 -8.999634e-01 -4.269409e-01
1.929572e+08 9.239502e-01 3.529663e-01 -1.003779e-05 -2.276897e-05 3.110617e-06 1.694262e-05 -9.005737e-01 -4.276733e-01
1.931750e+08 9.237061e-01 3.536987e-01 -8.687377e-06 4.106015e-05 -7.015187e-06 -3.495719e-06 -9.001465e-01 -4.275513e-01
1.933928e+08 9.220581e-01 3.541260e-01 3.521889e-05 -1.814403e-05 -1.710188e-05 -6.423332e-06 -9.013062e-01 -4.288940e-01
1.936106e+08 9.224243e-01 3.546753e-01 -8.142553e-06 -8.333940e-06 -3.000349e-05 1.029111e-05 -9.014282e-01 -4.295044e-01
1.938284e+08 9.218140e-01 3.545532e-01 -2.306700e-05 3.888831e-05 1.314562e-05 -1.517683e-05 -9.019775e-01 -4.293213e-01
1.940462e+08 9.204712e-01 3.558960e-01 -1.458451e-05 1.425669e-05 -2.819579e-07 -1.542154e-06 -9.022217e-01 -4.302368e-01
1.942641e+08 9.194336e-01 3.560181e-01 8.243136e-06 9.080395e-08 -4.625320e-05 8.478761e-06 -9.027710e-01 -4.304810e-01
1.944819e+08 9.191284e-01 3.560181e-01 -9.767711e-06 -4.750490e-05 -8.186325e-06 -2.719462e-05 -9.027100e-01 -4.304810e-01
1.946997e+08 9.178467e-01 3.577881e-01 -8.512288e-06 2.464280e-05 -2.160203e-05 3.945082e-06 -9.032593e-01 -4.310913e-01
1.949175e+08 9.166870e-01 3.576660e-01 -3.298000e-05 -3.725290e-07 1.678988e-05 -3.016181e-05 -9.033813e-01 -4.313354e-01
1.951353e+08 9.158325e-01 3.579712e-01 1.989305e-05 6.207451e-05 -2.916530e-05 -2.620742e-06 -9.033813e-01 -4.323120e-01
1.953531e+08 9.146118e-01 3.591309e-01 -1.659431e-05 8.062460e-06 -3.894791e-05 1.348555e-05 -9.042969e-01 -4.321899e-01
1.955709e+08 9.152222e-01 3.597412e-01 -3.706291e-05 -4.542992e-06 -2.972782e-05 1.182035e-05 -9.041138e-01 -4.324951e-01
1.957888e+08 9.139404e-01 3.600464e-01 1.203455e-05 2.902932e-05 -1.033209e-05 3.059022e-05 -9.047241e-01 -4.336548e-01
1.960066e+08 9.124146e-01 3.605347e-01 4.272908e-06 -1.232233e-05 8.102506e-06 -2.537854e-05 -9.046021e-01 -4.329834e-01
1.962244e+08 9.127197e-01 3.619995e-01 -1.460221e-05 1.427531e-05 8.130446e-06 -7.864088e-06 -9.050903e-01 -4.330444e-01
1.964422e+08 9.124146e-01 3.621216e-01 7.715076e-06 4.961342e-05 2.746843e-05 -2.417713e-05 -9.055176e-01 -4.331665e-01
1.966600e+08 9.108276e-01 3.628540e-01 -5.380809e-05 1.177192e-05 1.010532e-05 2.935063e-06 -9.058228e-01 -4.338989e-01
1.968778e+08 9.100342e-01 3.636475e-01 -5.144998e-05 -1.506135e-05 6.738584e-06 1.955777e-06 -9.059448e-01 -4.345703e-01
1.970956e+08 9.088135e-01 3.643188e-01 -2.081133e-05 1.214631e-05 -1.964532e-05 -2.791174e-06 -9.064941e-01 -4.351807e-01
1.973134e+08 9.089966e-01 3.645020e-01 1.263060e-05 -2.051331e-05 -3.144331e-05 2.568588e-06 -9.067383e-01 -4.348145e-01
1.975312e+08 9.078369e-01 3.659668e-01 -2.252869e-05 -1.884066e-05 2.329051e-05 -1.222268e-05 -9.073486e-01 -4.345093e-01
1.977491e+08 9.066162e-01 3.665161e-01 -1.662876e-05 8.070841e-06 -4.377961e-05 4.813075e-06 -9.073486e-01 -4.356689e-01
1.979669e+08 9.060059e-01 3.668213e-01 -3.296696e-05 -8.631498e-06 7.000752e-06 -1.403969e-05 -9.075317e-01 -4.355469e-01
1.981847e+08 9.057007e-01 3.674316e-01 8.365605e-06 -8.166302e-06 2.274476e-05 2.214685e-06 -9.076538e-01 -4.363403e-01
1.984025e+08 9.053345e-01 3.688354e-01 1.882482e-05 -1.838990e-05 3.395788e-05 -4.131161e-05 -9.083862e-01 -4.360962e-01
1.986203e+08 9.043579e-01 3.684692e-01 -1.454074e-05 6.045215e-06 -5.326699e-06 5.762558e-06 -9.087524e-01 -4.353638e-01
1.988381e+08 9.032593e-01 3.692627e-01 -1.864228e-05 1.853332e-06 -2.106372e-05 7.037073e-06 -9.090576e-01 -4.367065e-01
1.990559e+08 9.023438e-01 3.703003e-01 6.176531e-06 2.134591e-06 2.611615e-05 -1.433678e-05 -9.088745e-01 -4.365234e-01
1.992738e+08 9.016113e-01 3.713379e-01 4.327297e-05 1.494586e-05 3.989413e-05 8.720905e-06 -9.096680e-01 -4.370117e-01
1.994916e+08 9.016724e-01 3.720703e-01 -1.236238e-05 -4.280359e-06 3.459118e-05 1.446716e-05 -9.096069e-01 -4.378052e-01
1.997094e+08 9.003296e-01 3.729248e-01 -2.882071e-05 -1.275167e-05 1.125038e-05 4.425272e-05 -9.099731e-01 -4.382324e-01
1.999272e+08 8.992920e-01 3.736572e-01 -3.976747e-06 -1.246668e-05 -3.919005e-06 3.104657e-05 -9.097290e-01 -4.387207e-01
2.001450e+08 8.986206e-01 3.748169e-01 -1.038425e-07 8.276664e-06 3.681891e-05 -2.584979e-05 -9.098511e-01 -4.390259e-01
2.003628e+08 8.975830e-01 3.748169e-01 -8.375850e-06 8.180272e-06 2.814922e-07 1.544598e-06 -9.104614e-01 -4.382324e-01
2.005806e+08 8.971558e-01 3.759155e-01 -3.082119e-05 -1.899339e-05 -1.714006e-05 1.108926e-05 -9.105835e-01 -4.381714e-01
2.007984e+08 8.960571e-01 3.767700e-01 -9.989366e-06 -3.114901e-05 -2.948940e-05 1.333654e-05 -9.103394e-01 -4.381104e-01
2.010162e+08 8.971558e-01 3.774414e-01 3.814697e-06 2.902746e-05 3.487431e-05 -1.911074e-05 -9.111938e-01 -4.379272e-01
2.012341e+08 8.960571e-01 3.773193e-01 -3.740564e-05 1.199171e-05 -1.631491e-05 -1.938827e-05 -9.109497e-01 -4.385986e-01
2.014519e+08 8.948364e-01 3.784790e-01 -2.894737e-05 -4.503876e-06 -6.183982e-06 1.868047e-05 -9.110107e-01 -4.400024e-01
2.016697e+08 8.952026e-01 3.795776e-01 4.951062e-10 5.798029e-12 -1.966953e-05 6.749853e-05 -9.113159e-01 -4.393311e-01
2.018875e+08 8.934937e-01 3.800049e-01 1.848023e-05 1.472235e-05 -2.023391e-05 -2.346933e-05 -9.114990e-01 -4.391479e-01
2.021053e+08 8.931274e-01 3.807983e-01 1.630746e-05 2.504513e-05 -1.686625e-05 -4.919246e-06 -9.118042e-01 -4.387817e-01
2.023231e+08 8.924561e-01 3.816528e-01 -3.314763e-05 -3.855675e-07 2.389401e-05 2.600066e-05 -9.112549e-01 -4.393311e-01
2.025409e+08 8.920288e-01 3.824463e-01 4.088134e-05 5.021319e-05 -1.012208e-05 -2.955087e-06 -9.116821e-01 -4.393921e-01
2.027588e+08 8.914185e-01 3.830566e-01 2.641231e-05 4.802644e-05 -2.080295e-05 -8.996576e-06 -9.122314e-01 -4.402466e-01
2.029766e+08 8.912354e-01 3.836060e-01 -8.388888e-06 8.195639e-06 -2.080947e-05 8.577481e-06 -9.116211e-01 -4.399414e-01
2.031944e+08 8.903198e-01 3.844604e-01 3.538281e-05 -9.950250e-06 6.188639e-06 1.644716e-05 -9.121094e-01 -4.404907e-01
2.034122e+08 8.902588e-01 3.854980e-01 4.756078e-05 1.093000e-05 3.377348e-05 2.742372e-05 -9.114380e-01 -4.402466e-01
2.036300e+08 8.883057e-01 3.867798e-01 2.279878e-05 2.326444e-06 -5.396828e-05 1.832843e-06 -9.126587e-01 -4.398804e-01
2.038478e+08 8.886719e-01 3.874512e-01 -2.199039e-05 -6.876141e-05 3.094412e-05 1.195446e-05 -9.124146e-01 -4.408569e-01
2.040656e+08 8.880615e-01 3.889771e-01 -2.020970e-07 1.660269e-05 -3.067404e-05 -1.042709e-05 -9.127808e-01 -4.403076e-01
2.042834e+08 8.874512e-01 3.892212e-01 1.040567e-05 -1.949258e-06 -6.465241e-06 -1.800619e-05 -9.125977e-01 -4.410400e-01
2.045012e+08 8.875732e-01 3.895264e-01 -4.784763e-05 5.628914e-06 2.869591e-05 -1.802482e-05 -9.128418e-01 -4.409790e-01
2.047191e+08 8.865356e-01 3.909302e-01 -2.641976e-05 -4.808232e-05 -8.436851e-06 -1.126621e-05 -9.127808e-01 -4.411621e-01
2.049369e+08 8.862305e-01 3.916016e-01 8.411705e-06 -8.208212e-06 -3.830716e-05 1.813658e-05 -9.131470e-01 -4.416504e-01
2.051547e+08 8.858032e-01 3.923340e-01 6.207824e-05 2.149493e-05 2.337061e-05 5.358830e-06 -9.131470e-01 -4.415283e-01
2.053725e+08 8.847656e-01 3.931274e-01 2.239831e-05 3.560260e-05 -5.178526e-05 -3.423542e-06 -9.125366e-01 -4.423828e-01
2.055903e+08 8.852539e-01 3.945923e-01 -1.420267e-05 -2.718344e-05 -2.141763e-05 5.482696e-06 -9.124146e-01 -4.417725e-01
2.058081e+08 8.842163e-01 3.947144e-01 -3.105402e-05 -1.075864e-05 -2.800953e-07 -1.548324e-06 -9.131470e-01 -4.420776e-01
2.060259e+08 8.826904e-01 3.955078e-01 1.652446e-05 8.511357e-06 -4.134141e-05 1.059845e-06 -9.129028e-01 -4.417725e-01
2.062438e+08 8.823853e-01 3.963013e-01 -2.294593e-05 5.964190e-06 -2.222881e-05 8.232892e-07 -9.128418e-01 -4.420776e-01
2.064616e+08 8.826294e-01 3.973389e-01 -8.217525e-06 -8.414965e-06 -3.936933e-06 -4.088273e-06 -9.129639e-01 -4.418945e-01
2.066794e+08 8.825073e-01 3.982544e-01 -6.860122e-05 1.192093e-06 7.575378e-06 2.422743e-05 -9.120483e-01 -4.428101e-01
2.068972e+08 8.822632e-01 3.992310e-01 2.004672e-06 6.261747e-06 2.644397e-05 4.002266e-05 -9.121094e-01 -4.421387e-01
2.071150e+08 8.816528e-01 3.997192e-01 -9.931624e-06 -3.964081e-05 -3.717095e-05 -1.087599e-05 -9.125366e-01 -4.425659e-01
2.073328e+08 8.813477e-01 4.010010e-01 -1.799315e-06 -2.291240e-05 -4.310720e-05 -8.231029e-06 -9.122314e-01 -4.429932e-01
2.075506e+08 8.804321e-01 4.022217e-01 -3.331341e-05 -4.116446e-07 -4.753470e-06 -2.634712e-05 -9.129028e-01 -4.434204e-01
2.077684e+08 8.816528e-01 4.023438e-01 3.542006e-05 -1.626089e-06 1.042895e-05 2.214126e-05 -9.124146e-01 -4.436035e-01
2.079862e+08 8.798828e-01 4.030151e-01 -2.548099e-05 4.131719e-05 -5.635899e-06 4.222151e-06 -9.124756e-01 -4.422607e-01
2.082041e+08 8.798218e-01 4.038696e-01 2.105604e-06 -2.056477e-06 1.774728e-05 9.593554e-06 -9.121094e-01 -4.425049e-01
2.084219e+08 8.782959e-01 4.050293e-01 -3.541820e-05 1.652166e-06 1.749769e-05 -2.715923e-05 -9.123535e-01 -4.428101e-01
2.086397e+08 8.779907e-01 4.055176e-01 -1.254864e-05 4.009344e-06 2.336875e-05 5.381182e-06 -9.119873e-01 -4.431763e-01
2.088575e+08 8.779297e-01 4.062500e-01 -1.043733e-05 1.952052e-06 -1.296960e-05 1.675356e-05 -9.117432e-01 -4.430542e-01
2.090753e+08 8.773804e-01 4.074097e-01 4.319474e-06 -1.244806e-05 -7.344410e-06 1.252536e-05 -9.121094e-01 -4.432983e-01
2.092931e+08 8.778076e-01 4.086304e-01 1.865067e-05 6.488524e-06 -4.145503e-05 1.076609e-06 -9.107056e-01 -4.436646e-01
2.095109e+08 8.771973e-01 4.094238e-01 6.021000e-06 1.881365e-05 -1.411606e-05 1.056120e-05 -9.111328e-01 -4.428711e-01
2.097288e+08 8.767090e-01 4.099731e-01 2.862886e-05 4.620850e-05 2.227351e-05 -8.232892e-07 -9.119873e-01 -4.432983e-01
2.099466e+08 8.769531e-01 4.100342e-01 8.227769e-06 8.441508e-06 -1.804531e-05 -4.639104e-05 -9.110107e-01 -4.439697e-01
2.101644e+08 8.759766e-01 4.113159e-01 1.815334e-05 4.821643e-05 -1.379102e-05 -2.313778e-05 -9.118042e-01 -4.443359e-01
2.103822e+08 8.760376e-01 4.111328e-01 4.315749e-06 -1.246296e-05 7.888768e-06 8.181203e-06 -9.116211e-01 -4.436035e-01
2.106000e+08 8.757935e-01 4.130859e-01 1.023058e-05 1.472421e-05 9.316485e-06 -1.679175e-06 -9.102783e-01 -4.448853e-01
2.108178e+08 8.748169e-01 4.130249e-01 7.785857e-06 4.181638e-05 -3.359281e-05 2.688542e-05 -9.104004e-01 -4.454956e-01
2.110356e+08 8.748169e-01 4.146118e-01 2.212822e-06 -1.040287e-05 -1.114327e-06 -6.207265e-06 -9.104614e-01 -4.450073e-01
2.112534e+08 8.749390e-01 4.149170e-01 -8.342788e-06 -9.872019e-08 1.132302e-05 -2.608076e-05 -9.105835e-01 -4.444580e-01
2.114712e+08 8.741455e-01 4.158936e-01 3.146753e-05 -1.422875e-05 -9.285286e-06 -1.594611e-05 -9.104614e-01 -4.448242e-01
2.116891e+08 8.742065e-01 4.171143e-01 -3.203750e-07 2.503581e-05 -9.389594e-06 3.694557e-05 -9.102783e-01 -4.447632e-01
2.119069e+08 8.731079e-01 4.180908e-01 -1.322478e-05 5.411357e-05 -8.232147e-05 -3.009290e-05 -9.104004e-01 -4.452515e-01
2.121247e+08 8.730469e-01 4.197388e-01 1.045596e-05 -1.954846e-06 2.928823e-05 2.038665e-05 -9.088745e-01 -4.454346e-01
2.123425e+08 8.737793e-01 4.194946e-01 1.903158e-05 -1.853984e-05 8.481089e-06 -6.337650e-06 -9.087524e-01 -4.461060e-01
2.125603e+08 8.734741e-01 4.205322e-01 1.247693e-05 4.341826e-06 -1.951400e-05 1.634005e-05 -9.090576e-01 -4.464722e-01
2.127781e+08 8.724976e-01 4.212036e-01 -3.572553e-05 1.833588e-05 2.062507e-05 -1.012255e-05 -9.083862e-01 -4.459229e-01
2.129959e+08 8.724976e-01 4.220581e-01 -8.461997e-06 8.240808e-06 -2.824143e-05 3.477558e-06 -9.082031e-01 -4.462891e-01
2.132138e+08 8.724976e-01 4.230347e-01 -2.094358e-05 3.892928e-06 -3.046915e-05 -2.660230e-05 -9.078369e-01 -4.468384e-01
2.134316e+08 8.724365e-01 4.234619e-01 -1.067482e-05 1.867302e-05 1.427718e-06 -9.888317e-06 -9.081421e-01 -4.462280e-01
2.136494e+08 8.715820e-01 4.238281e-01 6.658956e-06 -3.127940e-05 -1.926348e-05 3.553927e-05 -9.082642e-01 -4.464722e-01
2.138672e+08 8.712158e-01 4.250488e-01 -3.555976e-05 1.631677e-06 2.258644e-05 7.599592e-07 -9.075928e-01 -4.472656e-01
2.140850e+08 8.713379e-01 4.266968e-01 -1.459569e-05 -2.284534e-06 -1.466833e-05 -1.021475e-05 -9.065552e-01 -4.475708e-01
2.143028e+08 8.706665e-01 4.263916e-01 2.318993e-07 -1.672376e-05 -2.565421e-05 -1.784414e-05 -9.069824e-01 -4.478149e-01
2.145206e+08 8.713989e-01 4.272461e-01 -2.740882e-05 1.847371e-05 6.780028e-06 1.990702e-06 -9.066162e-01 -4.473267e-01
2.147384e+08 8.709106e-01 4.287109e-01 -6.021932e-05 -3.215298e-05 1.161359e-06 -1.144595e-05 -9.061279e-01 -4.478760e-01
2.149562e+08 8.705444e-01 4.287720e-01 -2.319552e-05 1.435913e-05 -1.531281e-05 2.201460e-05 -9.069824e-01 -4.477539e-01
2.151741e+08 8.698730e-01 4.295654e-01 -2.720580e-05 1.747161e-06 -1.781620e-05 8.014962e-06 -9.058228e-01 -4.476929e-01
2.153919e+08 8.704224e-01 4.306641e-01 -1.417473e-05 -3.571995e-05 3.311783e-05 -1.237728e-05 -9.049072e-01 -4.481201e-01
2.156097e+08 8.699341e-01 4.307251e-01 1.238286e-05 1.272280e-05 -1.531094e-05 2.202764e-05 -9.056396e-01 -4.489746e-01
2.158275e+08 8.697510e-01 4.319458e-01 -1.217797e-05 -2.946891e-05 -1.608580e-05 -1.798850e-05 -9.055786e-01 -4.489136e-01
2.160453e+08 8.699341e-01 4.326172e-01 -2.265535e-05 -2.752244e-05 -1.180917e-06 2.912246e-05 -9.049072e-01 -4.492798e-01
2.162631e+08 8.695068e-01 4.340820e-01 3.302842e-05 3.392436e-05 -4.548579e-05 -2.079457e-05 -9.044800e-01 -4.494019e-01
2.164809e+08 8.692017e-01 4.338379e-01 1.875032e-05 6.540678e-06 -2.880581e-05 -1.732819e-05 -9.039917e-01 -4.501953e-01
2.166988e+08 8.690186e-01 4.346313e-01 -2.042390e-05 -3.799796e-05 3.842451e-05 1.721270e-05 -9.042969e-01 -4.509277e-01
2.169166e+08 8.696289e-01 4.353027e-01 -1.751259e-05 5.837902e-05 -1.106411e-05 1.002476e-05 -9.035645e-01 -4.498291e-01
2.171344e+08 8.687744e-01 4.364624e-01 1.015328e-05 2.317131e-05 1.145527e-05 4.616752e-05 -9.032593e-01 -4.509277e-01
2.173522e+08 8.691406e-01 4.368896e-01 -3.339164e-05 -8.815899e-06 3.431551e-05 -2.384558e-05 -9.023438e-01 -4.508667e-01
2.175700e+08 8.690796e-01 4.380493e-01 -3.173202e-05 2.261996e-05 -2.559042e-06 3.674999e-06 -9.022217e-01 -4.515991e-01
2.177878e+08 8.674316e-01 4.375610e-01 1.709536e-05 -2.491288e-05 -3.678910e-05 9.797513e-06 -9.020386e-01 -4.514771e-01
2.180056e+08 8.683472e-01 4.390259e-01 -4.362315e-06 1.251232e-05 2.770871e-05 1.113303e-05 -9.015503e-01 -4.523315e-01
2.182234e+08 8.692627e-01 4.396973e-01 1.797453e-06 2.308004e-05 1.881458e-05 -3.879517e-05 -9.015503e-01 -4.520874e-01
2.184412e+08 8.684082e-01 4.400024e-01 -1.072697e-05 1.873169e-05 -1.112372e-05 2.774224e-05 -9.013672e-01 -4.526367e-01
2.186591e+08 8.683472e-01 4.410400e-01 2.917275e-05 1.297332e-05 -5.727634e-06 2.194941e-05 -9.006348e-01 -4.533081e-01
2.188769e+08 8.672485e-01 4.409790e-01 3.754348e-05 1.307204e-05 6.233808e-06 -1.115724e-06 -9.000244e-01 -4.527588e-01
2.190947e+08 8.684082e-01 4.427490e-01 -2.538227e-05 1.642667e-05 5.963258e-06 -2.676621e-06 -8.999023e-01 -4.532471e-01
2.193125e+08 8.671875e-01 4.434204e-01 -2.575293e-05 4.157424e-05 1.882389e-05 -3.877096e-05 -8.993530e-01 -4.545898e-01
2.195303e+08 8.672485e-01 4.437866e-01 -3.342517e-05 -8.855015e-06 1.973286e-05 3.832392e-05 -8.992310e-01 -4.538574e-01
2.197481e+08 8.673096e-01 4.439697e-01 -3.765710e-05 -4.721805e-06 4.619360e-07 3.855862e-05 -8.986206e-01 -4.545288e-01
2.199659e+08 8.675537e-01 4.447021e-01 -6.295741e-05 3.300607e-06 -2.981722e-05 1.341477e-05 -8.986206e-01 -4.552002e-01
2.201838e+08 8.672485e-01 4.453125e-01 -2.007000e-06 -6.321818e-06 -2.609566e-05 -1.767650e-06 -8.983765e-01 -4.553223e-01
2.204016e+08 8.670654e-01 4.459229e-01 -4.132977e-06 -4.252419e-06 -1.136865e-05 8.479692e-06 -8.975830e-01 -4.559937e-01
2.206194e+08 8.673096e-01 4.468384e-01 -1.192838e-05 -4.632026e-05 -2.014078e-05 -4.453585e-06 -8.975220e-01 -4.562988e-01
2.208372e+08 8.677979e-01 4.468384e-01 6.019138e-06 1.896266e-05 -1.273956e-05 -1.707114e-05 -8.969727e-01 -4.566040e-01
2.210550e+08 8.673096e-01 4.481201e-01 -1.679081e-05 -2.328306e-07 2.984703e-05 -1.341105e-05 -8.975830e-01 -4.567871e-01
2.212728e+08 8.674927e-01 4.485474e-01 6.263331e-05 2.187863e-05 -1.585390e-05 -1.651049e-05 -8.965454e-01 -4.572754e-01
2.214906e+08 8.669434e-01 4.493408e-01 4.253816e-06 -4.135305e-06 8.970499e-06 3.225543e-05 -8.960571e-01 -4.575195e-01
2.217084e+08 8.671265e-01 4.492798e-01 -2.529658e-05 8.031726e-06 -1.450535e-05 9.044074e-06 -8.956299e-01 -4.582520e-01
2.219262e+08 8.666382e-01 4.498901e-01 -5.039945e-05 -7.562339e-07 -3.237277e-06 -5.423650e-05 -8.958130e-01 -4.591675e-01
2.221441e+08 8.671265e-01 4.503174e-01 -1.240429e-05 -1.277775e-05 3.718957e-05 9.497628e-06 -8.949585e-01 -4.594727e-01
2.223619e+08 8.674316e-01 4.509277e-01 -4.588068e-05 -2.164394e-05 -3.509037e-05 3.854185e-05 -8.951416e-01 -4.598389e-01
2.225797e+08 8.668213e-01 4.509277e-01 1.029205e-05 1.484249e-05 4.112720e-06 -4.914030e-05 -8.945312e-01 -4.600830e-01
2.227975e+08 8.666382e-01 4.518433e-01 -1.420453e-05 -3.592297e-05 -4.067831e-05 7.234514e-06 -8.944092e-01 -4.607544e-01
2.230153e+08 8.668823e-01 4.528198e-01 1.846813e-05 3.176741e-05 -2.017803e-05 -4.479662e-06 -8.939819e-01 -4.608765e-01
2.232331e+08 8.663940e-01 4.529419e-01 3.137812e-05 1.095980e-05 1.000427e-05 -1.631677e-05 -8.941040e-01 -4.617310e-01
2.234509e+08 8.662109e-01 4.533081e-01 -4.137633e-06 -4.265923e-06 8.546282e-06 -6.373040e-06 -8.928833e-01 -4.630127e-01
2.236688e+08 8.665771e-01 4.537964e-01 -1.403689e-05 -4.434958e-05 4.270487e-05 -1.410209e-05 -8.927002e-01 -4.631348e-01
2.238866e+08 8.658447e-01 4.552612e-01 -1.919083e-05 1.862645e-05 1.565740e-05 -2.785586e-06 -8.922729e-01 -4.631958e-01
2.241044e+08 8.664551e-01 4.550171e-01 -2.059154e-05 -2.974086e-05 -3.071129e-05 -9.046867e-06 -8.926392e-01 -4.635010e-01
2.243222e+08 8.665771e-01 4.550171e-01 -2.510659e-05 -8.778647e-06 2.271123e-05 1.856312e-05 -8.922119e-01 -4.641113e-01
2.245400e+08 8.667603e-01 4.556885e-01 -7.703900e-06 -5.058199e-05 2.803281e-06 1.566950e-05 -8.920898e-01 -4.641113e-01
2.247578e+08 8.660889e-01 4.561157e-01 -2.573803e-05 3.322959e-05 7.838011e-06 4.386529e-05 -8.905640e-01 -4.654541e-01
2.249756e+08 8.656006e-01 4.564209e-01 8.644536e-06 -1.670234e-05 -5.931593e-06 -1.510233e-05 -8.912354e-01 -4.647827e-01
2.251934e+08 8.658447e-01 4.566650e-01 4.830956e-05 2.849847e-06 -5.939044e-06 -1.510698e-05 -8.900757e-01 -4.666138e-01
2.254112e+08 8.657227e-01 4.578857e-01 3.364496e-05 4.786998e-07 4.595611e-06 -1.052348e-05 -8.908081e-01 -4.656372e-01
2.256291e+08 8.657837e-01 4.583740e-01 -2.570450e-07 1.682155e-05 -2.076942e-05 -7.626601e-06 -8.896484e-01 -4.675293e-01
2.258469e+08 8.664551e-01 4.586182e-01 -3.563985e-05 -6.809831e-06 -2.197176e-05 3.913417e-06 -8.892212e-01 -4.669189e-01
2.260647e+08 8.655396e-01 4.593506e-01 -2.007000e-06 -6.342307e-06 3.333017e-05 5.403534e-06 -8.893433e-01 -4.685059e-01
2.262825e+08 8.654785e-01 4.603271e-01 4.848465e-05 -5.565584e-06 1.303852e-07 3.721938e-05 -8.891602e-01 -4.692993e-01
2.265003e+08 8.654785e-01 4.595947e-01 5.239248e-05 1.552328e-05 -3.429875e-05 2.553686e-05 -8.892212e-01 -4.699707e-01
2.267181e+08 8.663940e-01 4.598999e-01 1.896359e-05 -1.817010e-06 -4.260335e-06 -5.720649e-06 -8.884277e-01 -4.702148e-01
2.269359e+08 8.650513e-01 4.606934e-01 3.592111e-05 -9.929761e-06 4.142709e-05 -2.193078e-05 -8.873291e-01 -4.712524e-01
2.271538e+08 8.654175e-01 4.614868e-01 -1.444574e-05 -1.915731e-05 -6.628223e-06 1.738220e-05 -8.878174e-01 -4.709473e-01
2.273716e+08 8.655396e-01 4.617310e-01 2.672896e-07 -1.683831e-05 1.409277e-05 -3.005937e-05 -8.877563e-01 -4.720459e-01
2.275894e+08 8.654175e-01 4.617920e-01 1.684204e-05 2.635643e-07 6.501563e-06 1.828745e-05 -8.875122e-01 -4.725342e-01
2.278072e+08 8.649902e-01 4.619751e-01 -1.884624e-05 -6.613322e-06 -2.135523e-05 -1.078378e-05 -8.870850e-01 -4.734497e-01
2.280250e+08 8.655396e-01 4.624023e-01 3.299490e-05 4.263967e-05 -1.173746e-05 6.955117e-06 -8.861084e-01 -4.744263e-01
2.282428e+08 8.652344e-01 4.628906e-01 6.153248e-06 1.063570e-05 -1.251139e-05 -1.561828e-05 -8.867798e-01 -4.754639e-01
2.284606e+08 8.649902e-01 4.634399e-01 -1.697894e-05 8.153729e-06 2.809986e-05 -2.446026e-05 -8.856812e-01 -4.757080e-01
2.286784e+08 8.644409e-01 4.631958e-01 -2.942979e-05 -4.695728e-06 1.851283e-05 1.291838e-05 -8.859253e-01 -4.769287e-01
2.288962e+08 8.644409e-01 4.636230e-01 2.901256e-05 2.994388e-05 -1.852028e-05 -1.292676e-05 -8.853760e-01 -4.766235e-01
2.291141e+08 8.647461e-01 4.640503e-01 9.655952e-06 5.701557e-05 1.196098e-05 1.247320e-05 -8.850708e-01 -4.769897e-01
2.293319e+08 8.649292e-01 4.644775e-01 1.005456e-05 3.176369e-05 -7.977244e-06 -8.324627e-06 -8.854370e-01 -4.775391e-01
2.295497e+08 8.641357e-01 4.652100e-01 1.926720e-05 -1.865625e-05 2.064183e-05 -1.177657e-05 -8.847656e-01 -4.790039e-01
2.297675e+08 8.643188e-01 4.650879e-01 1.901016e-05 -1.805834e-06 -5.537644e-06 2.371520e-05 -8.851929e-01 -4.797974e-01
2.299853e+08 8.644409e-01 4.658813e-01 2.327375e-05 -5.971640e-06 -8.543953e-06 -1.148414e-05 -8.848877e-01 -4.794312e-01
2.302031e+08 8.649292e-01 4.657593e-01 -2.449751e-05 -5.096570e-05 -8.405186e-07 -4.729023e-06 -8.841553e-01 -4.804077e-01
2.304209e+08 8.637695e-01 4.658203e-01 -4.678965e-06 2.945028e-05 -2.238899e-05 2.023764e-05 -8.843384e-01 -4.811401e-01
2.306388e+08 8.641968e-01 4.656372e-01 -2.672896e-07 1.686532e-05 1.456682e-05 8.783303e-06 -8.837891e-01 -4.821167e-01
2.308566e+08 8.634644e-01 4.668579e-01 -2.288446e-05 -1.934171e-05 -2.956390e-05 1.662597e-05 -8.833618e-01 -4.824219e-01
2.310744e+08 8.634644e-01 4.672241e-01 8.707866e-06 -1.672469e-05 2.627075e-05 1.972541e-05 -8.832397e-01 -4.830322e-01
2.312922e+08 8.632202e-01 4.669800e-01 3.546663e-05 2.375990e-05 -1.416542e-05 3.015995e-05 -8.832397e-01 -4.837036e-01
2.315100e+08 8.635864e-01 4.675293e-01 -1.901388e-05 1.805834e-06 -4.900247e-05 -1.054257e-06 -8.835449e-01 -4.841309e-01
2.317278e+08 8.626099e-01 4.683228e-01 5.930662e-05 -1.591444e-05 -3.237277e-05 8.568168e-07 -8.830566e-01 -4.847412e-01
2.319456e+08 8.633423e-01 4.674072e-01 -2.582185e-05 3.334507e-05 -1.114514e-05 -7.781200e-06 -8.830566e-01 -4.847412e-01
2.321634e+08 8.630981e-01 4.680176e-01 8.162111e-06 1.701526e-05 5.189329e-06 -7.432420e-06 -8.829346e-01 -4.865112e-01
2.323812e+08 8.630371e-01 4.682617e-01 -4.554167e-06 2.101995e-05 -2.876157e-06 2.138084e-06 -8.825073e-01 -4.867554e-01
2.325991e+08 8.629150e-01 4.686279e-01 -4.687160e-05 2.879277e-05 -1.978129e-05 -1.370907e-06 -8.823242e-01 -4.873657e-01
2.328169e+08 8.622437e-01 4.685059e-01 -1.057982e-05 1.930632e-06 1.753494e-05 -1.125690e-05 -8.817139e-01 -4.884644e-01
2.330347e+08 8.614502e-01 4.692993e-01 -2.008863e-06 -6.356742e-06 3.715046e-05 2.596714e-05 -8.814087e-01 -4.882202e-01
2.332525e+08 8.621216e-01 4.692993e-01 2.761371e-05 -1.011789e-05 -1.670327e-05 1.599174e-05 -8.821411e-01 -4.899292e-01
2.334703e+08 8.610840e-01 4.700317e-01 -3.418326e-05 2.478249e-05 2.234243e-06 1.263153e-05 -8.818359e-01 -4.909058e-01
2.336881e+08 8.613892e-01 4.694824e-01 1.864508e-06 1.479965e-05 1.291838e-05 -6.575137e-07 -8.809204e-01 -4.916382e-01
2.339059e+08 8.623657e-01 4.691772e-01 3.617816e-05 -1.841225e-05 -2.846308e-05 5.064532e-06 -8.811035e-01 -4.920044e-01
2.341238e+08 8.604736e-01 4.700928e-01 -1.529045e-05 3.144704e-05 -4.304387e-05 -3.822148e-06 -8.818970e-01 -4.932861e-01
2.343416e+08 8.613892e-01 4.699707e-01 -1.487881e-05 6.094575e-06 8.163974e-06 -2.755225e-05 -8.811035e-01 -4.937744e-01
2.345594e+08 8.610840e-01 4.700928e-01 6.571412e-06 -1.467206e-05 6.682239e-06 -1.750607e-05 -8.809204e-01 -4.945068e-01
2.347772e+08 8.604736e-01 4.701538e-01 4.036725e-05 -1.411512e-05 4.005153e-06 4.184665e-06 -8.811035e-01 -4.953613e-01
2.349950e+08 8.593750e-01 4.713135e-01 -7.336587e-05 -3.711134e-05 -1.805089e-05 -9.857118e-06 -8.817749e-01 -4.954224e-01
2.352128e+08 8.597412e-01 4.708862e-01 -1.674518e-05 -8.725561e-06 7.811002e-06 -1.117494e-05 -8.806152e-01 -4.960938e-01
2.354306e+08 8.591919e-01 4.713745e-01 6.027520e-06 1.910143e-05 1.935754e-05 -1.973752e-05 -8.809814e-01 -4.964600e-01
2.356484e+08 8.593140e-01 4.713135e-01 -1.073442e-05 1.037773e-05 -3.018789e-05 -4.444271e-06 -8.804932e-01 -4.976807e-01
2.358662e+08 8.583984e-01 4.711304e-01 -1.675449e-05 -8.733012e-06 -3.876165e-06 3.332272e-05 -8.809204e-01 -4.984741e-01
2.360841e+08 8.585815e-01 4.718628e-01 -1.943298e-05 2.713874e-05 2.216361e-05 -3.928319e-06 -8.805542e-01 -4.982910e-01
2.363019e+08 8.576660e-01 4.721069e-01 2.363324e-05 -2.283230e-05 2.319925e-05 2.039596e-05 -8.804321e-01 -5.001831e-01
2.365197e+08 8.582764e-01 4.718018e-01 4.788116e-05 4.520640e-05 1.124572e-06 6.334856e-06 -8.813477e-01 -5.010376e-01
2.367375e+08 8.579102e-01 4.719238e-01 4.302710e-07 -2.535991e-05 2.197176e-05 -2.351403e-05 -8.808594e-01 -5.019531e-01
2.369553e+08 8.571777e-01 4.721680e-01 -1.462456e-05 -1.079682e-05 8.412171e-07 4.750909e-06 -8.812256e-01 -5.014038e-01
2.371731e+08 8.565674e-01 4.728394e-01 -8.453149e-06 -1.424924e-07 -2.161879e-05 7.080846e-06 -8.807983e-01 -5.027466e-01
2.373909e+08 8.566284e-01 4.720459e-01 -3.941730e-05 -4.501641e-05 -4.202314e-05 2.546236e-06 -8.807373e-01 -5.028687e-01
2.376088e+08 8.560791e-01 4.731445e-01 1.261197e-05 4.440546e-06 -8.020084e-06 -8.388422e-06 -8.810425e-01 -5.045776e-01
2.378266e+08 8.556519e-01 4.725952e-01 -1.219101e-05 -2.979860e-05 8.545816e-06 -4.402548e-05 -8.809814e-01 -5.047607e-01
2.380444e+08 8.547974e-01 4.725952e-01 -3.139302e-05 -1.955777e-05 -2.888963e-06 2.144836e-06 -8.809204e-01 -5.057373e-01
2.382622e+08 8.546143e-01 4.730835e-01 2.592988e-05 -3.342703e-05 -7.569790e-06 -4.279986e-05 -8.817139e-01 -5.062256e-01
2.384800e+08 8.547974e-01 4.724731e-01 -8.745119e-06 1.677126e-05 1.388416e-05 -1.391768e-05 -8.807373e-01 -5.075073e-01
2.386978e+08 8.534546e-01 4.729004e-01 -3.686920e-05 5.227327e-05 1.622271e-05 -1.922436e-05 -8.811646e-01 -5.085449e-01
2.389156e+08 8.532715e-01 4.733887e-01 -3.660098e-05 3.530271e-05 -1.052022e-05 3.295206e-05 -8.807983e-01 -5.090332e-01
2.391334e+08 8.526611e-01 4.741211e-01 -1.921970e-05 1.023430e-05 -2.641790e-05 -1.985580e-05 -8.806152e-01 -5.095825e-01
2.393512e+08 8.531494e-01 4.735718e-01 -1.692958e-05 -2.887100e-07 6.227940e-05 4.284084e-07 -8.817749e-01 -5.109253e-01
2.395691e+08 8.507690e-01 4.743652e-01 -2.783351e-05 1.857802e-05 -1.202803e-05 -1.260266e-05 -8.820190e-01 -5.107422e-01
2.397869e+08 8.513184e-01 4.739990e-01 1.708046e-06 2.331287e-05 -5.696900e-06 -1.372769e-05 -8.816528e-01 -5.122070e-01
2.400047e+08 8.515015e-01 4.737549e-01 -1.677126e-05 -8.755364e-06 -2.568588e-05 2.909452e-06 -8.810425e-01 -5.126953e-01
2.402225e+08 8.507690e-01 4.746094e-01 3.601052e-05 -1.490116e-06 -5.530939e-05 3.923476e-05 -8.820190e-01 -5.128784e-01
2.404403e+08 8.499146e-01 4.736328e-01 -1.632050e-05 -3.411248e-05 1.129508e-05 -1.018867e-05 -8.813477e-01 -5.134888e-01
2.406581e+08 8.504028e-01 4.749146e-01 2.251565e-05 4.483014e-05 1.768023e-05 4.441291e-05 -8.824463e-01 -5.147095e-01
2.408759e+08 8.490601e-01 4.744263e-01 -3.354996e-05 -1.753308e-05 -1.149997e-05 -9.432435e-06 -8.821411e-01 -5.158081e-01
2.410938e+08 8.488159e-01 4.755859e-01 1.098961e-06 5.716830e-05 -2.067536e-05 3.150664e-05 -8.826294e-01 -5.163574e-01
2.413116e+08 8.483887e-01 4.755249e-01 5.852431e-06 2.761558e-05 1.964066e-05 -1.788139e-07 -8.823242e-01 -5.170898e-01
2.415294e+08 8.482056e-01 4.744873e-01 -4.186854e-05 -2.611801e-05 3.489293e-05 1.184829e-05 -8.825073e-01 -5.169678e-01
2.417472e+08 8.474121e-01 4.754639e-01 3.385916e-05 5.960464e-07 -2.609566e-05 1.936778e-05 -8.831177e-01 -5.183105e-01
2.419650e+08 8.469238e-01 4.754639e-01 1.448207e-07 -8.463394e-06 2.777390e-05 -9.831041e-06 -8.833008e-01 -5.183105e-01
2.421828e+08 8.470459e-01 4.753418e-01 -4.582107e-07 2.539530e-05 -6.472692e-07 1.488160e-05 -8.830566e-01 -5.197144e-01
2.424006e+08 8.453979e-01 4.753418e-01 -1.923461e-05 1.024827e-05 -1.093745e-05 -6.267801e-06 -8.835449e-01 -5.203247e-01
2.426184e+08 8.458252e-01 4.752808e-01 4.261360e-05 -1.619756e-05 -2.821907e-07 -1.590466e-06 -8.836670e-01 -5.203247e-01
2.428362e+08 8.434448e-01 4.763794e-01 -2.182089e-05 3.773905e-05 1.981482e-05 1.944415e-05 -8.845215e-01 -5.206299e-01
2.430541e+08 8.441772e-01 4.769897e-01 -3.217719e-05 2.270378e-05 4.661083e-05 -1.479313e-05 -8.840942e-01 -5.224609e-01
2.432719e+08 8.433228e-01 4.769287e-01 -6.165355e-06 -1.070276e-05 1.057982e-05 2.274103e-05 -8.850708e-01 -5.224609e-01
2.434897e+08 8.427124e-01 4.768066e-01 -2.125278e-05 3.853813e-06 -1.833588e-05 2.620742e-05 -8.848877e-01 -5.230713e-01
2.437075e+08 8.423462e-01 4.768677e-01 -8.471776e-06 -1.545995e-07 -2.793968e-06 3.988296e-05 -8.846436e-01 -5.242920e-01
2.439253e+08 8.416748e-01 4.773560e-01 2.908520e-05 3.019907e-05 -1.807883e-05 -2.798438e-05 -8.842773e-01 -5.250854e-01
2.441431e+08 8.414917e-01 4.776611e-01 -2.773479e-06 3.596209e-05 1.124572e-06 6.372575e-06 -8.851929e-01 -5.252075e-01
2.443609e+08 8.406982e-01 4.777832e-01 -4.862621e-05 -3.028661e-06 1.714285e-05 -1.452304e-05 -8.840332e-01 -5.258179e-01
2.445788e+08 8.399658e-01 4.772339e-01 -2.572127e-05 1.647510e-05 2.799928e-05 9.812415e-06 -8.853760e-01 -5.264282e-01
2.447966e+08 8.393555e-01 4.774170e-01 -2.325326e-05 -2.535060e-06 -3.062934e-05 -6.081536e-06 -8.858032e-01 -5.265503e-01
2.450144e+08 8.392334e-01 4.777222e-01 -2.306886e-06 1.054909e-05 -2.192892e-05 -1.254864e-05 -8.859863e-01 -5.276489e-01
2.452322e+08 8.383789e-01 4.785767e-01 7.688999e-06 4.255772e-05 -1.500174e-05 -1.050625e-05 -8.870239e-01 -5.291748e-01
2.454500e+08 8.372803e-01 4.787598e-01 -1.510605e-05 1.456030e-05 -9.383075e-06 2.136081e-05 -8.872681e-01 -5.292358e-01
2.456678e+08 8.357544e-01 4.790039e-01 1.741946e-05 -2.510846e-05 5.662441e-05 -3.294647e-05 -8.870850e-01 -5.297852e-01
2.458856e+08 8.363037e-01 4.789429e-01 -1.109578e-05 2.736598e-05 -6.095506e-06 2.716202e-06 -8.879395e-01 -5.307007e-01
2.461034e+08 8.358154e-01 4.792480e-01 5.237758e-06 6.157532e-05 1.528766e-05 1.210067e-05 -8.881226e-01 -5.310669e-01
2.463212e+08 8.345337e-01 4.793701e-01 8.475501e-06 1.555309e-07 -3.781170e-07 1.650210e-05 -8.881836e-01 -5.314941e-01
2.465391e+08 8.342896e-01 4.798584e-01 5.935878e-05 1.087785e-06 2.505817e-05 -2.579205e-05 -8.888550e-01 -5.321045e-01
2.467569e+08 8.328247e-01 4.801025e-01 1.311861e-05 -2.095476e-05 1.574121e-05 3.338978e-05 -8.890381e-01 -5.325928e-01
2.469747e+08 8.333740e-01 4.802246e-01 -2.775900e-05 1.008250e-05 1.445226e-05 7.319264e-06 -8.894653e-01 -5.328979e-01
2.471925e+08 8.316650e-01 4.804688e-01 4.002824e-06 1.280475e-05 3.076531e-05 -1.200475e-05 -8.902588e-01 -5.340576e-01
2.474103e+08 8.311768e-01 4.812012e-01 -4.624575e-05 -2.209097e-05 -2.776459e-05 -8.273870e-06 -8.900757e-01 -5.344849e-01
2.476281e+08 8.308716e-01 4.810181e-01 -3.622659e-05 9.920448e-06 4.156679e-05 -2.541393e-05 -8.902588e-01 -5.343628e-01
2.478459e+08 8.297119e-01 4.812012e-01 1.001358e-05 3.201514e-05 -2.473965e-05 -2.853200e-05 -8.912964e-01 -5.350342e-01
2.480638e+08 8.296509e-01 4.821167e-01 -1.448486e-05 -1.937896e-05 3.300607e-06 -1.867674e-05 -8.916016e-01 -5.360718e-01
2.482816e+08 8.289185e-01 4.821777e-01 6.002374e-06 1.921970e-05 -2.543628e-05 -1.363270e-05 -8.921509e-01 -5.368042e-01
2.484994e+08 8.268433e-01 4.830933e-01 -3.226660e-05 2.275407e-05 1.651049e-05 3.986061e-07 -8.930054e-01 -5.368042e-01
2.487172e+08 8.275757e-01 4.827271e-01 5.071286e-10 9.606538e-12 -6.278977e-06 -1.699943e-05 -8.927002e-01 -5.375977e-01
2.489350e+08 8.258057e-01 4.836426e-01 -1.897849e-05 -6.741844e-06 8.737668e-06 -6.463379e-06 -8.927612e-01 -5.382690e-01
2.491528e+08 8.246460e-01 4.831543e-01 4.005618e-06 1.281407e-05 1.695007e-07 1.969654e-05 -8.934937e-01 -5.380249e-01
2.493706e+08 8.253174e-01 4.835815e-01 -3.211573e-05 1.425482e-05 -2.394617e-05 -2.378225e-05 -8.939209e-01 -5.386963e-01
2.495884e+08 8.240967e-01 4.843140e-01 1.930352e-05 -1.026224e-05 2.666749e-05 1.901761e-06 -8.942261e-01 -5.390015e-01
2.498062e+08 8.226929e-01 4.847412e-01 1.691282e-06 2.339482e-05 -1.623947e-05 1.195818e-06 -8.952637e-01 -5.392456e-01
2.500241e+08 8.229370e-01 4.846802e-01 -1.081266e-05 1.042522e-05 -5.974621e-05 -2.682209e-06 -8.955688e-01 -5.394287e-01
2.502419e+08 8.220825e-01 4.847412e-01 -6.331597e-06 -2.244953e-06 -1.474470e-05 -8.930452e-06 -8.959961e-01 -5.401001e-01
2.504597e+08 8.214722e-01 4.845581e-01 -3.844500e-06 -2.132542e-05 -9.108335e-06 2.301112e-05 -8.964844e-01 -5.410156e-01
2.506775e+08 8.210449e-01 4.859009e-01 -4.816428e-05 -3.710389e-05 3.544427e-05 -4.591420e-06 -8.969727e-01 -5.418701e-01
2.508953e+08 8.197021e-01 4.862061e-01 1.716334e-05 -8.173287e-06 1.691934e-05 -1.615845e-05 -8.977051e-01 -5.422363e-01
2.511131e+08 8.186035e-01 4.865723e-01 1.683086e-05 8.828007e-06 -2.025068e-05 -5.902722e-05 -8.975220e-01 -5.429077e-01
2.513309e+08 8.189087e-01 4.873657e-01 3.235415e-05 -2.272986e-05 9.038020e-06 -4.883856e-06 -8.981323e-01 -5.433350e-01
2.515488e+08 8.172607e-01 4.876099e-01 -1.780689e-05 4.216656e-05 -3.112853e-05 1.039542e-05 -8.986206e-01 -5.426025e-01
2.517666e+08 8.161621e-01 4.879761e-01 4.049018e-05 -5.587935e-06 1.794286e-05 8.388422e-06 -8.989868e-01 -5.435791e-01
2.519844e+08 8.161011e-01 4.881592e-01 1.516566e-05 -1.458637e-05 -1.588091e-05 -1.535099e-05 -8.997803e-01 -5.437012e-01
2.522022e+08 8.145752e-01 4.882812e-01 2.934970e-05 2.180785e-05 6.502494e-06 -1.925882e-05 -9.002075e-01 -5.433350e-01
2.524200e+08 8.145142e-01 4.888306e-01 -5.658343e-05 -4.571676e-05 1.823902e-05 9.981915e-06 -9.011841e-01 -5.441284e-01
2.526378e+08 8.135376e-01 4.893799e-01 -3.602728e-05 -7.068738e-06 8.409843e-07 4.794681e-06 -9.013672e-01 -5.449219e-01
2.528556e+08 8.126221e-01 4.900513e-01 -4.237145e-05 -9.324402e-06 1.126900e-05 7.914379e-06 -9.018555e-01 -5.448608e-01
2.530734e+08 8.114014e-01 4.900513e-01 -3.083795e-05 -5.381182e-05 2.803653e-05 -2.798438e-05 -9.019165e-01 -5.455322e-01
2.532912e+08 8.104858e-01 4.901733e-01 1.936592e-05 -1.027249e-05 3.295019e-05 1.893193e-05 -9.037476e-01 -5.462036e-01
2.535091e+08 8.110962e-01 4.904785e-01 4.487857e-05 -9.775162e-06 3.480352e-05 1.036003e-05 -9.035034e-01 -5.457153e-01
2.537269e+08 8.097534e-01 4.914551e-01 1.934636e-05 -1.027621e-05 -2.642907e-05 -3.166497e-07 -9.040527e-01 -5.454712e-01
2.539447e+08 8.087769e-01 4.918213e-01 -1.853146e-05 -3.227033e-05 -1.487136e-05 9.197742e-06 -9.042969e-01 -5.457153e-01
2.541625e+08 8.070068e-01 4.926147e-01 -2.955273e-05 -1.333468e-05 -1.418218e-05 -5.758367e-06 -9.051514e-01 -5.465088e-01
2.543803e+08 8.073730e-01 4.931030e-01 4.839152e-06 -2.972968e-05 -4.553050e-05 -1.510233e-05 -9.055176e-01 -5.468140e-01
2.545981e+08 8.059082e-01 4.943848e-01 -3.833324e-06 -2.138689e-05 -9.724870e-06 1.982879e-05 -9.063110e-01 -5.474854e-01
2.548159e+08 8.054199e-01 4.945068e-01 1.434237e-05 2.796575e-05 -2.088211e-05 -6.238930e-06 -9.058228e-01 -5.473022e-01
2.550338e+08 8.048096e-01 4.944458e-01 8.178875e-06 1.722295e-05 2.615899e-05 -1.305714e-06 -9.073486e-01 -5.479736e-01
2.552516e+08 8.034058e-01 4.949341e-01 -5.110726e-05 -1.020730e-06 -5.823374e-05 2.504885e-05 -9.070435e-01 -5.475464e-01
2.554694e+08 8.026733e-01 4.957886e-01 -5.947798e-05 -9.696931e-06 -2.379529e-05 -4.081056e-06 -9.078369e-01 -5.472412e-01
2.556872e+08 8.018799e-01 4.961548e-01 -8.519739e-06 -1.681037e-07 -1.711585e-05 -3.599562e-06 -9.085083e-01 -5.470581e-01
2.559050e+08 8.007202e-01 4.962769e-01 -1.035817e-05 -1.512561e-05 1.166854e-05 -8.639880e-06 -9.089355e-01 -5.474854e-01
2.561228e+08 8.003540e-01 4.973755e-01 -9.506941e-06 5.095452e-05 -4.440919e-05 -8.702278e-06 -9.093628e-01 -5.468750e-01
2.563406e+08 7.997437e-01 4.979248e-01 -3.643706e-05 9.963289e-06 3.320165e-06 -1.872983e-05 -9.103394e-01 -5.474854e-01
2.565584e+08 7.988892e-01 4.984741e-01 2.057664e-05 3.876910e-05 -8.926727e-06 -1.327880e-05 -9.107666e-01 -5.483398e-01
2.567762e+08 7.974854e-01 4.989624e-01 -6.353483e-06 -2.256129e-06 1.584738e-05 -2.254918e-05 -9.111938e-01 -5.481567e-01
2.569941e+08 7.975464e-01 4.994507e-01 3.057905e-05 -3.781170e-05 -3.005937e-05 1.681410e-05 -9.120483e-01 -5.479736e-01
2.572119e+08 7.968140e-01 5.000000e-01 -1.673773e-05 -1.738966e-05 2.966076e-05 -2.309680e-07 -9.127197e-01 -5.481567e-01
2.574297e+08 7.948608e-01 5.009766e-01 2.107956e-05 1.319870e-05 -4.134327e-05 8.847564e-06 -9.125366e-01 -5.482178e-01
2.576475e+08 7.939453e-01 5.010986e-01 -6.645173e-05 1.362339e-05 1.583942e-10 -2.252847e-10 -9.135742e-01 -5.488281e-01
2.578653e+08 7.937622e-01 5.015869e-01 3.614277e-05 7.124618e-06 1.293235e-05 -2.040341e-05 -9.137573e-01 -5.491943e-01
2.580831e+08 7.928467e-01 5.025635e-01 -2.495944e-05 -3.464147e-05 2.409518e-05 5.701557e-06 -9.147339e-01 -5.486450e-01
2.583009e+08 7.918701e-01 5.029907e-01 -5.019456e-05 -5.223230e-05 -6.963499e-06 -2.085697e-06 -9.146729e-01 -5.487061e-01
2.585188e+08 7.910156e-01 5.047607e-01 -2.526678e-06 1.916848e-05 -1.365226e-05 -2.576970e-06 -9.154663e-01 -5.488892e-01
2.587366e+08 7.901001e-01 5.047607e-01 1.672469e-05 1.740456e-05 2.882071e-05 -5.027279e-06 -9.152222e-01 -5.480957e-01
2.589544e+08 7.887573e-01 5.057373e-01 -3.417023e-05 -6.835908e-07 -3.071502e-06 2.032891e-05 -9.166870e-01 -5.486450e-01
2.591722e+08 7.892456e-01 5.059204e-01 -1.289882e-05 4.014000e-06 4.415214e-05 -3.080815e-05 -9.169922e-01 -5.485840e-01
2.593900e+08 7.882080e-01 5.072021e-01 2.513453e-05 2.611801e-05 -2.592243e-05 -3.512390e-05 -9.177246e-01 -5.476685e-01
2.596078e+08 7.869873e-01 5.069580e-01 1.685694e-07 -8.544885e-06 7.949769e-06 2.666190e-05 -9.176636e-01 -5.477905e-01
2.598256e+08 7.857666e-01 5.077515e-01 2.144650e-05 -3.855675e-06 5.295500e-06 3.042258e-05 -9.182129e-01 -5.477905e-01
2.600434e+08 7.861328e-01 5.078125e-01 1.726393e-05 -8.212402e-06 2.006628e-05 1.434237e-06 -9.184570e-01 -5.482178e-01
2.602612e+08 7.852783e-01 5.097656e-01 7.349998e-06 6.005540e-05 -4.739035e-06 1.073442e-05 -9.195557e-01 -5.482788e-01
2.604791e+08 7.839966e-01 5.093994e-01 -2.146885e-05 3.842637e-06 -5.003996e-06 9.127427e-06 -9.197998e-01 -5.480347e-01
2.606969e+08 7.827759e-01 5.108643e-01 -1.978688e-05 2.741814e-05 -2.493523e-05 -1.051649e-05 -9.202271e-01 -5.470581e-01
2.609147e+08 7.823486e-01 5.114746e-01 -6.580725e-05 -2.915040e-05 1.142174e-05 -1.025014e-05 -9.213257e-01 -5.477905e-01
2.611325e+08 7.810059e-01 5.125732e-01 1.239590e-05 2.163462e-05 -2.047233e-05 -2.286024e-05 -9.209595e-01 -5.473633e-01
2.613503e+08 7.814331e-01 5.128784e-01 -8.214265e-06 -1.727510e-05 1.017703e-05 1.528300e-06 -9.215088e-01 -5.467529e-01
2.615681e+08 7.801514e-01 5.136719e-01 2.199039e-05 -2.953596e-05 -1.854077e-05 -1.163036e-05 -9.226074e-01 -5.465088e-01
2.617859e+08 7.789917e-01 5.147095e-01 1.743715e-05 -1.677312e-05 1.477450e-05 -2.898090e-05 -9.219971e-01 -5.462646e-01
2.620038e+08 7.780151e-01 5.152588e-01 -6.213784e-06 -1.081731e-05 -1.811329e-05 9.750947e-06 -9.229126e-01 -5.452271e-01
2.622216e+08 7.778931e-01 5.161743e-01 8.729286e-06 -8.397736e-06 3.680401e-05 2.166815e-05 -9.240112e-01 -5.462036e-01
2.624394e+08 7.771606e-01 5.177002e-01 1.695193e-05 8.921139e-06 -4.560500e-05 2.280623e-05 -9.238892e-01 -5.467529e-01
2.626572e+08 7.763062e-01 5.178833e-01 -8.730218e-06 8.385628e-06 -7.810537e-06 -6.907620e-06 -9.237671e-01 -5.454712e-01
2.628750e+08 7.752686e-01 5.186768e-01 -2.567284e-05 -5.308539e-07 -1.756847e-05 1.294725e-05 -9.237061e-01 -5.456543e-01
2.630928e+08 7.745972e-01 5.189819e-01 -1.020916e-05 -2.377667e-05 4.999340e-06 2.884306e-05 -9.245605e-01 -5.455933e-01
2.633106e+08 7.736816e-01 5.201416e-01 -3.409758e-05 -9.281561e-06 -9.212643e-06 2.305396e-05 -9.254150e-01 -5.454102e-01
2.635284e+08 7.734375e-01 5.203247e-01 1.327507e-05 -2.115965e-05 -3.748760e-05 3.128871e-05 -9.255981e-01 -5.443115e-01
2.637462e+08 7.713013e-01 5.215454e-01 -1.914706e-05 -6.821938e-06 1.087971e-05 -1.343060e-05 -9.258423e-01 -5.442505e-01
2.639641e+08 7.715454e-01 5.227661e-01 2.010725e-06 6.466173e-06 4.157051e-05 -2.700090e-05 -9.257812e-01 -5.435181e-01
2.641819e+08 7.713623e-01 5.231934e-01 2.264604e-05 4.545227e-05 -4.473142e-06 1.233909e-05 -9.263306e-01 -5.430908e-01
2.643997e+08 7.698364e-01 5.240479e-01 -2.790056e-05 1.570210e-06 3.359839e-05 -1.573376e-05 -9.266968e-01 -5.429688e-01
2.646175e+08 7.698975e-01 5.246582e-01 1.933519e-05 -1.756474e-06 -1.424924e-07 1.819525e-05 -9.274292e-01 -5.426025e-01
2.648353e+08 7.680054e-01 5.258789e-01 -1.714099e-05 -3.343448e-07 -4.036585e-06 -4.255213e-06 -9.271851e-01 -5.411377e-01
2.650531e+08 7.681274e-01 5.266113e-01 -2.389587e-05 1.454167e-05 3.836118e-05 -2.647564e-05 -9.276733e-01 -5.418701e-01
2.652709e+08 7.675171e-01 5.276489e-01 -6.239861e-05 9.454787e-06 -1.490489e-05 -2.880953e-05 -9.273682e-01 -5.415039e-01
2.654888e+08 7.667847e-01 5.285034e-01 -2.017245e-06 -6.478280e-06 2.500601e-06 1.444109e-05 -9.283447e-01 -5.404663e-01
2.657066e+08 7.658691e-01 5.290527e-01 2.338924e-05 1.119077e-05 -7.804949e-06 -6.908085e-06 -9.282837e-01 -5.404663e-01
2.659244e+08 7.651978e-01 5.300903e-01 4.710630e-06 -2.137199e-05 6.970949e-06 2.100598e-06 -9.284668e-01 -5.396118e-01
2.661422e+08 7.644653e-01 5.305176e-01 -2.204627e-05 2.960861e-05 1.323782e-05 1.917407e-05 -9.284668e-01 -5.391846e-01
2.663600e+08 7.637939e-01 5.321045e-01 2.541579e-06 -1.926534e-05 -2.289563e-05 2.049282e-05 -9.285278e-01 -5.389404e-01
2.665778e+08 7.633667e-01 5.329590e-01 1.296494e-05 -4.035421e-06 -4.323199e-06 -5.863141e-06 -9.293823e-01 -5.383301e-01
2.667956e+08 7.630005e-01 5.336914e-01 -1.314282e-05 1.261942e-05 -2.373569e-05 1.568533e-05 -9.295044e-01 -5.377808e-01
2.670134e+08 7.619019e-01 5.354004e-01 -2.374873e-05 5.938113e-06 7.081777e-06 2.192520e-05 -9.288940e-01 -5.383301e-01
2.672312e+08 7.608643e-01 5.351562e-01 -1.937803e-05 1.751818e-06 4.506484e-05 -2.599508e-05 -9.299316e-01 -5.375977e-01
2.674491e+08 7.609253e-01 5.364990e-01 4.732981e-06 -2.139807e-05 -2.652220e-05 -3.706664e-07 -9.303589e-01 -5.364990e-01
2.676669e+08 7.597046e-01 5.377197e-01 1.019612e-05 -7.716566e-05 -2.008770e-05 -1.486391e-06 -9.301147e-01 -5.366821e-01
2.678847e+08 7.587891e-01 5.377808e-01 2.209470e-05 -2.963655e-05 -1.253001e-05 -3.417581e-05 -9.301147e-01 -5.358887e-01
2.681025e+08 7.587280e-01 5.394287e-01 -5.136940e-10 -1.037392e-11 1.759548e-05 -1.295097e-05 -9.307251e-01 -5.357056e-01
2.683203e+08 7.579346e-01 5.401611e-01 -3.499910e-06 -3.875047e-05 2.539344e-05 -6.036833e-06 -9.298096e-01 -5.350952e-01
2.685381e+08 7.565308e-01 5.403442e-01 -2.930686e-05 -3.931299e-05 -4.755333e-06 1.072604e-05 -9.306641e-01 -5.347290e-01
2.687559e+08 7.570190e-01 5.419312e-01 -1.922902e-05 -6.839633e-06 8.293428e-07 4.817266e-06 -9.312134e-01 -5.341797e-01
2.689738e+08 7.557373e-01 5.428467e-01 -2.375804e-06 1.071393e-05 -1.494680e-05 9.178184e-06 -9.312134e-01 -5.342407e-01
2.691916e+08 7.549438e-01 5.437012e-01 -2.345070e-05 -1.124293e-05 2.933433e-06 -2.156943e-06 -9.314575e-01 -5.333252e-01
2.694094e+08 7.551270e-01 5.448608e-01 -8.430332e-06 -8.793082e-06 -2.956204e-05 -1.805648e-05 -9.315186e-01 -5.336304e-01
2.696272e+08 7.543945e-01 5.451050e-01 -1.417845e-05 -4.546717e-05 -3.595836e-06 -2.087373e-05 -9.310913e-01 -5.313110e-01
2.698450e+08 7.536621e-01 5.465088e-01 -2.371147e-06 1.071393e-05 9.906944e-06 -4.936010e-08 -9.310303e-01 -5.314941e-01
2.700628e+08 7.537842e-01 5.486450e-01 3.495254e-05 -2.512150e-05 1.230650e-05 -5.426817e-06 -9.301147e-01 -5.310669e-01
2.702806e+08 7.517700e-01 5.488892e-01 3.222190e-05 2.818182e-06 -2.862513e-05 6.573275e-06 -9.299316e-01 -5.302124e-01
2.704984e+08 7.518921e-01 5.494385e-01 4.324690e-05 -7.733703e-06 1.201406e-05 -7.034279e-06 -9.306030e-01 -5.300293e-01
2.707162e+08 7.501831e-01 5.509644e-01 -8.611474e-06 -1.797453e-07 8.529052e-06 -8.069444e-06 -9.300537e-01 -5.294800e-01
2.709341e+08 7.512207e-01 5.510864e-01 -4.215632e-06 -4.396774e-06 6.305985e-06 -2.093706e-05 -9.300537e-01 -5.290527e-01
2.711519e+08 7.501831e-01 5.523071e-01 -1.503248e-05 -2.466142e-06 7.091090e-06 2.192520e-05 -9.302979e-01 -5.283203e-01
2.713697e+08 7.492676e-01 5.534668e-01 1.213886e-05 3.902055e-05 2.452172e-05 2.718344e-05 -9.301147e-01 -5.270386e-01
2.715875e+08 7.487793e-01 5.541382e-01 -4.477426e-05 -2.462044e-05 4.605204e-05 -1.315027e-06 -9.304810e-01 -5.268555e-01
2.718053e+08 7.482300e-01 5.552979e-01 1.802109e-07 -8.623581e-06 -2.258830e-05 -1.595356e-05 -9.304199e-01 -5.265503e-01
2.720231e+08 7.489014e-01 5.564575e-01 4.311278e-05 8.866191e-07 -6.428920e-06 1.108274e-06 -9.303589e-01 -5.264893e-01
2.722409e+08 7.477417e-01 5.574951e-01 4.401896e-06 -4.223781e-06 2.120994e-05 7.934868e-06 -9.301147e-01 -5.255127e-01
2.724588e+08 7.471313e-01 5.581665e-01 3.399327e-07 -1.724716e-05 -8.977950e-06 2.469867e-05 -9.301758e-01 -5.241699e-01
2.726766e+08 7.467041e-01 5.598145e-01 -6.423797e-06 -2.285931e-06 -5.334988e-05 -2.406538e-06 -9.296265e-01 -5.239868e-01
2.728944e+08 7.468872e-01 5.603027e-01 3.100187e-05 -3.821403e-05 -7.372350e-06 -2.355501e-05 -9.298706e-01 -5.237427e-01
2.731122e+08 7.457275e-01 5.612183e-01 -1.285411e-05 -4.578382e-06 -2.010725e-05 -1.501292e-06 -9.294434e-01 -5.228271e-01
2.733300e+08 7.445679e-01 5.625610e-01 3.045052e-05 -1.232140e-05 1.982599e-05 -5.793944e-05 -9.288940e-01 -5.220337e-01
2.735478e+08 7.451172e-01 5.633545e-01 -1.488253e-05 -1.110788e-05 -4.443899e-05 1.095608e-05 -9.288940e-01 -5.225830e-01
2.737656e+08 7.442017e-01 5.643311e-01 -2.627261e-05 1.672097e-05 -2.183951e-05 2.688728e-05 -9.288940e-01 -5.225830e-01
2.739834e+08 7.442627e-01 5.655518e-01 -4.049391e-06 -1.303945e-05 -1.295935e-05 -1.762435e-05 -9.284668e-01 -5.213623e-01
2.742012e+08 7.438354e-01 5.667114e-01 -2.937391e-06 3.664009e-05 1.010206e-05 -1.828186e-05 -9.279785e-01 -5.204468e-01
2.744191e+08 7.429199e-01 5.678101e-01 2.571009e-05 9.197742e-06 8.077361e-06 8.541159e-06 -9.275513e-01 -5.202637e-01
2.746369e+08 7.420044e-01 5.688477e-01 -1.840293e-06 -1.516100e-05 -3.213994e-06 5.487818e-07 -9.278564e-01 -5.197144e-01
2.748547e+08 7.415771e-01 5.688477e-01 2.166256e-05 -3.859401e-06 -5.419366e-06 -1.229346e-05 -9.264526e-01 -5.183716e-01
2.750725e+08 7.416382e-01 5.711670e-01 6.029755e-05 9.886920e-06 -5.454198e-05 -2.874807e-05 -9.273682e-01 -5.184937e-01
2.752903e+08 7.415771e-01 5.714722e-01 4.405854e-06 -4.231231e-06 2.022088e-05 2.134684e-05 -9.263916e-01 -5.172729e-01
2.755081e+08 7.398682e-01 5.722046e-01 1.600012e-05 -4.071370e-05 1.981948e-05 -9.313226e-08 -9.256592e-01 -5.180054e-01
2.757259e+08 7.402344e-01 5.738525e-01 1.894496e-05 2.416037e-05 -3.885850e-05 4.993752e-06 -9.254150e-01 -5.167236e-01
2.759438e+08 7.395020e-01 5.749512e-01 -3.271364e-05 1.444295e-05 1.924112e-06 1.124945e-05 -9.248047e-01 -5.161133e-01
2.761616e+08 7.393799e-01 5.750732e-01 -1.269113e-05 -1.322292e-05 -4.865229e-06 -9.089243e-06 -9.244995e-01 -5.148315e-01
2.763794e+08 7.390137e-01 5.772705e-01 -1.692213e-05 -1.764484e-05 2.783909e-05 -1.137331e-05 -9.241333e-01 -5.145874e-01
2.765972e+08 7.388916e-01 5.773926e-01 -1.304783e-05 4.049391e-06 -4.648417e-05 -2.014637e-05 -9.230957e-01 -5.145264e-01
2.768150e+08 7.377930e-01 5.782471e-01 -3.887340e-06 -2.169982e-05 3.508478e-05 -7.653609e-06 -9.237671e-01 -5.134277e-01
2.770328e+08 7.373657e-01 5.801392e-01 -1.048669e-05 -1.535472e-05 -3.758073e-05 -6.807968e-06 -9.226074e-01 -5.136108e-01
2.772506e+08 7.374268e-01 5.803223e-01 -2.999231e-05 -1.360849e-05 -8.078292e-06 -8.543488e-06 -9.226074e-01 -5.129395e-01
2.774684e+08 7.370605e-01 5.812378e-01 -2.043694e-05 4.495680e-05 2.342649e-05 -3.710575e-05 -9.212646e-01 -5.130005e-01
2.776862e+08 7.367554e-01 5.817261e-01 3.070198e-05 -2.101064e-05 -1.185201e-05 -1.119915e-05 -9.218750e-01 -5.114136e-01
2.779041e+08 7.362061e-01 5.844116e-01 2.354197e-05 1.132675e-05 -6.631017e-06 1.934543e-05 -9.204102e-01 -5.120850e-01
2.781219e+08 7.357788e-01 5.842285e-01 -2.594478e-05 -5.811453e-07 -2.066605e-05 -4.734844e-06 -9.199219e-01 -5.112915e-01
2.783397e+08 7.354736e-01 5.848999e-01 -6.819144e-06 1.499895e-05 -1.873169e-05 6.526709e-06 -9.199829e-01 -5.109863e-01
2.785575e+08 7.347412e-01 5.870972e-01 -3.166683e-05 -3.746524e-05 2.669403e-06 -3.761379e-06 -9.198608e-01 -5.096436e-01
2.787753e+08 7.349243e-01 5.870361e-01 3.095716e-06 -4.535541e-05 3.487989e-05 -4.734844e-05 -9.189453e-01 -5.083008e-01
2.789931e+08 7.335205e-01 5.888672e-01 -1.049042e-05 -1.537800e-05 3.464520e-07 2.143066e-05 -9.184570e-01 -5.092163e-01
2.792109e+08 7.346191e-01 5.894165e-01 -3.000721e-05 -1.363456e-05 1.111068e-05 2.622604e-05 -9.177246e-01 -5.087891e-01
2.794288e+08 7.336426e-01 5.904541e-01 -1.565181e-05 2.345629e-05 -2.434477e-05 1.242571e-05 -9.168091e-01 -5.079346e-01
2.796466e+08 7.343750e-01 5.914917e-01 9.216368e-06 -2.576970e-05 -1.101755e-06 -6.433576e-06 -9.161377e-01 -5.079956e-01
2.798644e+08 7.344971e-01 5.925293e-01 3.830902e-05 3.113970e-05 1.010764e-05 -1.829118e-05 -9.165039e-01 -5.076294e-01
2.800822e+08 7.337646e-01 5.935059e-01 -2.759323e-05 -2.441742e-05 1.812540e-05 -2.958998e-05 -9.148560e-01 -5.071411e-01
2.803000e+08 7.336426e-01 5.945435e-01 2.616271e-05 -8.108094e-06 -3.924035e-05 -1.647137e-05 -9.152832e-01 -5.064087e-01
2.805178e+08 7.332153e-01 5.962524e-01 3.260188e-05 -5.787238e-06 1.232885e-05 -5.413778e-06 -9.136353e-01 -5.063477e-01
2.807356e+08 7.325439e-01 5.967407e-01 9.033829e-06 -1.713540e-05 -1.492165e-05 2.903119e-05 -9.135132e-01 -5.062866e-01
2.809534e+08 7.324219e-01 5.977173e-01 1.897290e-05 2.424419e-05 -2.909638e-05 4.303828e-05 -9.128418e-01 -5.057373e-01
2.811712e+08 7.320557e-01 5.986938e-01 -2.359040e-05 -1.134537e-05 5.504116e-05 1.213327e-05 -9.124756e-01 -5.053711e-01
2.813891e+08 7.323608e-01 5.993652e-01 -7.197261e-06 3.235042e-05 1.498871e-05 -9.189360e-06 -9.116211e-01 -5.048218e-01
2.816069e+08 7.328491e-01 6.007080e-01 -3.522635e-05 2.520718e-05 -1.417194e-05 1.402665e-05 -9.102783e-01 -5.050049e-01
2.818247e+08 7.319336e-01 6.021118e-01 1.841038e-05 5.021319e-05 -1.802575e-05 -8.521602e-06 -9.101562e-01 -5.043945e-01
2.820425e+08 7.310791e-01 6.030884e-01 5.792826e-07 -2.596341e-05 -1.185201e-05 -1.122709e-05 -9.087524e-01 -5.034180e-01
2.822603e+08 7.312622e-01 6.040039e-01 -1.106877e-05 1.058355e-05 6.163027e-06 -2.707355e-06 -9.087524e-01 -5.038452e-01
2.824781e+08 7.309570e-01 6.053467e-01 4.233327e-06 4.424946e-06 -4.793517e-06 1.075724e-05 -9.080200e-01 -5.028687e-01
2.826959e+08 7.309570e-01 6.063232e-01 -1.548883e-05 1.480617e-05 -1.425575e-05 -5.850568e-06 -9.063110e-01 -5.027466e-01
2.829138e+08 7.305298e-01 6.064453e-01 -3.244542e-05 -2.890825e-06 -2.040807e-05 -3.143214e-06 -9.068604e-01 -5.025635e-01
2.831316e+08 7.307739e-01 6.082764e-01 4.309416e-05 9.611249e-06 -2.302602e-05 2.050027e-05 -9.053955e-01 -5.016479e-01
2.833494e+08 7.306519e-01 6.088257e-01 -1.006573e-05 6.042421e-05 5.543232e-06 -2.579764e-05 -9.045410e-01 -5.027466e-01
2.835672e+08 7.307129e-01 6.104126e-01 8.470844e-06 8.857343e-06 5.492475e-07 3.222376e-06 -9.045410e-01 -5.015869e-01
2.837850e+08 7.300415e-01 6.106567e-01 8.659437e-06 1.909211e-07 1.821015e-05 -9.727664e-06 -9.035034e-01 -5.006714e-01
2.840028e+08 7.304688e-01 6.119995e-01 1.490954e-05 1.116470e-05 -1.432374e-06 -2.792664e-05 -9.023438e-01 -5.006714e-01
2.842206e+08 7.300415e-01 6.124268e-01 -5.659088e-05 1.170114e-05 7.109717e-06 -3.599375e-05 -9.015503e-01 -5.010376e-01
2.844384e+08 7.293091e-01 6.131592e-01 7.864088e-06 3.483519e-05 -3.334135e-05 -2.081320e-05 -9.004517e-01 -5.004272e-01
2.846562e+08 7.296753e-01 6.148071e-01 1.068600e-05 6.742775e-06 3.467128e-05 9.018928e-06 -9.003296e-01 -5.006104e-01
2.848741e+08 7.295532e-01 6.157227e-01 1.029298e-05 2.405792e-05 -3.843941e-05 -1.168996e-05 -8.992920e-01 -4.998169e-01
2.850919e+08 7.293701e-01 6.162109e-01 3.649108e-05 1.598150e-05 -3.821962e-05 -2.993271e-05 -8.991089e-01 -4.995117e-01
2.853097e+08 7.297363e-01 6.166992e-01 6.848946e-06 -1.501106e-05 -7.262919e-06 -3.729481e-06 -8.976440e-01 -5.005493e-01
2.855275e+08 7.295532e-01 6.184082e-01 -2.396852e-05 5.956739e-06 1.500919e-05 -9.190291e-06 -8.967896e-01 -4.998779e-01
2.857453e+08 7.288208e-01 6.194458e-01 4.373863e-05 -1.636520e-05 1.761876e-05 -3.282167e-05 -8.968506e-01 -5.001221e-01
2.859631e+08 7.285156e-01 6.202393e-01 -5.582720e-05 -2.296641e-05 1.664646e-05 4.945323e-07 -8.951416e-01 -4.996338e-01
2.861809e+08 7.290039e-01 6.209717e-01 -4.414469e-05 3.366545e-05 9.598210e-06 -2.152100e-05 -8.943481e-01 -4.998169e-01
2.863988e+08 7.292480e-01 6.221313e-01 -1.550931e-05 1.480803e-05 -8.367933e-06 -1.018401e-05 -8.930054e-01 -4.993286e-01
2.866166e+08 7.290039e-01 6.228638e-01 -2.015755e-05 2.771802e-05 -1.535844e-05 -1.231022e-05 -8.925171e-01 -4.993896e-01
2.868344e+08 7.289429e-01 6.240234e-01 2.758764e-05 2.446212e-05 5.144160e-06 1.073210e-05 -8.908081e-01 -4.989014e-01
2.870522e+08 7.292480e-01 6.252441e-01 -8.054078e-06 -2.620183e-05 9.557232e-06 -4.143827e-05 -8.906860e-01 -4.990234e-01
2.872700e+08 7.288818e-01 6.262207e-01 -1.551490e-05 1.482293e-05 1.563691e-05 1.393724e-05 -8.904419e-01 -4.985352e-01
2.874878e+08 7.288818e-01 6.270752e-01 -1.169182e-05 3.660098e-05 -1.606159e-05 2.263486e-05 -8.896484e-01 -4.992676e-01
2.877056e+08 7.278442e-01 6.273193e-01 1.471676e-05 1.984835e-05 -1.239870e-05 -1.446996e-05 -8.882446e-01 -4.986572e-01
2.879234e+08 7.292480e-01 6.284180e-01 -3.203005e-05 -2.023019e-05 1.784042e-05 -5.115569e-05 -8.868408e-01 -4.982910e-01
2.881412e+08 7.286987e-01 6.297607e-01 -4.230533e-06 -4.436821e-06 4.389882e-05 2.405792e-05 -8.862915e-01 -4.990234e-01
2.883591e+08 7.293091e-01 6.303101e-01 -1.793168e-05 2.560578e-05 -1.558475e-05 5.975366e-06 -8.859253e-01 -4.985962e-01
2.885769e+08 7.293701e-01 6.310425e-01 3.345683e-05 -4.042313e-05 3.431924e-06 -1.884904e-05 -8.847656e-01 -4.989014e-01
2.887947e+08 7.291260e-01 6.320801e-01 -5.029142e-06 3.021955e-05 -4.153699e-07 3.658608e-05 -8.833618e-01 -4.982300e-01
2.890125e+08 7.286377e-01 6.325684e-01 9.068288e-06 -1.713727e-05 -3.869273e-05 6.550923e-06 -8.835449e-01 -4.982300e-01
2.892303e+08 7.290039e-01 6.340332e-01 -2.116896e-05 -2.217479e-05 5.106628e-05 -1.198426e-05 -8.824463e-01 -4.984131e-01
2.894481e+08 7.291870e-01 6.343994e-01 -2.883747e-05 -6.566942e-05 -1.585390e-05 4.350208e-06 -8.811646e-01 -4.978638e-01
2.896659e+08 7.284546e-01 6.364136e-01 -4.438218e-06 4.232395e-06 -1.859572e-05 -1.179334e-05 -8.806152e-01 -4.990234e-01
2.898838e+08 7.283325e-01 6.365356e-01 2.032146e-05 5.690381e-05 4.863366e-06 9.132549e-06 -8.801270e-01 -4.992065e-01
2.901016e+08 7.291870e-01 6.376953e-01 -1.088809e-05 1.912937e-06 -2.348050e-05 -2.092123e-05 -8.790894e-01 -4.986572e-01
2.903194e+08 7.290039e-01 6.386719e-01 8.876435e-06 -8.463394e-06 2.583303e-05 -4.366040e-06 -8.779907e-01 -4.987793e-01
2.905372e+08 7.292480e-01 6.383667e-01 3.932044e-05 -1.206622e-05 -8.097384e-06 -8.584000e-06 -8.768921e-01 -4.990234e-01
2.907550e+08 7.287598e-01 6.398926e-01 -7.838011e-06 -3.488734e-05 -9.357929e-06 2.316758e-05 -8.763428e-01 -4.988403e-01
2.909728e+08 7.291260e-01 6.401367e-01 1.289975e-05 4.641712e-06 1.647510e-06 9.683892e-06 -8.754883e-01 -4.992676e-01
2.911906e+08 7.296143e-01 6.413574e-01 -4.314631e-05 -9.708107e-06 -8.866191e-07 -2.476573e-05 -8.740845e-01 -4.997559e-01
2.914084e+08 7.297363e-01 6.421509e-01 -1.914334e-05 -1.564622e-05 4.327856e-06 5.909707e-06 -8.732910e-01 -5.000000e-01
2.916262e+08 7.291870e-01 6.434326e-01 -2.236664e-05 2.983771e-05 -3.257580e-05 3.837049e-06 -8.726196e-01 -4.989624e-01
2.918441e+08 7.301636e-01 6.436768e-01 7.074326e-06 -2.369471e-05 -2.249144e-05 -3.442727e-05 -8.717651e-01 -5.001831e-01
2.920619e+08 7.304688e-01 6.450806e-01 -2.176315e-05 3.816560e-06 -1.315773e-05 2.053287e-05 -8.702393e-01 -4.992676e-01
2.922797e+08 7.304688e-01 6.455078e-01 -1.031905e-06 4.331768e-05 3.458560e-05 2.741441e-05 -8.693237e-01 -5.000610e-01
2.924975e+08 7.299805e-01 6.459961e-01 6.252527e-05 1.667067e-05 -3.550015e-05 2.596900e-05 -8.695679e-01 -5.007324e-01
2.927153e+08 7.299805e-01 6.472168e-01 2.638437e-06 -1.944695e-05 1.994707e-05 -4.936010e-08 -8.676147e-01 -5.006714e-01
2.929331e+08 7.294922e-01 6.479492e-01 -4.652888e-06 1.289509e-05 8.063391e-06 -1.133513e-05 -8.666992e-01 -5.010376e-01
2.931509e+08 7.304077e-01 6.488037e-01 -1.572631e-05 2.347678e-05 2.187304e-05 1.127832e-05 -8.662720e-01 -5.002441e-01
2.933688e+08 7.306519e-01 6.491089e-01 -1.026131e-05 -2.408959e-05 -2.237037e-05 5.455688e-06 -8.650513e-01 -5.010986e-01
2.935866e+08 7.301025e-01 6.499634e-01 1.491141e-05 1.119915e-05 8.609146e-06 -8.111820e-06 -8.645630e-01 -5.010986e-01
2.938044e+08 7.304688e-01 6.510620e-01 -8.042902e-06 -2.621487e-05 2.566352e-05 1.396611e-05 -8.637085e-01 -5.014038e-01
2.940222e+08 7.307739e-01 6.520386e-01 -1.798384e-06 -1.521967e-05 -2.940930e-05 3.300607e-06 -8.626709e-01 -5.017700e-01
2.942400e+08 7.313232e-01 6.521606e-01 -1.310837e-05 4.019588e-06 1.102872e-05 -1.351908e-05 -8.619995e-01 -5.017090e-01
2.944578e+08 7.299805e-01 6.528320e-01 1.912750e-05 1.563970e-05 -1.109950e-05 -2.640299e-05 -8.609009e-01 -5.018921e-01
2.946756e+08 7.307739e-01 6.542358e-01 -2.603047e-05 -6.277114e-07 -4.754215e-05 -2.527609e-05 -8.612061e-01 -5.024414e-01
2.948934e+08 7.313843e-01 6.541138e-01 -4.375353e-05 1.627207e-05 -2.375431e-05 -2.635643e-06 -8.590088e-01 -5.026855e-01
2.951112e+08 7.310181e-01 6.553955e-01 1.792796e-06 1.522619e-05 -1.018681e-05 3.833883e-05 -8.584595e-01 -5.037842e-01
2.953291e+08 7.308350e-01 6.561279e-01 1.513120e-05 2.533197e-06 -2.297200e-05 -1.777150e-05 -8.583984e-01 -5.034790e-01
2.955469e+08 7.319946e-01 6.565552e-01 -3.182329e-05 -2.896972e-05 -1.921132e-05 -1.508184e-05 -8.570557e-01 -5.035400e-01
2.957647e+08 7.323608e-01 6.565552e-01 1.153536e-05 -2.790801e-05 -2.964167e-06 2.167653e-06 -8.559570e-01 -5.042725e-01
2.959825e+08 7.322998e-01 6.582642e-01 4.735216e-05 1.417100e-05 2.032146e-05 2.157129e-05 -8.551025e-01 -5.042725e-01
2.962003e+08 7.302856e-01 6.574707e-01 1.688022e-05 -1.597591e-05 -1.588603e-06 -2.677785e-06 -8.557129e-01 -5.072632e-01
2.964181e+08 7.308960e-01 6.581421e-01 4.122406e-05 -7.141382e-06 -1.643784e-05 3.331713e-05 -8.544922e-01 -5.053101e-01
2.966359e+08 7.309570e-01 6.587524e-01 2.650917e-05 6.867573e-06 -2.887473e-05 6.277114e-06 -8.536987e-01 -5.065918e-01
2.968538e+08 7.314453e-01 6.594849e-01 -2.583675e-05 -3.145821e-05 2.729148e-05 -8.972362e-06 -8.528442e-01 -5.061646e-01
2.970716e+08 7.315063e-01 6.592407e-01 -2.904981e-05 1.153909e-05 1.267344e-05 -2.746098e-05 -8.521118e-01 -5.070801e-01
2.972894e+08 7.313232e-01 6.602783e-01 2.439134e-05 8.832663e-06 -2.214313e-05 -6.766990e-06 -8.512573e-01 -5.067749e-01
2.975072e+08 7.308350e-01 6.608276e-01 1.262221e-05 -1.198985e-05 -5.476177e-06 -2.753176e-05 -8.505859e-01 -5.071411e-01
2.977250e+08 7.312012e-01 6.618042e-01 -1.096912e-05 2.640858e-05 -4.606321e-05 2.007186e-05 -8.497314e-01 -5.085449e-01
2.979428e+08 7.314453e-01 6.621704e-01 2.273172e-05 -5.558133e-06 -1.302455e-05 -1.583155e-05 -8.489380e-01 -5.087891e-01
2.981606e+08 7.319336e-01 6.625977e-01 -6.024539e-05 2.509728e-05 -5.863607e-06 -3.766734e-06 -8.482056e-01 -5.094604e-01
2.983784e+08 7.310791e-01 6.641846e-01 2.903864e-05 -1.157634e-05 5.433708e-05 -1.226366e-05 -8.475952e-01 -5.087891e-01
2.985962e+08 7.319336e-01 6.639404e-01 -2.838857e-05 -1.305714e-05 1.326576e-05 -3.871508e-05 -8.462524e-01 -5.090942e-01
2.988141e+08 7.313843e-01 6.644897e-01 -3.408454e-05 -3.169850e-05 -8.009374e-08 1.817476e-05 -8.458862e-01 -5.102539e-01
2.990319e+08 7.319336e-01 6.657104e-01 -2.252124e-05 -2.652407e-06 -1.054257e-05 1.893099e-05 -8.448486e-01 -5.110474e-01
2.992497e+08 7.315063e-01 6.660767e-01 -1.810398e-05 -1.482945e-05 -2.074614e-05 -6.562844e-05 -8.446655e-01 -5.101929e-01
2.994675e+08 7.321777e-01 6.668091e-01 3.347173e-05 -2.377294e-05 2.196617e-05 -5.759299e-06 -8.436279e-01 -5.112915e-01
2.996853e+08 7.326050e-01 6.665039e-01 4.543737e-05 -1.114607e-05 3.837049e-06 -7.298961e-05 -8.426514e-01 -5.112915e-01
2.999031e+08 7.321167e-01 6.674194e-01 1.305528e-05 -2.835132e-05 1.908187e-05 -1.674891e-05 -8.404541e-01 -5.117188e-01
3.001209e+08 7.329102e-01 6.680908e-01 -2.606027e-05 -2.327003e-05 6.164890e-06 -1.840759e-06 -8.409424e-01 -5.125122e-01
3.003388e+08 7.333374e-01 6.682739e-01 -2.174638e-07 8.204952e-06 -1.681410e-05 -9.984709e-06 -8.402710e-01 -5.130005e-01
3.005566e+08 7.331543e-01 6.688843e-01 -1.008809e-05 -6.423332e-06 6.868504e-06 1.769606e-05 -8.391724e-01 -5.140991e-01
3.007744e+08 7.332764e-01 6.690674e-01 -2.709404e-05 -6.232411e-05 8.959323e-06 2.733991e-05 -8.391113e-01 -5.149536e-01
3.009922e+08 7.334595e-01 6.697998e-01 -2.229027e-05 -1.087599e-05 6.071292e-06 1.635682e-05 -8.380737e-01 -5.157471e-01
3.012100e+08 7.329712e-01 6.706543e-01 3.334135e-06 2.883188e-05 2.267025e-05 1.377799e-05 -8.376465e-01 -5.154419e-01
3.014278e+08 7.335205e-01 6.708374e-01 2.506189e-05 -1.575612e-05 -1.163781e-05 2.323091e-05 -8.369141e-01 -5.165405e-01
3.016456e+08 7.338867e-01 6.708374e-01 -7.986557e-06 -8.425675e-06 4.837289e-05 2.031028e-05 -8.361816e-01 -5.164795e-01
3.018634e+08 7.336426e-01 6.715088e-01 2.119318e-05 5.188584e-05 3.574602e-05 2.962910e-05 -8.355713e-01 -5.169678e-01
3.020812e+08 7.344360e-01 6.724243e-01 -1.430511e-05 -2.440065e-06 2.266094e-05 -3.528222e-05 -8.345947e-01 -5.180054e-01
3.022991e+08 7.342529e-01 6.730347e-01 8.206349e-06 2.249144e-07 -1.432188e-05 2.485141e-05 -8.339844e-01 -5.189209e-01
3.025169e+08 7.344360e-01 6.730957e-01 4.713237e-05 3.289431e-06 -4.459172e-06 3.535300e-05 -8.336182e-01 -5.184937e-01
3.027347e+08 7.345581e-01 6.742554e-01 1.408253e-05 1.065433e-05 1.025479e-05 -1.335517e-05 -8.327026e-01 -5.200195e-01
3.029525e+08 7.345581e-01 6.737671e-01 -1.053605e-05 9.983778e-06 7.561408e-06 -1.175515e-05 -8.321533e-01 -5.202026e-01
3.031703e+08 7.339478e-01 6.743774e-01 -1.453049e-05 5.770475e-06 -9.357929e-06 -5.255267e-05 -8.318481e-01 -5.203857e-01
3.033881e+08 7.343750e-01 6.751099e-01 1.531839e-05 4.148111e-05 1.107343e-05 3.704801e-05 -8.313599e-01 -5.206299e-01
3.036059e+08 7.338867e-01 6.754761e-01 -4.217960e-06 3.992580e-06 5.679205e-06 -8.815434e-06 -8.301392e-01 -5.214844e-01
3.038238e+08 7.351685e-01 6.758423e-01 -2.604164e-05 -2.331287e-05 -1.286529e-05 -3.281981e-06 -8.289795e-01 -5.223389e-01
3.040416e+08 7.351685e-01 6.763916e-01 -2.328306e-06 1.020078e-05 1.924485e-05 1.405738e-05 -8.286743e-01 -5.218506e-01
3.042594e+08 7.350464e-01 6.768188e-01 -3.328174e-05 1.551770e-05 4.258379e-05 1.660734e-05 -8.279419e-01 -5.228271e-01
3.044772e+08 7.343140e-01 6.770630e-01 2.560206e-06 -1.840666e-05 1.999550e-06 -2.117828e-05 -8.270264e-01 -5.238037e-01
3.046950e+08 7.340698e-01 6.773071e-01 -2.693944e-05 9.553507e-06 -1.206063e-05 -1.949258e-06 -8.269043e-01 -5.233765e-01
3.049128e+08 7.342529e-01 6.784058e-01 -2.107397e-05 1.993589e-05 -5.496666e-06 2.143439e-05 -8.256226e-01 -5.246582e-01
3.051306e+08 7.362671e-01 6.785278e-01 4.488975e-07 -1.642294e-05 7.984345e-07 1.347275e-06 -8.259888e-01 -5.255127e-01
3.053484e+08 7.354126e-01 6.782837e-01 2.250634e-05 2.680346e-06 1.247227e-05 -2.192892e-05 -8.247070e-01 -5.267334e-01
3.055662e+08 7.351685e-01 6.783447e-01 -2.229959e-05 -1.086667e-05 -5.683675e-05 -9.980053e-06 -8.245850e-01 -5.266724e-01
3.057841e+08 7.357788e-01 6.792603e-01 4.527345e-05 -2.894551e-06 -1.825951e-05 -8.568168e-08 -8.244629e-01 -5.272217e-01
3.060019e+08 7.346191e-01 6.799316e-01 -4.943833e-05 6.835908e-06 -8.686446e-06 1.605321e-05 -8.225708e-01 -5.278320e-01
3.062197e+08 7.354736e-01 6.799316e-01 -1.407694e-05 -1.065433e-05 4.590722e-06 -4.537869e-06 -8.222656e-01 -5.286865e-01
3.064375e+08 7.351685e-01 6.797485e-01 1.220033e-06 3.085285e-05 -2.722070e-05 2.160296e-05 -8.228149e-01 -5.293579e-01
3.066553e+08 7.359009e-01 6.801147e-01 4.526973e-05 -2.831221e-06 -1.087040e-05 2.466142e-05 -8.213501e-01 -5.305176e-01
3.068731e+08 7.346191e-01 6.801758e-01 -1.318753e-05 -4.350021e-05 -1.555216e-05 -1.700595e-06 -8.212280e-01 -5.303955e-01
3.070909e+08 7.361450e-01 6.806030e-01 -4.879385e-05 -1.779944e-05 6.692484e-06 5.134847e-06 -8.202515e-01 -5.308838e-01
3.073088e+08 7.355347e-01 6.814575e-01 1.478940e-05 5.789474e-05 -2.576038e-05 -6.584451e-06 -8.193359e-01 -5.314941e-01
3.075266e+08 7.357178e-01 6.813965e-01 1.148880e-05 2.909824e-05 -6.580725e-06 2.576411e-05 -8.197021e-01 -5.327148e-01
3.077444e+08 7.356567e-01 6.817017e-01 1.898780e-05 -1.795311e-05 -9.786338e-06 2.037268e-05 -8.190308e-01 -5.322266e-01
3.079622e+08 7.350464e-01 6.827393e-01 1.920760e-05 -2.614968e-05 2.156943e-05 -1.277216e-05 -8.181152e-01 -5.330200e-01
3.081800e+08 7.361450e-01 6.828003e-01 4.459172e-06 -1.220312e-05 -1.629628e-05 -2.132729e-05 -8.181152e-01 -5.345459e-01
3.083978e+08 7.352905e-01 6.824951e-01 -2.794713e-05 -2.951920e-05 2.027676e-05 -2.112612e-05 -8.179932e-01 -5.339355e-01
3.086156e+08 7.359619e-01 6.828003e-01 -2.982281e-05 -3.575161e-05 1.479033e-05 3.539026e-07 -8.173828e-01 -5.348511e-01
3.088334e+08 7.361450e-01 6.831055e-01 -1.653098e-06 -1.442619e-05 1.749117e-05 -1.245178e-06 -8.167725e-01 -5.354614e-01
3.090512e+08 7.359619e-01 6.835327e-01 -8.211471e-06 -2.277084e-07 -2.079085e-05 1.414306e-05 -8.164673e-01 -5.357666e-01
3.092691e+08 7.351685e-01 6.844482e-01 -4.387274e-05 2.545863e-05 -5.446747e-05 -2.428889e-05 -8.156738e-01 -5.369263e-01
3.094869e+08 7.347412e-01 6.846313e-01 -2.017617e-05 -1.290441e-05 5.708262e-05 -8.240342e-06 -8.153687e-01 -5.373535e-01
3.097047e+08 7.357178e-01 6.851196e-01 -1.478568e-05 1.397263e-05 -3.461167e-05 -2.146885e-05 -8.146973e-01 -5.385132e-01
3.099225e+08 7.350464e-01 6.851196e-01 -1.054909e-05 9.980053e-06 -2.440251e-05 -1.656637e-05 -8.144531e-01 -5.381470e-01
3.101403e+08 7.348022e-01 6.853027e-01 -2.489612e-05 7.525086e-06 -1.319963e-05 2.342276e-06 -8.142700e-01 -5.395508e-01
3.103581e+08 7.354736e-01 6.859131e-01 -1.078937e-05 1.818500e-05 1.001265e-05 -7.753726e-06 -8.129272e-01 -5.402832e-01
3.105759e+08 7.347412e-01 6.856689e-01 1.807418e-05 1.490209e-05 7.611699e-06 -1.179799e-05 -8.129272e-01 -5.410767e-01
3.107938e+08 7.351685e-01 6.856689e-01 -4.463829e-06 1.220405e-05 1.990516e-05 2.808869e-06 -8.123169e-01 -5.418701e-01
3.110116e+08 7.354736e-01 6.864014e-01 -1.415610e-06 -2.265535e-05 2.623908e-05 -1.736730e-05 -8.120728e-01 -5.415649e-01
3.112294e+08 7.351685e-01 6.864014e-01 -1.807138e-05 -1.490489e-05 1.651514e-05 -1.524109e-05 -8.116455e-01 -5.422363e-01
3.114472e+08 7.346191e-01 6.870117e-01 8.218456e-06 2.337620e-07 -3.894232e-05 2.667680e-05 -8.113403e-01 -5.433350e-01
3.116650e+08 7.350464e-01 6.870117e-01 -3.056601e-06 3.487617e-05 1.401268e-05 -9.937212e-07 -8.111572e-01 -5.440674e-01
3.118828e+08 7.353516e-01 6.878662e-01 -2.419204e-05 -1.716428e-05 4.125759e-05 -4.338101e-06 -8.108521e-01 -5.449219e-01
3.121006e+08 7.357178e-01 6.871948e-01 -3.075227e-06 3.487244e-05 2.011657e-07 -3.664382e-05 -8.099976e-01 -5.451050e-01
3.123184e+08 7.347412e-01 6.879883e-01 -1.480244e-05 1.396798e-05 -3.787130e-05 2.240017e-05 -8.099976e-01 -5.452881e-01
3.125362e+08 7.351685e-01 6.877441e-01 1.640059e-06 1.444202e-05 6.318092e-06 -2.017524e-05 -8.093872e-01 -5.459595e-01
3.127541e+08 7.344971e-01 6.877441e-01 2.701394e-05 -9.521842e-06 -9.215903e-06 9.100884e-06 -8.094482e-01 -5.462646e-01
3.129719e+08 7.343140e-01 6.887817e-01 4.956499e-06 -2.866052e-05 2.514385e-05 -1.305714e-05 -8.089600e-01 -5.476074e-01
3.131897e+08 7.342529e-01 6.889648e-01 -5.569309e-05 4.541129e-06 -2.975948e-05 1.760945e-05 -8.086548e-01 -5.481567e-01
3.134075e+08 7.343750e-01 6.890869e-01 1.927651e-05 -2.619252e-05 -2.588145e-06 -1.673959e-05 -8.084106e-01 -5.480957e-01
3.136253e+08 7.336426e-01 6.898804e-01 -8.675456e-05 9.842217e-06 2.842396e-05 2.340227e-05 -8.084717e-01 -5.491333e-01
3.138431e+08 7.340088e-01 6.891479e-01 2.163835e-05 -3.642961e-05 2.516247e-05 -1.305901e-05 -8.080444e-01 -5.493164e-01
3.140609e+08 7.341309e-01 6.898804e-01 -3.280118e-06 -2.891198e-05 -8.501112e-06 -2.056640e-05 -8.075562e-01 -5.501099e-01
3.142788e+08 7.331543e-01 6.890869e-01 7.504597e-06 2.490729e-05 7.931143e-06 -1.746882e-05 -8.067627e-01 -5.502930e-01
3.144966e+08 7.336426e-01 6.896362e-01 4.958361e-06 -2.869032e-05 -3.629364e-06 1.858640e-05 -8.073120e-01 -5.513306e-01
3.147144e+08 7.332764e-01 6.906128e-01 5.896017e-05 2.440065e-05 2.758205e-05 -8.996576e-06 -8.062134e-01 -5.519409e-01
3.149322e+08 7.338257e-01 6.910400e-01 -2.829358e-06 2.669357e-05 -2.015475e-05 -1.551490e-05 -8.068237e-01 -5.522461e-01
3.151500e+08 7.328491e-01 6.910400e-01 -4.710630e-06 2.045743e-05 9.872019e-07 -6.637722e-05 -8.065186e-01 -5.531006e-01
3.153678e+08 7.329712e-01 6.909790e-01 -3.948063e-05 -5.879253e-05 -6.219838e-06 1.848210e-06 -8.059082e-01 -5.532837e-01
3.155856e+08 7.324219e-01 6.911621e-01 -9.648502e-07 3.292784e-05 -1.440756e-05 -2.438948e-05 -8.051758e-01 -5.543823e-01
3.158034e+08 7.320557e-01 6.918945e-01 1.458358e-05 -5.747192e-06 -1.711771e-05 -2.279319e-05 -8.043823e-01 -5.548096e-01
3.160212e+08 7.321777e-01 6.916504e-01 2.211146e-05 1.918152e-05 -3.892928e-05 8.353963e-06 -8.051147e-01 -5.552368e-01
3.162391e+08 7.320557e-01 6.914062e-01 1.623761e-05 8.712523e-06 -3.227964e-05 -1.747906e-05 -8.051147e-01 -5.559082e-01
3.164569e+08 7.321777e-01 6.923828e-01 2.375804e-05 3.367476e-05 -1.503434e-05 -1.306459e-05 -8.046875e-01 -5.563965e-01
3.166747e+08 7.315674e-01 6.933594e-01 -1.503527e-05 -4.989281e-05 -2.893619e-06 -1.109671e-05 -8.038940e-01 -5.567627e-01
3.168925e+08 7.310791e-01 6.927490e-01 -2.870895e-05 -4.984438e-06 1.244433e-05 -3.691763e-06 -8.035889e-01 -5.582275e-01
3.171103e+08 7.311401e-01 6.934204e-01 -2.634525e-05 -1.520105e-05 -2.040528e-06 2.132356e-05 -8.035889e-01 -5.577393e-01
3.173281e+08 7.319336e-01 6.934814e-01 3.083795e-05 2.954155e-06 -2.220273e-06 8.631963e-06 -8.037720e-01 -5.584717e-01
3.175459e+08 7.316284e-01 6.932983e-01 -1.101196e-05 -4.566088e-05 8.080527e-05 -5.688518e-06 -8.026733e-01 -5.586548e-01
3.177638e+08 7.301636e-01 6.937256e-01 -2.374314e-05 -3.367476e-05 -2.440438e-05 1.439452e-05 -8.026123e-01 -5.592651e-01
3.179816e+08 7.304077e-01 6.942749e-01 1.449138e-06 -4.946813e-05 -1.109950e-05 4.313886e-05 -8.031616e-01 -5.603027e-01
3.181994e+08 7.300415e-01 6.945190e-01 -4.658848e-05 -2.820790e-05 4.755333e-05 -3.719702e-05 -8.026733e-01 -5.604858e-01
3.184172e+08 7.297363e-01 6.940308e-01 -4.872680e-06 -4.344434e-05 2.138782e-05 -7.142313e-06 -8.019409e-01 -5.612793e-01
3.186350e+08 7.291260e-01 6.947632e-01 1.794845e-05 -4.896149e-05 -1.773331e-05 -1.148414e-05 -8.016968e-01 -5.616455e-01
3.188528e+08 7.298584e-01 6.950684e-01 -1.224596e-05 -4.488975e-06 3.065914e-05 -1.627021e-05 -8.019409e-01 -5.618896e-01
3.190706e+08 7.287598e-01 6.952515e-01 4.122779e-05 1.244247e-06 5.844980e-05 -1.252815e-05 -8.016357e-01 -5.631104e-01
3.192884e+08 7.288818e-01 6.953735e-01 8.007046e-06 8.489005e-06 1.677312e-05 -2.579764e-06 -8.021851e-01 -5.623169e-01
3.195062e+08 7.285156e-01 6.956177e-01 -3.680214e-05 5.869940e-05 -2.235174e-07 -4.377589e-05 -8.007202e-01 -5.632324e-01
3.197241e+08 7.279053e-01 6.960449e-01 -9.465963e-06 4.100055e-05 3.626384e-05 -6.739050e-06 -8.014526e-01 -5.638428e-01
3.199419e+08 7.270508e-01 6.953735e-01 2.850592e-05 1.324154e-05 -3.727153e-06 -4.348904e-05 -8.012085e-01 -5.645752e-01
3.201597e+08 7.280884e-01 6.967163e-01 4.982576e-07 -1.649931e-05 2.443604e-05 -1.442432e-05 -8.007202e-01 -5.655518e-01
3.203775e+08 7.277832e-01 6.968384e-01 -5.490333e-05 -2.842769e-05 -1.005968e-05 7.767696e-06 -8.010864e-01 -5.649414e-01
3.205953e+08 7.261353e-01 6.977539e-01 -2.115220e-05 -5.228817e-05 1.293980e-05 -2.772547e-05 -8.010254e-01 -5.665894e-01
3.208131e+08 7.267456e-01 6.975708e-01 3.086776e-05 2.965331e-06 2.264977e-06 2.245419e-05 -8.001099e-01 -5.653687e-01
3.210309e+08 7.254028e-01 6.970215e-01 -6.373972e-06 6.007496e-06 -2.031028e-05 -2.823770e-05 -8.005981e-01 -5.667725e-01
3.212488e+08 7.258911e-01 6.975098e-01 -2.853572e-05 -1.324154e-05 -2.380461e-05 3.067777e-06 -8.005371e-01 -5.672607e-01
3.214666e+08 7.257080e-01 6.981201e-01 -2.449378e-07 8.263625e-06 2.718903e-05 1.506135e-05 -8.003540e-01 -5.682983e-01
3.216844e+08 7.254639e-01 6.983643e-01 3.154576e-05 5.052239e-05 7.343479e-06 -6.162561e-06 -7.996216e-01 -5.682983e-01
3.219022e+08 7.254639e-01 6.986694e-01 8.505303e-06 -8.007046e-06 -3.578514e-05 1.379848e-05 -7.991333e-01 -5.684204e-01
3.221200e+08 7.246704e-01 6.992798e-01 -1.341291e-05 -3.552623e-05 4.316680e-06 1.115026e-06 -7.990723e-01 -5.686035e-01
3.223378e+08 7.239990e-01 6.998291e-01 6.379094e-06 -6.011687e-06 9.898096e-06 -2.046674e-05 -7.988892e-01 -5.694580e-01
3.225556e+08 7.245483e-01 6.995850e-01 3.066100e-05 1.121871e-05 -8.568168e-07 -3.245100e-05 -7.989502e-01 -5.686035e-01
3.227734e+08 7.232666e-01 7.003174e-01 6.768852e-06 4.981458e-05 2.522767e-05 -4.413351e-05 -7.987061e-01 -5.697632e-01
3.229912e+08 7.226562e-01 7.005615e-01 -2.928451e-05 1.151860e-05 -1.201034e-05 -5.144253e-05 -7.982788e-01 -5.704956e-01
3.232091e+08 7.230225e-01 7.006836e-01 -2.193823e-05 -2.753362e-05 -5.278736e-06 -1.519267e-05 -7.987061e-01 -5.704956e-01
3.234269e+08 7.231445e-01 7.010498e-01 4.158914e-05 -7.037073e-06 -6.397069e-05 -1.539290e-05 -7.985229e-01 -5.714722e-01
3.236447e+08 7.225952e-01 7.014771e-01 -5.336106e-05 -1.403317e-05 3.565848e-05 4.626811e-06 -7.980347e-01 -5.717163e-01
3.238625e+08 7.219849e-01 7.017822e-01 -1.391955e-05 -1.903810e-05 2.973340e-05 8.046627e-07 -7.984009e-01 -5.718994e-01
3.240803e+08 7.213745e-01 7.019043e-01 -3.893860e-05 -1.152605e-05 2.045650e-05 9.911135e-06 -7.970581e-01 -5.723877e-01
3.242981e+08 7.213745e-01 7.028198e-01 -5.001947e-05 -5.735829e-05 -2.110656e-05 1.437962e-06 -7.976685e-01 -5.723877e-01
3.245159e+08 7.205200e-01 7.031250e-01 -3.080443e-05 6.118044e-05 -4.174188e-06 4.267320e-05 -7.979736e-01 -5.727539e-01
3.247338e+08 7.197876e-01 7.022095e-01 7.025898e-06 4.158542e-05 -6.546266e-06 7.508323e-06 -7.968750e-01 -5.729980e-01
3.249516e+08 7.203369e-01 7.035522e-01 1.366436e-05 2.731942e-05 1.729839e-05 3.555976e-05 -7.971802e-01 -5.734863e-01
3.251694e+08 7.203369e-01 7.047119e-01 6.624497e-06 -1.429301e-05 -1.432374e-06 4.111975e-05 -7.973633e-01 -5.733643e-01
3.253872e+08 7.194824e-01 7.045898e-01 3.624707e-06 -5.164370e-05 2.548099e-06 -4.541874e-05 -7.968750e-01 -5.740967e-01
3.256050e+08 7.186279e-01 7.044067e-01 -2.908707e-05 3.242865e-06 -5.912501e-06 -3.835652e-06 -7.963257e-01 -5.750122e-01
3.258228e+08 7.190552e-01 7.057495e-01 2.131425e-05 -2.007373e-05 5.055591e-05 -2.606958e-05 -7.968750e-01 -5.750122e-01
3.260406e+08 7.185059e-01 7.050171e-01 -4.759058e-06 2.055801e-05 1.565926e-05 -2.933480e-05 -7.961426e-01 -5.751343e-01
3.262584e+08 7.175903e-01 7.055664e-01 -1.366623e-05 -2.733245e-05 -3.819913e-05 9.655952e-06 -7.960815e-01 -5.750732e-01
3.264762e+08 7.181396e-01 7.061768e-01 -4.014745e-05 -4.266202e-05 -2.718996e-06 1.600012e-06 -7.963257e-01 -5.761108e-01
3.266941e+08 7.172852e-01 7.067871e-01 -2.458692e-05 -9.028241e-06 2.074987e-06 9.754673e-06 -7.960205e-01 -5.758057e-01
3.269119e+08 7.167969e-01 7.070923e-01 3.689341e-05 1.353398e-05 4.652888e-05 -1.762062e-06 -7.958374e-01 -5.764160e-01
3.271297e+08 7.159424e-01 7.072144e-01 -3.901869e-05 -1.153536e-05 -1.086760e-05 6.388407e-06 -7.955933e-01 -5.761108e-01
3.273475e+08 7.162476e-01 7.075806e-01 4.267786e-06 -4.013767e-06 -1.391675e-05 1.366716e-05 -7.947388e-01 -5.770264e-01
3.275653e+08 7.150269e-01 7.080688e-01 2.858974e-05 1.330487e-05 6.720424e-06 -2.589077e-05 -7.941284e-01 -5.771484e-01
3.277831e+08 7.159424e-01 7.078857e-01 6.765127e-06 4.998222e-05 2.272427e-06 5.354732e-05 -7.947998e-01 -5.778198e-01
3.280009e+08 7.152100e-01 7.087402e-01 -1.393259e-06 -2.284907e-05 -3.358349e-06 -1.815148e-05 -7.947388e-01 -5.771484e-01
3.282188e+08 7.136230e-01 7.091064e-01 5.401671e-05 -2.529472e-06 -3.834628e-05 -3.412925e-05 -7.947388e-01 -5.779419e-01
3.284366e+08 7.144165e-01 7.097778e-01 4.495680e-05 2.209470e-05 2.048165e-05 -2.117734e-05 -7.941284e-01 -5.782471e-01
3.286544e+08 7.139893e-01 7.100220e-01 2.009794e-05 2.133101e-05 -8.065253e-07 2.973713e-05 -7.941895e-01 -5.774536e-01
3.288722e+08 7.137451e-01 7.107544e-01 -2.413429e-05 -2.564676e-05 -2.862699e-05 -5.129725e-06 -7.942505e-01 -5.791626e-01
3.290900e+08 7.138062e-01 7.106323e-01 1.343526e-05 3.571995e-05 -3.045425e-06 -2.382882e-05 -7.942505e-01 -5.792847e-01
3.293078e+08 7.125854e-01 7.121582e-01 1.205038e-05 1.283269e-05 -2.786331e-05 2.732500e-05 -7.933350e-01 -5.795288e-01
3.295256e+08 7.122192e-01 7.122803e-01 9.652227e-06 2.312288e-05 3.593788e-05 3.007986e-05 -7.927856e-01 -5.790405e-01
3.297434e+08 7.117310e-01 7.128296e-01 1.946837e-05 -2.639741e-05 -3.085658e-05 3.470108e-06 -7.932129e-01 -5.788574e-01
3.299612e+08 7.116089e-01 7.127075e-01 -5.643815e-06 -1.885090e-05 8.348376e-06 -5.424768e-05 -7.926636e-01 -5.796509e-01
3.301791e+08 7.116089e-01 7.126465e-01 4.529953e-06 -1.231954e-05 1.136586e-05 -3.043003e-05 -7.928467e-01 -5.800781e-01
3.303969e+08 7.111206e-01 7.130737e-01 8.174032e-05 4.401803e-05 -7.269159e-05 -3.038347e-05 -7.929077e-01 -5.798950e-01
3.306147e+08 7.107544e-01 7.144165e-01 2.061762e-05 4.773960e-06 -3.596954e-05 1.015142e-06 -7.922363e-01 -5.800171e-01
3.308325e+08 7.105103e-01 7.145996e-01 4.552305e-05 5.517155e-06 -5.315989e-06 4.698336e-05 -7.924805e-01 -5.800171e-01
3.310503e+08 7.102051e-01 7.152710e-01 7.539988e-06 2.517551e-05 4.640780e-06 -4.552538e-06 -7.922974e-01 -5.809937e-01
3.312681e+08 7.093506e-01 7.161865e-01 8.642673e-07 3.948808e-05 -4.045665e-05 1.826510e-05 -7.916870e-01 -5.806274e-01
3.314859e+08 7.094727e-01 7.164917e-01 -3.962964e-05 5.021691e-06 -1.342222e-05 -1.039915e-05 -7.913818e-01 -5.806885e-01
3.317038e+08 7.086182e-01 7.174072e-01 -2.386980e-06 1.031067e-05 -2.746098e-05 -4.054978e-05 -7.908325e-01 -5.806885e-01
3.319216e+08 7.086182e-01 7.171631e-01 -3.204681e-05 3.019534e-05 -2.701022e-05 -2.402812e-06 -7.908325e-01 -5.800171e-01
3.321394e+08 7.079468e-01 7.182007e-01 5.850196e-05 5.789846e-05 -6.384682e-06 -1.087552e-05 -7.908325e-01 -5.811157e-01
3.323572e+08 7.079468e-01 7.185059e-01 -2.756715e-05 1.787394e-05 3.516208e-06 -2.372544e-07 -7.905884e-01 -5.812988e-01
3.325750e+08 7.074585e-01 7.185059e-01 3.134087e-05 -5.299225e-06 -4.217401e-05 -2.822466e-05 -7.904663e-01 -5.810547e-01
3.327928e+08 7.067871e-01 7.193604e-01 2.681650e-05 7.042661e-06 6.109476e-06 -4.560500e-05 -7.904663e-01 -5.811768e-01
3.330106e+08 7.067261e-01 7.197876e-01 -5.444512e-05 1.078099e-05 5.355850e-05 -3.324822e-05 -7.904663e-01 -5.822144e-01
3.332284e+08 7.061157e-01 7.208862e-01 6.424263e-06 -6.038696e-06 3.019720e-05 7.886440e-06 -7.892456e-01 -5.817261e-01
3.334462e+08 7.056885e-01 7.212524e-01 1.398567e-05 1.915451e-05 7.502735e-06 6.564427e-06 -7.894897e-01 -5.819702e-01
3.336641e+08 7.056885e-01 7.219849e-01 1.886394e-06 6.299466e-06 -3.213435e-05 -4.921108e-06 -7.886353e-01 -5.822144e-01
3.338819e+08 7.053833e-01 7.222290e-01 8.948147e-06 4.812703e-05 -2.817065e-05 3.296323e-05 -7.885132e-01 -5.817261e-01
3.340997e+08 7.054443e-01 7.229614e-01 1.020916e-05 6.563030e-06 -3.180653e-05 -1.059659e-05 -7.885742e-01 -5.826416e-01
3.343175e+08 7.050171e-01 7.233887e-01 -4.187971e-05 7.007271e-06 2.030469e-05 -2.766959e-06 -7.881470e-01 -5.831299e-01
3.345353e+08 7.039185e-01 7.236938e-01 1.071487e-05 -1.007412e-05 7.871538e-06 -3.018230e-05 -7.872314e-01 -5.824585e-01
3.347531e+08 7.033691e-01 7.244873e-01 2.142508e-06 -2.016546e-06 -5.163252e-06 2.858415e-05 -7.871094e-01 -5.823975e-01
3.349709e+08 7.030029e-01 7.257080e-01 -3.089197e-05 -1.136586e-05 -4.386529e-05 -4.371256e-05 -7.869263e-01 -5.834351e-01
3.351888e+08 7.032471e-01 7.254639e-01 1.071859e-05 -1.007598e-05 -2.862886e-06 -1.110975e-05 -7.861328e-01 -5.831909e-01
3.354066e+08 7.030640e-01 7.269287e-01 6.947666e-06 -2.269261e-05 4.976057e-06 -1.022406e-05 -7.860107e-01 -5.834351e-01
3.356244e+08 7.026978e-01 7.266846e-01 -1.879316e-05 1.505949e-06 2.390705e-06 4.075468e-06 -7.858887e-01 -5.836182e-01
3.358422e+08 7.026367e-01 7.274780e-01 -2.257712e-05 -1.111999e-05 1.978036e-05 2.127141e-05 -7.857056e-01 -5.837402e-01
3.360600e+08 7.020264e-01 7.282715e-01 1.236517e-05 4.541129e-06 -1.916848e-05 -1.556240e-06 -7.854004e-01 -5.836182e-01
3.362778e+08 7.018433e-01 7.288818e-01 4.327297e-05 1.594052e-05 -4.996359e-05 -2.917647e-05 -7.849731e-01 -5.839844e-01
3.364956e+08 7.013550e-01 7.294312e-01 2.552196e-05 -1.590140e-05 2.784654e-06 4.216656e-05 -7.855835e-01 -5.843506e-01
3.367134e+08 7.009888e-01 7.300415e-01 2.796389e-05 3.841706e-05 -1.452118e-05 -6.100163e-06 -7.843018e-01 -5.841675e-01
3.369312e+08 7.012939e-01 7.308350e-01 -2.607703e-07 8.331612e-06 -3.834255e-05 -3.091991e-06 -7.839966e-01 -5.842896e-01
3.371491e+08 7.011108e-01 7.308350e-01 -1.743063e-05 2.447888e-05 2.318621e-05 -2.273172e-05 -7.836914e-01 -5.835571e-01
3.373669e+08 7.001343e-01 7.317505e-01 -8.082017e-06 -8.592848e-06 -2.950802e-05 -1.919456e-05 -7.839966e-01 -5.841675e-01
3.375847e+08 7.006836e-01 7.328491e-01 2.362952e-05 -2.222508e-05 -3.669411e-05 -3.145635e-05 -7.836914e-01 -5.839844e-01
3.378025e+08 7.001343e-01 7.321167e-01 -3.468990e-05 -2.400018e-05 9.879470e-06 1.063757e-05 -7.819214e-01 -5.838623e-01
3.380203e+08 6.996460e-01 7.335205e-01 1.856871e-05 6.850809e-06 -8.886680e-06 -2.765283e-05 -7.823486e-01 -5.853271e-01
3.382381e+08 6.998901e-01 7.343750e-01 -4.389510e-05 -6.384775e-05 -5.597249e-05 2.914295e-05 -7.814331e-01 -5.831909e-01
3.384559e+08 6.997070e-01 7.348633e-01 -2.369285e-05 -4.247203e-05 -1.233909e-05 1.634844e-05 -7.810669e-01 -5.845337e-01
3.386738e+08 6.989746e-01 7.360840e-01 -4.037283e-06 -4.292699e-06 -1.823716e-05 1.251232e-05 -7.802124e-01 -5.839844e-01
3.388916e+08 6.989746e-01 7.361450e-01 5.664304e-06 1.896732e-05 -5.271286e-07 2.403930e-05 -7.805176e-01 -5.850220e-01
3.391094e+08 6.986694e-01 7.374268e-01 -1.832191e-05 -1.518428e-05 -3.064610e-05 -1.493655e-05 -7.805176e-01 -5.847168e-01
3.393272e+08 6.983643e-01 7.378540e-01 -1.427252e-05 -1.087878e-05 -2.891943e-05 4.936010e-07 -7.790527e-01 -5.845337e-01
3.395450e+08 6.984863e-01 7.389526e-01 -2.020784e-05 -2.150051e-05 -3.065355e-05 -1.494586e-05 -7.787476e-01 -5.848999e-01
3.397628e+08 6.981201e-01 7.394409e-01 -3.174879e-05 1.364388e-05 1.847744e-06 -4.675984e-05 -7.789307e-01 -5.855103e-01
3.399806e+08 6.977539e-01 7.395630e-01 -3.471598e-05 4.069507e-05 2.142508e-05 -7.067807e-06 -7.785645e-01 -5.854492e-01
3.401984e+08 6.976929e-01 7.395630e-01 1.911074e-05 -9.849668e-06 -5.476922e-05 -6.247312e-06 -7.779541e-01 -5.855103e-01
3.404162e+08 6.972656e-01 7.409668e-01 -2.100691e-05 3.514811e-06 -1.652539e-05 2.791360e-05 -7.772827e-01 -5.858765e-01
3.406341e+08 6.971436e-01 7.418823e-01 -1.774728e-05 3.289245e-05 1.644902e-05 3.154390e-06 -7.774048e-01 -5.858765e-01
3.408519e+08 6.968994e-01 7.421265e-01 -5.576760e-05 -2.053380e-05 -7.162802e-06 -1.223665e-05 -7.762451e-01 -5.853882e-01
3.410697e+08 6.973877e-01 7.425537e-01 -4.848093e-05 1.307577e-05 -1.054676e-05 6.980263e-07 -7.754517e-01 -5.861816e-01
3.412875e+08 6.965942e-01 7.445068e-01 -2.048910e-05 -1.318939e-05 -2.339482e-05 -3.379397e-05 -7.753296e-01 -5.861206e-01
3.415053e+08 6.967163e-01 7.436523e-01 8.083414e-06 8.616131e-06 -3.650784e-06 -1.246762e-05 -7.743530e-01 -5.862427e-01
3.417231e+08 6.964111e-01 7.442017e-01 -6.736256e-06 1.442898e-05 1.073815e-05 -1.905113e-05 -7.747192e-01 -5.874023e-01
3.419409e+08 6.961060e-01 7.451172e-01 -1.105014e-05 1.847558e-05 4.619360e-07 7.026363e-06 -7.742920e-01 -5.869141e-01
3.421588e+08 6.961060e-01 7.470703e-01 -2.560765e-05 1.589954e-05 -2.168119e-06 -2.246350e-05 -7.731934e-01 -5.868530e-01
3.423766e+08 6.961670e-01 7.468872e-01 -2.860650e-05 -2.178922e-05 -1.531281e-05 -7.466413e-06 -7.734985e-01 -5.859375e-01
3.425944e+08 6.956787e-01 7.474365e-01 -2.506934e-05 -8.009374e-07 1.790561e-05 -6.822869e-06 -7.719727e-01 -5.869141e-01
3.428122e+08 6.956177e-01 7.478638e-01 -1.025107e-05 -6.602146e-06 -6.234739e-06 1.818407e-06 -7.720947e-01 -5.869141e-01
3.430300e+08 6.954956e-01 7.488403e-01 -2.912804e-05 -5.101785e-06 -6.067380e-05 -1.018494e-05 -7.714233e-01 -5.869141e-01
3.432478e+08 6.948242e-01 7.494507e-01 1.354143e-06 2.305582e-05 1.292303e-05 4.714727e-05 -7.706299e-01 -5.872192e-01
3.434656e+08 6.959229e-01 7.492676e-01 -6.742403e-05 1.463294e-05 -3.447942e-05 -9.024516e-06 -7.706299e-01 -5.869141e-01
3.436834e+08 6.961670e-01 7.508545e-01 -3.777072e-05 2.965331e-06 1.959689e-05 -3.519841e-05 -7.700195e-01 -5.874023e-01
3.439012e+08 6.951904e-01 7.514038e-01 4.966557e-05 1.829863e-05 -9.996817e-06 -2.334826e-05 -7.698364e-01 -5.870972e-01
3.441191e+08 6.956787e-01 7.517700e-01 8.363277e-06 2.700835e-07 3.674440e-05 4.172325e-07 -7.687378e-01 -5.874023e-01
3.443369e+08 6.954346e-01 7.521973e-01 -9.685755e-06 4.159287e-05 1.943856e-05 -4.788116e-05 -7.692871e-01 -5.874023e-01
3.445547e+08 6.949463e-01 7.538452e-01 2.024323e-05 2.159178e-05 2.264511e-06 -8.623581e-06 -7.675171e-01 -5.881348e-01
3.447725e+08 6.950684e-01 7.546387e-01 -8.318573e-06 6.464124e-05 4.988629e-06 -1.021102e-05 -7.674561e-01 -5.877075e-01
3.449903e+08 6.949463e-01 7.548218e-01 7.016584e-06 -2.280436e-05 4.412606e-06 -2.994388e-05 -7.664795e-01 -5.883179e-01
3.452081e+08 6.951904e-01 7.547607e-01 -1.969188e-05 2.658926e-05 -1.383014e-06 -2.109073e-05 -7.652588e-01 -5.883179e-01
3.454259e+08 6.956177e-01 7.550659e-01 1.162477e-05 -3.524683e-05 -4.025735e-05 -1.732260e-07 -7.650146e-01 -5.894165e-01
3.456438e+08 6.951294e-01 7.569580e-01 -3.724918e-05 -1.374260e-05 2.642721e-05 -1.726858e-05 -7.643433e-01 -5.878296e-01
3.458616e+08 6.951904e-01 7.573853e-01 1.727417e-05 -1.622085e-05 -7.281080e-06 -2.495758e-05 -7.644653e-01 -5.886230e-01
3.460794e+08 6.945190e-01 7.578125e-01 -1.540594e-05 2.254918e-05 -1.338683e-05 -1.042895e-05 -7.633057e-01 -5.895386e-01
3.462972e+08 6.953735e-01 7.583008e-01 -3.186055e-05 1.365133e-05 1.745857e-05 -1.386181e-05 -7.626953e-01 -5.889282e-01
3.465150e+08 6.945801e-01 7.595825e-01 3.781915e-05 -2.944842e-06 -1.473818e-06 9.984244e-06 -7.617798e-01 -5.899658e-01
3.467328e+08 6.956177e-01 7.600708e-01 8.105300e-06 8.646399e-06 -3.631599e-05 6.625429e-06 -7.614746e-01 -5.899048e-01
3.469506e+08 6.953735e-01 7.606812e-01 -2.242997e-05 -1.959130e-05 -5.443580e-06 3.184425e-06 -7.607422e-01 -5.898438e-01
3.471684e+08 6.953735e-01 7.605591e-01 -1.639128e-06 5.028769e-05 3.078207e-05 2.765656e-05 -7.604980e-01 -5.902710e-01
3.473862e+08 6.961060e-01 7.613525e-01 -2.381764e-05 2.229773e-05 5.279481e-05 -3.460795e-06 -7.598877e-01 -5.905762e-01
3.476041e+08 6.960449e-01 7.626953e-01 4.861504e-06 -2.081133e-05 2.783537e-05 3.848225e-06 -7.593994e-01 -5.896606e-01
3.478219e+08 6.960449e-01 7.630005e-01 -1.323968e-05 -4.446879e-05 1.147110e-05 1.339056e-05 -7.587891e-01 -5.901489e-01
3.480397e+08 6.956177e-01 7.642212e-01 -6.191805e-05 -3.137812e-05 4.886650e-06 2.089329e-05 -7.583008e-01 -5.903320e-01
3.482575e+08 6.956177e-01 7.646484e-01 -5.327165e-07 -4.826486e-05 1.657102e-05 1.589861e-05 -7.574463e-01 -5.906982e-01
3.484753e+08 6.967773e-01 7.646484e-01 -1.621060e-05 -1.730956e-05 3.863871e-05 2.859160e-05 -7.565308e-01 -5.910645e-01
3.486931e+08 6.958618e-01 7.655640e-01 1.376122e-05 2.770871e-05 3.404915e-06 3.087893e-05 -7.554932e-01 -5.911255e-01
3.489109e+08 6.964111e-01 7.661743e-01 6.495044e-06 -6.081536e-06 -4.816055e-05 -1.147389e-06 -7.553101e-01 -5.919189e-01
3.491288e+08 6.968994e-01 7.664795e-01 3.570318e-05 -8.940697e-07 -1.591630e-06 -2.725865e-06 -7.540894e-01 -5.921631e-01
3.493466e+08 6.967163e-01 7.669678e-01 -1.783855e-05 -3.206730e-05 -2.474897e-05 3.272109e-05 -7.543335e-01 -5.916138e-01
3.495644e+08 6.972046e-01 7.681274e-01 5.490705e-05 -1.077354e-05 1.918711e-05 -4.228577e-05 -7.530518e-01 -5.919189e-01
3.497822e+08 6.962280e-01 7.690430e-01 1.950096e-05 -1.824368e-05 8.975156e-06 -3.406312e-06 -7.528687e-01 -5.930786e-01
3.500000e+08 6.963501e-01 7.697754e-01 7.824041e-06 1.704693e-05 -6.011687e-06 -1.659058e-05 -7.519531e-01 -5.928345e-01
